/var/spool/slurmd/job07650/slurm_script: line 11: !#SBATCH: command not found
real-time non-blocking time  (microseconds, -R) unlimited
core file size              (blocks, -c) unlimited
data seg size               (kbytes, -d) unlimited
scheduling priority                 (-e) 0
file size                   (blocks, -f) unlimited
pending signals                     (-i) 505933
max locked memory           (kbytes, -l) unlimited
max memory size             (kbytes, -m) 114688000
open files                          (-n) 1024
pipe size                (512 bytes, -p) 8
POSIX message queues         (bytes, -q) 819200
real-time priority                  (-r) 0
stack size                  (kbytes, -s) unlimited
cpu time                   (seconds, -t) unlimited
max user processes                  (-u) 125621
virtual memory              (kbytes, -v) unlimited
file locks                          (-x) unlimited
 running   28 mpi-ranks, with    1 threads/rank, on    1 nodes
 distrk:  each k-point on   28 cores,    1 groups
 distr:  one band on    7 cores,    4 groups
 vasp.6.5.1 10Mar25 (build Feb 13 2026 23:13:13) complex                        
  
 POSCAR found type information on POSCAR C N 
 POSCAR found :  2 types and     215 ions
 -----------------------------------------------------------------------------
|                                                                             |
|           W    W    AA    RRRRR   N    N  II  N    N   GGGG   !!!           |
|           W    W   A  A   R    R  NN   N  II  NN   N  G    G  !!!           |
|           W    W  A    A  R    R  N N  N  II  N N  N  G       !!!           |
|           W WW W  AAAAAA  RRRRR   N  N N  II  N  N N  G  GGG   !            |
|           WW  WW  A    A  R   R   N   NN  II  N   NN  G    G                |
|           W    W  A    A  R    R  N    N  II  N    N   GGGG   !!!           |
|                                                                             |
|     You requested a magnetic or noncollinear calculation, but did not       |
|     specify the initial magnetic moment with the MAGMOM tag. Note that      |
|     a default of 9.302e-3 will be used for all atoms. This                  |
|     ferromagnetic setup may break the symmetry of the crystal, in           |
|     particular it may rule out finding an antiferromagnetic solution.       |
|     Thence, we recommend setting the initial magnetic moment manually       |
|     or verifying carefully that this magnetic setup is desired.             |
|                                                                             |
 -----------------------------------------------------------------------------

 scaLAPACK will be used
 LDA part: xc-table for (Slater+PW92), standard interpolation
 POSCAR, INCAR and KPOINTS ok, starting setup
 FFT: planning ... GRIDC
 FFT: planning ... GRID_SOFT
 FFT: planning ... GRID
 WAVECAR not read
 entering main loop
       N       E                     dE             d eps       ncg     rms          rms(c)
DAV:   1     0.295905488354E+04    0.29591E+04   -0.45410E+05  2160   0.153E+03
DAV:   2    -0.174386201060E+04   -0.47029E+04   -0.45077E+04  2624   0.298E+02
DAV:   3    -0.199524564920E+04   -0.25138E+03   -0.24889E+03  2592   0.668E+01
DAV:   4    -0.200184000834E+04   -0.65944E+01   -0.65754E+01  2648   0.105E+01
DAV:   5    -0.200201625488E+04   -0.17625E+00   -0.17596E+00  2600   0.171E+00BRMIX: very serious problems
 the old and the new charge density differ
 old charge density:   861.00000 new  861.99988
    0.578E+01
DAV:   6    -0.194981093859E+04    0.52205E+02   -0.41536E+01  2496   0.863E+00    0.344E+01
DAV:   7    -0.193283797504E+04    0.16973E+02   -0.49709E+01  2496   0.929E+00    0.837E+00
DAV:   8    -0.193310630958E+04   -0.26833E+00   -0.18997E+00  2592   0.198E+00    0.430E+00
DAV:   9    -0.193310974323E+04   -0.34336E-02   -0.30246E-01  2528   0.862E-01    0.117E+00
DAV:  10    -0.193311609183E+04   -0.63486E-02   -0.67189E-02  2568   0.371E-01    0.440E-01
DAV:  11    -0.193311663298E+04   -0.54115E-03   -0.76946E-03  2576   0.138E-01    0.162E-01
DAV:  12    -0.193311713005E+04   -0.49708E-03   -0.22865E-03  2592   0.666E-02    0.877E-02
DAV:  13    -0.193311730897E+04   -0.17891E-03   -0.39648E-04  2624   0.312E-02    0.522E-02
DAV:  14    -0.193311744479E+04   -0.13582E-03   -0.11568E-04  2576   0.178E-02    0.244E-02
DAV:  15    -0.193311747783E+04   -0.33035E-04   -0.32705E-05  2576   0.996E-03    0.101E-02
DAV:  16    -0.193311748166E+04   -0.38383E-05   -0.62338E-06  2352   0.398E-03    0.396E-03
DAV:  17    -0.193311748153E+04    0.13660E-06   -0.73924E-07  1616   0.156E-03
   1 F= -.19331175E+04 E0= -.19331175E+04  d E =0.000000E+00  mag=     2.0000
