       N       E                     dE             d eps       ncg     rms          rms(c)
DAV:   1     0.295986846885E+04    0.29599E+04   -0.45413E+05  2160   0.153E+03
DAV:   2    -0.174416581249E+04   -0.47040E+04   -0.45087E+04  2624   0.298E+02
DAV:   3    -0.199551694711E+04   -0.25135E+03   -0.24888E+03  2592   0.668E+01
DAV:   4    -0.200211843210E+04   -0.66015E+01   -0.65830E+01  2656   0.105E+01
DAV:   5    -0.200228778091E+04   -0.16935E+00   -0.16903E+00  2592   0.169E+00    0.578E+01
DAV:   6    -0.194998263293E+04    0.52305E+02   -0.41535E+01  2496   0.865E+00    0.344E+01
DAV:   7    -0.193299046184E+04    0.16992E+02   -0.49878E+01  2496   0.932E+00    0.836E+00
DAV:   8    -0.193325148615E+04   -0.26102E+00   -0.19778E+00  2576   0.201E+00    0.430E+00
DAV:   9    -0.193325987303E+04   -0.83869E-02   -0.30614E-01  2520   0.877E-01    0.111E+00
DAV:  10    -0.193326417501E+04   -0.43020E-02   -0.65231E-02  2560   0.377E-01    0.434E-01
DAV:  11    -0.193326503130E+04   -0.85629E-03   -0.78467E-03  2568   0.138E-01    0.160E-01
DAV:  12    -0.193326550141E+04   -0.47011E-03   -0.16854E-03  2616   0.612E-02    0.833E-02
DAV:  13    -0.193326570025E+04   -0.19885E-03   -0.32732E-04  2592   0.297E-02    0.475E-02
DAV:  14    -0.193326582533E+04   -0.12508E-03   -0.10035E-04  2568   0.172E-02    0.216E-02
DAV:  15    -0.193326585098E+04   -0.25650E-04   -0.25611E-05  2560   0.850E-03    0.960E-03
DAV:  16    -0.193326585407E+04   -0.30881E-05   -0.52122E-06  2296   0.376E-03    0.384E-03
DAV:  17    -0.193326585395E+04    0.11774E-06   -0.86063E-07  1608   0.160E-03
   1 F= -.19332659E+04 E0= -.19332659E+04  d E =0.000000E+00  mag=     2.0000
