   2   2   0   0
  0.5639752E+01  0.2517300E-09  0.2517300E-09  0.2517300E-09  0.5000000E-15
  1.000000000000000E-004
  CAR 
 unknown system                          
     28.70203849    -13.74177321  301     10.59295516      1.00000000
    -13.742  0.0000E+00  0.0000E+00
    -13.600  0.0000E+00  0.0000E+00
    -13.459  0.0000E+00  0.0000E+00
    -13.317  0.0000E+00  0.0000E+00
    -13.176  0.0000E+00  0.0000E+00
    -13.034  0.0000E+00  0.0000E+00
    -12.893  0.3139E-17  0.4441E-18
    -12.751  0.6629E-14  0.9384E-15
    -12.610  0.5868E-11  0.8312E-12
    -12.468  0.1952E-08  0.2770E-09
    -12.327  0.2457E-06  0.3504E-07
    -12.186  0.1181E-04  0.1706E-05
    -12.044  0.2206E-03  0.3292E-04
    -11.903  0.1691E-02  0.2721E-03
    -11.761  0.6647E-02  0.1212E-02
    -11.620  0.2154E-01  0.4260E-02
    -11.478  0.5484E-01  0.1202E-01
    -11.337  0.7367E-01  0.2244E-01
    -11.195  0.5604E-01  0.3037E-01
    -11.054  0.6073E-01  0.3896E-01
    -10.912  0.9691E-01  0.5267E-01
    -10.771  0.1481E+00  0.7363E-01
    -10.629  0.1755E+00  0.9846E-01
    -10.488  0.1110E+00  0.1142E+00
    -10.346  0.5067E-01  0.1213E+00
    -10.205  0.6285E-01  0.1302E+00
    -10.063  0.1445E+00  0.1507E+00
     -9.922  0.2456E+00  0.1854E+00
     -9.780  0.2170E+00  0.2161E+00
     -9.639  0.1448E+00  0.2366E+00
     -9.497  0.1622E+00  0.2595E+00
     -9.356  0.1947E+00  0.2871E+00
     -9.214  0.2008E+00  0.3155E+00
     -9.073  0.1292E+00  0.3338E+00
     -8.931  0.6802E-01  0.3434E+00
     -8.790  0.1035E+00  0.3581E+00
     -8.649  0.2335E+00  0.3911E+00
     -8.507  0.3999E+00  0.4477E+00
     -8.366  0.3545E+00  0.4978E+00
     -8.224  0.1910E+00  0.5249E+00
     -8.083  0.1690E+00  0.5488E+00
     -7.941  0.2190E+00  0.5797E+00
     -7.800  0.2663E+00  0.6174E+00
     -7.658  0.2227E+00  0.6489E+00
     -7.517  0.1187E+00  0.6657E+00
     -7.375  0.1017E+00  0.6801E+00
     -7.234  0.2221E+00  0.7115E+00
     -7.092  0.3800E+00  0.7653E+00
     -6.951  0.3524E+00  0.8152E+00
     -6.809  0.3118E+00  0.8593E+00
     -6.668  0.3902E+00  0.9145E+00
     -6.526  0.4462E+00  0.9776E+00
     -6.385  0.3820E+00  0.1032E+01
     -6.243  0.1939E+00  0.1059E+01
     -6.102  0.1397E+00  0.1079E+01
     -5.960  0.2668E+00  0.1117E+01
     -5.819  0.3265E+00  0.1163E+01
     -5.677  0.2702E+00  0.1201E+01
     -5.536  0.2769E+00  0.1240E+01
     -5.394  0.4664E+00  0.1306E+01
     -5.253  0.6524E+00  0.1398E+01
     -5.112  0.4748E+00  0.1466E+01
     -4.970  0.1929E+00  0.1493E+01
     -4.829  0.1974E+00  0.1521E+01
     -4.687  0.3589E+00  0.1572E+01
     -4.546  0.3587E+00  0.1622E+01
     -4.404  0.2380E+00  0.1656E+01
     -4.263  0.1502E+00  0.1677E+01
     -4.121  0.1493E+00  0.1698E+01
     -3.980  0.2913E+00  0.1740E+01
     -3.838  0.3748E+00  0.1793E+01
     -3.697  0.2908E+00  0.1834E+01
     -3.555  0.2412E+00  0.1868E+01
     -3.414  0.2285E+00  0.1900E+01
     -3.272  0.1831E+00  0.1926E+01
     -3.131  0.2044E+00  0.1955E+01
     -2.989  0.3341E+00  0.2002E+01
     -2.848  0.3692E+00  0.2055E+01
     -2.706  0.2638E+00  0.2092E+01
     -2.565  0.1903E+00  0.2119E+01
     -2.423  0.3036E+00  0.2162E+01
     -2.282  0.4362E+00  0.2224E+01
     -2.140  0.3377E+00  0.2271E+01
     -1.999  0.3084E+00  0.2315E+01
     -1.858  0.4830E+00  0.2383E+01
     -1.716  0.5099E+00  0.2455E+01
     -1.575  0.4235E+00  0.2515E+01
     -1.433  0.4513E+00  0.2579E+01
     -1.292  0.6447E+00  0.2670E+01
     -1.150  0.7860E+00  0.2782E+01
     -1.009  0.6150E+00  0.2869E+01
     -0.867  0.2800E+00  0.2908E+01
     -0.726  0.8664E-01  0.2920E+01
     -0.584  0.1482E+00  0.2941E+01
     -0.443  0.3699E+00  0.2994E+01
     -0.301  0.4122E+00  0.3052E+01
     -0.160  0.2086E+00  0.3082E+01
     -0.018  0.1098E+00  0.3097E+01
      0.123  0.2090E+00  0.3127E+01
      0.265  0.4001E+00  0.3183E+01
      0.406  0.5635E+00  0.3263E+01
      0.548  0.5019E+00  0.3334E+01
      0.689  0.2887E+00  0.3375E+01
      0.831  0.2078E+00  0.3404E+01
      0.972  0.3820E+00  0.3458E+01
      1.114  0.5812E+00  0.3541E+01
      1.255  0.5394E+00  0.3617E+01
      1.397  0.4949E+00  0.3687E+01
      1.538  0.5359E+00  0.3763E+01
      1.679  0.4802E+00  0.3831E+01
      1.821  0.4951E+00  0.3901E+01
      1.962  0.6004E+00  0.3986E+01
      2.104  0.5333E+00  0.4061E+01
      2.245  0.4263E+00  0.4121E+01
      2.387  0.4603E+00  0.4187E+01
      2.528  0.4674E+00  0.4253E+01
      2.670  0.5715E+00  0.4333E+01
      2.811  0.7733E+00  0.4443E+01
      2.953  0.7170E+00  0.4544E+01
      3.094  0.6141E+00  0.4631E+01
      3.236  0.6293E+00  0.4720E+01
      3.377  0.7281E+00  0.4823E+01
      3.519  0.7122E+00  0.4924E+01
      3.660  0.5622E+00  0.5004E+01
      3.802  0.6637E+00  0.5097E+01
      3.943  0.8439E+00  0.5217E+01
      4.085  0.7548E+00  0.5324E+01
      4.226  0.5296E+00  0.5399E+01
      4.368  0.7005E+00  0.5498E+01
      4.509  0.1123E+01  0.5657E+01
      4.651  0.1128E+01  0.5816E+01
      4.792  0.8913E+00  0.5942E+01
      4.934  0.7337E+00  0.6046E+01
      5.075  0.6226E+00  0.6134E+01
      5.216  0.4280E+00  0.6195E+01
      5.358  0.3756E+00  0.6248E+01
      5.499  0.5152E+00  0.6321E+01
      5.641  0.5876E+00  0.6404E+01
      5.782  0.7042E+00  0.6504E+01
      5.924  0.8720E+00  0.6627E+01
      6.065  0.9759E+00  0.6765E+01
      6.207  0.8538E+00  0.6886E+01
      6.348  0.5702E+00  0.6966E+01
      6.490  0.5060E+00  0.7038E+01
      6.631  0.5360E+00  0.7114E+01
      6.773  0.6098E+00  0.7200E+01
      6.914  0.7535E+00  0.7307E+01
      7.056  0.6907E+00  0.7404E+01
      7.197  0.4046E+00  0.7462E+01
      7.339  0.1951E+00  0.7489E+01
      7.480  0.2512E+00  0.7525E+01
      7.622  0.4823E+00  0.7593E+01
      7.763  0.5417E+00  0.7670E+01
      7.905  0.3802E+00  0.7723E+01
      8.046  0.2126E+00  0.7754E+01
      8.188  0.1119E+00  0.7769E+01
      8.329  0.1310E+00  0.7788E+01
      8.470  0.2972E+00  0.7830E+01
      8.612  0.3881E+00  0.7885E+01
      8.753  0.2342E+00  0.7918E+01
      8.895  0.8208E-01  0.7930E+01
      9.036  0.4342E-01  0.7936E+01
      9.178  0.5669E-01  0.7944E+01
      9.319  0.1230E+00  0.7961E+01
      9.461  0.1461E+00  0.7982E+01
      9.602  0.7391E-01  0.7992E+01
      9.744  0.2437E-01  0.7996E+01
      9.885  0.1732E-01  0.7998E+01
     10.027  0.1008E-01  0.8000E+01
     10.168  0.2467E-02  0.8000E+01
     10.310  0.2380E-03  0.8000E+01
     10.451  0.8920E-05  0.8000E+01
     10.593  0.1284E-06  0.8000E+01
     10.734  0.7021E-09  0.8000E+01
     10.876  0.1449E-11  0.8000E+01
     11.017  0.1121E-14  0.8000E+01
     11.159  0.0000E+00  0.8000E+01
     11.300  0.0000E+00  0.8000E+01
     11.442  0.0000E+00  0.8000E+01
     11.583  0.0000E+00  0.8000E+01
     11.725  0.0000E+00  0.8000E+01
     11.866  0.0000E+00  0.8000E+01
     12.007  0.0000E+00  0.8000E+01
     12.149  0.0000E+00  0.8000E+01
     12.290  0.0000E+00  0.8000E+01
     12.432  0.0000E+00  0.8000E+01
     12.573  0.0000E+00  0.8000E+01
     12.715  0.0000E+00  0.8000E+01
     12.856  0.3767E-16  0.8000E+01
     12.998  0.8626E-13  0.8000E+01
     13.139  0.7023E-10  0.8000E+01
     13.281  0.2171E-07  0.8000E+01
     13.422  0.2575E-05  0.8000E+01
     13.564  0.1190E-03  0.8000E+01
     13.705  0.2178E-02  0.8000E+01
     13.847  0.1611E-01  0.8003E+01
     13.988  0.4897E-01  0.8010E+01
     14.130  0.6218E-01  0.8018E+01
     14.271  0.3885E-01  0.8024E+01
     14.413  0.6171E-01  0.8033E+01
     14.554  0.2024E+00  0.8061E+01
     14.696  0.3219E+00  0.8107E+01
     14.837  0.2558E+00  0.8143E+01
     14.979  0.1949E+00  0.8171E+01
     15.120  0.2074E+00  0.8200E+01
     15.261  0.2385E+00  0.8234E+01
     15.403  0.3687E+00  0.8286E+01
     15.544  0.4921E+00  0.8355E+01
     15.686  0.3946E+00  0.8411E+01
     15.827  0.3513E+00  0.8461E+01
     15.969  0.6185E+00  0.8548E+01
     16.110  0.7299E+00  0.8652E+01
     16.252  0.5219E+00  0.8726E+01
     16.393  0.4666E+00  0.8792E+01
     16.535  0.6184E+00  0.8879E+01
     16.676  0.6501E+00  0.8971E+01
     16.818  0.5024E+00  0.9042E+01
     16.959  0.5040E+00  0.9113E+01
     17.101  0.8514E+00  0.9234E+01
     17.242  0.1084E+01  0.9387E+01
     17.384  0.8848E+00  0.9512E+01
     17.525  0.5135E+00  0.9585E+01
     17.667  0.4332E+00  0.9646E+01
     17.808  0.7683E+00  0.9755E+01
     17.950  0.1049E+01  0.9903E+01
     18.091  0.9711E+00  0.1004E+02
     18.233  0.9395E+00  0.1017E+02
     18.374  0.9902E+00  0.1031E+02
     18.516  0.8374E+00  0.1043E+02
     18.657  0.6952E+00  0.1053E+02
     18.798  0.7407E+00  0.1064E+02
     18.940  0.7668E+00  0.1074E+02
     19.081  0.1008E+01  0.1089E+02
     19.223  0.1457E+01  0.1109E+02
     19.364  0.1513E+01  0.1131E+02
     19.506  0.1280E+01  0.1149E+02
     19.647  0.1099E+01  0.1164E+02
     19.789  0.8518E+00  0.1176E+02
     19.930  0.5404E+00  0.1184E+02
     20.072  0.4869E+00  0.1191E+02
     20.213  0.5988E+00  0.1199E+02
     20.355  0.5070E+00  0.1207E+02
     20.496  0.3483E+00  0.1212E+02
     20.638  0.3378E+00  0.1216E+02
     20.779  0.4330E+00  0.1222E+02
     20.921  0.5249E+00  0.1230E+02
     21.062  0.6654E+00  0.1239E+02
     21.204  0.7126E+00  0.1249E+02
     21.345  0.5190E+00  0.1257E+02
     21.487  0.5763E+00  0.1265E+02
     21.628  0.1114E+01  0.1281E+02
     21.770  0.1374E+01  0.1300E+02
     21.911  0.9539E+00  0.1314E+02
     22.053  0.4962E+00  0.1321E+02
     22.194  0.2797E+00  0.1325E+02
     22.335  0.2826E+00  0.1329E+02
     22.477  0.5144E+00  0.1336E+02
     22.618  0.6813E+00  0.1345E+02
     22.760  0.6736E+00  0.1355E+02
     22.901  0.7779E+00  0.1366E+02
     23.043  0.8853E+00  0.1378E+02
     23.184  0.9273E+00  0.1392E+02
     23.326  0.9225E+00  0.1405E+02
     23.467  0.8198E+00  0.1416E+02
     23.609  0.5851E+00  0.1425E+02
     23.750  0.5458E+00  0.1432E+02
     23.892  0.8999E+00  0.1445E+02
     24.033  0.1332E+01  0.1464E+02
     24.175  0.1422E+01  0.1484E+02
     24.316  0.1316E+01  0.1503E+02
     24.458  0.1150E+01  0.1519E+02
     24.599  0.7408E+00  0.1529E+02
     24.741  0.3325E+00  0.1534E+02
     24.882  0.2256E+00  0.1537E+02
     25.024  0.3738E+00  0.1542E+02
     25.165  0.5104E+00  0.1550E+02
     25.307  0.6088E+00  0.1558E+02
     25.448  0.7473E+00  0.1569E+02
     25.589  0.6147E+00  0.1578E+02
     25.731  0.3238E+00  0.1582E+02
     25.872  0.2906E+00  0.1586E+02
     26.014  0.3810E+00  0.1592E+02
     26.155  0.3064E+00  0.1596E+02
     26.297  0.1501E+00  0.1598E+02
     26.438  0.4390E-01  0.1599E+02
     26.580  0.1911E-01  0.1599E+02
     26.721  0.3085E-01  0.1599E+02
     26.863  0.2697E-01  0.1600E+02
     27.004  0.9458E-02  0.1600E+02
     27.146  0.1309E-02  0.1600E+02
     27.287  0.7072E-04  0.1600E+02
     27.429  0.1473E-05  0.1600E+02
     27.570  0.1171E-07  0.1600E+02
     27.712  0.3519E-10  0.1600E+02
     27.853  0.3975E-13  0.1600E+02
     27.995  0.1883E-16  0.1600E+02
     28.136  0.0000E+00  0.1600E+02
     28.278  0.0000E+00  0.1600E+02
     28.419  0.0000E+00  0.1600E+02
     28.561  0.0000E+00  0.1600E+02
     28.702  0.0000E+00  0.1600E+02
