    2    2    1    1
  0.5639752E+01  0.2517300E-09  0.2517300E-09  0.2517300E-09  0.5000000E-15
  1.000000000000000E-004
  CAR 
 unknown system                          
      8     47      8
 
  0.1276756E-14  0.1276756E-14  0.1276756E-14  0.1000000E-02
      1        -11.741773   1.000000
      2          9.811498   1.000000
      3          9.811498   1.000000
      4          9.811503   1.000000
      5         15.417231   0.000000
      6         15.417231   0.000000
      7         15.417242   0.000000
      8         23.273109   0.000000
 
  0.1000000E+00  0.1257202E-14  0.1278733E-14  0.8000000E-02
      1        -11.464062   1.000000
      2          8.128329   1.000000
      3          9.362186   1.000000
      4          9.362189   1.000000
      5         16.007180   0.000000
      6         16.007191   0.000000
      7         16.370173   0.000000
      8         23.503427   0.000000
 
  0.2000000E+00  0.1255815E-14  0.1296939E-14  0.8000000E-02
      1        -10.635390   1.000000
      2          4.910469   1.000000
      3          8.481297   1.000000
      4          8.481300   1.000000
      5         17.143631   0.000000
      6         17.143643   0.000000
      7         17.595573   0.000000
      8         24.141781   0.000000
 
  0.3000000E+00  0.1203015E-14  0.1309915E-14  0.8000000E-02
      1         -9.276184   1.000000
      2          1.498356   1.000000
      3          7.686719   1.000000
      4          7.686721   1.000000
      5         17.968197   0.000000
      6         17.968209   0.000000
      7         18.303555   0.000000
      8         24.919014   0.000000
 
  0.4000000E+00  0.1224943E-14  0.1342384E-14  0.8000000E-02
      1         -7.457504   1.000000
      2         -1.646667   1.000000
      3          7.172440   1.000000
      4          7.172443   1.000000
      5         18.257064   0.000000
      6         18.257076   0.000000
      7         18.637414   0.000000
      8         25.425353   0.000000
 
  0.5000000E+00  0.1216617E-14  0.1247647E-14  0.4000000E-02
      1         -5.934265   1.000000
      2         -3.625202   1.000000
      3          6.997008   1.000000
      4          6.997010   1.000000
      5         18.294020   0.000000
      6         18.294031   0.000000
      7         18.736165   0.000000
      8         25.560043   0.000000
 
  0.1000000E+00  0.1000000E+00  0.1257559E-14  0.6000000E-02
      1        -11.371457   1.000000
      2          8.577141   1.000000
      3          8.577144   1.000000
      4          8.940631   1.000000
      5         15.142043   0.000000
      6         16.969075   0.000000
      7         16.969084   0.000000
      8         23.369761   0.000000
 
  0.2000000E+00  0.1000000E+00  0.1290028E-14  0.2400000E-01
      1        -10.726660   1.000000
      2          6.029750   1.000000
      3          7.604546   1.000000
      4          8.470589   1.000000
      5         15.570023   0.000000
      6         18.277474   0.000000
      7         18.298784   0.000000
      8         23.270975   0.000000
 
  0.3000000E+00  0.1000000E+00  0.1316497E-14  0.2400000E-01
      1         -9.543721   1.000000
      2          2.745491   1.000000
      3          6.855315   1.000000
      4          7.598911   1.000000
      5         16.612236   0.000000
      6         19.136920   0.000000
      7         19.229119   0.000000
      8         23.458126   0.000000
 
  0.4000000E+00  0.1000000E+00  0.1363612E-14  0.2400000E-01
      1         -7.868019   1.000000
      2         -0.465621   1.000000
      3          6.477537   1.000000
      4          6.725421   1.000000
      5         17.330787   0.000000
      6         19.445747   0.000000
      7         19.542875   0.000000
      8         24.345803   0.000000
 
  0.5000000E+00  0.1000000E+00  0.1297399E-14  0.2400000E-01
      1         -5.990600   1.000000
      2         -3.075425   1.000000
      3          6.088328   1.000000
      4          6.506267   1.000000
      5         17.735489   0.000000
      6         19.196583   0.000000
      7         19.674294   0.000000
      8         25.346956   0.000000
 
 -0.4000000E+00  0.1000000E+00  0.1241531E-14  0.2400000E-01
      1         -6.574464   1.000000
      2         -2.339987   1.000000
      3          5.793259   1.000000
      4          6.920774   1.000000
      5         18.134472   0.000000
      6         18.775830   0.000000
      7         19.612278   0.000000
      8         25.422249   0.000000
 
 -0.3000000E+00  0.1000000E+00  0.1259737E-14  0.2400000E-01
      1         -8.476208   1.000000
      2          0.582379   1.000000
      3          5.893070   1.000000
      4          7.655073   1.000000
      5         18.159925   0.000000
      6         18.462627   0.000000
      7         19.309856   0.000000
      8         24.614306   0.000000
 
 -0.2000000E+00  0.1000000E+00  0.1280036E-14  0.2400000E-01
      1         -9.996560   1.000000
      2          3.867192   1.000000
      3          6.406338   1.000000
      4          8.569227   1.000000
      5         17.183691   0.000000
      6         18.336177   0.000000
      7         18.515239   0.000000
      8         23.915332   0.000000
 
 -0.1000000E+00  0.1000000E+00  0.1258124E-14  0.1200000E-01
      1        -11.002614   1.000000
      2          6.868257   1.000000
      3          7.468105   1.000000
      4          9.333971   1.000000
      5         16.165717   0.000000
      6         17.192026   0.000000
      7         17.508925   0.000000
      8         23.664348   0.000000
 
  0.2000000E+00  0.2000000E+00  0.1282348E-14  0.6000000E-02
      1        -10.267763   1.000000
      2          6.566831   1.000000
      3          6.566831   1.000000
      4          6.720234   1.000000
      5         14.549674   0.000000
      6         19.896228   0.000000
      7         19.896240   0.000000
      8         21.705919   0.000000
 
  0.3000000E+00  0.2000000E+00  0.1309202E-14  0.2400000E-01
      1         -9.268962   1.000000
      2          3.960203   1.000000
      3          5.773729   1.000000
      4          6.150964   1.000000
      5         14.978993   0.000000
      6         20.644328   0.000000
      7         21.137079   0.000000
      8         21.172336   0.000000
 
  0.4000000E+00  0.2000000E+00  0.1328561E-14  0.2400000E-01
      1         -7.763065   1.000000
      2          0.985580   1.000000
      3          5.089710   1.000000
      4          5.386168   1.000000
      5         15.928460   0.000000
      6         21.086095   0.000000
      7         21.646690   0.000000
      8         21.740963   0.000000
 
  0.5000000E+00  0.2000000E+00  0.1290872E-14  0.2400000E-01
      1         -5.889962   1.000000
      2         -1.764913   1.000000
      3          4.086756   1.000000
      4          5.451262   1.000000
      5         16.508462   0.000000
      6         21.386571   0.000000
      7         21.935454   0.000000
      8         23.122496   0.000000
 
 -0.4000000E+00  0.2000000E+00  0.1234619E-14  0.2400000E-01
      1         -5.339919   1.000000
      2         -2.423377   1.000000
      3          3.412507   1.000000
      4          5.950592   1.000000
      5         17.080995   0.000000
      6         20.702632   0.000000
      7         21.909263   0.000000
      8         25.107773   0.000000
 
 -0.3000000E+00  0.2000000E+00  0.1260149E-14  0.2400000E-01
      1         -7.175543   1.000000
      2          0.095703   1.000000
      3          3.190199   1.000000
      4          6.802782   1.000000
      5         17.820325   0.000000
      6         19.680084   0.000000
      7         21.595924   0.000000
      8         24.333992   0.000000
 
 -0.2000000E+00  0.2000000E+00  0.1301415E-14  0.1200000E-01
      1         -8.826617   1.000000
      2          2.810429   1.000000
      3          3.776578   1.000000
      4          7.815705   1.000000
      5         18.329618   0.000000
      6         18.429737   0.000000
      7         20.350151   0.000000
      8         23.552371   0.000000
 
  0.3000000E+00  0.3000000E+00  0.1302674E-14  0.6000000E-02
      1         -8.457369   1.000000
      2          3.718643   1.000000
      3          4.897994   1.000000
      4          4.897995   1.000000
      5         14.059255   0.000000
      6         18.516764   0.000000
      7         22.965386   0.000000
      8         22.965403   0.000000
 
  0.4000000E+00  0.3000000E+00  0.1321265E-14  0.2400000E-01
      1         -7.133745   1.000000
      2          1.735042   1.000000
      3          3.797119   1.000000
      4          4.424718   1.000000
      5         14.618337   0.000000
      6         17.852366   0.000000
      7         23.957174   0.000000
      8         24.018079   0.000000
 
  0.5000000E+00  0.3000000E+00  0.1311331E-14  0.2400000E-01
      1         -5.383452   1.000000
      2         -0.455892   1.000000
      3          2.255252   1.000000
      4          4.421038   1.000000
      5         15.384399   0.000000
      6         19.397082   0.000000
      7         23.934734   0.000000
      8         24.403007   0.000000
 
 -0.4000000E+00  0.3000000E+00  0.1248716E-14  0.2400000E-01
      1         -4.023183   1.000000
      2         -1.898574   1.000000
      3          1.102634   1.000000
      4          4.882929   1.000000
      5         15.964731   0.000000
      6         22.441648   0.000000
      7         23.091148   0.000000
      8         24.485424   0.000000
 
 -0.3000000E+00  0.3000000E+00  0.1270508E-14  0.1200000E-01
      1         -5.467228   1.000000
      2         -0.363769   1.000000
      3          0.902523   1.000000
      4          5.739017   1.000000
      5         16.809179   0.000000
      6         21.584304   0.000000
      7         24.004020   0.000000
      8         24.403101   0.000000
 
  0.4000000E+00  0.4000000E+00  0.1238198E-14  0.6000000E-02
      1         -5.996317   1.000000
      2          0.351001   1.000000
      3          3.839105   1.000000
      4          3.839106   1.000000
      5         13.992917   0.000000
      6         16.035162   0.000000
      7         25.567095   0.000000
      8         25.567119   0.000000
 
  0.5000000E+00  0.4000000E+00  0.1219232E-14  0.2400000E-01
      1         -4.409797   1.000000
      2         -1.288386   1.000000
      3          2.724664   1.000000
      4          3.722394   1.000000
      5         14.665606   0.000000
      6         16.137579   0.000000
      7         25.944551   0.000000
      8         26.135371   0.000000
 
 -0.4000000E+00  0.4000000E+00  0.1231745E-14  0.1200000E-01
      1         -2.938265   1.000000
      2         -2.329867   1.000000
      3          0.987298   1.000000
      4          4.087980   1.000000
      5         15.177118   0.000000
      6         18.840411   0.000000
      7         25.034881   0.000000
      8         25.889157   0.000000
 
  0.5000000E+00  0.5000000E+00  0.1193213E-14  0.3000000E-02
      1         -2.993396   1.000000
      2         -2.993396   1.000000
      3          3.478552   1.000000
      4          3.478553   1.000000
      5         14.581910   0.000000
      6         14.581910   0.000000
      7         26.702010   0.000000
      8         26.702038   0.000000
 
  0.3000000E+00  0.2000000E+00  0.1000000E+00  0.2400000E-01
      1         -9.904490   1.000000
      2          4.759423   1.000000
      3          5.566849   1.000000
      4          7.902246   1.000000
      5         15.963388   0.000000
      6         19.251945   0.000000
      7         19.841488   0.000000
      8         22.508625   0.000000
 
  0.4000000E+00  0.2000000E+00  0.1000000E+00  0.4800000E-01
      1         -8.558502   1.000000
      2          1.920964   1.000000
      3          4.694406   1.000000
      4          7.003826   1.000000
      5         17.093209   0.000000
      6         19.425692   0.000000
      7         21.089654   0.000000
      8         22.574352   0.000000
 
  0.5000000E+00  0.2000000E+00  0.1000000E+00  0.4800000E-01
      1         -6.765207   1.000000
      2         -1.058224   1.000000
      3          4.457041   1.000000
      4          6.132373   1.000000
      5         17.834265   0.000000
      6         19.165423   0.000000
      7         21.637994   0.000000
      8         23.996016   0.000000
 
 -0.4000000E+00  0.2000000E+00  0.1000000E+00  0.2400000E-01
      1         -5.282518   1.000000
      2         -2.959346   1.000000
      3          4.450972   1.000000
      4          5.746482   1.000000
      5         18.023650   0.000000
      6         19.019905   0.000000
      7         21.797718   0.000000
      8         25.146006   0.000000
 
  0.4000000E+00  0.3000000E+00  0.1000000E+00  0.2400000E-01
      1         -8.107130   1.000000
      2          2.719882   1.000000
      3          3.971064   1.000000
      4          5.453904   1.000000
      5         15.532419   0.000000
      6         19.611968   0.000000
      7         21.682536   0.000000
      8         22.994518   0.000000
 
  0.5000000E+00  0.3000000E+00  0.1000000E+00  0.4800000E-01
      1         -6.471815   1.000000
      2          0.371743   1.000000
      3          3.084085   1.000000
      4          4.609633   1.000000
      5         16.669797   0.000000
      6         20.128211   0.000000
      7         21.676824   0.000000
      8         24.080544   0.000000
 
 -0.4000000E+00  0.3000000E+00  0.1000000E+00  0.4800000E-01
      1         -4.674397   1.000000
      2         -1.905694   1.000000
      3          2.439598   1.000000
      4          4.443529   1.000000
      5         17.281051   0.000000
      6         20.864729   0.000000
      7         22.814340   0.000000
      8         24.249228   0.000000
 
 -0.3000000E+00  0.3000000E+00  0.1000000E+00  0.4800000E-01
      1         -5.251547   1.000000
      2         -1.178980   1.000000
      3          1.969485   1.000000
      4          5.018964   1.000000
      5         17.924800   0.000000
      6         20.173052   0.000000
      7         23.361699   0.000000
      8         24.414794   0.000000
 
 -0.2000000E+00  0.3000000E+00  0.1000000E+00  0.2400000E-01
      1         -7.078833   1.000000
      2          1.108312   1.000000
      3          2.275028   1.000000
      4          6.007387   1.000000
      5         18.718198   0.000000
      6         18.771497   0.000000
      7         22.483444   0.000000
      8         23.168188   0.000000
 
  0.5000000E+00  0.4000000E+00  0.1000000E+00  0.2400000E-01
      1         -5.678000   1.000000
      2          0.260067   1.000000
      3          2.990620   1.000000
      4          3.484353   1.000000
      5         15.464502   0.000000
      6         17.335651   0.000000
      7         24.151604   0.000000
      8         25.508920   0.000000
 
 -0.4000000E+00  0.4000000E+00  0.1000000E+00  0.4800000E-01
      1         -3.900845   1.000000
      2         -1.285082   1.000000
      3          1.422561   1.000000
      4          3.360512   1.000000
      5         16.436157   0.000000
      6         19.085374   0.000000
      7         23.796218   0.000000
      8         25.392917   0.000000
 
 -0.3000000E+00  0.4000000E+00  0.1000000E+00  0.2400000E-01
      1         -3.602374   1.000000
      2         -1.457981   1.000000
      3          0.445344   1.000000
      4          3.979618   1.000000
      5         17.058489   0.000000
      6         22.148504   0.000000
      7         22.847756   0.000000
      8         24.174555   0.000000
 
 -0.4000000E+00  0.5000000E+00  0.1000000E+00  0.1200000E-01
      1         -2.766372   1.000000
      2         -2.766372   1.000000
      3          2.765299   1.000000
      4          2.765299   1.000000
      5         15.999958   0.000000
      6         15.999960   0.000000
      7         25.928169   0.000000
      8         25.928194   0.000000
 
 -0.4000000E+00  0.4000000E+00  0.2000000E+00  0.2400000E-01
      1         -4.781592   1.000000
      2         -0.381463   1.000000
      3          1.447769   1.000000
      4          3.394329   1.000000
      5         18.799263   0.000000
      6         19.690837   0.000000
      7         21.634663   0.000000
      8         24.980233   0.000000
 
 -0.3000000E+00  0.4000000E+00  0.2000000E+00  0.2400000E-01
      1         -3.404698   1.000000
      2         -1.595625   1.000000
      3          1.133359   1.000000
      4          2.809574   1.000000
      5         19.285666   0.000000
      6         20.407943   0.000000
      7         22.889964   0.000000
      8         23.117186   0.000000
 
 -0.3000000E+00  0.5000000E+00  0.2000000E+00  0.1200000E-01
      1         -2.295106   1.000000
      2         -2.295106   1.000000
      3          1.640783   1.000000
      4          1.640785   1.000000
      5         19.217876   0.000000
      6         19.217883   0.000000
      7         23.372663   0.000000
      8         23.372680   0.000000
