<?xml version="1.0" encoding="ISO-8859-1"?>
<modeling>
 <generator>
  <i name="program" type="string">vasp </i>
  <i name="version" type="string">6.5.1  </i>
  <i name="subversion" type="string">10Mar25 (build Feb 13 2026 23:13:13) complex                          parallel </i>
  <i name="platform" type="string">LinuxIFC </i>
  <i name="date" type="string">2026 06 23 </i>
  <i name="time" type="string">04:04:19 </i>
 </generator>
 <incar>
  <i type="string" name="PREC">Normal</i>
  <i type="string" name="ALGO">Fast</i>
  <i type="int" name="ISPIN">     1</i>
  <i type="int" name="NELMIN">     4</i>
  <i name="EDIFF">      0.00000100</i>
  <i type="int" name="NSW">     0</i>
  <i name="ENCUT">    600.00000000</i>
  <i type="logical" name="LREAL"> F  </i>
  <i type="int" name="ISMEAR">     0</i>
  <i name="SIGMA">      0.20000000</i>
  <i type="logical" name="LWAVE"> F  </i>
 </incar>
 <primitive_cell>
  <structure name="primitive_cell" >
   <crystal>
    <varray name="basis" >
     <v>       2.51730013       0.00000000       0.00000000 </v>
     <v>       1.25865006       2.18004586       0.00000000 </v>
     <v>       1.25865006       0.72668195       2.05536695 </v>
    </varray>
    <i name="volume">     11.27950384 </i>
    <varray name="rec_basis" >
     <v>       0.39725100      -0.22935297      -0.16217704 </v>
     <v>       0.00000000       0.45870595      -0.16217704 </v>
     <v>       0.00000000       0.00000000       0.48653113 </v>
    </varray>
   </crystal>
   <varray name="positions" >
    <v>       0.25000000       0.25000000       0.25000000 </v>
    <v>       0.00000000       0.00000000       0.00000000 </v>
   </varray>
  </structure>
  <varray name="primitive_index" >
   <v type="int" >        1 </v>
   <v type="int" >        2 </v>
  </varray>
 </primitive_cell>
 <kpoints>
  <generation param="Gamma">
   <v type="int" name="divisions">      10       10       10 </v>
   <v name="usershift">      0.00000000       0.00000000       0.00000000 </v>
   <v name="genvec1">      0.10000000      -0.00000000      -0.00000000 </v>
   <v name="genvec2">      0.00000000       0.10000000      -0.00000000 </v>
   <v name="genvec3">      0.00000000       0.00000000       0.10000000 </v>
   <v name="shift">      0.00000000       0.00000000       0.00000000 </v>
  </generation>
  <varray name="kpointlist" >
   <v>       0.00000000       0.00000000       0.00000000 </v>
   <v>       0.10000000       0.00000000       0.00000000 </v>
   <v>       0.20000000       0.00000000       0.00000000 </v>
   <v>       0.30000000       0.00000000       0.00000000 </v>
   <v>       0.40000000       0.00000000       0.00000000 </v>
   <v>       0.50000000       0.00000000       0.00000000 </v>
   <v>       0.10000000       0.10000000       0.00000000 </v>
   <v>       0.20000000       0.10000000       0.00000000 </v>
   <v>       0.30000000       0.10000000       0.00000000 </v>
   <v>       0.40000000       0.10000000       0.00000000 </v>
   <v>       0.50000000       0.10000000       0.00000000 </v>
   <v>      -0.40000000       0.10000000       0.00000000 </v>
   <v>      -0.30000000       0.10000000       0.00000000 </v>
   <v>      -0.20000000       0.10000000       0.00000000 </v>
   <v>      -0.10000000       0.10000000       0.00000000 </v>
   <v>       0.20000000       0.20000000       0.00000000 </v>
   <v>       0.30000000       0.20000000       0.00000000 </v>
   <v>       0.40000000       0.20000000       0.00000000 </v>
   <v>       0.50000000       0.20000000       0.00000000 </v>
   <v>      -0.40000000       0.20000000       0.00000000 </v>
   <v>      -0.30000000       0.20000000       0.00000000 </v>
   <v>      -0.20000000       0.20000000       0.00000000 </v>
   <v>       0.30000000       0.30000000       0.00000000 </v>
   <v>       0.40000000       0.30000000       0.00000000 </v>
   <v>       0.50000000       0.30000000       0.00000000 </v>
   <v>      -0.40000000       0.30000000       0.00000000 </v>
   <v>      -0.30000000       0.30000000       0.00000000 </v>
   <v>       0.40000000       0.40000000       0.00000000 </v>
   <v>       0.50000000       0.40000000       0.00000000 </v>
   <v>      -0.40000000       0.40000000       0.00000000 </v>
   <v>       0.50000000       0.50000000       0.00000000 </v>
   <v>       0.30000000       0.20000000       0.10000000 </v>
   <v>       0.40000000       0.20000000       0.10000000 </v>
   <v>       0.50000000       0.20000000       0.10000000 </v>
   <v>      -0.40000000       0.20000000       0.10000000 </v>
   <v>       0.40000000       0.30000000       0.10000000 </v>
   <v>       0.50000000       0.30000000       0.10000000 </v>
   <v>      -0.40000000       0.30000000       0.10000000 </v>
   <v>      -0.30000000       0.30000000       0.10000000 </v>
   <v>      -0.20000000       0.30000000       0.10000000 </v>
   <v>       0.50000000       0.40000000       0.10000000 </v>
   <v>      -0.40000000       0.40000000       0.10000000 </v>
   <v>      -0.30000000       0.40000000       0.10000000 </v>
   <v>      -0.40000000       0.50000000       0.10000000 </v>
   <v>      -0.40000000       0.40000000       0.20000000 </v>
   <v>      -0.30000000       0.40000000       0.20000000 </v>
   <v>      -0.30000000       0.50000000       0.20000000 </v>
  </varray>
  <varray name="weights" >
   <v>       0.00100000 </v>
   <v>       0.00800000 </v>
   <v>       0.00800000 </v>
   <v>       0.00800000 </v>
   <v>       0.00800000 </v>
   <v>       0.00400000 </v>
   <v>       0.00600000 </v>
   <v>       0.02400000 </v>
   <v>       0.02400000 </v>
   <v>       0.02400000 </v>
   <v>       0.02400000 </v>
   <v>       0.02400000 </v>
   <v>       0.02400000 </v>
   <v>       0.02400000 </v>
   <v>       0.01200000 </v>
   <v>       0.00600000 </v>
   <v>       0.02400000 </v>
   <v>       0.02400000 </v>
   <v>       0.02400000 </v>
   <v>       0.02400000 </v>
   <v>       0.02400000 </v>
   <v>       0.01200000 </v>
   <v>       0.00600000 </v>
   <v>       0.02400000 </v>
   <v>       0.02400000 </v>
   <v>       0.02400000 </v>
   <v>       0.01200000 </v>
   <v>       0.00600000 </v>
   <v>       0.02400000 </v>
   <v>       0.01200000 </v>
   <v>       0.00300000 </v>
   <v>       0.02400000 </v>
   <v>       0.04800000 </v>
   <v>       0.04800000 </v>
   <v>       0.02400000 </v>
   <v>       0.02400000 </v>
   <v>       0.04800000 </v>
   <v>       0.04800000 </v>
   <v>       0.04800000 </v>
   <v>       0.02400000 </v>
   <v>       0.02400000 </v>
   <v>       0.04800000 </v>
   <v>       0.02400000 </v>
   <v>       0.01200000 </v>
   <v>       0.02400000 </v>
   <v>       0.02400000 </v>
   <v>       0.01200000 </v>
  </varray>
 </kpoints>
 <parameters>
  <separator name="general" >
   <i type="string" name="SYSTEM">unknown system</i>
   <i type="logical" name="LCOMPAT"> F  </i>
  </separator>
  <separator name="electronic" >
   <i type="string" name="PREC">normal</i>
   <i name="ENMAX">    600.00000000</i>
   <i name="ENAUG">    644.87300000</i>
   <i name="EDIFF">      0.00000100</i>
   <i type="int" name="IALGO">    68</i>
   <i type="int" name="IWAVPR">    10</i>
   <i type="int" name="NBANDS">     8</i>
   <i type="int" name="NBANDSLOW">    -1</i>
   <i type="int" name="NBANDSHIGH">    -1</i>
   <i name="NELECT">      8.00000000</i>
   <i type="int" name="TURBO">     0</i>
   <i type="int" name="IRESTART">     0</i>
   <i type="int" name="NREBOOT">     0</i>
   <i type="int" name="NMIN">     0</i>
   <i name="EREF">      0.00000000</i>
   <separator name="electronic smearing" >
    <i type="int" name="ISMEAR">     0</i>
    <i name="SIGMA">      0.20000000</i>
    <i name="KSPACING">      0.50000000</i>
    <i type="logical" name="KGAMMA"> T  </i>
    <i type="logical" name="KBLOWUP"> T  </i>
   </separator>
   <separator name="electronic projectors" >
    <i type="logical" name="LREAL"> F  </i>
    <v name="ROPT">      0.00000000</v>
    <i type="int" name="LMAXPAW">  -100</i>
    <i type="int" name="LMAXMIX">     2</i>
    <i type="logical" name="NLSPLINE"> F  </i>
   </separator>
   <separator name="electronic startup" >
    <i type="int" name="ISTART">     0</i>
    <i type="int" name="ICHARG">     2</i>
    <i type="int" name="INIWAV">     1</i>
   </separator>
   <separator name="electronic spin" >
    <i type="int" name="ISPIN">     1</i>
    <i type="logical" name="LNONCOLLINEAR"> F  </i>
    <v name="MAGMOM">      1.00000000      1.00000000</v>
    <i name="NUPDOWN">     -1.00000000</i>
    <i type="logical" name="LSORBIT"> F  </i>
    <v name="SAXIS">      0.00000000      0.00000000      1.00000000</v>
    <i type="logical" name="LSPIRAL"> F  </i>
    <v name="QSPIRAL">      0.00000000      0.00000000      0.00000000</v>
    <i type="logical" name="LZEROZ"> F  </i>
   </separator>
   <separator name="electronic exchange-correlation" >
    <i type="logical" name="LASPH"> F  </i>
   </separator>
   <separator name="electronic convergence" >
    <i type="int" name="NELM">    60</i>
    <i type="int" name="NELMDL">    -5</i>
    <i type="int" name="NELMIN">     4</i>
    <i name="ENINI">    600.00000000</i>
    <separator name="electronic convergence detail" >
     <i type="logical" name="LDIAG"> T  </i>
     <i type="logical" name="LSUBROT"> F  </i>
     <i type="logical" name="LROBUST"> F  </i>
     <i type="int" name="ISEARCH">     0</i>
     <i name="WEIMIN">      0.00000000</i>
     <i name="EBREAK">      0.00000003</i>
     <i name="DEPER">      0.30000000</i>
     <i type="int" name="NRMM">     4</i>
     <i name="TIME">      0.40000000</i>
    </separator>
   </separator>
   <separator name="electronic mixer" >
    <i name="AMIX">      0.40000000</i>
    <i name="BMIX">      1.00000000</i>
    <i name="AMIN">      0.10000000</i>
    <i name="AMIX_MAG">      1.60000000</i>
    <i name="BMIX_MAG">      1.00000000</i>
    <separator name="electronic mixer details" >
     <i type="int" name="IMIX">     4</i>
     <i type="logical" name="MIXFIRST"> F  </i>
     <i type="int" name="MAXMIX">   -45</i>
     <i name="WC">    100.00000000</i>
     <i type="int" name="INIMIX">     1</i>
     <i type="int" name="MIXPRE">     1</i>
     <i type="int" name="MREMOVE">     5</i>
    </separator>
   </separator>
   <separator name="electronic dipolcorrection" >
    <i type="logical" name="LDIPOL"> F  </i>
    <i type="logical" name="LMONO"> F  </i>
    <i type="int" name="IDIPOL">     0</i>
    <i name="EPSILON">      1.00000000</i>
    <v name="DIPOL">   -100.00000000   -100.00000000   -100.00000000</v>
    <i name="EFIELD">      0.00000000</i>
    <i type="logical" name="LVACPOTAV"> F  </i>
   </separator>
  </separator>
  <separator name="grids" >
   <i type="int" name="NGX">    16</i>
   <i type="int" name="NGY">    16</i>
   <i type="int" name="NGZ">    16</i>
   <i type="int" name="NGXF">    32</i>
   <i type="int" name="NGYF">    32</i>
   <i type="int" name="NGZF">    32</i>
   <i type="logical" name="ADDGRID"> F  </i>
  </separator>
  <separator name="ionic" >
   <i type="int" name="NSW">     0</i>
   <i type="int" name="IBRION">    -1</i>
   <i type="int" name="MDALGO">     0</i>
   <i type="int" name="ISIF">     2</i>
   <i name="PSTRESS">      0.00000000</i>
   <i name="EDIFFG">      0.00001000</i>
   <i type="int" name="NFREE">     0</i>
   <i name="POTIM">      0.50000000</i>
   <i name="SMASS">     -3.00000000</i>
   <i name="SCALEE">      1.00000000</i>
  </separator>
  <separator name="ionic md" >
   <i name="TEBEG">      0.00010000</i>
   <i name="TEEND">      0.00010000</i>
   <i type="int" name="NBLOCK">     1</i>
   <i type="int" name="KBLOCK">     1</i>
   <i type="int" name="NPACO">   256</i>
   <i name="APACO">     10.00000000</i>
  </separator>
  <separator name="symmetry" >
   <i type="int" name="ISYM">     2</i>
   <i name="SYMPREC">      0.00001000</i>
  </separator>
  <separator name="dos" >
   <i type="int" name="LORBIT">     0</i>
   <v name="RWIGS">     -1.00000000</v>
   <i type="int" name="NEDOS">   301</i>
   <i name="EMIN">     10.00000000</i>
   <i name="EMAX">    -10.00000000</i>
   <i name="EFERMI">      0.00000000</i>
  </separator>
  <separator name="writing" >
   <i type="int" name="NWRITE">     2</i>
   <i type="logical" name="LWAVE"> F  </i>
   <i type="logical" name="LDOWNSAMPLE"> F  </i>
   <i type="logical" name="LCHARG"> T  </i>
   <i type="logical" name="LPARD"> F  </i>
   <i type="logical" name="LVTOT"> F  </i>
   <i type="logical" name="LVHAR"> F  </i>
   <i type="logical" name="LELF"> F  </i>
   <i type="logical" name="LOPTICS"> F  </i>
   <v name="STM">      0.00000000      0.00000000      0.00000000      0.00000000      0.00000000      0.00000000      0.00000000</v>
  </separator>
  <separator name="performance" >
   <i type="int" name="NPAR">     4</i>
   <i type="int" name="NSIM">     4</i>
   <i type="int" name="NBLK">    -1</i>
   <i type="logical" name="LPLANE"> T  </i>
   <i type="logical" name="LSCALAPACK"> T  </i>
   <i type="logical" name="LSCAAWARE"> F  </i>
   <i type="logical" name="LSCALU"> F  </i>
   <i type="logical" name="LASYNC"> F  </i>
   <i type="logical" name="LORBITALREAL"> F  </i>
  </separator>
  <separator name="miscellaneous" >
   <i type="int" name="IDIOT">     3</i>
   <i type="int" name="PHON_NSTRUCT">    -1</i>
   <i type="logical" name="LMUSIC"> F  </i>
   <v name="POMASS">     12.01100000</v>
   <v name="DARWINR">      0.00000000</v>
   <v name="DARWINV">      1.00000000</v>
   <i type="logical" name="LCORR"> T  </i>
  </separator>
  <i type="logical" name="GGA_COMPAT"> T  </i>
  <i type="logical" name="LBERRY"> F  </i>
  <i type="int" name="ICORELEVEL">     0</i>
  <i type="logical" name="LDAU"> F  </i>
  <i type="int" name="I_CONSTRAINED_M">     0</i>
  <separator name="electronic exchange-correlation" >
   <i type="string" name="GGA    ">PE</i>
   <i type="string" name="XC_C">1</i>
   <i type="int" name="VOSKOWN">     0</i>
   <i type="logical" name="LHFCALC"> F  </i>
   <i type="string" name="PRECFOCK"></i>
   <i type="logical" name="LSYMGRAD"> F  </i>
   <i type="logical" name="LHFONE"> F  </i>
   <i type="logical" name="LRHFCALC"> F  </i>
   <i type="logical" name="LTHOMAS"> F  </i>
   <i type="logical" name="LMODELHF"> F  </i>
   <i type="logical" name="LFOCKACE"> F  </i>
   <i name="ENCUT4O">     -1.00000000</i>
   <i type="int" name="EXXOEP">     0</i>
   <i type="int" name="FOURORBIT">     0</i>
   <i name="AEXX">      0.00000000</i>
   <i name="HFALPHA">      0.00000000</i>
   <i name="MCALPHA">      0.00000000</i>
   <i name="ALDAX">      1.00000000</i>
   <i name="AGGAX">      1.00000000</i>
   <i name="AMGGAX">      1.00000000</i>
   <i name="ALDAC">      1.00000000</i>
   <i name="AGGAC">      1.00000000</i>
   <i name="AMGGAC">      1.00000000</i>
   <i type="int" name="NKREDX">     1</i>
   <i type="int" name="NKREDY">     1</i>
   <i type="int" name="NKREDZ">     1</i>
   <i type="logical" name="SHIFTRED"> F  </i>
   <i type="logical" name="ODDONLY"> F  </i>
   <i type="logical" name="EVENONLY"> F  </i>
   <i type="int" name="LMAXFOCK">     0</i>
   <i type="int" name="NMAXFOCKAE">     0</i>
   <i type="logical" name="LFOCKAEDFT"> F  </i>
   <i name="HFSCREEN">      0.00000000</i>
   <i name="HFSCREENC">      0.00000000</i>
   <i type="int" name="NBANDSGWLOW">     0</i>
  </separator>
  <separator name="vdW DFT" >
   <i type="logical" name="LUSE_VDW"> F  </i>
   <i type="int" name="IVDW_NL">    -1</i>
   <i type="logical" name="LSPIN_VDW"> F  </i>
   <i name="ZAB_VDW">     -0.84910000</i>
   <i name="GAMMA_VDW">      1.39626340</i>
   <i name="ALPHA_VDW">      0.00000000</i>
   <i name="PARAM1">      0.12340000</i>
   <i name="PARAM2">      1.00000000</i>
   <i name="BPARAM">      6.30000000</i>
   <i name="CPARAM">      0.00930000</i>
  </separator>
  <separator name="model GW" >
   <i type="int" name="MODEL_GW">     0</i>
   <i name="MODEL_EPS0">      3.38385115</i>
   <i name="MODEL_ALPHA">      1.00000000</i>
  </separator>
  <separator name="linear response parameters" >
   <i type="logical" name="LEPSILON"> F  </i>
   <i type="logical" name="LRPA"> F  </i>
   <i type="logical" name="LNABLA"> F  </i>
   <i type="logical" name="LVEL"> F  </i>
   <i name="CSHIFT">      0.10000000</i>
   <i name="OMEGAMAX">     -1.00000000</i>
   <i name="DEG_THRESHOLD">      0.00200000</i>
   <i name="RTIME">     -0.10000000</i>
   <i name="WPLASMAI">      0.00000000</i>
   <v name="DFIELD">      0.00000000      0.00000000      0.00000000</v>
   <v name="WPLASMA">      0.00000000      0.00000000      0.00000000      0.00000000      0.00000000      0.00000000      0.00000000      0.00000000      0.00000000</v>
  </separator>
  <separator name="orbital magnetization" >
   <i type="logical" name="NUCIND"> F  </i>
   <v name="MAGPOS">      0.00000000      0.00000000      0.00000000</v>
   <i type="logical" name="LNICSALL"> T  </i>
   <i type="logical" name="ORBITALMAG"> F  </i>
   <i type="logical" name="LMAGBLOCH"> F  </i>
   <i type="logical" name="LCHIMAG"> F  </i>
   <i type="logical" name="LGAUGE"> T  </i>
   <i type="int" name="MAGATOM">     0</i>
   <v name="MAGDIPOL">      0.00000000      0.00000000      0.00000000</v>
   <v name="AVECCONST">      0.00000000      0.00000000      0.00000000</v>
  </separator>
  <separator name="response functions" >
   <i type="logical" name="LALL_IN_ONE"> F  </i>
   <i type="int" name="IALL_IN_ONE">    -1</i>
   <i type="int" name="NBANDS_WAVE">    -1</i>
   <i type="logical" name="LFINITE_TEMPERATURE"> F  </i>
   <i type="logical" name="LADDER"> F  </i>
   <i type="logical" name="LRPAFORCE"> F  </i>
   <i type="logical" name="LFXC"> F  </i>
   <i type="logical" name="LHARTREE"> T  </i>
   <i type="int" name="IBSE">     2</i>
   <v type="int" name="KPOINT">    -1     0     0     0</v>
   <i type="logical" name="LTCTC"> F  </i>
   <i type="logical" name="LTCTE"> F  </i>
   <i type="logical" name="LTETE"> F  </i>
   <i type="logical" name="LTRIPLET"> F  </i>
   <i type="logical" name="LFXCEPS"> F  </i>
   <i type="logical" name="LFXHEG"> F  </i>
   <i type="int" name="NATURALO">     2</i>
   <i type="logical" name="LHOLEGF"> F  </i>
   <i type="logical" name="L2ORDER"> F  </i>
   <i type="logical" name="LDMP1"> F  </i>
   <i type="logical" name="LMP2LT"> F  </i>
   <i type="logical" name="LSMP2LT"> F  </i>
   <i type="logical" name="LGWLF"> F  </i>
   <i name="ENCUTGW">     -1.60000002</i>
   <i name="ENCUTGWSOFT">     -1.60000002</i>
   <i name="ENCUTLF">     -1.00000000</i>
   <i type="logical" name="ESF_SPLINES"> F  </i>
   <i name="ESF_CONV">      0.01000000</i>
   <i type="int" name="ESF_NINTER">    15</i>
   <i type="int" name="LMAXMP2">    -1</i>
   <i name="SCISSOR">      0.00000000</i>
   <i type="int" name="NOMEGA">     0</i>
   <i type="int" name="NOMEGAR">     0</i>
   <i type="int" name="NBANDSGW">    -1</i>
   <i type="int" name="NBANDSO">    -1</i>
   <i type="int" name="NBANDSV">    -1</i>
   <i type="int" name="NELMGW">     1</i>
   <i type="int" name="NELMHF">     1</i>
   <i type="int" name="DIM">     3</i>
   <i type="int" name="IESPILON">     4</i>
   <i type="int" name="ANTIRES">     0</i>
   <i name="OMEGAMAX">    -30.00000000</i>
   <i name="OMEGAMIN">    -30.00000000</i>
   <i name="OMEGATL">   -200.00000000</i>
   <i type="int" name="OMEGAGRID">     0</i>
   <i name="CSHIFT">     -0.10000000</i>
   <i type="logical" name="LSELFENERGY"> F  </i>
   <i type="logical" name="LSPECTRAL"> F  </i>
   <i type="logical" name="LSPECTRALGW"> F  </i>
   <i type="logical" name="LSINGLES"> F  </i>
   <i type="logical" name="LFERMIGW"> F  </i>
   <i type="logical" name="ODDONLYGW"> F  </i>
   <i type="logical" name="EVENONLYGW"> F  </i>
   <i type="int" name="NKREDLFX">     1</i>
   <i type="int" name="NKREDLFY">     1</i>
   <i type="int" name="NKREDLFZ">     1</i>
   <i type="int" name="MAXMEM">  2800</i>
   <i type="int" name="TELESCOPE">     0</i>
   <i type="int" name="NTAUPAR">    -1</i>
   <i type="int" name="NOMEGAPAR">    -1</i>
   <i name="DAMP_NEWTON">      0.80000001</i>
   <i name="LAMBDA">      1.00000000</i>
  </separator>
  <separator name="External order field" >
   <i name="OFIELD_KAPPA">      0.00000000</i>
   <v name="OFIELD_K">      0.00000000      0.00000000      0.00000000</v>
   <i name="OFIELD_Q6_NEAR">      0.00000000</i>
   <i name="OFIELD_Q6_FAR">      0.00000000</i>
   <i name="OFIELD_A">      0.00000000</i>
  </separator>
  <separator name="optional k-points parameters" >
   <i type="int" name="KPOINTS_OPT_MODE">     1</i>
   <i type="logical" name="LKPOINTS_OPT"> F  </i>
  </separator>
 </parameters>
 <atominfo>
  <atoms>       2 </atoms>
  <types>       1 </types>
  <array name="atoms" >
   <dimension dim="1">ion</dimension>
   <field type="string">element</field>
   <field type="int">atomtype</field>
   <set>
    <rc><c>C </c><c>   1</c></rc>
    <rc><c>C </c><c>   1</c></rc>
   </set>
  </array>
  <array name="atomtypes" >
   <dimension dim="1">type</dimension>
   <field type="int">atomspertype</field>
   <field type="string">element</field>
   <field>mass</field>
   <field>valence</field>
   <field type="string">pseudopotential</field>
   <set>
    <rc><c>   2</c><c>C </c><c>     12.01100000</c><c>      4.00000000</c><c>  PAW_PBE C 08Apr2002                   </c></rc>
   </set>
  </array>
 </atominfo>
 <structure name="initialpos" >
  <crystal>
   <varray name="basis" >
    <v>       2.51730013       0.00000000       0.00000000 </v>
    <v>       1.25865006       2.18004586       0.00000000 </v>
    <v>       1.25865006       0.72668195       2.05536695 </v>
   </varray>
   <i name="volume">     11.27950384 </i>
   <varray name="rec_basis" >
    <v>       0.39725100      -0.22935297      -0.16217704 </v>
    <v>       0.00000000       0.45870595      -0.16217704 </v>
    <v>       0.00000000       0.00000000       0.48653113 </v>
   </varray>
  </crystal>
  <varray name="positions" >
   <v>       0.25000000       0.25000000       0.25000000 </v>
   <v>       0.00000000       0.00000000       0.00000000 </v>
  </varray>
 </structure>
 <calculation>
  <scstep>
   <time name="dav">    0.06    0.06</time>
   <time name="total">    0.07    0.07</time>
   <energy>
    <i name="alphaZ">     29.13132251 </i>
    <i name="ewald">   -348.62358043 </i>
    <i name="hartreedc">    -17.48913657 </i>
    <i name="XCdc">     27.44127292 </i>
    <i name="pawpsdc">    217.04409276 </i>
    <i name="pawaedc">   -218.18290438 </i>
    <i name="eentropy">     -0.00299400 </i>
    <i name="bandstr">     19.26430348 </i>
    <i name="atom">    294.30057552 </i>
    <i name="e_fr_energy">      2.88295181 </i>
    <i name="e_wo_entrp">      2.88594581 </i>
    <i name="e_0_energy">      2.88444881 </i>
   </energy>
  </scstep>
  <scstep>
   <time name="dav">    0.08    0.08</time>
   <time name="total">    0.08    0.08</time>
   <energy>
    <i name="e_fr_energy">    -18.70510831 </i>
    <i name="e_wo_entrp">    -18.70510831 </i>
    <i name="e_0_energy">    -18.70510831 </i>
   </energy>
  </scstep>
  <scstep>
   <time name="dav">    0.05    0.05</time>
   <time name="total">    0.05    0.05</time>
   <energy>
    <i name="e_fr_energy">    -18.83694179 </i>
    <i name="e_wo_entrp">    -18.83694179 </i>
    <i name="e_0_energy">    -18.83694179 </i>
   </energy>
  </scstep>
  <scstep>
   <time name="dav">    0.07    0.07</time>
   <time name="total">    0.07    0.07</time>
   <energy>
    <i name="e_fr_energy">    -18.83713200 </i>
    <i name="e_wo_entrp">    -18.83713200 </i>
    <i name="e_0_energy">    -18.83713200 </i>
   </energy>
  </scstep>
  <scstep>
   <time name="dav">    0.05    0.05</time>
   <time name="total">    0.05    0.05</time>
   <energy>
    <i name="e_fr_energy">    -18.83713205 </i>
    <i name="e_wo_entrp">    -18.83713205 </i>
    <i name="e_0_energy">    -18.83713205 </i>
   </energy>
  </scstep>
  <scstep>
   <time name="diag">    0.04    0.04</time>
   <time name="diis">    0.02    0.02</time>
   <time name="orth">    0.00    0.00</time>
   <time name="total">    0.07    0.07</time>
   <energy>
    <i name="e_fr_energy">    -18.34848698 </i>
    <i name="e_wo_entrp">    -18.34848698 </i>
    <i name="e_0_energy">    -18.34848698 </i>
   </energy>
  </scstep>
  <scstep>
   <time name="diag">    0.03    0.03</time>
   <time name="diis">    0.02    0.02</time>
   <time name="orth">    0.00    0.00</time>
   <time name="total">    0.06    0.06</time>
   <energy>
    <i name="e_fr_energy">    -18.18447963 </i>
    <i name="e_wo_entrp">    -18.18447963 </i>
    <i name="e_0_energy">    -18.18447963 </i>
   </energy>
  </scstep>
  <scstep>
   <time name="diag">    0.03    0.03</time>
   <time name="diis">    0.02    0.02</time>
   <time name="orth">    0.00    0.00</time>
   <time name="total">    0.06    0.06</time>
   <energy>
    <i name="e_fr_energy">    -18.18820679 </i>
    <i name="e_wo_entrp">    -18.18820679 </i>
    <i name="e_0_energy">    -18.18820679 </i>
   </energy>
  </scstep>
  <scstep>
   <time name="diag">    0.03    0.03</time>
   <time name="diis">    0.02    0.02</time>
   <time name="orth">    0.00    0.00</time>
   <time name="total">    0.06    0.06</time>
   <energy>
    <i name="e_fr_energy">    -18.18841787 </i>
    <i name="e_wo_entrp">    -18.18841787 </i>
    <i name="e_0_energy">    -18.18841787 </i>
   </energy>
  </scstep>
  <scstep>
   <time name="diag">    0.03    0.03</time>
   <time name="diis">    0.02    0.02</time>
   <time name="orth">    0.00    0.00</time>
   <time name="total">    0.06    0.06</time>
   <energy>
    <i name="e_fr_energy">    -18.18844443 </i>
    <i name="e_wo_entrp">    -18.18844443 </i>
    <i name="e_0_energy">    -18.18844443 </i>
   </energy>
  </scstep>
  <scstep>
   <time name="diag">    0.03    0.03</time>
   <time name="diis">    0.02    0.02</time>
   <time name="orth">    0.00    0.00</time>
   <time name="total">    0.06    0.06</time>
   <energy>
    <i name="e_fr_energy">    -18.18844771 </i>
    <i name="e_wo_entrp">    -18.18844771 </i>
    <i name="e_0_energy">    -18.18844771 </i>
   </energy>
  </scstep>
  <scstep>
   <time name="diag">    0.03    0.03</time>
   <time name="diis">    0.02    0.02</time>
   <time name="orth">    0.00    0.00</time>
   <time name="total">    0.05    0.05</time>
   <energy>
    <i name="alphaZ">     29.13132251 </i>
    <i name="ewald">   -348.62358043 </i>
    <i name="hartreedc">    -26.32562961 </i>
    <i name="XCdc">     28.24897212 </i>
    <i name="pawpsdc">    766.31451194 </i>
    <i name="pawaedc">   -767.65326922 </i>
    <i name="eentropy">     -0.00000000 </i>
    <i name="bandstr">      6.41864849 </i>
    <i name="atom">    294.30057552 </i>
    <i name="e_fr_energy">    -18.18844868 </i>
    <i name="e_wo_entrp">    -18.18844868 </i>
    <i name="e_0_energy">    -18.18844868 </i>
   </energy>
  </scstep>
  <structure>
   <crystal>
    <varray name="basis" >
     <v>       2.51730013       0.00000000       0.00000000 </v>
     <v>       1.25865006       2.18004586       0.00000000 </v>
     <v>       1.25865006       0.72668195       2.05536695 </v>
    </varray>
    <i name="volume">     11.27950384 </i>
    <varray name="rec_basis" >
     <v>       0.39725100      -0.22935297      -0.16217704 </v>
     <v>       0.00000000       0.45870595      -0.16217704 </v>
     <v>       0.00000000       0.00000000       0.48653113 </v>
    </varray>
   </crystal>
   <varray name="positions" >
    <v>       0.25000000       0.25000000       0.25000000 </v>
    <v>       0.00000000       0.00000000       0.00000000 </v>
   </varray>
  </structure>
  <varray name="forces" >
   <v>      -0.00000000      -0.00000000      -0.00000000 </v>
   <v>       0.00000000       0.00000000       0.00000000 </v>
  </varray>
  <varray name="stress" >
   <v>      42.88993257       0.00000000       0.00000000 </v>
   <v>       0.00000000      42.88993257      -0.00000000 </v>
   <v>       0.00000000      -0.00000000      42.88993257 </v>
  </varray>
  <energy>
   <i name="e_fr_energy">    -18.18844868 </i>
   <i name="e_wo_entrp">    -18.18844868 </i>
   <i name="e_0_energy">    -18.18844868 </i>
  </energy>
  <time name="totalsc">    0.78    0.79</time>
  <eigenvalues>
   <array>
    <dimension dim="1">band</dimension>
    <dimension dim="2">kpoint</dimension>
    <dimension dim="3">spin</dimension>
    <field>eigene</field>
    <field>occ</field>
    <set>
     <set comment="spin 1">
      <set comment="kpoint 1">
       <r>  -11.7418    1.0000 </r>
       <r>    9.8115    1.0000 </r>
       <r>    9.8115    1.0000 </r>
       <r>    9.8115    1.0000 </r>
       <r>   15.4172    0.0000 </r>
       <r>   15.4172    0.0000 </r>
       <r>   15.4172    0.0000 </r>
       <r>   23.2731    0.0000 </r>
      </set>
      <set comment="kpoint 2">
       <r>  -11.4641    1.0000 </r>
       <r>    8.1283    1.0000 </r>
       <r>    9.3622    1.0000 </r>
       <r>    9.3622    1.0000 </r>
       <r>   16.0072    0.0000 </r>
       <r>   16.0072    0.0000 </r>
       <r>   16.3702    0.0000 </r>
       <r>   23.5034    0.0000 </r>
      </set>
      <set comment="kpoint 3">
       <r>  -10.6354    1.0000 </r>
       <r>    4.9105    1.0000 </r>
       <r>    8.4813    1.0000 </r>
       <r>    8.4813    1.0000 </r>
       <r>   17.1436    0.0000 </r>
       <r>   17.1436    0.0000 </r>
       <r>   17.5956    0.0000 </r>
       <r>   24.1418    0.0000 </r>
      </set>
      <set comment="kpoint 4">
       <r>   -9.2762    1.0000 </r>
       <r>    1.4984    1.0000 </r>
       <r>    7.6867    1.0000 </r>
       <r>    7.6867    1.0000 </r>
       <r>   17.9682    0.0000 </r>
       <r>   17.9682    0.0000 </r>
       <r>   18.3036    0.0000 </r>
       <r>   24.9190    0.0000 </r>
      </set>
      <set comment="kpoint 5">
       <r>   -7.4575    1.0000 </r>
       <r>   -1.6467    1.0000 </r>
       <r>    7.1724    1.0000 </r>
       <r>    7.1724    1.0000 </r>
       <r>   18.2571    0.0000 </r>
       <r>   18.2571    0.0000 </r>
       <r>   18.6374    0.0000 </r>
       <r>   25.4254    0.0000 </r>
      </set>
      <set comment="kpoint 6">
       <r>   -5.9343    1.0000 </r>
       <r>   -3.6252    1.0000 </r>
       <r>    6.9970    1.0000 </r>
       <r>    6.9970    1.0000 </r>
       <r>   18.2940    0.0000 </r>
       <r>   18.2940    0.0000 </r>
       <r>   18.7362    0.0000 </r>
       <r>   25.5600    0.0000 </r>
      </set>
      <set comment="kpoint 7">
       <r>  -11.3715    1.0000 </r>
       <r>    8.5771    1.0000 </r>
       <r>    8.5771    1.0000 </r>
       <r>    8.9406    1.0000 </r>
       <r>   15.1420    0.0000 </r>
       <r>   16.9691    0.0000 </r>
       <r>   16.9691    0.0000 </r>
       <r>   23.3698    0.0000 </r>
      </set>
      <set comment="kpoint 8">
       <r>  -10.7267    1.0000 </r>
       <r>    6.0297    1.0000 </r>
       <r>    7.6045    1.0000 </r>
       <r>    8.4706    1.0000 </r>
       <r>   15.5700    0.0000 </r>
       <r>   18.2775    0.0000 </r>
       <r>   18.2988    0.0000 </r>
       <r>   23.2710    0.0000 </r>
      </set>
      <set comment="kpoint 9">
       <r>   -9.5437    1.0000 </r>
       <r>    2.7455    1.0000 </r>
       <r>    6.8553    1.0000 </r>
       <r>    7.5989    1.0000 </r>
       <r>   16.6122    0.0000 </r>
       <r>   19.1369    0.0000 </r>
       <r>   19.2291    0.0000 </r>
       <r>   23.4581    0.0000 </r>
      </set>
      <set comment="kpoint 10">
       <r>   -7.8680    1.0000 </r>
       <r>   -0.4656    1.0000 </r>
       <r>    6.4775    1.0000 </r>
       <r>    6.7254    1.0000 </r>
       <r>   17.3308    0.0000 </r>
       <r>   19.4457    0.0000 </r>
       <r>   19.5429    0.0000 </r>
       <r>   24.3458    0.0000 </r>
      </set>
      <set comment="kpoint 11">
       <r>   -5.9906    1.0000 </r>
       <r>   -3.0754    1.0000 </r>
       <r>    6.0883    1.0000 </r>
       <r>    6.5063    1.0000 </r>
       <r>   17.7355    0.0000 </r>
       <r>   19.1966    0.0000 </r>
       <r>   19.6743    0.0000 </r>
       <r>   25.3470    0.0000 </r>
      </set>
      <set comment="kpoint 12">
       <r>   -6.5745    1.0000 </r>
       <r>   -2.3400    1.0000 </r>
       <r>    5.7933    1.0000 </r>
       <r>    6.9208    1.0000 </r>
       <r>   18.1345    0.0000 </r>
       <r>   18.7758    0.0000 </r>
       <r>   19.6123    0.0000 </r>
       <r>   25.4222    0.0000 </r>
      </set>
      <set comment="kpoint 13">
       <r>   -8.4762    1.0000 </r>
       <r>    0.5824    1.0000 </r>
       <r>    5.8931    1.0000 </r>
       <r>    7.6551    1.0000 </r>
       <r>   18.1599    0.0000 </r>
       <r>   18.4626    0.0000 </r>
       <r>   19.3099    0.0000 </r>
       <r>   24.6143    0.0000 </r>
      </set>
      <set comment="kpoint 14">
       <r>   -9.9966    1.0000 </r>
       <r>    3.8672    1.0000 </r>
       <r>    6.4063    1.0000 </r>
       <r>    8.5692    1.0000 </r>
       <r>   17.1837    0.0000 </r>
       <r>   18.3362    0.0000 </r>
       <r>   18.5152    0.0000 </r>
       <r>   23.9153    0.0000 </r>
      </set>
      <set comment="kpoint 15">
       <r>  -11.0026    1.0000 </r>
       <r>    6.8683    1.0000 </r>
       <r>    7.4681    1.0000 </r>
       <r>    9.3340    1.0000 </r>
       <r>   16.1657    0.0000 </r>
       <r>   17.1920    0.0000 </r>
       <r>   17.5089    0.0000 </r>
       <r>   23.6643    0.0000 </r>
      </set>
      <set comment="kpoint 16">
       <r>  -10.2678    1.0000 </r>
       <r>    6.5668    1.0000 </r>
       <r>    6.5668    1.0000 </r>
       <r>    6.7202    1.0000 </r>
       <r>   14.5497    0.0000 </r>
       <r>   19.8962    0.0000 </r>
       <r>   19.8962    0.0000 </r>
       <r>   21.7059    0.0000 </r>
      </set>
      <set comment="kpoint 17">
       <r>   -9.2690    1.0000 </r>
       <r>    3.9602    1.0000 </r>
       <r>    5.7737    1.0000 </r>
       <r>    6.1510    1.0000 </r>
       <r>   14.9790    0.0000 </r>
       <r>   20.6443    0.0000 </r>
       <r>   21.1371    0.0000 </r>
       <r>   21.1723    0.0000 </r>
      </set>
      <set comment="kpoint 18">
       <r>   -7.7631    1.0000 </r>
       <r>    0.9856    1.0000 </r>
       <r>    5.0897    1.0000 </r>
       <r>    5.3862    1.0000 </r>
       <r>   15.9285    0.0000 </r>
       <r>   21.0861    0.0000 </r>
       <r>   21.6467    0.0000 </r>
       <r>   21.7410    0.0000 </r>
      </set>
      <set comment="kpoint 19">
       <r>   -5.8900    1.0000 </r>
       <r>   -1.7649    1.0000 </r>
       <r>    4.0868    1.0000 </r>
       <r>    5.4513    1.0000 </r>
       <r>   16.5085    0.0000 </r>
       <r>   21.3866    0.0000 </r>
       <r>   21.9355    0.0000 </r>
       <r>   23.1225    0.0000 </r>
      </set>
      <set comment="kpoint 20">
       <r>   -5.3399    1.0000 </r>
       <r>   -2.4234    1.0000 </r>
       <r>    3.4125    1.0000 </r>
       <r>    5.9506    1.0000 </r>
       <r>   17.0810    0.0000 </r>
       <r>   20.7026    0.0000 </r>
       <r>   21.9093    0.0000 </r>
       <r>   25.1078    0.0000 </r>
      </set>
      <set comment="kpoint 21">
       <r>   -7.1755    1.0000 </r>
       <r>    0.0957    1.0000 </r>
       <r>    3.1902    1.0000 </r>
       <r>    6.8028    1.0000 </r>
       <r>   17.8203    0.0000 </r>
       <r>   19.6801    0.0000 </r>
       <r>   21.5959    0.0000 </r>
       <r>   24.3340    0.0000 </r>
      </set>
      <set comment="kpoint 22">
       <r>   -8.8266    1.0000 </r>
       <r>    2.8104    1.0000 </r>
       <r>    3.7766    1.0000 </r>
       <r>    7.8157    1.0000 </r>
       <r>   18.3296    0.0000 </r>
       <r>   18.4297    0.0000 </r>
       <r>   20.3502    0.0000 </r>
       <r>   23.5524    0.0000 </r>
      </set>
      <set comment="kpoint 23">
       <r>   -8.4574    1.0000 </r>
       <r>    3.7186    1.0000 </r>
       <r>    4.8980    1.0000 </r>
       <r>    4.8980    1.0000 </r>
       <r>   14.0593    0.0000 </r>
       <r>   18.5168    0.0000 </r>
       <r>   22.9654    0.0000 </r>
       <r>   22.9654    0.0000 </r>
      </set>
      <set comment="kpoint 24">
       <r>   -7.1337    1.0000 </r>
       <r>    1.7350    1.0000 </r>
       <r>    3.7971    1.0000 </r>
       <r>    4.4247    1.0000 </r>
       <r>   14.6183    0.0000 </r>
       <r>   17.8524    0.0000 </r>
       <r>   23.9572    0.0000 </r>
       <r>   24.0181    0.0000 </r>
      </set>
      <set comment="kpoint 25">
       <r>   -5.3835    1.0000 </r>
       <r>   -0.4559    1.0000 </r>
       <r>    2.2553    1.0000 </r>
       <r>    4.4210    1.0000 </r>
       <r>   15.3844    0.0000 </r>
       <r>   19.3971    0.0000 </r>
       <r>   23.9347    0.0000 </r>
       <r>   24.4030    0.0000 </r>
      </set>
      <set comment="kpoint 26">
       <r>   -4.0232    1.0000 </r>
       <r>   -1.8986    1.0000 </r>
       <r>    1.1026    1.0000 </r>
       <r>    4.8829    1.0000 </r>
       <r>   15.9647    0.0000 </r>
       <r>   22.4416    0.0000 </r>
       <r>   23.0911    0.0000 </r>
       <r>   24.4854    0.0000 </r>
      </set>
      <set comment="kpoint 27">
       <r>   -5.4672    1.0000 </r>
       <r>   -0.3638    1.0000 </r>
       <r>    0.9025    1.0000 </r>
       <r>    5.7390    1.0000 </r>
       <r>   16.8092    0.0000 </r>
       <r>   21.5843    0.0000 </r>
       <r>   24.0040    0.0000 </r>
       <r>   24.4031    0.0000 </r>
      </set>
      <set comment="kpoint 28">
       <r>   -5.9963    1.0000 </r>
       <r>    0.3510    1.0000 </r>
       <r>    3.8391    1.0000 </r>
       <r>    3.8391    1.0000 </r>
       <r>   13.9929    0.0000 </r>
       <r>   16.0352    0.0000 </r>
       <r>   25.5671    0.0000 </r>
       <r>   25.5671    0.0000 </r>
      </set>
      <set comment="kpoint 29">
       <r>   -4.4098    1.0000 </r>
       <r>   -1.2884    1.0000 </r>
       <r>    2.7247    1.0000 </r>
       <r>    3.7224    1.0000 </r>
       <r>   14.6656    0.0000 </r>
       <r>   16.1376    0.0000 </r>
       <r>   25.9446    0.0000 </r>
       <r>   26.1354    0.0000 </r>
      </set>
      <set comment="kpoint 30">
       <r>   -2.9383    1.0000 </r>
       <r>   -2.3299    1.0000 </r>
       <r>    0.9873    1.0000 </r>
       <r>    4.0880    1.0000 </r>
       <r>   15.1771    0.0000 </r>
       <r>   18.8404    0.0000 </r>
       <r>   25.0349    0.0000 </r>
       <r>   25.8892    0.0000 </r>
      </set>
      <set comment="kpoint 31">
       <r>   -2.9934    1.0000 </r>
       <r>   -2.9934    1.0000 </r>
       <r>    3.4786    1.0000 </r>
       <r>    3.4786    1.0000 </r>
       <r>   14.5819    0.0000 </r>
       <r>   14.5819    0.0000 </r>
       <r>   26.7020    0.0000 </r>
       <r>   26.7020    0.0000 </r>
      </set>
      <set comment="kpoint 32">
       <r>   -9.9045    1.0000 </r>
       <r>    4.7594    1.0000 </r>
       <r>    5.5668    1.0000 </r>
       <r>    7.9022    1.0000 </r>
       <r>   15.9634    0.0000 </r>
       <r>   19.2519    0.0000 </r>
       <r>   19.8415    0.0000 </r>
       <r>   22.5086    0.0000 </r>
      </set>
      <set comment="kpoint 33">
       <r>   -8.5585    1.0000 </r>
       <r>    1.9210    1.0000 </r>
       <r>    4.6944    1.0000 </r>
       <r>    7.0038    1.0000 </r>
       <r>   17.0932    0.0000 </r>
       <r>   19.4257    0.0000 </r>
       <r>   21.0897    0.0000 </r>
       <r>   22.5744    0.0000 </r>
      </set>
      <set comment="kpoint 34">
       <r>   -6.7652    1.0000 </r>
       <r>   -1.0582    1.0000 </r>
       <r>    4.4570    1.0000 </r>
       <r>    6.1324    1.0000 </r>
       <r>   17.8343    0.0000 </r>
       <r>   19.1654    0.0000 </r>
       <r>   21.6380    0.0000 </r>
       <r>   23.9960    0.0000 </r>
      </set>
      <set comment="kpoint 35">
       <r>   -5.2825    1.0000 </r>
       <r>   -2.9593    1.0000 </r>
       <r>    4.4510    1.0000 </r>
       <r>    5.7465    1.0000 </r>
       <r>   18.0237    0.0000 </r>
       <r>   19.0199    0.0000 </r>
       <r>   21.7977    0.0000 </r>
       <r>   25.1460    0.0000 </r>
      </set>
      <set comment="kpoint 36">
       <r>   -8.1071    1.0000 </r>
       <r>    2.7199    1.0000 </r>
       <r>    3.9711    1.0000 </r>
       <r>    5.4539    1.0000 </r>
       <r>   15.5324    0.0000 </r>
       <r>   19.6120    0.0000 </r>
       <r>   21.6825    0.0000 </r>
       <r>   22.9945    0.0000 </r>
      </set>
      <set comment="kpoint 37">
       <r>   -6.4718    1.0000 </r>
       <r>    0.3717    1.0000 </r>
       <r>    3.0841    1.0000 </r>
       <r>    4.6096    1.0000 </r>
       <r>   16.6698    0.0000 </r>
       <r>   20.1282    0.0000 </r>
       <r>   21.6768    0.0000 </r>
       <r>   24.0805    0.0000 </r>
      </set>
      <set comment="kpoint 38">
       <r>   -4.6744    1.0000 </r>
       <r>   -1.9057    1.0000 </r>
       <r>    2.4396    1.0000 </r>
       <r>    4.4435    1.0000 </r>
       <r>   17.2811    0.0000 </r>
       <r>   20.8647    0.0000 </r>
       <r>   22.8143    0.0000 </r>
       <r>   24.2492    0.0000 </r>
      </set>
      <set comment="kpoint 39">
       <r>   -5.2515    1.0000 </r>
       <r>   -1.1790    1.0000 </r>
       <r>    1.9695    1.0000 </r>
       <r>    5.0190    1.0000 </r>
       <r>   17.9248    0.0000 </r>
       <r>   20.1731    0.0000 </r>
       <r>   23.3617    0.0000 </r>
       <r>   24.4148    0.0000 </r>
      </set>
      <set comment="kpoint 40">
       <r>   -7.0788    1.0000 </r>
       <r>    1.1083    1.0000 </r>
       <r>    2.2750    1.0000 </r>
       <r>    6.0074    1.0000 </r>
       <r>   18.7182    0.0000 </r>
       <r>   18.7715    0.0000 </r>
       <r>   22.4834    0.0000 </r>
       <r>   23.1682    0.0000 </r>
      </set>
      <set comment="kpoint 41">
       <r>   -5.6780    1.0000 </r>
       <r>    0.2601    1.0000 </r>
       <r>    2.9906    1.0000 </r>
       <r>    3.4844    1.0000 </r>
       <r>   15.4645    0.0000 </r>
       <r>   17.3357    0.0000 </r>
       <r>   24.1516    0.0000 </r>
       <r>   25.5089    0.0000 </r>
      </set>
      <set comment="kpoint 42">
       <r>   -3.9008    1.0000 </r>
       <r>   -1.2851    1.0000 </r>
       <r>    1.4226    1.0000 </r>
       <r>    3.3605    1.0000 </r>
       <r>   16.4362    0.0000 </r>
       <r>   19.0854    0.0000 </r>
       <r>   23.7962    0.0000 </r>
       <r>   25.3929    0.0000 </r>
      </set>
      <set comment="kpoint 43">
       <r>   -3.6024    1.0000 </r>
       <r>   -1.4580    1.0000 </r>
       <r>    0.4453    1.0000 </r>
       <r>    3.9796    1.0000 </r>
       <r>   17.0585    0.0000 </r>
       <r>   22.1485    0.0000 </r>
       <r>   22.8478    0.0000 </r>
       <r>   24.1746    0.0000 </r>
      </set>
      <set comment="kpoint 44">
       <r>   -2.7664    1.0000 </r>
       <r>   -2.7664    1.0000 </r>
       <r>    2.7653    1.0000 </r>
       <r>    2.7653    1.0000 </r>
       <r>   16.0000    0.0000 </r>
       <r>   16.0000    0.0000 </r>
       <r>   25.9282    0.0000 </r>
       <r>   25.9282    0.0000 </r>
      </set>
      <set comment="kpoint 45">
       <r>   -4.7816    1.0000 </r>
       <r>   -0.3815    1.0000 </r>
       <r>    1.4478    1.0000 </r>
       <r>    3.3943    1.0000 </r>
       <r>   18.7993    0.0000 </r>
       <r>   19.6908    0.0000 </r>
       <r>   21.6347    0.0000 </r>
       <r>   24.9802    0.0000 </r>
      </set>
      <set comment="kpoint 46">
       <r>   -3.4047    1.0000 </r>
       <r>   -1.5956    1.0000 </r>
       <r>    1.1334    1.0000 </r>
       <r>    2.8096    1.0000 </r>
       <r>   19.2857    0.0000 </r>
       <r>   20.4079    0.0000 </r>
       <r>   22.8900    0.0000 </r>
       <r>   23.1172    0.0000 </r>
      </set>
      <set comment="kpoint 47">
       <r>   -2.2951    1.0000 </r>
       <r>   -2.2951    1.0000 </r>
       <r>    1.6408    1.0000 </r>
       <r>    1.6408    1.0000 </r>
       <r>   19.2179    0.0000 </r>
       <r>   19.2179    0.0000 </r>
       <r>   23.3727    0.0000 </r>
       <r>   23.3727    0.0000 </r>
      </set>
     </set>
    </set>
   </array>
  </eigenvalues>
  <separator name="orbital magnetization" >
   <v name="MAGDIPOLOUT">      0.00000000      0.00000000      0.00000000</v>
  </separator>
  <dos>
   <i name="efermi">     10.59295516 </i>
   <total>
    <array>
     <dimension dim="1">gridpoints</dimension>
     <dimension dim="2">spin</dimension>
     <field>energy</field>
     <field>total</field>
     <field>integrated</field>
     <set>
      <set comment="spin 1">
       <r>   -13.7418     0.0000     0.0000 </r>
       <r>   -13.6003     0.0000     0.0000 </r>
       <r>   -13.4588     0.0000     0.0000 </r>
       <r>   -13.3173     0.0000     0.0000 </r>
       <r>   -13.1759     0.0000     0.0000 </r>
       <r>   -13.0344     0.0000     0.0000 </r>
       <r>   -12.8929     0.0000     0.0000 </r>
       <r>   -12.7514     0.0000     0.0000 </r>
       <r>   -12.6099     0.0000     0.0000 </r>
       <r>   -12.4685     0.0000     0.0000 </r>
       <r>   -12.3270     0.0000     0.0000 </r>
       <r>   -12.1855     0.0000     0.0000 </r>
       <r>   -12.0440     0.0002     0.0000 </r>
       <r>   -11.9025     0.0017     0.0003 </r>
       <r>   -11.7611     0.0066     0.0012 </r>
       <r>   -11.6196     0.0215     0.0043 </r>
       <r>   -11.4781     0.0548     0.0120 </r>
       <r>   -11.3366     0.0737     0.0224 </r>
       <r>   -11.1951     0.0560     0.0304 </r>
       <r>   -11.0537     0.0607     0.0390 </r>
       <r>   -10.9122     0.0969     0.0527 </r>
       <r>   -10.7707     0.1481     0.0736 </r>
       <r>   -10.6292     0.1755     0.0985 </r>
       <r>   -10.4877     0.1110     0.1142 </r>
       <r>   -10.3463     0.0507     0.1213 </r>
       <r>   -10.2048     0.0629     0.1302 </r>
       <r>   -10.0633     0.1445     0.1507 </r>
       <r>    -9.9218     0.2456     0.1854 </r>
       <r>    -9.7804     0.2170     0.2161 </r>
       <r>    -9.6389     0.1448     0.2366 </r>
       <r>    -9.4974     0.1622     0.2595 </r>
       <r>    -9.3559     0.1947     0.2871 </r>
       <r>    -9.2144     0.2008     0.3155 </r>
       <r>    -9.0730     0.1292     0.3338 </r>
       <r>    -8.9315     0.0680     0.3434 </r>
       <r>    -8.7900     0.1035     0.3581 </r>
       <r>    -8.6485     0.2335     0.3911 </r>
       <r>    -8.5070     0.3999     0.4477 </r>
       <r>    -8.3656     0.3545     0.4978 </r>
       <r>    -8.2241     0.1910     0.5249 </r>
       <r>    -8.0826     0.1690     0.5488 </r>
       <r>    -7.9411     0.2190     0.5797 </r>
       <r>    -7.7996     0.2663     0.6174 </r>
       <r>    -7.6582     0.2227     0.6489 </r>
       <r>    -7.5167     0.1187     0.6657 </r>
       <r>    -7.3752     0.1017     0.6801 </r>
       <r>    -7.2337     0.2221     0.7115 </r>
       <r>    -7.0922     0.3800     0.7653 </r>
       <r>    -6.9508     0.3524     0.8152 </r>
       <r>    -6.8093     0.3118     0.8593 </r>
       <r>    -6.6678     0.3902     0.9145 </r>
       <r>    -6.5263     0.4462     0.9776 </r>
       <r>    -6.3848     0.3820     1.0317 </r>
       <r>    -6.2434     0.1939     1.0591 </r>
       <r>    -6.1019     0.1397     1.0789 </r>
       <r>    -5.9604     0.2668     1.1166 </r>
       <r>    -5.8189     0.3265     1.1628 </r>
       <r>    -5.6774     0.2702     1.2010 </r>
       <r>    -5.5360     0.2769     1.2402 </r>
       <r>    -5.3945     0.4664     1.3062 </r>
       <r>    -5.2530     0.6524     1.3985 </r>
       <r>    -5.1115     0.4748     1.4657 </r>
       <r>    -4.9701     0.1929     1.4930 </r>
       <r>    -4.8286     0.1974     1.5209 </r>
       <r>    -4.6871     0.3589     1.5717 </r>
       <r>    -4.5456     0.3587     1.6224 </r>
       <r>    -4.4041     0.2380     1.6561 </r>
       <r>    -4.2627     0.1502     1.6773 </r>
       <r>    -4.1212     0.1493     1.6985 </r>
       <r>    -3.9797     0.2913     1.7397 </r>
       <r>    -3.8382     0.3748     1.7927 </r>
       <r>    -3.6967     0.2908     1.8338 </r>
       <r>    -3.5553     0.2412     1.8680 </r>
       <r>    -3.4138     0.2285     1.9003 </r>
       <r>    -3.2723     0.1831     1.9262 </r>
       <r>    -3.1308     0.2044     1.9551 </r>
       <r>    -2.9893     0.3341     2.0024 </r>
       <r>    -2.8479     0.3692     2.0546 </r>
       <r>    -2.7064     0.2638     2.0919 </r>
       <r>    -2.5649     0.1903     2.1189 </r>
       <r>    -2.4234     0.3036     2.1618 </r>
       <r>    -2.2819     0.4362     2.2235 </r>
       <r>    -2.1405     0.3377     2.2713 </r>
       <r>    -1.9990     0.3084     2.3149 </r>
       <r>    -1.8575     0.4830     2.3833 </r>
       <r>    -1.7160     0.5099     2.4554 </r>
       <r>    -1.5745     0.4235     2.5153 </r>
       <r>    -1.4331     0.4513     2.5792 </r>
       <r>    -1.2916     0.6447     2.6704 </r>
       <r>    -1.1501     0.7860     2.7816 </r>
       <r>    -1.0086     0.6150     2.8686 </r>
       <r>    -0.8672     0.2800     2.9082 </r>
       <r>    -0.7257     0.0866     2.9205 </r>
       <r>    -0.5842     0.1482     2.9414 </r>
       <r>    -0.4427     0.3699     2.9938 </r>
       <r>    -0.3012     0.4122     3.0521 </r>
       <r>    -0.1598     0.2086     3.0816 </r>
       <r>    -0.0183     0.1098     3.0971 </r>
       <r>     0.1232     0.2090     3.1267 </r>
       <r>     0.2647     0.4001     3.1833 </r>
       <r>     0.4062     0.5635     3.2630 </r>
       <r>     0.5476     0.5019     3.3340 </r>
       <r>     0.6891     0.2887     3.3749 </r>
       <r>     0.8306     0.2078     3.4043 </r>
       <r>     0.9721     0.3820     3.4583 </r>
       <r>     1.1136     0.5812     3.5405 </r>
       <r>     1.2550     0.5394     3.6168 </r>
       <r>     1.3965     0.4949     3.6869 </r>
       <r>     1.5380     0.5359     3.7627 </r>
       <r>     1.6795     0.4802     3.8306 </r>
       <r>     1.8210     0.4951     3.9007 </r>
       <r>     1.9624     0.6004     3.9856 </r>
       <r>     2.1039     0.5333     4.0611 </r>
       <r>     2.2454     0.4263     4.1214 </r>
       <r>     2.3869     0.4603     4.1865 </r>
       <r>     2.5284     0.4674     4.2526 </r>
       <r>     2.6698     0.5715     4.3335 </r>
       <r>     2.8113     0.7733     4.4429 </r>
       <r>     2.9528     0.7170     4.5443 </r>
       <r>     3.0943     0.6141     4.6312 </r>
       <r>     3.2358     0.6293     4.7202 </r>
       <r>     3.3772     0.7281     4.8232 </r>
       <r>     3.5187     0.7122     4.9240 </r>
       <r>     3.6602     0.5622     5.0035 </r>
       <r>     3.8017     0.6637     5.0974 </r>
       <r>     3.9431     0.8439     5.2168 </r>
       <r>     4.0846     0.7548     5.3236 </r>
       <r>     4.2261     0.5296     5.3985 </r>
       <r>     4.3676     0.7005     5.4976 </r>
       <r>     4.5091     1.1235     5.6566 </r>
       <r>     4.6505     1.1278     5.8162 </r>
       <r>     4.7920     0.8913     5.9423 </r>
       <r>     4.9335     0.7337     6.0461 </r>
       <r>     5.0750     0.6226     6.1342 </r>
       <r>     5.2165     0.4280     6.1947 </r>
       <r>     5.3579     0.3756     6.2479 </r>
       <r>     5.4994     0.5152     6.3207 </r>
       <r>     5.6409     0.5876     6.4039 </r>
       <r>     5.7824     0.7042     6.5035 </r>
       <r>     5.9239     0.8720     6.6269 </r>
       <r>     6.0653     0.9759     6.7649 </r>
       <r>     6.2068     0.8538     6.8857 </r>
       <r>     6.3483     0.5702     6.9664 </r>
       <r>     6.4898     0.5060     7.0380 </r>
       <r>     6.6313     0.5360     7.1138 </r>
       <r>     6.7727     0.6098     7.2001 </r>
       <r>     6.9142     0.7535     7.3067 </r>
       <r>     7.0557     0.6907     7.4044 </r>
       <r>     7.1972     0.4046     7.4617 </r>
       <r>     7.3387     0.1951     7.4892 </r>
       <r>     7.4801     0.2512     7.5248 </r>
       <r>     7.6216     0.4823     7.5930 </r>
       <r>     7.7631     0.5417     7.6697 </r>
       <r>     7.9046     0.3802     7.7235 </r>
       <r>     8.0461     0.2126     7.7535 </r>
       <r>     8.1875     0.1119     7.7694 </r>
       <r>     8.3290     0.1310     7.7879 </r>
       <r>     8.4705     0.2972     7.8299 </r>
       <r>     8.6120     0.3881     7.8848 </r>
       <r>     8.7534     0.2342     7.9180 </r>
       <r>     8.8949     0.0821     7.9296 </r>
       <r>     9.0364     0.0434     7.9357 </r>
       <r>     9.1779     0.0567     7.9438 </r>
       <r>     9.3194     0.1230     7.9612 </r>
       <r>     9.4608     0.1461     7.9818 </r>
       <r>     9.6023     0.0739     7.9923 </r>
       <r>     9.7438     0.0244     7.9957 </r>
       <r>     9.8853     0.0173     7.9982 </r>
       <r>    10.0268     0.0101     7.9996 </r>
       <r>    10.1682     0.0025     8.0000 </r>
       <r>    10.3097     0.0002     8.0000 </r>
       <r>    10.4512     0.0000     8.0000 </r>
       <r>    10.5927     0.0000     8.0000 </r>
       <r>    10.7342     0.0000     8.0000 </r>
       <r>    10.8756     0.0000     8.0000 </r>
       <r>    11.0171     0.0000     8.0000 </r>
       <r>    11.1586     0.0000     8.0000 </r>
       <r>    11.3001     0.0000     8.0000 </r>
       <r>    11.4416     0.0000     8.0000 </r>
       <r>    11.5830     0.0000     8.0000 </r>
       <r>    11.7245     0.0000     8.0000 </r>
       <r>    11.8660     0.0000     8.0000 </r>
       <r>    12.0075     0.0000     8.0000 </r>
       <r>    12.1490     0.0000     8.0000 </r>
       <r>    12.2904     0.0000     8.0000 </r>
       <r>    12.4319     0.0000     8.0000 </r>
       <r>    12.5734     0.0000     8.0000 </r>
       <r>    12.7149     0.0000     8.0000 </r>
       <r>    12.8563     0.0000     8.0000 </r>
       <r>    12.9978     0.0000     8.0000 </r>
       <r>    13.1393     0.0000     8.0000 </r>
       <r>    13.2808     0.0000     8.0000 </r>
       <r>    13.4223     0.0000     8.0000 </r>
       <r>    13.5637     0.0001     8.0000 </r>
       <r>    13.7052     0.0022     8.0003 </r>
       <r>    13.8467     0.0161     8.0026 </r>
       <r>    13.9882     0.0490     8.0095 </r>
       <r>    14.1297     0.0622     8.0183 </r>
       <r>    14.2711     0.0389     8.0238 </r>
       <r>    14.4126     0.0617     8.0326 </r>
       <r>    14.5541     0.2024     8.0612 </r>
       <r>    14.6956     0.3219     8.1067 </r>
       <r>    14.8371     0.2558     8.1429 </r>
       <r>    14.9785     0.1949     8.1705 </r>
       <r>    15.1200     0.2074     8.1999 </r>
       <r>    15.2615     0.2385     8.2336 </r>
       <r>    15.4030     0.3687     8.2858 </r>
       <r>    15.5445     0.4921     8.3554 </r>
       <r>    15.6859     0.3946     8.4112 </r>
       <r>    15.8274     0.3513     8.4609 </r>
       <r>    15.9689     0.6185     8.5484 </r>
       <r>    16.1104     0.7299     8.6517 </r>
       <r>    16.2519     0.5219     8.7255 </r>
       <r>    16.3933     0.4666     8.7916 </r>
       <r>    16.5348     0.6184     8.8790 </r>
       <r>    16.6763     0.6501     8.9710 </r>
       <r>    16.8178     0.5024     9.0421 </r>
       <r>    16.9593     0.5040     9.1134 </r>
       <r>    17.1007     0.8514     9.2339 </r>
       <r>    17.2422     1.0838     9.3872 </r>
       <r>    17.3837     0.8848     9.5124 </r>
       <r>    17.5252     0.5135     9.5850 </r>
       <r>    17.6666     0.4332     9.6463 </r>
       <r>    17.8081     0.7683     9.7550 </r>
       <r>    17.9496     1.0491     9.9035 </r>
       <r>    18.0911     0.9711    10.0408 </r>
       <r>    18.2326     0.9395    10.1738 </r>
       <r>    18.3740     0.9902    10.3139 </r>
       <r>    18.5155     0.8374    10.4323 </r>
       <r>    18.6570     0.6952    10.5307 </r>
       <r>    18.7985     0.7407    10.6355 </r>
       <r>    18.9400     0.7668    10.7440 </r>
       <r>    19.0814     1.0084    10.8866 </r>
       <r>    19.2229     1.4572    11.0928 </r>
       <r>    19.3644     1.5133    11.3069 </r>
       <r>    19.5059     1.2798    11.4880 </r>
       <r>    19.6474     1.0994    11.6435 </r>
       <r>    19.7888     0.8518    11.7640 </r>
       <r>    19.9303     0.5404    11.8405 </r>
       <r>    20.0718     0.4869    11.9093 </r>
       <r>    20.2133     0.5988    11.9941 </r>
       <r>    20.3548     0.5070    12.0658 </r>
       <r>    20.4962     0.3483    12.1151 </r>
       <r>    20.6377     0.3378    12.1629 </r>
       <r>    20.7792     0.4330    12.2241 </r>
       <r>    20.9207     0.5249    12.2984 </r>
       <r>    21.0622     0.6654    12.3925 </r>
       <r>    21.2036     0.7126    12.4934 </r>
       <r>    21.3451     0.5190    12.5668 </r>
       <r>    21.4866     0.5763    12.6483 </r>
       <r>    21.6281     1.1139    12.8059 </r>
       <r>    21.7695     1.3743    13.0003 </r>
       <r>    21.9110     0.9539    13.1353 </r>
       <r>    22.0525     0.4962    13.2055 </r>
       <r>    22.1940     0.2797    13.2451 </r>
       <r>    22.3355     0.2826    13.2850 </r>
       <r>    22.4769     0.5144    13.3578 </r>
       <r>    22.6184     0.6813    13.4542 </r>
       <r>    22.7599     0.6736    13.5495 </r>
       <r>    22.9014     0.7779    13.6595 </r>
       <r>    23.0429     0.8853    13.7848 </r>
       <r>    23.1843     0.9273    13.9160 </r>
       <r>    23.3258     0.9225    14.0465 </r>
       <r>    23.4673     0.8198    14.1625 </r>
       <r>    23.6088     0.5851    14.2453 </r>
       <r>    23.7503     0.5458    14.3225 </r>
       <r>    23.8917     0.8999    14.4498 </r>
       <r>    24.0332     1.3321    14.6383 </r>
       <r>    24.1747     1.4217    14.8394 </r>
       <r>    24.3162     1.3156    15.0255 </r>
       <r>    24.4577     1.1500    15.1882 </r>
       <r>    24.5991     0.7408    15.2931 </r>
       <r>    24.7406     0.3325    15.3401 </r>
       <r>    24.8821     0.2256    15.3720 </r>
       <r>    25.0236     0.3738    15.4249 </r>
       <r>    25.1651     0.5104    15.4971 </r>
       <r>    25.3065     0.6088    15.5832 </r>
       <r>    25.4480     0.7473    15.6890 </r>
       <r>    25.5895     0.6147    15.7759 </r>
       <r>    25.7310     0.3238    15.8218 </r>
       <r>    25.8725     0.2906    15.8629 </r>
       <r>    26.0139     0.3810    15.9168 </r>
       <r>    26.1554     0.3064    15.9601 </r>
       <r>    26.2969     0.1501    15.9814 </r>
       <r>    26.4384     0.0439    15.9876 </r>
       <r>    26.5798     0.0191    15.9903 </r>
       <r>    26.7213     0.0309    15.9947 </r>
       <r>    26.8628     0.0270    15.9985 </r>
       <r>    27.0043     0.0095    15.9998 </r>
       <r>    27.1458     0.0013    16.0000 </r>
       <r>    27.2872     0.0001    16.0000 </r>
       <r>    27.4287     0.0000    16.0000 </r>
       <r>    27.5702     0.0000    16.0000 </r>
       <r>    27.7117     0.0000    16.0000 </r>
       <r>    27.8532     0.0000    16.0000 </r>
       <r>    27.9946     0.0000    16.0000 </r>
       <r>    28.1361     0.0000    16.0000 </r>
       <r>    28.2776     0.0000    16.0000 </r>
       <r>    28.4191     0.0000    16.0000 </r>
       <r>    28.5606     0.0000    16.0000 </r>
       <r>    28.7020     0.0000    16.0000 </r>
      </set>
     </set>
    </array>
   </total>
  </dos>
 </calculation>
 <structure name="finalpos" >
  <crystal>
   <varray name="basis" >
    <v>       2.51730013       0.00000000       0.00000000 </v>
    <v>       1.25865006       2.18004586       0.00000000 </v>
    <v>       1.25865006       0.72668195       2.05536695 </v>
   </varray>
   <i name="volume">     11.27950384 </i>
   <varray name="rec_basis" >
    <v>       0.39725100      -0.22935297      -0.16217704 </v>
    <v>       0.00000000       0.45870595      -0.16217704 </v>
    <v>       0.00000000       0.00000000       0.48653113 </v>
   </varray>
  </crystal>
  <varray name="positions" >
   <v>       0.25000000       0.25000000       0.25000000 </v>
   <v>       0.00000000       0.00000000       0.00000000 </v>
  </varray>
 </structure>
</modeling>
