       N       E                     dE             d eps       ncg     rms          rms(c)
DAV:   1     0.249353117160E+04    0.24935E+04   -0.44630E+05  2592   0.128E+03
DAV:   2    -0.169364316862E+04   -0.41872E+04   -0.39468E+04  3112   0.265E+02
DAV:   3    -0.191801932079E+04   -0.22438E+03   -0.22185E+03  3360   0.555E+01
DAV:   4    -0.192184017995E+04   -0.38209E+01   -0.38035E+01  3392   0.723E+00
DAV:   5    -0.192191254986E+04   -0.72370E-01   -0.72283E-01  3336   0.993E-01    0.905E+01
DAV:   6    -0.190909343748E+04    0.12819E+02   -0.87845E+01  3016   0.105E+01    0.508E+01
DAV:   7    -0.193970142384E+04   -0.30608E+02   -0.60205E+01  2952   0.841E+00    0.235E+01
DAV:   8    -0.194475992186E+04   -0.50585E+01   -0.91614E+00  3040   0.374E+00    0.718E+00
DAV:   9    -0.194497495110E+04   -0.21503E+00   -0.32080E-01  3184   0.872E-01    0.583E+00
DAV:  10    -0.194522119487E+04   -0.24624E+00   -0.56713E-01  3256   0.891E-01    0.278E+00
DAV:  11    -0.194524487731E+04   -0.23682E-01   -0.30209E-01  3288   0.795E-01    0.814E-01
DAV:  12    -0.194525625391E+04   -0.11377E-01   -0.79879E-02  3272   0.348E-01    0.527E-01
DAV:  13    -0.194525715243E+04   -0.89852E-03   -0.52201E-03  3192   0.895E-02    0.300E-01
DAV:  14    -0.194525773050E+04   -0.57807E-03   -0.11342E-03  3360   0.609E-02    0.111E-01
DAV:  15    -0.194525787052E+04   -0.14001E-03   -0.61301E-04  3384   0.332E-02    0.394E-02
DAV:  16    -0.194525788630E+04   -0.15789E-04   -0.10581E-04  3336   0.117E-02    0.188E-02
DAV:  17    -0.194525788760E+04   -0.12936E-05   -0.10115E-05  3136   0.449E-03    0.876E-03
DAV:  18    -0.194525788791E+04   -0.31517E-06   -0.19716E-06  2152   0.189E-03
   1 F= -.19452579E+04 E0= -.19452565E+04  d E =-.194526E+04  mag=     0.9997
       N       E                     dE             d eps       ncg     rms          rms(c)
DAV:   1    -0.194509014661E+04    0.16774E+00   -0.29914E+02  2672   0.188E+01    0.472E+00
DAV:   2    -0.194547536575E+04   -0.38522E+00   -0.57064E+00  3376   0.282E+00    0.233E+00
DAV:   3    -0.194543192508E+04    0.43441E-01   -0.28222E-01  3352   0.640E-01    0.130E+00
DAV:   4    -0.194541940169E+04    0.12523E-01   -0.61327E-02  3256   0.295E-01    0.647E-01
DAV:   5    -0.194541996654E+04   -0.56485E-03   -0.97045E-03  3312   0.121E-01    0.297E-01
DAV:   6    -0.194542012794E+04   -0.16140E-03   -0.96925E-04  3352   0.413E-02    0.132E-01
DAV:   7    -0.194542009527E+04    0.32675E-04   -0.29845E-04  3320   0.283E-02    0.588E-02
DAV:   8    -0.194542009803E+04   -0.27660E-05   -0.14664E-04  3296   0.155E-02    0.237E-02
DAV:   9    -0.194542009802E+04    0.14319E-07   -0.18315E-05  3072   0.527E-03    0.118E-02
DAV:  10    -0.194542009755E+04    0.46779E-06   -0.42485E-06  3112   0.294E-03
   2 F= -.19454201E+04 E0= -.19454187E+04  d E =-.162210E+00  mag=     1.0000
       N       E                     dE             d eps       ncg     rms          rms(c)
DAV:   1    -0.194586711371E+04   -0.44702E+00   -0.64671E+01  2704   0.892E+00    0.165E+00
DAV:   2    -0.194594466987E+04   -0.77556E-01   -0.12310E+00  3400   0.131E+00    0.108E+00
DAV:   3    -0.194593487656E+04    0.97933E-02   -0.60795E-02  3344   0.284E-01    0.736E-01
DAV:   4    -0.194593260396E+04    0.22726E-02   -0.82540E-03  3304   0.112E-01    0.477E-01
DAV:   5    -0.194593244948E+04    0.15448E-03   -0.18775E-03  3248   0.551E-02    0.192E-01
DAV:   6    -0.194593238341E+04    0.66065E-04   -0.45489E-04  3256   0.293E-02    0.484E-02
DAV:   7    -0.194593239613E+04   -0.12720E-04   -0.16385E-04  3192   0.157E-02    0.251E-02
DAV:   8    -0.194593239292E+04    0.32145E-05   -0.16795E-05  3288   0.597E-03    0.114E-02
DAV:   9    -0.194593239321E+04   -0.28755E-06   -0.44879E-06  2552   0.265E-03
   3 F= -.19459324E+04 E0= -.19459310E+04  d E =-.674505E+00  mag=     1.0000
       N       E                     dE             d eps       ncg     rms          rms(c)
DAV:   1    -0.194598458227E+04   -0.52189E-01   -0.70441E+01  2672   0.949E+00    0.178E+00
DAV:   2    -0.194606585071E+04   -0.81268E-01   -0.11579E+00  3392   0.128E+00    0.107E+00
DAV:   3    -0.194605674913E+04    0.91016E-02   -0.52708E-02  3376   0.289E-01    0.534E-01
DAV:   4    -0.194605581956E+04    0.92957E-03   -0.13346E-02  3224   0.146E-01    0.292E-01
DAV:   5    -0.194605603169E+04   -0.21213E-03   -0.15614E-03  3280   0.514E-02    0.168E-01
DAV:   6    -0.194605605152E+04   -0.19832E-04   -0.12728E-04  3336   0.187E-02    0.659E-02
DAV:   7    -0.194605605527E+04   -0.37506E-05   -0.93394E-05  3256   0.149E-02    0.262E-02
DAV:   8    -0.194605605551E+04   -0.23152E-06   -0.29186E-05  3312   0.665E-03    0.106E-02
DAV:   9    -0.194605605550E+04    0.10492E-07   -0.28865E-06  2080   0.228E-03
   4 F= -.19460561E+04 E0= -.19460546E+04  d E =-.123662E+00  mag=     1.0000
       N       E                     dE             d eps       ncg     rms          rms(c)
DAV:   1    -0.194608875773E+04   -0.32702E-01   -0.77091E+00  2656   0.315E+00    0.583E-01
DAV:   2    -0.194609776112E+04   -0.90034E-02   -0.13098E-01  3384   0.427E-01    0.354E-01
DAV:   3    -0.194609681700E+04    0.94411E-03   -0.62817E-03  3376   0.947E-02    0.215E-01
DAV:   4    -0.194609672150E+04    0.95504E-04   -0.10197E-03  3224   0.406E-02    0.134E-01
DAV:   5    -0.194609673295E+04   -0.11450E-04   -0.15945E-04  3272   0.164E-02    0.657E-02
DAV:   6    -0.194609673451E+04   -0.15626E-05   -0.23760E-05  3312   0.697E-03    0.140E-02
DAV:   7    -0.194609673622E+04   -0.17066E-05   -0.10184E-05  3016   0.429E-03    0.707E-03
DAV:   8    -0.194609673604E+04    0.18117E-06   -0.12627E-06  1896   0.172E-03
   5 F= -.19460967E+04 E0= -.19460953E+04  d E =-.164343E+00  mag=     1.0000
       N       E                     dE             d eps       ncg     rms          rms(c)
DAV:   1    -0.194610872127E+04   -0.11985E-01   -0.13483E+01  2656   0.462E+00    0.718E-01
DAV:   2    -0.194612494965E+04   -0.16228E-01   -0.21598E-01  3376   0.558E-01    0.415E-01
DAV:   3    -0.194612376530E+04    0.11843E-02   -0.62866E-03  3392   0.112E-01    0.224E-01
DAV:   4    -0.194612363133E+04    0.13397E-03   -0.16564E-03  3312   0.548E-02    0.982E-02
DAV:   5    -0.194612367489E+04   -0.43563E-04   -0.20607E-04  3216   0.206E-02    0.512E-02
DAV:   6    -0.194612368322E+04   -0.83339E-05   -0.21634E-05  3336   0.670E-03    0.178E-02
DAV:   7    -0.194612368331E+04   -0.89043E-07   -0.59617E-06  3176   0.372E-03
   6 F= -.19461237E+04 E0= -.19461223E+04  d E =-.269473E-01  mag=     1.0000
       N       E                     dE             d eps       ncg     rms          rms(c)
DAV:   1    -0.194613210236E+04   -0.84191E-02   -0.15896E+00  2656   0.159E+00    0.255E-01
DAV:   2    -0.194613402164E+04   -0.19193E-02   -0.25804E-02  3376   0.192E-01    0.143E-01
DAV:   3    -0.194613388224E+04    0.13940E-03   -0.73515E-04  3392   0.378E-02    0.818E-02
DAV:   4    -0.194613386022E+04    0.22019E-04   -0.18827E-04  3312   0.184E-02    0.370E-02
DAV:   5    -0.194613386503E+04   -0.48129E-05   -0.24586E-05  3240   0.711E-03    0.182E-02
DAV:   6    -0.194613386597E+04   -0.93984E-06   -0.25991E-06  2576   0.229E-03
   7 F= -.19461339E+04 E0= -.19461325E+04  d E =-.371299E-01  mag=     1.0000
       N       E                     dE             d eps       ncg     rms          rms(c)
DAV:   1    -0.194614476000E+04   -0.10895E-01   -0.35457E+00  2640   0.246E+00    0.380E-01
DAV:   2    -0.194614887210E+04   -0.41121E-02   -0.62277E-02  3392   0.303E-01    0.230E-01
DAV:   3    -0.194614831877E+04    0.55333E-03   -0.19211E-03  3360   0.666E-02    0.114E-01
DAV:   4    -0.194614828628E+04    0.32486E-04   -0.58573E-04  3296   0.305E-02    0.430E-02
DAV:   5    -0.194614829038E+04   -0.41010E-05   -0.43083E-05  3248   0.926E-03    0.231E-02
DAV:   6    -0.194614829176E+04   -0.13767E-05   -0.73264E-06  3144   0.381E-03    0.891E-03
DAV:   7    -0.194614829119E+04    0.56361E-06   -0.13764E-06  1928   0.195E-03
   8 F= -.19461483E+04 E0= -.19461469E+04  d E =-.144252E-01  mag=     1.0000
       N       E                     dE             d eps       ncg     rms          rms(c)
DAV:   1    -0.194614837393E+04   -0.82173E-04   -0.23235E-02  2688   0.199E-01    0.309E-02
DAV:   2    -0.194614840019E+04   -0.26261E-04   -0.40270E-04  3392   0.243E-02    0.185E-02
DAV:   3    -0.194614839655E+04    0.36438E-05   -0.12263E-05  3352   0.532E-03    0.914E-03
DAV:   4    -0.194614839631E+04    0.23407E-06   -0.36865E-06  2680   0.242E-03
   9 F= -.19461484E+04 E0= -.19461470E+04  d E =-.145303E-01  mag=     1.0000
       N       E                     dE             d eps       ncg     rms          rms(c)
DAV:   1    -0.194615508035E+04   -0.66838E-02   -0.16658E+00  2624   0.171E+00    0.237E-01
DAV:   2    -0.194615674418E+04   -0.16638E-02   -0.25149E-02  3384   0.190E-01    0.149E-01
DAV:   3    -0.194615652491E+04    0.21926E-03   -0.76198E-04  3384   0.419E-02    0.656E-02
DAV:   4    -0.194615652147E+04    0.34434E-05   -0.22285E-04  3312   0.188E-02    0.238E-02
DAV:   5    -0.194615652250E+04   -0.10291E-05   -0.16690E-05  3240   0.598E-03    0.136E-02
DAV:   6    -0.194615652293E+04   -0.43539E-06   -0.33565E-06  2800   0.269E-03
  10 F= -.19461565E+04 E0= -.19461551E+04  d E =-.812662E-02  mag=     1.0000
       N       E                     dE             d eps       ncg     rms          rms(c)
DAV:   1    -0.194615668560E+04   -0.16310E-03   -0.68232E-02  2688   0.347E-01    0.482E-02
DAV:   2    -0.194615675652E+04   -0.70915E-04   -0.10376E-03  3384   0.386E-02    0.303E-02
DAV:   3    -0.194615674805E+04    0.84630E-05   -0.30903E-05  3392   0.847E-03    0.135E-02
DAV:   4    -0.194615674802E+04    0.36540E-07   -0.90368E-06  3216   0.379E-03
  11 F= -.19461567E+04 E0= -.19461553E+04  d E =-.835170E-02  mag=     1.0000
       N       E                     dE             d eps       ncg     rms          rms(c)
DAV:   1    -0.194616001302E+04   -0.32650E-02   -0.15593E+00  2608   0.165E+00    0.236E-01
DAV:   2    -0.194616156493E+04   -0.15519E-02   -0.23811E-02  3392   0.186E-01    0.150E-01
DAV:   3    -0.194616132975E+04    0.23517E-03   -0.78426E-04  3360   0.409E-02    0.676E-02
DAV:   4    -0.194616132148E+04    0.82732E-05   -0.20378E-04  3344   0.185E-02    0.283E-02
DAV:   5    -0.194616132362E+04   -0.21366E-05   -0.20540E-05  3224   0.603E-03    0.161E-02
DAV:   6    -0.194616132368E+04   -0.60027E-07   -0.21217E-06  2344   0.223E-03
  12 F= -.19461613E+04 E0= -.19461599E+04  d E =-.457566E-02  mag=     1.0000
       N       E                     dE             d eps       ncg     rms          rms(c)
DAV:   1    -0.194616132514E+04   -0.15207E-05   -0.86084E-04  2672   0.387E-02    0.575E-03
DAV:   2    -0.194616132573E+04   -0.58702E-06   -0.12279E-05  3392   0.426E-03    0.360E-03
DAV:   3    -0.194616132556E+04    0.16752E-06   -0.44328E-07  1720   0.102E-03
  13 F= -.19461613E+04 E0= -.19461599E+04  d E =-.457754E-02  mag=     1.0000
       N       E                     dE             d eps       ncg     rms          rms(c)
DAV:   1    -0.194616371795E+04   -0.23922E-02   -0.80863E-01  2608   0.119E+00    0.164E-01
DAV:   2    -0.194616443196E+04   -0.71400E-03   -0.11430E-02  3360   0.127E-01    0.105E-01
DAV:   3    -0.194616431303E+04    0.11893E-03   -0.36093E-04  3288   0.287E-02    0.421E-02
DAV:   4    -0.194616431297E+04    0.58732E-07   -0.10022E-04  3288   0.124E-02    0.166E-02
DAV:   5    -0.194616431339E+04   -0.41690E-06   -0.77474E-06  3128   0.388E-03
  14 F= -.19461643E+04 E0= -.19461629E+04  d E =-.298783E-02  mag=     1.0000
       N       E                     dE             d eps       ncg     rms          rms(c)
DAV:   1    -0.194616437096E+04   -0.57987E-04   -0.25747E-02  2648   0.212E-01    0.299E-02
DAV:   2    -0.194616439669E+04   -0.25734E-04   -0.37157E-04  3360   0.229E-02    0.190E-02
DAV:   3    -0.194616439350E+04    0.31938E-05   -0.10787E-05  3288   0.501E-03    0.803E-03
DAV:   4    -0.194616439350E+04   -0.35361E-08   -0.30805E-06  2464   0.227E-03
  15 F= -.19461644E+04 E0= -.19461630E+04  d E =-.306794E-02  mag=     1.0000
       N       E                     dE             d eps       ncg     rms          rms(c)
DAV:   1    -0.194616560323E+04   -0.12097E-02   -0.65758E-01  2608   0.107E+00    0.150E-01
DAV:   2    -0.194616621358E+04   -0.61034E-03   -0.94875E-03  3376   0.116E-01    0.955E-02
DAV:   3    -0.194616611683E+04    0.96748E-04   -0.28077E-04  3392   0.252E-02    0.405E-02
DAV:   4    -0.194616611478E+04    0.20517E-05   -0.81478E-05  3304   0.114E-02    0.136E-02
DAV:   5    -0.194616611523E+04   -0.44967E-06   -0.77254E-06  3120   0.386E-03
  16 F= -.19461661E+04 E0= -.19461647E+04  d E =-.172172E-02  mag=     1.0000
       N       E                     dE             d eps       ncg     rms          rms(c)
DAV:   1    -0.194616611620E+04   -0.14265E-05   -0.94765E-04  2656   0.407E-02    0.618E-03
DAV:   2    -0.194616611654E+04   -0.33707E-06   -0.12914E-05  3376   0.430E-03    0.386E-03
DAV:   3    -0.194616611630E+04    0.24232E-06   -0.41866E-07  1696   0.985E-04
  17 F= -.19461661E+04 E0= -.19461647E+04  d E =-.172280E-02  mag=     1.0000
       N       E                     dE             d eps       ncg     rms          rms(c)
DAV:   1    -0.194616688089E+04   -0.76435E-03   -0.41455E-01  2608   0.855E-01    0.116E-01
DAV:   2    -0.194616721346E+04   -0.33257E-03   -0.55658E-03  3352   0.883E-02    0.736E-02
DAV:   3    -0.194616715639E+04    0.57074E-04   -0.18272E-04  3320   0.198E-02    0.280E-02
DAV:   4    -0.194616715717E+04   -0.78369E-06   -0.40959E-05  3296   0.787E-03    0.105E-02
DAV:   5    -0.194616715739E+04   -0.21968E-06   -0.32544E-06  2464   0.251E-03
  18 F= -.19461672E+04 E0= -.19461657E+04  d E =-.104109E-02  mag=     1.0000
       N       E                     dE             d eps       ncg     rms          rms(c)
DAV:   1    -0.194616715795E+04   -0.77680E-06   -0.19341E-04  2656   0.184E-02    0.305E-03
DAV:   2    -0.194616715793E+04    0.14028E-07   -0.23102E-06  2568   0.186E-03
  19 F= -.19461672E+04 E0= -.19461657E+04  d E =-.104163E-02  mag=     1.0000
       N       E                     dE             d eps       ncg     rms          rms(c)
DAV:   1    -0.194616733114E+04   -0.17319E-03   -0.16976E-01  2656   0.546E-01    0.777E-02
DAV:   2    -0.194616750566E+04   -0.17452E-03   -0.27490E-03  3384   0.638E-02    0.494E-02
DAV:   3    -0.194616747811E+04    0.27548E-04   -0.95678E-05  3368   0.147E-02    0.218E-02
DAV:   4    -0.194616747732E+04    0.78852E-06   -0.26333E-05  3328   0.639E-03    0.910E-03
DAV:   5    -0.194616747744E+04   -0.11883E-06   -0.19703E-06  2104   0.198E-03
  20 F= -.19461675E+04 E0= -.19461661E+04  d E =-.319510E-03  mag=     1.0000
       N       E                     dE             d eps       ncg     rms          rms(c)
DAV:   1    -0.194616751842E+04   -0.41095E-04   -0.12295E-02  2656   0.147E-01    0.208E-02
DAV:   2    -0.194616752984E+04   -0.11423E-04   -0.19677E-04  3384   0.171E-02    0.133E-02
DAV:   3    -0.194616752765E+04    0.21904E-05   -0.72916E-06  3336   0.404E-03    0.578E-03
DAV:   4    -0.194616752759E+04    0.64261E-07   -0.18986E-06  2048   0.172E-03
  21 F= -.19461675E+04 E0= -.19461661E+04  d E =-.369654E-03  mag=     1.0000
       N       E                     dE             d eps       ncg     rms          rms(c)
DAV:   1    -0.194616756784E+04   -0.40193E-04   -0.30352E-02  2672   0.232E-01    0.343E-02
DAV:   2    -0.194616760625E+04   -0.38407E-04   -0.54447E-04  3368   0.285E-02    0.211E-02
DAV:   3    -0.194616760163E+04    0.46239E-05   -0.15582E-05  3368   0.623E-03    0.107E-02
DAV:   4    -0.194616760122E+04    0.40441E-06   -0.57502E-06  2952   0.312E-03
  22 F= -.19461676E+04 E0= -.19461662E+04  d E =-.736358E-04  mag=     1.0000
       N       E                     dE             d eps       ncg     rms          rms(c)
DAV:   1    -0.194616761288E+04   -0.11256E-04   -0.27710E-03  2672   0.701E-02    0.971E-03
DAV:   2    -0.194616761611E+04   -0.32294E-05   -0.49549E-05  3368   0.863E-03    0.627E-03
DAV:   3    -0.194616761565E+04    0.45907E-06   -0.13568E-06  2448   0.191E-03
  23 F= -.19461676E+04 E0= -.19461662E+04  d E =-.880663E-04  mag=     1.0000
