unknown system                          
           1
    10.721136    0.000000    0.000000
     0.000000   10.721136    0.000000
     0.000000    0.000000   10.721136
   C    N 
   214     1
Direct configuration=     1
   0.08326797  0.08337812  0.08339869
   0.08362426  0.08323563  0.41677411
   0.08292768  0.08340098  0.74998477
   0.08367076  0.41676124  0.08299591
   0.08327301  0.41681061  0.41670218
   0.08298329  0.41668569  0.74988758
   0.08334395  0.74998539  0.08332271
   0.08347297  0.75005578  0.41663130
   0.08353832  0.74990589  0.74988980
   0.41668190  0.08340098  0.08373899
   0.41682010  0.08354523  0.41705046
   0.41628004  0.08270974  0.75038663
   0.41677909  0.41668569  0.08368338
   0.41830780  0.41762520  0.41821122
   0.41558729  0.41598349  0.75107938
   0.41677687  0.74990589  0.08312834
   0.41591730  0.75078977  0.41687250
   0.41719997  0.74920877  0.74946670
   0.74989256  0.08323563  0.08304241
   0.74996244  0.08358035  0.41670423
   0.74961620  0.08354523  0.74984657
   0.74996448  0.41681061  0.08339366
   0.75716001  0.41045147  0.40950666
   0.74845544  0.41762520  0.74835887
   0.75003537  0.75005578  0.08319370
   0.74980566  0.74943442  0.41686100
   0.74979417  0.75078977  0.75074937
   0.25006764  0.25001523  0.08373899
   0.25021189  0.25015343  0.41705046
   0.24937641  0.24961337  0.75038663
   0.24990230  0.58322589  0.08304241
   0.25024701  0.58329577  0.41670423
   0.25021189  0.58294954  0.74984657
   0.25004479  0.91660131  0.08339869
   0.24990230  0.91695759  0.41677411
   0.25006764  0.91626101  0.74998477
   0.58335236  0.25011242  0.08368338
   0.58429187  0.25164113  0.41821122
   0.58265015  0.24892062  0.75107938
   0.58347727  0.58329782  0.08339366
   0.57711814  0.59049334  0.40950666
   0.58429187  0.58178878  0.74835887
   0.58342791  0.91700409  0.08299591
   0.58347727  0.91660634  0.41670218
   0.58335236  0.91631662  0.74988758
   0.91657256  0.25011020  0.08312834
   0.91745644  0.24925063  0.41687250
   0.91587544  0.25053330  0.74946670
   0.91672245  0.58336870  0.08319370
   0.91610109  0.58313900  0.41686100
   0.91745644  0.58312750  0.75074937
   0.91665205  0.91667729  0.08332271
   0.91672245  0.91680630  0.41663130
   0.91657256  0.91687166  0.74988980
   0.25018335  0.08351669  0.25022690
   0.24975007  0.08308340  0.58354838
   0.24977168  0.08310501  0.91689499
   0.25049180  0.41686822  0.25049207
   0.24987276  0.41651551  0.58348449
   0.24975007  0.41645162  0.91691660
   0.25002758  0.75006218  0.24993782
   0.25049180  0.74950793  0.58313178
   0.25018335  0.74977310  0.91648331
   0.58353489  0.08382513  0.25049207
   0.58318218  0.08320609  0.58348449
   0.58311828  0.08308340  0.91691660
   0.58404364  0.41737697  0.25103546
   0.58318218  0.41651551  0.91679391
   0.58373540  0.75106570  0.24893430
   0.58404364  0.74896454  0.58262303
   0.58353489  0.74950793  0.91617487
   0.91672884  0.08336091  0.24993782
   0.91617460  0.08382513  0.58313178
   0.91643977  0.08351669  0.91648331
   0.91773236  0.41706873  0.24893430
   0.91563120  0.41737697  0.58262303
   0.91617460  0.41686822  0.91617487
   0.91654204  0.74987537  0.25012463
   0.91773236  0.75106570  0.58293127
   0.91672884  0.75006218  0.91663909
   0.08353832  0.25011020  0.25009411
   0.08298329  0.25011242  0.58331431
   0.08292768  0.25001523  0.91659902
   0.08347297  0.58336870  0.24994422
   0.08327301  0.58329782  0.58318939
   0.08362426  0.58322589  0.91676437
   0.08334395  0.91667729  0.25001461
   0.08367076  0.91700409  0.58323876
   0.08326797  0.91660131  0.91662188
   0.41719997  0.25053330  0.25079123
   0.41558729  0.24892062  0.58401651
   0.41628004  0.24961337  0.91729026
   0.41591730  0.58312750  0.24921023
   0.41830780  0.58178878  0.58237480
   0.41682010  0.58294954  0.91645477
   0.41677687  0.91687166  0.25009411
   0.41677909  0.91631662  0.58331431
   0.41668190  0.91626101  0.91659902
   0.74979417  0.24925063  0.24921023
   0.74845544  0.25164113  0.58237480
   0.74961620  0.25015343  0.91645477
   0.74980566  0.58313900  0.25056558
   0.75716001  0.59049334  0.58954853
   0.74996244  0.58329577  0.91641965
   0.75003537  0.91680630  0.24994422
   0.74996448  0.91660634  0.58318939
   0.74989256  0.91695759  0.91676437
   0.99991380  0.00006931  0.99993069
   0.00008158  0.00006750  0.33327097
   0.99971273  0.00029281  0.66663326
   0.99971273  0.33336674  0.99970719
   0.00018561  0.33342604  0.33323672
   0.99912423  0.33390594  0.66609406
   0.00008158  0.66672903  0.99993250
   0.99975214  0.66643460  0.33356540
   0.00018561  0.66676328  0.66657396
   0.33332745  0.99983680  0.00016320
   0.33349831  0.00023224  0.33346264
   0.33326209  0.99955873  0.66680801
   0.33326209  0.33319199  0.00044127
   0.33444689  0.33371473  0.33448840
   0.33256595  0.33279147  0.66720853
   0.33349831  0.66653736  0.99976776
   0.33333685  0.66676463  0.33323537
   0.33444689  0.66551160  0.66628527
   0.66664442  0.00011017  0.99988983
   0.66671708  0.00017832  0.33350881
   0.66656066  0.99986977  0.66656470
   0.66656066  0.33343530  0.00013023
   0.66812249  0.33467686  0.33437704
   0.66314116  0.33389788  0.66610212
   0.66671708  0.66649119  0.99982168
   0.66594121  0.66621407  0.33378593
   0.66812249  0.66562296  0.66532314
   0.16650347  0.16666078  0.00016320
   0.16689891  0.16683165  0.33346264
   0.16622540  0.16659543  0.66680801
   0.16677683  0.49997775  0.99988983
   0.16684499  0.50005041  0.33350881
   0.16653644  0.49989400  0.66656470
   0.16673598  0.83324713  0.99993069
   0.16673417  0.83341492  0.33327097
   0.16695948  0.83304606  0.66663326
   0.49985866  0.16659543  0.00044127
   0.50038140  0.16778023  0.33448840
   0.49945814  0.16589928  0.66720853
   0.50010197  0.49989400  0.00013023
   0.50134353  0.50145582  0.33437704
   0.50056455  0.49647449  0.66610212
   0.50003340  0.83304606  0.99970719
   0.50009270  0.83351894  0.33323672
   0.50057261  0.83245756  0.66609406
   0.83320403  0.16683165  0.99976776
   0.83343130  0.16667019  0.33323537
   0.83217827  0.16778023  0.66628527
   0.83315785  0.50005041  0.99982168
   0.83288074  0.49927454  0.33378593
   0.83228962  0.50145582  0.66532314
   0.83339570  0.83341492  0.99993250
   0.83310126  0.83308547  0.33356540
   0.83342994  0.83351894  0.66657396
   0.16673598  0.00006931  0.16675287
   0.16677683  0.00011017  0.50002225
   0.16650347  0.99983680  0.83333922
   0.16695948  0.33336674  0.16695394
   0.16653644  0.33343530  0.50010600
   0.16622540  0.33319199  0.83340457
   0.16673417  0.66672903  0.16658508
   0.16684499  0.66649119  0.49994959
   0.16689891  0.66653736  0.83316835
   0.50003340  0.00029281  0.16695394
   0.50010197  0.99986977  0.50010600
   0.49985866  0.99955873  0.83340457
   0.50057261  0.33390594  0.16754244
   0.50056455  0.33389788  0.50352551
   0.49945814  0.33279147  0.83410072
   0.50009270  0.66676328  0.16648106
   0.50134353  0.66562296  0.49854418
   0.50038140  0.66551160  0.83221977
   0.83339570  0.00006750  0.16658508
   0.83315785  0.00017832  0.49994959
   0.83320403  0.00023224  0.83316835
   0.83342994  0.33342604  0.16648106
   0.83228962  0.33467686  0.49854418
   0.83217827  0.33371473  0.83221977
   0.83310126  0.66643460  0.16691453
   0.83288074  0.66621407  0.50072546
   0.83343130  0.66676463  0.83332981
   0.99999917  0.16682785  0.16666750
   0.00029027  0.16638312  0.49981905
   0.99946129  0.16692346  0.83307654
   0.00064435  0.49997375  0.16602232
   0.99945993  0.50017290  0.49982710
   0.00029027  0.50018095  0.83361688
   0.99996140  0.83329473  0.16670527
   0.00064435  0.83397768  0.50002625
   0.99999917  0.83333250  0.83317215
   0.33359013  0.16692346  0.16720537
   0.33296081  0.16629415  0.50040780
   0.33298147  0.16631481  0.83368519
   0.33304979  0.50018095  0.16637640
   0.33383605  0.49985608  0.50014392
   0.33296081  0.49959220  0.83370585
   0.33349451  0.83333250  0.16666750
   0.33304979  0.83362360  0.49981905
   0.33359013  0.83279463  0.83307654
   0.66684761  0.16638312  0.16637640
   0.66652275  0.16716939  0.50014392
   0.66625887  0.16629415  0.83370585
   0.66683957  0.50017290  0.16720674
   0.66652275  0.49985608  0.83283061
   0.66664042  0.83397768  0.16602232
   0.66683957  0.83279326  0.49982710
   0.66684761  0.83362360  0.83361688
   0.57678312  0.41011646  0.58988354
