unknown system                          
   1.00000000000000     
     2.517300    0.000000    0.000000
     1.258650    2.180046    0.000000
     1.258650    0.726682    2.055367
   C 
     2
Direct
   0.250000  0.250000  0.250000
   0.000000  0.000000  0.000000
 
   20   20   20
  13.860      14.575      16.055      16.916      16.246      14.164      11.459      9.0324      7.3980      6.5505    
  6.2996      6.5505      7.3980      9.0324      11.459      14.164      16.246      16.916      16.055      14.575    
  14.575      15.858      17.332      17.761      16.679      14.491      12.020      10.047      8.8442      8.3167    
  8.3167      8.8442      10.047      12.020      14.491      16.679      17.761      17.332      15.858      14.575    
  16.055      17.332      18.272      18.101      16.743      14.689      12.696      11.264      10.481      10.243    
  10.481      11.264      12.696      14.689      16.743      18.101      18.272      17.332      16.055      15.470    
  16.916      17.761      18.101      17.579      16.282      14.689      13.312      12.396      11.966      11.966    
  12.396      13.312      14.689      16.282      17.579      18.101      17.761      16.916      16.226      16.226    
  16.246      16.679      16.743      16.282      15.434      14.491      13.702      13.214      13.054      13.214    
  13.702      14.491      15.434      16.282      16.743      16.679      16.246      15.765      15.559      15.765    
  14.164      14.491      14.689      14.689      14.491      14.164      13.855      13.676      13.676      13.855    
  14.164      14.491      14.689      14.689      14.491      14.164      13.855      13.676      13.676      13.855    
  11.459      12.020      12.696      13.312      13.702      13.855      13.872      13.861      13.872      13.855    
  13.702      13.312      12.696      12.020      11.459      11.102      10.934      10.891      10.934      11.102    
  9.0324      10.047      11.264      12.396      13.214      13.676      13.861      13.861      13.676      13.214    
  12.396      11.264      10.047      9.0324      8.3802      8.0734      7.9796      7.9796      8.0734      8.3802    
  7.3980      8.8442      10.481      11.966      13.054      13.676      13.872      13.676      13.054      11.966    
  10.481      8.8442      7.3980      6.3708      5.7961      5.5566      5.4995      5.5566      5.7961      6.3708    
  6.5505      8.3167      10.243      11.966      13.214      13.855      13.855      13.214      11.966      10.243    
  8.3167      6.5505      5.2082      4.3636      3.9330      3.7707      3.7707      3.9330      4.3636      5.2082    
  6.2996      8.3167      10.481      12.396      13.702      14.164      13.702      12.396      10.481      8.3167    
  6.2996      4.7119      3.6459      3.0380      2.7545      2.6757      2.7545      3.0380      3.6459      4.7119    
  6.5505      8.8442      11.264      13.312      14.491      14.491      13.312      11.264      8.8442      6.5505    
  4.7119      3.4358      2.6628      2.2605      2.0987      2.0987      2.2605      2.6628      3.4358      4.7119    
  7.3980      10.047      12.696      14.689      15.434      14.689      12.696      10.047      7.3980      5.2082    
  3.6459      2.6628      2.1173      1.8624      1.7908      1.8624      2.1172      2.6628      3.6459      5.2081    
  9.0324      12.020      14.689      16.282      16.282      14.689      12.020      9.0324      6.3708      4.3636    
  3.0380      2.2605      1.8624      1.7036      1.7036      1.8624      2.2605      3.0380      4.3636      6.3708    
  11.459      14.491      16.743      17.579      16.743      14.491      11.459      8.3802      5.7961      3.9330    
  2.7545      2.0987      1.7908      1.7036      1.7908      2.0988      2.7545      3.9330      5.7961      8.3802    
  14.164      16.679      18.101      18.101      16.679      14.164      11.102      8.0734      5.5566      3.7707    
  2.6757      2.0987      1.8624      1.8624      2.0988      2.6758      3.7707      5.5566      8.0734      11.102    
  16.246      17.761      18.272      17.761      16.246      13.855      10.934      7.9796      5.4995      3.7707    
  2.7545      2.2605      2.1172      2.2605      2.7545      3.7707      5.4995      7.9796      10.934      13.855    
  16.916      17.332      17.332      16.916      15.765      13.676      10.891      7.9796      5.5566      3.9330    
  3.0380      2.6628      2.6628      3.0380      3.9330      5.5566      7.9796      10.891      13.676      15.765    
  16.055      15.858      16.055      16.226      15.559      13.676      10.934      8.0734      5.7961      4.3636    
  3.6459      3.4358      3.6459      4.3636      5.7961      8.0734      10.934      13.676      15.559      16.226    
  14.575      14.575      15.470      16.226      15.765      13.855      11.102      8.3802      6.3708      5.2082    
  4.7119      4.7119      5.2081      6.3708      8.3802      11.102      13.855      15.765      16.226      15.470    
  14.575      15.858      17.332      17.761      16.679      14.491      12.020      10.047      8.8442      8.3167    
  8.3167      8.8442      10.047      12.020      14.491      16.679      17.761      17.332      15.858      14.575    
  15.858      17.425      18.690      18.757      17.503      15.434      13.352      11.821      10.970      10.707    
  10.970      11.821      13.352      15.434      17.503      18.757      18.690      17.425      15.858      15.155    
  17.332      18.690      19.502      19.265      18.021      16.282      14.672      13.544      12.993      12.993    
  13.544      14.672      16.282      18.021      19.265      19.502      18.690      17.332      16.304      16.304    
  17.761      18.757      19.265      18.991      18.021      16.743      15.569      14.788      14.520      14.788    
  15.569      16.743      18.021      18.991      19.265      18.757      17.761      16.805      16.412      16.805    
  16.679      17.503      18.021      18.021      17.503      16.679      15.885      15.408      15.408      15.885    
  16.679      17.503      18.021      18.021      17.503      16.679      15.885      15.408      15.408      15.885    
  14.491      15.434      16.282      16.743      16.679      16.246      15.765      15.559      15.765      16.246    
  16.679      16.743      16.282      15.434      14.491      13.702      13.214      13.054      13.214      13.702    
  12.020      13.352      14.672      15.569      15.885      15.765      15.557      15.557      15.765      15.885    
  15.569      14.672      13.352      12.020      11.007      10.411      10.162      10.162      10.411      11.007    
  10.047      11.821      13.544      14.788      15.408      15.559      15.557      15.559      15.408      14.788    
  13.544      11.821      10.047      8.6476      7.7854      7.3808      7.2717      7.3808      7.7855      8.6476    
  8.8442      10.970      12.993      14.520      15.408      15.765      15.765      15.408      14.520      12.993    
  10.970      8.8442      7.0797      5.9024      5.2740      5.0273      5.0273      5.2740      5.9024      7.0797    
  8.3167      10.707      12.993      14.788      15.885      16.246      15.885      14.788      12.993      10.707    
  8.3167      6.2732      4.8287      3.9807      3.5790      3.4665      3.5790      3.9807      4.8287      6.2731    
  8.3167      10.970      13.544      15.569      16.679      16.679      15.569      13.544      10.970      8.3167    
  6.0355      4.3738      3.3402      2.7964      2.5769      2.5769      2.7964      3.3402      4.3738      6.0355    
  8.8442      11.821      14.672      16.743      17.503      16.743      14.672      11.821      8.8442      6.2732    
  4.3738      3.1536      2.4718      2.1534      2.0639      2.1533      2.4718      3.1536      4.3738      6.2731    
  10.047      13.352      16.282      18.021      18.021      16.282      13.352      10.047      7.0797      4.8287    
  3.3402      2.4718      2.0323      1.8592      1.8592      2.0323      2.4718      3.3402      4.8286      7.0797    
  12.020      15.434      18.021      18.991      18.021      15.434      12.020      8.6476      5.9024      3.9807    
  2.7964      2.1534      1.8592      1.7777      1.8592      2.1534      2.7964      3.9807      5.9024      8.6476    
  14.491      17.503      19.265      19.265      17.503      14.491      11.007      7.7854      5.2740      3.5790    
  2.5769      2.0639      1.8592      1.8592      2.0639      2.5769      3.5791      5.2740      7.7855      11.007    
  16.679      18.757      19.502      18.757      16.679      13.702      10.411      7.3808      5.0273      3.4665    
  2.5769      2.1533      2.0323      2.1534      2.5769      3.4665      5.0273      7.3808      10.411      13.702    
  17.761      18.690      18.690      17.761      15.885      13.214      10.162      7.2717      5.0273      3.5790    
  2.7964      2.4718      2.4718      2.7964      3.5791      5.0273      7.2717      10.162      13.214      15.885    
  17.332      17.425      17.332      16.805      15.408      13.054      10.162      7.3808      5.2740      3.9807    
  3.3402      3.1536      3.3402      3.9807      5.2740      7.3808      10.162      13.054      15.408      16.805    
  15.858      15.858      16.304      16.412      15.408      13.214      10.411      7.7855      5.9024      4.8287    
  4.3738      4.3738      4.8286      5.9024      7.7855      10.411      13.214      15.408      16.412      16.304    
  14.575      15.155      16.304      16.805      15.885      13.702      11.007      8.6476      7.0797      6.2731    
  6.0355      6.2731      7.0797      8.6476      11.007      13.702      15.885      16.805      16.304      15.155    
  16.055      17.332      18.272      18.101      16.743      14.689      12.696      11.264      10.481      10.243    
  10.481      11.264      12.696      14.689      16.743      18.101      18.272      17.332      16.055      15.470    
  17.332      18.690      19.502      19.265      18.021      16.282      14.672      13.544      12.993      12.993    
  13.544      14.672      16.282      18.021      19.265      19.502      18.690      17.332      16.304      16.304    
  18.272      19.502      20.196      20.005      18.991      17.579      16.249      15.350      15.037      15.350    
  16.249      17.579      18.991      20.005      20.197      19.502      18.272      17.117      16.647      17.117    
  18.101      19.265      20.005      20.005      19.265      18.101      16.972      16.287      16.287      16.972    
  18.101      19.265      20.005      20.005      19.265      18.101      16.972      16.287      16.287      16.972    
  16.743      18.021      18.991      19.265      18.757      17.761      16.805      16.412      16.805      17.761    
  18.757      19.265      18.991      18.021      16.743      15.569      14.788      14.520      14.788      15.569    
  14.689      16.282      17.579      18.101      17.761      16.916      16.226      16.226      16.916      17.761    
  18.101      17.579      16.282      14.689      13.312      12.396      11.966      11.966      12.396      13.312    
  12.696      14.672      16.249      16.972      16.805      16.226      15.923      16.226      16.805      16.972    
  16.249      14.672      12.696      10.949      9.7703      9.1622      8.9845      9.1622      9.7704      10.949    
  11.264      13.544      15.350      16.287      16.412      16.226      16.226      16.412      16.287      15.350    
  13.544      11.264      9.1379      7.6139      6.7532      6.3980      6.3980      6.7532      7.6139      9.1379    
  10.481      12.993      15.037      16.287      16.805      16.916      16.805      16.287      15.037      12.993    
  10.481      8.0642      6.2301      5.1056      4.5569      4.4003      4.5569      5.1056      6.2301      8.0642    
  10.243      12.993      15.350      16.972      17.761      17.761      16.972      15.350      12.993      10.243    
  7.6031      5.5339      4.1896      3.4640      3.1661      3.1661      3.4640      4.1896      5.5339      7.6031    
  10.481      13.544      16.249      18.101      18.757      18.101      16.249      13.544      10.481      7.6031    
  5.3315      3.8069      2.9326      2.5167      2.3983      2.5167      2.9326      3.8069      5.3314      7.6031    
  11.264      14.672      17.579      19.265      19.265      17.579      14.672      11.264      8.0642      5.5339    
  3.8069      2.7791      2.2523      2.0424      2.0424      2.2522      2.7791      3.8069      5.5339      8.0642    
  12.696      16.282      18.991      20.005      18.991      16.282      12.696      9.1379      6.2301      4.1896    
  2.9326      2.2523      1.9427      1.8573      1.9427      2.2522      2.9326      4.1896      6.2300      9.1379    
  14.689      18.021      20.005      20.005      18.021      14.689      10.949      7.6139      5.1056      3.4640    
  2.5167      2.0424      1.8573      1.8573      2.0424      2.5167      3.4640      5.1056      7.6139      10.949    
  16.743      19.265      20.197      19.265      16.743      13.312      9.7703      6.7532      4.5569      3.1661    
  2.3983      2.0424      1.9427      2.0424      2.3983      3.1662      4.5570      6.7532      9.7703      13.312    
  18.101      19.502      19.502      18.101      15.569      12.396      9.1622      6.3980      4.4003      3.1661    
  2.5167      2.2522      2.2522      2.5167      3.1662      4.4003      6.3980      9.1622      12.396      15.569    
  18.272      18.690      18.272      16.972      14.788      11.966      8.9845      6.3980      4.5569      3.4640    
  2.9326      2.7791      2.9326      3.4640      4.5570      6.3980      8.9845      11.966      14.788      16.972    
  17.332      17.332      17.117      16.287      14.520      11.966      9.1622      6.7532      5.1056      4.1896    
  3.8069      3.8069      4.1896      5.1056      6.7532      9.1622      11.966      14.520      16.287      17.117    
  16.055      16.304      16.647      16.287      14.788      12.396      9.7704      7.6139      6.2301      5.5339    
  5.3314      5.5339      6.2300      7.6139      9.7703      12.396      14.788      16.287      16.647      16.304    
  15.470      16.304      17.117      16.972      15.569      13.312      10.949      9.1379      8.0642      7.6031    
  7.6031      8.0642      9.1379      10.949      13.312      15.569      16.972      17.117      16.304      15.470    
  16.916      17.761      18.101      17.579      16.282      14.689      13.312      12.396      11.966      11.966    
  12.396      13.312      14.689      16.282      17.579      18.101      17.761      16.916      16.226      16.226    
  17.761      18.757      19.265      18.991      18.021      16.743      15.569      14.788      14.520      14.788    
  15.569      16.743      18.021      18.991      19.265      18.757      17.761      16.805      16.412      16.805    
  18.101      19.265      20.005      20.005      19.265      18.101      16.972      16.287      16.287      16.972    
  18.101      19.265      20.005      20.005      19.265      18.101      16.972      16.287      16.287      16.972    
  17.579      18.991      20.005      20.196      19.502      18.272      17.117      16.647      17.117      18.272    
  19.502      20.197      20.005      18.991      17.579      16.249      15.350      15.037      15.350      16.249    
  16.282      18.021      19.265      19.502      18.690      17.332      16.304      16.304      17.332      18.690    
  19.502      19.265      18.021      16.282      14.672      13.544      12.993      12.993      13.544      14.672    
  14.689      16.743      18.101      18.272      17.332      16.055      15.470      16.055      17.332      18.272    
  18.101      16.743      14.689      12.696      11.264      10.481      10.243      10.481      11.264      12.696    
  13.312      15.569      16.972      17.117      16.304      15.470      15.470      16.304      17.117      16.972    
  15.569      13.312      10.949      9.1379      8.0642      7.6031      7.6031      8.0642      9.1379      10.949    
  12.396      14.788      16.287      16.647      16.304      16.055      16.304      16.647      16.287      14.788    
  12.396      9.7703      7.6139      6.2300      5.5339      5.3314      5.5339      6.2301      7.6139      9.7704    
  11.966      14.520      16.287      17.117      17.332      17.332      17.117      16.287      14.520      11.966    
  9.1622      6.7532      5.1056      4.1896      3.8069      3.8069      4.1896      5.1056      6.7532      9.1622    
  11.966      14.788      16.972      18.272      18.690      18.272      16.972      14.788      11.966      8.9845    
  6.3980      4.5570      3.4640      2.9326      2.7791      2.9326      3.4640      4.5569      6.3980      8.9845    
  12.396      15.569      18.101      19.502      19.502      18.101      15.569      12.396      9.1622      6.3980    
  4.4003      3.1662      2.5167      2.2522      2.2522      2.5167      3.1661      4.4003      6.3980      9.1622    
  13.312      16.743      19.265      20.197      19.265      16.743      13.312      9.7703      6.7532      4.5570    
  3.1662      2.3983      2.0424      1.9427      2.0424      2.3983      3.1661      4.5569      6.7532      9.7703    
  14.689      18.021      20.005      20.005      18.021      14.689      10.949      7.6139      5.1056      3.4640    
  2.5167      2.0424      1.8573      1.8573      2.0424      2.5167      3.4640      5.1056      7.6139      10.949    
  16.282      18.991      20.005      18.991      16.282      12.696      9.1379      6.2300      4.1896      2.9326    
  2.2522      1.9427      1.8573      1.9427      2.2523      2.9326      4.1896      6.2301      9.1379      12.696    
  17.579      19.265      19.265      17.579      14.672      11.264      8.0642      5.5339      3.8069      2.7791    
  2.2522      2.0424      2.0424      2.2523      2.7791      3.8069      5.5339      8.0642      11.264      14.672    
  18.101      18.757      18.101      16.249      13.544      10.481      7.6031      5.3314      3.8069      2.9326    
  2.5167      2.3983      2.5167      2.9326      3.8069      5.3315      7.6031      10.481      13.544      16.249    
  17.761      17.761      16.972      15.350      12.993      10.243      7.6031      5.5339      4.1896      3.4640    
  3.1661      3.1661      3.4640      4.1896      5.5339      7.6031      10.243      12.993      15.350      16.972    
  16.916      16.805      16.287      15.037      12.993      10.481      8.0642      6.2301      5.1056      4.5569    
  4.4003      4.5569      5.1056      6.2301      8.0642      10.481      12.993      15.037      16.287      16.805    
  16.226      16.412      16.287      15.350      13.544      11.264      9.1379      7.6139      6.7532      6.3980    
  6.3980      6.7532      7.6139      9.1379      11.264      13.544      15.350      16.287      16.412      16.226    
  16.226      16.805      16.972      16.249      14.672      12.696      10.949      9.7704      9.1622      8.9845    
  9.1622      9.7703      10.949      12.696      14.672      16.249      16.972      16.805      16.226      15.923    
  16.246      16.679      16.743      16.282      15.434      14.491      13.702      13.214      13.054      13.214    
  13.702      14.491      15.434      16.282      16.743      16.679      16.246      15.765      15.559      15.765    
  16.679      17.503      18.021      18.021      17.503      16.679      15.885      15.408      15.408      15.885    
  16.679      17.503      18.021      18.021      17.503      16.679      15.885      15.408      15.408      15.885    
  16.743      18.021      18.991      19.265      18.757      17.761      16.805      16.412      16.805      17.761    
  18.757      19.265      18.991      18.021      16.743      15.569      14.788      14.520      14.788      15.569    
  16.282      18.021      19.265      19.502      18.690      17.332      16.304      16.304      17.332      18.690    
  19.502      19.265      18.021      16.282      14.672      13.544      12.993      12.993      13.544      14.672    
  15.434      17.503      18.757      18.690      17.425      15.858      15.155      15.858      17.425      18.690    
  18.757      17.503      15.434      13.352      11.821      10.970      10.707      10.970      11.821      13.352    
  14.491      16.679      17.761      17.332      15.858      14.575      14.575      15.858      17.332      17.761    
  16.679      14.491      12.020      10.047      8.8442      8.3167      8.3167      8.8442      10.047      12.020    
  13.702      15.885      16.805      16.304      15.155      14.575      15.155      16.304      16.805      15.885    
  13.702      11.007      8.6476      7.0797      6.2731      6.0355      6.2731      7.0797      8.6476      11.007    
  13.214      15.408      16.412      16.304      15.858      15.858      16.304      16.412      15.408      13.214    
  10.411      7.7855      5.9024      4.8286      4.3738      4.3738      4.8287      5.9024      7.7855      10.411    
  13.054      15.408      16.805      17.332      17.425      17.332      16.805      15.408      13.054      10.162    
  7.3808      5.2740      3.9807      3.3402      3.1536      3.3402      3.9807      5.2740      7.3808      10.162    
  13.214      15.885      17.761      18.690      18.690      17.761      15.885      13.214      10.162      7.2717    
  5.0273      3.5791      2.7964      2.4718      2.4718      2.7964      3.5790      5.0273      7.2717      10.162    
  13.702      16.679      18.757      19.502      18.757      16.679      13.702      10.411      7.3808      5.0273    
  3.4665      2.5769      2.1534      2.0323      2.1533      2.5769      3.4665      5.0273      7.3808      10.411    
  14.491      17.503      19.265      19.265      17.503      14.491      11.007      7.7855      5.2740      3.5791    
  2.5769      2.0639      1.8592      1.8592      2.0639      2.5769      3.5790      5.2740      7.7854      11.007    
  15.434      18.021      18.991      18.021      15.434      12.020      8.6476      5.9024      3.9807      2.7964    
  2.1534      1.8592      1.7777      1.8592      2.1534      2.7964      3.9807      5.9024      8.6476      12.020    
  16.282      18.021      18.021      16.282      13.352      10.047      7.0797      4.8286      3.3402      2.4718    
  2.0323      1.8592      1.8592      2.0323      2.4718      3.3402      4.8287      7.0797      10.047      13.352    
  16.743      17.503      16.743      14.672      11.821      8.8442      6.2731      4.3738      3.1536      2.4718    
  2.1533      2.0639      2.1534      2.4718      3.1536      4.3738      6.2732      8.8442      11.821      14.672    
  16.679      16.679      15.569      13.544      10.970      8.3167      6.0355      4.3738      3.3402      2.7964    
  2.5769      2.5769      2.7964      3.3402      4.3738      6.0355      8.3167      10.970      13.544      15.569    
  16.246      15.885      14.788      12.993      10.707      8.3167      6.2731      4.8287      3.9807      3.5790    
  3.4665      3.5790      3.9807      4.8287      6.2732      8.3167      10.707      12.993      14.788      15.885    
  15.765      15.408      14.520      12.993      10.970      8.8442      7.0797      5.9024      5.2740      5.0273    
  5.0273      5.2740      5.9024      7.0797      8.8442      10.970      12.993      14.520      15.408      15.765    
  15.559      15.408      14.788      13.544      11.821      10.047      8.6476      7.7855      7.3808      7.2717    
  7.3808      7.7854      8.6476      10.047      11.821      13.544      14.788      15.408      15.559      15.557    
  15.765      15.885      15.569      14.672      13.352      12.020      11.007      10.411      10.162      10.162    
  10.411      11.007      12.020      13.352      14.672      15.569      15.885      15.765      15.557      15.557    
  14.164      14.491      14.689      14.689      14.491      14.164      13.855      13.676      13.676      13.855    
  14.164      14.491      14.689      14.689      14.491      14.164      13.855      13.676      13.676      13.855    
  14.491      15.434      16.282      16.743      16.679      16.246      15.765      15.559      15.765      16.246    
  16.679      16.743      16.282      15.434      14.491      13.702      13.214      13.054      13.214      13.702    
  14.689      16.282      17.579      18.101      17.761      16.916      16.226      16.226      16.916      17.761    
  18.101      17.579      16.282      14.689      13.312      12.396      11.966      11.966      12.396      13.312    
  14.689      16.743      18.101      18.272      17.332      16.055      15.470      16.055      17.332      18.272    
  18.101      16.743      14.689      12.696      11.264      10.481      10.243      10.481      11.264      12.696    
  14.491      16.679      17.761      17.332      15.858      14.575      14.575      15.858      17.332      17.761    
  16.679      14.491      12.020      10.047      8.8442      8.3167      8.3167      8.8442      10.047      12.020    
  14.164      16.246      16.916      16.055      14.575      13.860      14.575      16.055      16.916      16.246    
  14.164      11.459      9.0324      7.3980      6.5505      6.2996      6.5505      7.3980      9.0324      11.459    
  13.855      15.765      16.226      15.470      14.575      14.575      15.470      16.226      15.765      13.855    
  11.102      8.3802      6.3708      5.2081      4.7119      4.7119      5.2082      6.3708      8.3802      11.102    
  13.676      15.559      16.226      16.055      15.858      16.055      16.226      15.559      13.676      10.934    
  8.0734      5.7961      4.3636      3.6459      3.4358      3.6459      4.3636      5.7961      8.0734      10.934    
  13.676      15.765      16.916      17.332      17.332      16.916      15.765      13.676      10.891      7.9796    
  5.5566      3.9330      3.0380      2.6628      2.6628      3.0380      3.9330      5.5566      7.9796      10.891    
  13.855      16.246      17.761      18.272      17.761      16.246      13.855      10.934      7.9796      5.4995    
  3.7707      2.7545      2.2605      2.1172      2.2605      2.7545      3.7707      5.4995      7.9796      10.934    
  14.164      16.679      18.101      18.101      16.679      14.164      11.102      8.0734      5.5566      3.7707    
  2.6758      2.0988      1.8624      1.8624      2.0987      2.6757      3.7707      5.5566      8.0734      11.102    
  14.491      16.743      17.579      16.743      14.491      11.459      8.3802      5.7961      3.9330      2.7545    
  2.0988      1.7908      1.7036      1.7908      2.0987      2.7545      3.9330      5.7961      8.3802      11.459    
  14.689      16.282      16.282      14.689      12.020      9.0324      6.3708      4.3636      3.0380      2.2605    
  1.8624      1.7036      1.7036      1.8624      2.2605      3.0380      4.3636      6.3708      9.0324      12.020    
  14.689      15.434      14.689      12.696      10.047      7.3980      5.2081      3.6459      2.6628      2.1172    
  1.8624      1.7908      1.8624      2.1173      2.6628      3.6459      5.2082      7.3980      10.047      12.696    
  14.491      14.491      13.312      11.264      8.8442      6.5505      4.7119      3.4358      2.6628      2.2605    
  2.0987      2.0987      2.2605      2.6628      3.4358      4.7119      6.5505      8.8442      11.264      13.312    
  14.164      13.702      12.396      10.481      8.3167      6.2996      4.7119      3.6459      3.0380      2.7545    
  2.6757      2.7545      3.0380      3.6459      4.7119      6.2996      8.3167      10.481      12.396      13.702    
  13.855      13.214      11.966      10.243      8.3167      6.5505      5.2082      4.3636      3.9330      3.7707    
  3.7707      3.9330      4.3636      5.2082      6.5505      8.3167      10.243      11.966      13.214      13.855    
  13.676      13.054      11.966      10.481      8.8442      7.3980      6.3708      5.7961      5.5566      5.4995    
  5.5566      5.7961      6.3708      7.3980      8.8442      10.481      11.966      13.054      13.676      13.872    
  13.676      13.214      12.396      11.264      10.047      9.0324      8.3802      8.0734      7.9796      7.9796    
  8.0734      8.3802      9.0324      10.047      11.264      12.396      13.214      13.676      13.861      13.861    
  13.855      13.702      13.312      12.696      12.020      11.459      11.102      10.934      10.891      10.934    
  11.102      11.459      12.020      12.696      13.312      13.702      13.855      13.872      13.861      13.872    
  11.459      12.020      12.696      13.312      13.702      13.855      13.872      13.861      13.872      13.855    
  13.702      13.312      12.696      12.020      11.459      11.102      10.934      10.891      10.934      11.102    
  12.020      13.352      14.672      15.569      15.885      15.765      15.557      15.557      15.765      15.885    
  15.569      14.672      13.352      12.020      11.007      10.411      10.162      10.162      10.411      11.007    
  12.696      14.672      16.249      16.972      16.805      16.226      15.923      16.226      16.805      16.972    
  16.249      14.672      12.696      10.949      9.7703      9.1622      8.9845      9.1622      9.7704      10.949    
  13.312      15.569      16.972      17.117      16.304      15.470      15.470      16.304      17.117      16.972    
  15.569      13.312      10.949      9.1379      8.0642      7.6031      7.6031      8.0642      9.1379      10.949    
  13.702      15.885      16.805      16.304      15.155      14.575      15.155      16.304      16.805      15.885    
  13.702      11.007      8.6476      7.0797      6.2731      6.0355      6.2731      7.0797      8.6476      11.007    
  13.855      15.765      16.226      15.470      14.575      14.575      15.470      16.226      15.765      13.855    
  11.102      8.3802      6.3708      5.2081      4.7119      4.7119      5.2082      6.3708      8.3802      11.102    
  13.872      15.557      15.923      15.470      15.155      15.470      15.923      15.557      13.872      11.202    
  8.3227      5.9877      4.5057      3.7602      3.5417      3.7602      4.5057      5.9877      8.3227      11.202    
  13.861      15.557      16.226      16.304      16.304      16.226      15.557      13.861      11.270      8.3740    
  5.8605      4.1388      3.1798      2.7760      2.7760      3.1798      4.1388      5.8605      8.3740      11.270    
  13.872      15.765      16.805      17.117      16.805      15.765      13.872      11.270      8.4098      5.8516    
  3.9990      2.8871      2.3402      2.1806      2.3402      2.8871      3.9989      5.8516      8.4098      11.270    
  13.855      15.885      16.972      16.972      15.885      13.855      11.202      8.3740      5.8516      3.9691    
  2.7765      2.1338      1.8659      1.8659      2.1338      2.7765      3.9691      5.8515      8.3740      11.202    
  13.702      15.569      16.249      15.569      13.702      11.102      8.3227      5.8605      3.9990      2.7765    
  2.0754      1.7365      1.6384      1.7365      2.0754      2.7765      3.9989      5.8605      8.3227      11.102    
  13.312      14.672      14.672      13.312      11.007      8.3802      5.9877      4.1388      2.8871      2.1338    
  1.7365      1.5730      1.5730      1.7365      2.1338      2.8871      4.1388      5.9877      8.3802      11.007    
  12.696      13.352      12.696      10.949      8.6476      6.3708      4.5057      3.1798      2.3402      1.8659    
  1.6384      1.5730      1.6384      1.8659      2.3402      3.1798      4.5057      6.3708      8.6476      10.949    
  12.020      12.020      10.949      9.1379      7.0797      5.2081      3.7602      2.7760      2.1806      1.8659    
  1.7365      1.7365      1.8659      2.1806      2.7760      3.7603      5.2081      7.0797      9.1379      10.949    
  11.459      11.007      9.7703      8.0642      6.2731      4.7119      3.5417      2.7760      2.3402      2.1338    
  2.0754      2.1338      2.3402      2.7760      3.5417      4.7119      6.2731      8.0642      9.7703      11.007    
  11.102      10.411      9.1622      7.6031      6.0355      4.7119      3.7602      3.1798      2.8871      2.7765    
  2.7765      2.8871      3.1798      3.7603      4.7119      6.0355      7.6031      9.1622      10.411      11.102    
  10.934      10.162      8.9845      7.6031      6.2731      5.2082      4.5057      4.1388      3.9989      3.9691    
  3.9989      4.1388      4.5057      5.2081      6.2731      7.6031      8.9845      10.162      10.934      11.202    
  10.891      10.162      9.1622      8.0642      7.0797      6.3708      5.9877      5.8605      5.8516      5.8515    
  5.8605      5.9877      6.3708      7.0797      8.0642      9.1622      10.162      10.891      11.270      11.270    
  10.934      10.411      9.7704      9.1379      8.6476      8.3802      8.3227      8.3740      8.4098      8.3740    
  8.3227      8.3802      8.6476      9.1379      9.7703      10.411      10.934      11.270      11.387      11.270    
  11.102      11.007      10.949      10.949      11.007      11.102      11.202      11.270      11.270      11.202    
  11.102      11.007      10.949      10.949      11.007      11.102      11.202      11.270      11.270      11.202    
  9.0324      10.047      11.264      12.396      13.214      13.676      13.861      13.861      13.676      13.214    
  12.396      11.264      10.047      9.0324      8.3802      8.0734      7.9796      7.9796      8.0734      8.3802    
  10.047      11.821      13.544      14.788      15.408      15.559      15.557      15.559      15.408      14.788    
  13.544      11.821      10.047      8.6476      7.7854      7.3808      7.2717      7.3808      7.7855      8.6476    
  11.264      13.544      15.350      16.287      16.412      16.226      16.226      16.412      16.287      15.350    
  13.544      11.264      9.1379      7.6139      6.7532      6.3980      6.3980      6.7532      7.6139      9.1379    
  12.396      14.788      16.287      16.647      16.304      16.055      16.304      16.647      16.287      14.788    
  12.396      9.7703      7.6139      6.2300      5.5339      5.3314      5.5339      6.2301      7.6139      9.7704    
  13.214      15.408      16.412      16.304      15.858      15.858      16.304      16.412      15.408      13.214    
  10.411      7.7855      5.9024      4.8286      4.3738      4.3738      4.8287      5.9024      7.7855      10.411    
  13.676      15.559      16.226      16.055      15.858      16.055      16.226      15.559      13.676      10.934    
  8.0734      5.7961      4.3636      3.6459      3.4358      3.6459      4.3636      5.7961      8.0734      10.934    
  13.861      15.557      16.226      16.304      16.304      16.226      15.557      13.861      11.270      8.3740    
  5.8605      4.1388      3.1798      2.7760      2.7760      3.1798      4.1388      5.8605      8.3740      11.270    
  13.861      15.559      16.412      16.647      16.412      15.559      13.861      11.387      8.5661      5.9820    
  4.0839      2.9363      2.3699      2.2044      2.3699      2.9363      4.0839      5.9820      8.5661      11.387    
  13.676      15.408      16.287      16.287      15.408      13.676      11.270      8.5661      6.0400      4.0951    
  2.8397      2.1555      1.8682      1.8682      2.1555      2.8397      4.0951      6.0400      8.5661      11.270    
  13.214      14.788      15.350      14.788      13.214      10.934      8.3740      5.9820      4.0951      2.8175    
  2.0685      1.6999      1.5917      1.6999      2.0685      2.8175      4.0951      5.9820      8.3740      10.934    
  12.396      13.544      13.544      12.396      10.411      8.0734      5.8605      4.0839      2.8397      2.0685    
  1.6498      1.4726      1.4725      1.6498      2.0685      2.8397      4.0839      5.8605      8.0733      10.411    
  11.264      11.821      11.264      9.7703      7.7855      5.7961      4.1388      2.9363      2.1555      1.6999    
  1.4726      1.4051      1.4726      1.6999      2.1555      2.9363      4.1388      5.7961      7.7854      9.7703    
  10.047      10.047      9.1379      7.6139      5.9024      4.3636      3.1798      2.3699      1.8682      1.5917    
  1.4725      1.4726      1.5917      1.8682      2.3699      3.1798      4.3636      5.9024      7.6139      9.1379    
  9.0324      8.6476      7.6139      6.2300      4.8286      3.6459      2.7760      2.2044      1.8682      1.6999    
  1.6498      1.6999      1.8682      2.2044      2.7760      3.6459      4.8286      6.2300      7.6139      8.6476    
  8.3802      7.7854      6.7532      5.5339      4.3738      3.4358      2.7760      2.3699      2.1555      2.0685    
  2.0685      2.1555      2.3699      2.7760      3.4358      4.3738      5.5339      6.7532      7.7854      8.3802    
  8.0734      7.3808      6.3980      5.3314      4.3738      3.6459      3.1798      2.9363      2.8397      2.8175    
  2.8397      2.9363      3.1798      3.6459      4.3738      5.3314      6.3980      7.3808      8.0733      8.3227    
  7.9796      7.2717      6.3980      5.5339      4.8287      4.3636      4.1388      4.0839      4.0951      4.0951    
  4.0839      4.1388      4.3636      4.8286      5.5339      6.3980      7.2717      7.9796      8.3740      8.3740    
  7.9796      7.3808      6.7532      6.2301      5.9024      5.7961      5.8605      5.9820      6.0400      5.9820    
  5.8605      5.7961      5.9024      6.2300      6.7532      7.3808      7.9796      8.4098      8.5661      8.4098    
  8.0734      7.7855      7.6139      7.6139      7.7855      8.0734      8.3740      8.5661      8.5661      8.3740    
  8.0733      7.7854      7.6139      7.6139      7.7854      8.0733      8.3740      8.5661      8.5661      8.3740    
  8.3802      8.6476      9.1379      9.7704      10.411      10.934      11.270      11.387      11.270      10.934    
  10.411      9.7703      9.1379      8.6476      8.3802      8.3227      8.3740      8.4098      8.3740      8.3227    
  7.3980      8.8442      10.481      11.966      13.054      13.676      13.872      13.676      13.054      11.966    
  10.481      8.8442      7.3980      6.3708      5.7961      5.5566      5.4995      5.5566      5.7961      6.3708    
  8.8442      10.970      12.993      14.520      15.408      15.765      15.765      15.408      14.520      12.993    
  10.970      8.8442      7.0797      5.9024      5.2740      5.0273      5.0273      5.2740      5.9024      7.0797    
  10.481      12.993      15.037      16.287      16.805      16.916      16.805      16.287      15.037      12.993    
  10.481      8.0642      6.2301      5.1056      4.5569      4.4003      4.5569      5.1056      6.2301      8.0642    
  11.966      14.520      16.287      17.117      17.332      17.332      17.117      16.287      14.520      11.966    
  9.1622      6.7532      5.1056      4.1896      3.8069      3.8069      4.1896      5.1056      6.7532      9.1622    
  13.054      15.408      16.805      17.332      17.425      17.332      16.805      15.408      13.054      10.162    
  7.3808      5.2740      3.9807      3.3402      3.1536      3.3402      3.9807      5.2740      7.3808      10.162    
  13.676      15.765      16.916      17.332      17.332      16.916      15.765      13.676      10.891      7.9796    
  5.5566      3.9330      3.0380      2.6628      2.6628      3.0380      3.9330      5.5566      7.9796      10.891    
  13.872      15.765      16.805      17.117      16.805      15.765      13.872      11.270      8.4098      5.8516    
  3.9990      2.8871      2.3402      2.1806      2.3402      2.8871      3.9989      5.8516      8.4098      11.270    
  13.676      15.408      16.287      16.287      15.408      13.676      11.270      8.5661      6.0400      4.0951    
  2.8397      2.1555      1.8682      1.8682      2.1555      2.8397      4.0951      6.0400      8.5661      11.270    
  13.054      14.520      15.037      14.520      13.054      10.891      8.4098      6.0400      4.1388      2.8367    
  2.0674      1.6866      1.5745      1.6866      2.0674      2.8366      4.1388      6.0400      8.4098      10.891    
  11.966      12.993      12.993      11.966      10.162      7.9796      5.8516      4.0951      2.8367      2.0424    
  1.6042      1.4161      1.4161      1.6042      2.0424      2.8366      4.0951      5.8515      7.9796      10.162    
  10.481      10.970      10.481      9.1622      7.3808      5.5566      3.9990      2.8397      2.0674      1.6042    
  1.3662      1.2940      1.3662      1.6042      2.0674      2.8397      3.9989      5.5566      7.3808      9.1622    
  8.8442      8.8442      8.0642      6.7532      5.2740      3.9330      2.8871      2.1555      1.6866      1.4161    
  1.2940      1.2940      1.4161      1.6866      2.1555      2.8871      3.9330      5.2740      6.7532      8.0642    
  7.3980      7.0797      6.2301      5.1056      3.9807      3.0380      2.3402      1.8682      1.5745      1.4161    
  1.3662      1.4161      1.5745      1.8682      2.3402      3.0380      3.9807      5.1056      6.2300      7.0797    
  6.3708      5.9024      5.1056      4.1896      3.3402      2.6628      2.1806      1.8682      1.6866      1.6042    
  1.6042      1.6866      1.8682      2.1806      2.6628      3.3402      4.1896      5.1056      5.9024      6.3708    
  5.7961      5.2740      4.5569      3.8069      3.1536      2.6628      2.3402      2.1555      2.0674      2.0424    
  2.0674      2.1555      2.3402      2.6628      3.1536      3.8069      4.5569      5.2740      5.7961      5.9877    
  5.5566      5.0273      4.4003      3.8069      3.3402      3.0380      2.8871      2.8397      2.8366      2.8366    
  2.8397      2.8871      3.0380      3.3402      3.8069      4.4003      5.0273      5.5566      5.8605      5.8605    
  5.4995      5.0273      4.5569      4.1896      3.9807      3.9330      3.9989      4.0951      4.1388      4.0951    
  3.9989      3.9330      3.9807      4.1896      4.5569      5.0273      5.4995      5.8515      5.9820      5.8515    
  5.5566      5.2740      5.1056      5.1056      5.2740      5.5566      5.8516      6.0400      6.0400      5.8515    
  5.5566      5.2740      5.1056      5.1056      5.2740      5.5566      5.8515      6.0400      6.0400      5.8516    
  5.7961      5.9024      6.2301      6.7532      7.3808      7.9796      8.4098      8.5661      8.4098      7.9796    
  7.3808      6.7532      6.2300      5.9024      5.7961      5.8605      5.9820      6.0400      5.9820      5.8605    
  6.3708      7.0797      8.0642      9.1622      10.162      10.891      11.270      11.270      10.891      10.162    
  9.1622      8.0642      7.0797      6.3708      5.9877      5.8605      5.8515      5.8516      5.8605      5.9877    
  6.5505      8.3167      10.243      11.966      13.214      13.855      13.855      13.214      11.966      10.243    
  8.3167      6.5505      5.2082      4.3636      3.9330      3.7707      3.7707      3.9330      4.3636      5.2082    
  8.3167      10.707      12.993      14.788      15.885      16.246      15.885      14.788      12.993      10.707    
  8.3167      6.2732      4.8287      3.9807      3.5790      3.4665      3.5790      3.9807      4.8287      6.2731    
  10.243      12.993      15.350      16.972      17.761      17.761      16.972      15.350      12.993      10.243    
  7.6031      5.5339      4.1896      3.4640      3.1661      3.1661      3.4640      4.1896      5.5339      7.6031    
  11.966      14.788      16.972      18.272      18.690      18.272      16.972      14.788      11.966      8.9845    
  6.3980      4.5570      3.4640      2.9326      2.7791      2.9326      3.4640      4.5569      6.3980      8.9845    
  13.214      15.885      17.761      18.690      18.690      17.761      15.885      13.214      10.162      7.2717    
  5.0273      3.5791      2.7964      2.4718      2.4718      2.7964      3.5790      5.0273      7.2717      10.162    
  13.855      16.246      17.761      18.272      17.761      16.246      13.855      10.934      7.9796      5.4995    
  3.7707      2.7545      2.2605      2.1172      2.2605      2.7545      3.7707      5.4995      7.9796      10.934    
  13.855      15.885      16.972      16.972      15.885      13.855      11.202      8.3740      5.8516      3.9691    
  2.7765      2.1338      1.8659      1.8659      2.1338      2.7765      3.9691      5.8515      8.3740      11.202    
  13.214      14.788      15.350      14.788      13.214      10.934      8.3740      5.9820      4.0951      2.8175    
  2.0685      1.6999      1.5917      1.6999      2.0685      2.8175      4.0951      5.9820      8.3740      10.934    
  11.966      12.993      12.993      11.966      10.162      7.9796      5.8516      4.0951      2.8367      2.0424    
  1.6042      1.4161      1.4161      1.6042      2.0424      2.8366      4.0951      5.8515      7.9796      10.162    
  10.243      10.707      10.243      8.9845      7.2717      5.4995      3.9691      2.8175      2.0424      1.5727    
  1.3289      1.2544      1.3289      1.5727      2.0424      2.8175      3.9691      5.4995      7.2717      8.9845    
  8.3167      8.3167      7.6031      6.3980      5.0273      3.7707      2.7765      2.0685      1.6042      1.3289    
  1.2016      1.2016      1.3289      1.6042      2.0685      2.7765      3.7707      5.0273      6.3980      7.6031    
  6.5505      6.2732      5.5339      4.5570      3.5791      2.7545      2.1338      1.6999      1.4161      1.2544    
  1.2016      1.2544      1.4161      1.6999      2.1338      2.7545      3.5790      4.5569      5.5339      6.2731    
  5.2082      4.8287      4.1896      3.4640      2.7964      2.2605      1.8659      1.5917      1.4161      1.3289    
  1.3289      1.4161      1.5917      1.8659      2.2605      2.7964      3.4640      4.1896      4.8286      5.2082    
  4.3636      3.9807      3.4640      2.9326      2.4718      2.1172      1.8659      1.6999      1.6042      1.5727    
  1.6042      1.6999      1.8659      2.1173      2.4718      2.9326      3.4640      3.9807      4.3636      4.5057    
  3.9330      3.5790      3.1661      2.7791      2.4718      2.2605      2.1338      2.0685      2.0424      2.0424    
  2.0685      2.1338      2.2605      2.4718      2.7791      3.1661      3.5790      3.9330      4.1388      4.1388    
  3.7707      3.4665      3.1661      2.9326      2.7964      2.7545      2.7765      2.8175      2.8366      2.8175    
  2.7765      2.7545      2.7964      2.9326      3.1661      3.4665      3.7707      3.9989      4.0839      3.9989    
  3.7707      3.5790      3.4640      3.4640      3.5790      3.7707      3.9691      4.0951      4.0951      3.9691    
  3.7707      3.5790      3.4640      3.4640      3.5790      3.7707      3.9691      4.0951      4.0951      3.9691    
  3.9330      3.9807      4.1896      4.5569      5.0273      5.4995      5.8515      5.9820      5.8515      5.4995    
  5.0273      4.5569      4.1896      3.9807      3.9330      3.9989      4.0951      4.1388      4.0951      3.9989    
  4.3636      4.8287      5.5339      6.3980      7.2717      7.9796      8.3740      8.3740      7.9796      7.2717    
  6.3980      5.5339      4.8286      4.3636      4.1388      4.0839      4.0951      4.0951      4.0839      4.1388    
  5.2082      6.2731      7.6031      8.9845      10.162      10.934      11.202      10.934      10.162      8.9845    
  7.6031      6.2731      5.2082      4.5057      4.1388      3.9989      3.9691      3.9989      4.1388      4.5057    
  6.2996      8.3167      10.481      12.396      13.702      14.164      13.702      12.396      10.481      8.3167    
  6.2996      4.7119      3.6459      3.0380      2.7545      2.6757      2.7545      3.0380      3.6459      4.7119    
  8.3167      10.970      13.544      15.569      16.679      16.679      15.569      13.544      10.970      8.3167    
  6.0355      4.3738      3.3402      2.7964      2.5769      2.5769      2.7964      3.3402      4.3738      6.0355    
  10.481      13.544      16.249      18.101      18.757      18.101      16.249      13.544      10.481      7.6031    
  5.3315      3.8069      2.9326      2.5167      2.3983      2.5167      2.9326      3.8069      5.3314      7.6031    
  12.396      15.569      18.101      19.502      19.502      18.101      15.569      12.396      9.1622      6.3980    
  4.4003      3.1662      2.5167      2.2522      2.2522      2.5167      3.1661      4.4003      6.3980      9.1622    
  13.702      16.679      18.757      19.502      18.757      16.679      13.702      10.411      7.3808      5.0273    
  3.4665      2.5769      2.1534      2.0323      2.1533      2.5769      3.4665      5.0273      7.3808      10.411    
  14.164      16.679      18.101      18.101      16.679      14.164      11.102      8.0734      5.5566      3.7707    
  2.6758      2.0988      1.8624      1.8624      2.0987      2.6757      3.7707      5.5566      8.0734      11.102    
  13.702      15.569      16.249      15.569      13.702      11.102      8.3227      5.8605      3.9990      2.7765    
  2.0754      1.7365      1.6384      1.7365      2.0754      2.7765      3.9989      5.8605      8.3227      11.102    
  12.396      13.544      13.544      12.396      10.411      8.0734      5.8605      4.0839      2.8397      2.0685    
  1.6498      1.4726      1.4725      1.6498      2.0685      2.8397      4.0839      5.8605      8.0733      10.411    
  10.481      10.970      10.481      9.1622      7.3808      5.5566      3.9990      2.8397      2.0674      1.6042    
  1.3662      1.2940      1.3662      1.6042      2.0674      2.8397      3.9989      5.5566      7.3808      9.1622    
  8.3167      8.3167      7.6031      6.3980      5.0273      3.7707      2.7765      2.0685      1.6042      1.3289    
  1.2016      1.2016      1.3289      1.6042      2.0685      2.7765      3.7707      5.0273      6.3980      7.6031    
  6.2996      6.0355      5.3315      4.4003      3.4665      2.6758      2.0754      1.6498      1.3662      1.2016    
  1.1473      1.2016      1.3662      1.6498      2.0754      2.6757      3.4665      4.4003      5.3314      6.0355    
  4.7119      4.3738      3.8069      3.1662      2.5769      2.0988      1.7365      1.4726      1.2940      1.2016    
  1.2016      1.2940      1.4726      1.7365      2.0988      2.5769      3.1661      3.8069      4.3738      4.7119    
  3.6459      3.3402      2.9326      2.5167      2.1534      1.8624      1.6384      1.4725      1.3662      1.3289    
  1.3662      1.4726      1.6384      1.8624      2.1534      2.5167      2.9326      3.3402      3.6459      3.7603    
  3.0380      2.7964      2.5167      2.2522      2.0323      1.8624      1.7365      1.6498      1.6042      1.6042    
  1.6498      1.7365      1.8624      2.0323      2.2522      2.5167      2.7964      3.0380      3.1798      3.1798    
  2.7545      2.5769      2.3983      2.2522      2.1533      2.0987      2.0754      2.0685      2.0674      2.0685    
  2.0754      2.0988      2.1534      2.2522      2.3983      2.5769      2.7545      2.8871      2.9363      2.8871    
  2.6757      2.5769      2.5167      2.5167      2.5769      2.6757      2.7765      2.8397      2.8397      2.7765    
  2.6757      2.5769      2.5167      2.5167      2.5769      2.6757      2.7765      2.8397      2.8397      2.7765    
  2.7545      2.7964      2.9326      3.1661      3.4665      3.7707      3.9989      4.0839      3.9989      3.7707    
  3.4665      3.1661      2.9326      2.7964      2.7545      2.7765      2.8175      2.8366      2.8175      2.7765    
  3.0380      3.3402      3.8069      4.4003      5.0273      5.5566      5.8605      5.8605      5.5566      5.0273    
  4.4003      3.8069      3.3402      3.0380      2.8871      2.8397      2.8366      2.8366      2.8397      2.8871    
  3.6459      4.3738      5.3314      6.3980      7.3808      8.0734      8.3227      8.0733      7.3808      6.3980    
  5.3314      4.3738      3.6459      3.1798      2.9363      2.8397      2.8175      2.8397      2.9363      3.1798    
  4.7119      6.0355      7.6031      9.1622      10.411      11.102      11.102      10.411      9.1622      7.6031    
  6.0355      4.7119      3.7603      3.1798      2.8871      2.7765      2.7765      2.8871      3.1798      3.7602    
  6.5505      8.8442      11.264      13.312      14.491      14.491      13.312      11.264      8.8442      6.5505    
  4.7119      3.4358      2.6628      2.2605      2.0987      2.0987      2.2605      2.6628      3.4358      4.7119    
  8.8442      11.821      14.672      16.743      17.503      16.743      14.672      11.821      8.8442      6.2732    
  4.3738      3.1536      2.4718      2.1534      2.0639      2.1533      2.4718      3.1536      4.3738      6.2731    
  11.264      14.672      17.579      19.265      19.265      17.579      14.672      11.264      8.0642      5.5339    
  3.8069      2.7791      2.2523      2.0424      2.0424      2.2522      2.7791      3.8069      5.5339      8.0642    
  13.312      16.743      19.265      20.197      19.265      16.743      13.312      9.7703      6.7532      4.5570    
  3.1662      2.3983      2.0424      1.9427      2.0424      2.3983      3.1661      4.5569      6.7532      9.7703    
  14.491      17.503      19.265      19.265      17.503      14.491      11.007      7.7855      5.2740      3.5791    
  2.5769      2.0639      1.8592      1.8592      2.0639      2.5769      3.5790      5.2740      7.7854      11.007    
  14.491      16.743      17.579      16.743      14.491      11.459      8.3802      5.7961      3.9330      2.7545    
  2.0988      1.7908      1.7036      1.7908      2.0987      2.7545      3.9330      5.7961      8.3802      11.459    
  13.312      14.672      14.672      13.312      11.007      8.3802      5.9877      4.1388      2.8871      2.1338    
  1.7365      1.5730      1.5730      1.7365      2.1338      2.8871      4.1388      5.9877      8.3802      11.007    
  11.264      11.821      11.264      9.7703      7.7855      5.7961      4.1388      2.9363      2.1555      1.6999    
  1.4726      1.4051      1.4726      1.6999      2.1555      2.9363      4.1388      5.7961      7.7854      9.7703    
  8.8442      8.8442      8.0642      6.7532      5.2740      3.9330      2.8871      2.1555      1.6866      1.4161    
  1.2940      1.2940      1.4161      1.6866      2.1555      2.8871      3.9330      5.2740      6.7532      8.0642    
  6.5505      6.2732      5.5339      4.5570      3.5791      2.7545      2.1338      1.6999      1.4161      1.2544    
  1.2016      1.2544      1.4161      1.6999      2.1338      2.7545      3.5790      4.5569      5.5339      6.2731    
  4.7119      4.3738      3.8069      3.1662      2.5769      2.0988      1.7365      1.4726      1.2940      1.2016    
  1.2016      1.2940      1.4726      1.7365      2.0988      2.5769      3.1661      3.8069      4.3738      4.7119    
  3.4358      3.1536      2.7791      2.3983      2.0639      1.7908      1.5730      1.4051      1.2940      1.2544    
  1.2940      1.4051      1.5730      1.7908      2.0639      2.3983      2.7791      3.1536      3.4358      3.5417    
  2.6628      2.4718      2.2523      2.0424      1.8592      1.7036      1.5730      1.4726      1.4161      1.4161    
  1.4726      1.5730      1.7036      1.8592      2.0424      2.2522      2.4718      2.6628      2.7760      2.7760    
  2.2605      2.1534      2.0424      1.9427      1.8592      1.7908      1.7365      1.6999      1.6866      1.6999    
  1.7365      1.7908      1.8592      1.9427      2.0424      2.1534      2.2605      2.3402      2.3699      2.3402    
  2.0987      2.0639      2.0424      2.0424      2.0639      2.0987      2.1338      2.1555      2.1555      2.1338    
  2.0988      2.0639      2.0424      2.0424      2.0639      2.0988      2.1338      2.1555      2.1555      2.1338    
  2.0987      2.1533      2.2522      2.3983      2.5769      2.7545      2.8871      2.9363      2.8871      2.7545    
  2.5769      2.3983      2.2522      2.1534      2.0988      2.0754      2.0685      2.0674      2.0685      2.0754    
  2.2605      2.4718      2.7791      3.1661      3.5790      3.9330      4.1388      4.1388      3.9330      3.5790    
  3.1661      2.7791      2.4718      2.2605      2.1338      2.0685      2.0424      2.0424      2.0685      2.1338    
  2.6628      3.1536      3.8069      4.5569      5.2740      5.7961      5.9877      5.7961      5.2740      4.5569    
  3.8069      3.1536      2.6628      2.3402      2.1555      2.0674      2.0424      2.0674      2.1555      2.3402    
  3.4358      4.3738      5.5339      6.7532      7.7854      8.3802      8.3802      7.7854      6.7532      5.5339    
  4.3738      3.4358      2.7760      2.3699      2.1555      2.0685      2.0685      2.1555      2.3699      2.7760    
  4.7119      6.2731      8.0642      9.7703      11.007      11.459      11.007      9.7703      8.0642      6.2731    
  4.7119      3.5417      2.7760      2.3402      2.1338      2.0754      2.1338      2.3402      2.7760      3.5417    
  7.3980      10.047      12.696      14.689      15.434      14.689      12.696      10.047      7.3980      5.2082    
  3.6459      2.6628      2.1173      1.8624      1.7908      1.8624      2.1172      2.6628      3.6459      5.2081    
  10.047      13.352      16.282      18.021      18.021      16.282      13.352      10.047      7.0797      4.8287    
  3.3402      2.4718      2.0323      1.8592      1.8592      2.0323      2.4718      3.3402      4.8286      7.0797    
  12.696      16.282      18.991      20.005      18.991      16.282      12.696      9.1379      6.2300      4.1896    
  2.9326      2.2523      1.9427      1.8573      1.9427      2.2522      2.9326      4.1896      6.2300      9.1379    
  14.689      18.021      20.005      20.005      18.021      14.689      10.949      7.6139      5.1056      3.4640    
  2.5167      2.0424      1.8573      1.8573      2.0424      2.5167      3.4640      5.1056      7.6139      10.949    
  15.434      18.021      18.991      18.021      15.434      12.020      8.6476      5.9024      3.9807      2.7964    
  2.1534      1.8592      1.7777      1.8592      2.1534      2.7964      3.9807      5.9024      8.6476      12.020    
  14.689      16.282      16.282      14.689      12.020      9.0324      6.3708      4.3636      3.0380      2.2605    
  1.8624      1.7036      1.7036      1.8624      2.2605      3.0380      4.3636      6.3708      9.0324      12.020    
  12.696      13.352      12.696      10.949      8.6476      6.3708      4.5057      3.1798      2.3402      1.8659    
  1.6384      1.5730      1.6384      1.8659      2.3402      3.1798      4.5057      6.3708      8.6476      10.949    
  10.047      10.047      9.1379      7.6139      5.9024      4.3636      3.1798      2.3699      1.8682      1.5917    
  1.4725      1.4726      1.5917      1.8682      2.3699      3.1798      4.3636      5.9024      7.6139      9.1379    
  7.3980      7.0797      6.2300      5.1056      3.9807      3.0380      2.3402      1.8682      1.5745      1.4161    
  1.3662      1.4161      1.5745      1.8682      2.3402      3.0380      3.9807      5.1056      6.2300      7.0797    
  5.2082      4.8287      4.1896      3.4640      2.7964      2.2605      1.8659      1.5917      1.4161      1.3289    
  1.3289      1.4161      1.5917      1.8659      2.2605      2.7964      3.4640      4.1896      4.8286      5.2081    
  3.6459      3.3402      2.9326      2.5167      2.1534      1.8624      1.6384      1.4725      1.3662      1.3289    
  1.3662      1.4726      1.6384      1.8624      2.1534      2.5167      2.9326      3.3402      3.6459      3.7603    
  2.6628      2.4718      2.2523      2.0424      1.8592      1.7036      1.5730      1.4726      1.4161      1.4161    
  1.4726      1.5730      1.7036      1.8592      2.0424      2.2522      2.4718      2.6628      2.7760      2.7760    
  2.1173      2.0323      1.9427      1.8573      1.7777      1.7036      1.6384      1.5917      1.5745      1.5917    
  1.6384      1.7036      1.7777      1.8573      1.9427      2.0323      2.1173      2.1806      2.2044      2.1806    
  1.8624      1.8592      1.8573      1.8573      1.8592      1.8624      1.8659      1.8682      1.8682      1.8659    
  1.8624      1.8592      1.8573      1.8573      1.8592      1.8624      1.8659      1.8682      1.8682      1.8659    
  1.7908      1.8592      1.9427      2.0424      2.1534      2.2605      2.3402      2.3699      2.3402      2.2605    
  2.1534      2.0424      1.9427      1.8592      1.7908      1.7365      1.6999      1.6866      1.6999      1.7365    
  1.8624      2.0323      2.2522      2.5167      2.7964      3.0380      3.1798      3.1798      3.0380      2.7964    
  2.5167      2.2522      2.0323      1.8624      1.7365      1.6498      1.6042      1.6042      1.6498      1.7365    
  2.1172      2.4718      2.9326      3.4640      3.9807      4.3636      4.5057      4.3636      3.9807      3.4640    
  2.9326      2.4718      2.1173      1.8659      1.6999      1.6042      1.5727      1.6042      1.6999      1.8659    
  2.6628      3.3402      4.1896      5.1056      5.9024      6.3708      6.3708      5.9024      5.1056      4.1896    
  3.3402      2.6628      2.1806      1.8682      1.6866      1.6042      1.6042      1.6866      1.8682      2.1806    
  3.6459      4.8286      6.2300      7.6139      8.6476      9.0324      8.6476      7.6139      6.2300      4.8286    
  3.6459      2.7760      2.2044      1.8682      1.6999      1.6498      1.6999      1.8682      2.2044      2.7760    
  5.2081      7.0797      9.1379      10.949      12.020      12.020      10.949      9.1379      7.0797      5.2081    
  3.7603      2.7760      2.1806      1.8659      1.7365      1.7365      1.8659      2.1806      2.7760      3.7602    
  9.0324      12.020      14.689      16.282      16.282      14.689      12.020      9.0324      6.3708      4.3636    
  3.0380      2.2605      1.8624      1.7036      1.7036      1.8624      2.2605      3.0380      4.3636      6.3708    
  12.020      15.434      18.021      18.991      18.021      15.434      12.020      8.6476      5.9024      3.9807    
  2.7964      2.1534      1.8592      1.7777      1.8592      2.1534      2.7964      3.9807      5.9024      8.6476    
  14.689      18.021      20.005      20.005      18.021      14.689      10.949      7.6139      5.1056      3.4640    
  2.5167      2.0424      1.8573      1.8573      2.0424      2.5167      3.4640      5.1056      7.6139      10.949    
  16.282      18.991      20.005      18.991      16.282      12.696      9.1379      6.2300      4.1896      2.9326    
  2.2522      1.9427      1.8573      1.9427      2.2523      2.9326      4.1896      6.2300      9.1379      12.696    
  16.282      18.021      18.021      16.282      13.352      10.047      7.0797      4.8286      3.3402      2.4718    
  2.0323      1.8592      1.8592      2.0323      2.4718      3.3402      4.8287      7.0797      10.047      13.352    
  14.689      15.434      14.689      12.696      10.047      7.3980      5.2081      3.6459      2.6628      2.1172    
  1.8624      1.7908      1.8624      2.1173      2.6628      3.6459      5.2082      7.3980      10.047      12.696    
  12.020      12.020      10.949      9.1379      7.0797      5.2081      3.7602      2.7760      2.1806      1.8659    
  1.7365      1.7365      1.8659      2.1806      2.7760      3.7603      5.2081      7.0797      9.1379      10.949    
  9.0324      8.6476      7.6139      6.2300      4.8286      3.6459      2.7760      2.2044      1.8682      1.6999    
  1.6498      1.6999      1.8682      2.2044      2.7760      3.6459      4.8286      6.2300      7.6139      8.6476    
  6.3708      5.9024      5.1056      4.1896      3.3402      2.6628      2.1806      1.8682      1.6866      1.6042    
  1.6042      1.6866      1.8682      2.1806      2.6628      3.3402      4.1896      5.1056      5.9024      6.3708    
  4.3636      3.9807      3.4640      2.9326      2.4718      2.1172      1.8659      1.6999      1.6042      1.5727    
  1.6042      1.6999      1.8659      2.1173      2.4718      2.9326      3.4640      3.9807      4.3636      4.5057    
  3.0380      2.7964      2.5167      2.2522      2.0323      1.8624      1.7365      1.6498      1.6042      1.6042    
  1.6498      1.7365      1.8624      2.0323      2.2522      2.5167      2.7964      3.0380      3.1798      3.1798    
  2.2605      2.1534      2.0424      1.9427      1.8592      1.7908      1.7365      1.6999      1.6866      1.6999    
  1.7365      1.7908      1.8592      1.9427      2.0424      2.1534      2.2605      2.3402      2.3699      2.3402    
  1.8624      1.8592      1.8573      1.8573      1.8592      1.8624      1.8659      1.8682      1.8682      1.8659    
  1.8624      1.8592      1.8573      1.8573      1.8592      1.8624      1.8659      1.8682      1.8682      1.8659    
  1.7036      1.7777      1.8573      1.9427      2.0323      2.1173      2.1806      2.2044      2.1806      2.1173    
  2.0323      1.9427      1.8573      1.7777      1.7036      1.6384      1.5917      1.5745      1.5917      1.6384    
  1.7036      1.8592      2.0424      2.2523      2.4718      2.6628      2.7760      2.7760      2.6628      2.4718    
  2.2522      2.0424      1.8592      1.7036      1.5730      1.4726      1.4161      1.4161      1.4726      1.5730    
  1.8624      2.1534      2.5167      2.9326      3.3402      3.6459      3.7603      3.6459      3.3402      2.9326    
  2.5167      2.1534      1.8624      1.6384      1.4726      1.3662      1.3289      1.3662      1.4725      1.6384    
  2.2605      2.7964      3.4640      4.1896      4.8287      5.2082      5.2081      4.8286      4.1896      3.4640    
  2.7964      2.2605      1.8659      1.5917      1.4161      1.3289      1.3289      1.4161      1.5917      1.8659    
  3.0380      3.9807      5.1056      6.2300      7.0797      7.3980      7.0797      6.2300      5.1056      3.9807    
  3.0380      2.3402      1.8682      1.5745      1.4161      1.3662      1.4161      1.5745      1.8682      2.3402    
  4.3636      5.9024      7.6139      9.1379      10.047      10.047      9.1379      7.6139      5.9024      4.3636    
  3.1798      2.3699      1.8682      1.5917      1.4726      1.4725      1.5917      1.8682      2.3699      3.1798    
  6.3708      8.6476      10.949      12.696      13.352      12.696      10.949      8.6476      6.3708      4.5057    
  3.1798      2.3402      1.8659      1.6384      1.5730      1.6384      1.8659      2.3402      3.1798      4.5057    
  11.459      14.491      16.743      17.579      16.743      14.491      11.459      8.3802      5.7961      3.9330    
  2.7545      2.0987      1.7908      1.7036      1.7908      2.0988      2.7545      3.9330      5.7961      8.3802    
  14.491      17.503      19.265      19.265      17.503      14.491      11.007      7.7854      5.2740      3.5790    
  2.5769      2.0639      1.8592      1.8592      2.0639      2.5769      3.5791      5.2740      7.7855      11.007    
  16.743      19.265      20.197      19.265      16.743      13.312      9.7703      6.7532      4.5569      3.1661    
  2.3983      2.0424      1.9427      2.0424      2.3983      3.1662      4.5570      6.7532      9.7703      13.312    
  17.579      19.265      19.265      17.579      14.672      11.264      8.0642      5.5339      3.8069      2.7791    
  2.2522      2.0424      2.0424      2.2523      2.7791      3.8069      5.5339      8.0642      11.264      14.672    
  16.743      17.503      16.743      14.672      11.821      8.8442      6.2731      4.3738      3.1536      2.4718    
  2.1533      2.0639      2.1534      2.4718      3.1536      4.3738      6.2732      8.8442      11.821      14.672    
  14.491      14.491      13.312      11.264      8.8442      6.5505      4.7119      3.4358      2.6628      2.2605    
  2.0987      2.0987      2.2605      2.6628      3.4358      4.7119      6.5505      8.8442      11.264      13.312    
  11.459      11.007      9.7703      8.0642      6.2731      4.7119      3.5417      2.7760      2.3402      2.1338    
  2.0754      2.1338      2.3402      2.7760      3.5417      4.7119      6.2731      8.0642      9.7703      11.007    
  8.3802      7.7854      6.7532      5.5339      4.3738      3.4358      2.7760      2.3699      2.1555      2.0685    
  2.0685      2.1555      2.3699      2.7760      3.4358      4.3738      5.5339      6.7532      7.7854      8.3802    
  5.7961      5.2740      4.5569      3.8069      3.1536      2.6628      2.3402      2.1555      2.0674      2.0424    
  2.0674      2.1555      2.3402      2.6628      3.1536      3.8069      4.5569      5.2740      5.7961      5.9877    
  3.9330      3.5790      3.1661      2.7791      2.4718      2.2605      2.1338      2.0685      2.0424      2.0424    
  2.0685      2.1338      2.2605      2.4718      2.7791      3.1661      3.5790      3.9330      4.1388      4.1388    
  2.7545      2.5769      2.3983      2.2522      2.1533      2.0987      2.0754      2.0685      2.0674      2.0685    
  2.0754      2.0988      2.1534      2.2522      2.3983      2.5769      2.7545      2.8871      2.9363      2.8871    
  2.0987      2.0639      2.0424      2.0424      2.0639      2.0987      2.1338      2.1555      2.1555      2.1338    
  2.0988      2.0639      2.0424      2.0424      2.0639      2.0988      2.1338      2.1555      2.1555      2.1338    
  1.7908      1.8592      1.9427      2.0424      2.1534      2.2605      2.3402      2.3699      2.3402      2.2605    
  2.1534      2.0424      1.9427      1.8592      1.7908      1.7365      1.6999      1.6866      1.6999      1.7365    
  1.7036      1.8592      2.0424      2.2523      2.4718      2.6628      2.7760      2.7760      2.6628      2.4718    
  2.2522      2.0424      1.8592      1.7036      1.5730      1.4726      1.4161      1.4161      1.4726      1.5730    
  1.7908      2.0639      2.3983      2.7791      3.1536      3.4358      3.5417      3.4358      3.1536      2.7791    
  2.3983      2.0639      1.7908      1.5730      1.4051      1.2940      1.2544      1.2940      1.4051      1.5730    
  2.0988      2.5769      3.1662      3.8069      4.3738      4.7119      4.7119      4.3738      3.8069      3.1661    
  2.5769      2.0988      1.7365      1.4726      1.2940      1.2016      1.2016      1.2940      1.4726      1.7365    
  2.7545      3.5791      4.5570      5.5339      6.2732      6.5505      6.2731      5.5339      4.5569      3.5790    
  2.7545      2.1338      1.6999      1.4161      1.2544      1.2016      1.2544      1.4161      1.6999      2.1338    
  3.9330      5.2740      6.7532      8.0642      8.8442      8.8442      8.0642      6.7532      5.2740      3.9330    
  2.8871      2.1555      1.6866      1.4161      1.2940      1.2940      1.4161      1.6866      2.1555      2.8871    
  5.7961      7.7855      9.7703      11.264      11.821      11.264      9.7703      7.7854      5.7961      4.1388    
  2.9363      2.1555      1.6999      1.4726      1.4051      1.4726      1.6999      2.1555      2.9363      4.1388    
  8.3802      11.007      13.312      14.672      14.672      13.312      11.007      8.3802      5.9877      4.1388    
  2.8871      2.1338      1.7365      1.5730      1.5730      1.7365      2.1338      2.8871      4.1388      5.9877    
  14.164      16.679      18.101      18.101      16.679      14.164      11.102      8.0734      5.5566      3.7707    
  2.6757      2.0987      1.8624      1.8624      2.0988      2.6758      3.7707      5.5566      8.0734      11.102    
  16.679      18.757      19.502      18.757      16.679      13.702      10.411      7.3808      5.0273      3.4665    
  2.5769      2.1533      2.0323      2.1534      2.5769      3.4665      5.0273      7.3808      10.411      13.702    
  18.101      19.502      19.502      18.101      15.569      12.396      9.1622      6.3980      4.4003      3.1661    
  2.5167      2.2522      2.2522      2.5167      3.1662      4.4003      6.3980      9.1622      12.396      15.569    
  18.101      18.757      18.101      16.249      13.544      10.481      7.6031      5.3314      3.8069      2.9326    
  2.5167      2.3983      2.5167      2.9326      3.8069      5.3315      7.6031      10.481      13.544      16.249    
  16.679      16.679      15.569      13.544      10.970      8.3167      6.0355      4.3738      3.3402      2.7964    
  2.5769      2.5769      2.7964      3.3402      4.3738      6.0355      8.3167      10.970      13.544      15.569    
  14.164      13.702      12.396      10.481      8.3167      6.2996      4.7119      3.6459      3.0380      2.7545    
  2.6757      2.7545      3.0380      3.6459      4.7119      6.2996      8.3167      10.481      12.396      13.702    
  11.102      10.411      9.1622      7.6031      6.0355      4.7119      3.7602      3.1798      2.8871      2.7765    
  2.7765      2.8871      3.1798      3.7603      4.7119      6.0355      7.6031      9.1622      10.411      11.102    
  8.0734      7.3808      6.3980      5.3314      4.3738      3.6459      3.1798      2.9363      2.8397      2.8175    
  2.8397      2.9363      3.1798      3.6459      4.3738      5.3314      6.3980      7.3808      8.0733      8.3227    
  5.5566      5.0273      4.4003      3.8069      3.3402      3.0380      2.8871      2.8397      2.8366      2.8366    
  2.8397      2.8871      3.0380      3.3402      3.8069      4.4003      5.0273      5.5566      5.8605      5.8605    
  3.7707      3.4665      3.1661      2.9326      2.7964      2.7545      2.7765      2.8175      2.8366      2.8175    
  2.7765      2.7545      2.7964      2.9326      3.1661      3.4665      3.7707      3.9989      4.0839      3.9989    
  2.6757      2.5769      2.5167      2.5167      2.5769      2.6757      2.7765      2.8397      2.8397      2.7765    
  2.6757      2.5769      2.5167      2.5167      2.5769      2.6757      2.7765      2.8397      2.8397      2.7765    
  2.0987      2.1533      2.2522      2.3983      2.5769      2.7545      2.8871      2.9363      2.8871      2.7545    
  2.5769      2.3983      2.2522      2.1534      2.0988      2.0754      2.0685      2.0674      2.0685      2.0754    
  1.8624      2.0323      2.2522      2.5167      2.7964      3.0380      3.1798      3.1798      3.0380      2.7964    
  2.5167      2.2522      2.0323      1.8624      1.7365      1.6498      1.6042      1.6042      1.6498      1.7365    
  1.8624      2.1534      2.5167      2.9326      3.3402      3.6459      3.7603      3.6459      3.3402      2.9326    
  2.5167      2.1534      1.8624      1.6384      1.4726      1.3662      1.3289      1.3662      1.4725      1.6384    
  2.0988      2.5769      3.1662      3.8069      4.3738      4.7119      4.7119      4.3738      3.8069      3.1661    
  2.5769      2.0988      1.7365      1.4726      1.2940      1.2016      1.2016      1.2940      1.4726      1.7365    
  2.6758      3.4665      4.4003      5.3315      6.0355      6.2996      6.0355      5.3314      4.4003      3.4665    
  2.6757      2.0754      1.6498      1.3662      1.2016      1.1473      1.2016      1.3662      1.6498      2.0754    
  3.7707      5.0273      6.3980      7.6031      8.3167      8.3167      7.6031      6.3980      5.0273      3.7707    
  2.7765      2.0685      1.6042      1.3289      1.2016      1.2016      1.3289      1.6042      2.0685      2.7765    
  5.5566      7.3808      9.1622      10.481      10.970      10.481      9.1622      7.3808      5.5566      3.9989    
  2.8397      2.0674      1.6042      1.3662      1.2940      1.3662      1.6042      2.0674      2.8397      3.9990    
  8.0734      10.411      12.396      13.544      13.544      12.396      10.411      8.0733      5.8605      4.0839    
  2.8397      2.0685      1.6498      1.4725      1.4726      1.6498      2.0685      2.8397      4.0839      5.8605    
  11.102      13.702      15.569      16.249      15.569      13.702      11.102      8.3227      5.8605      3.9989    
  2.7765      2.0754      1.7365      1.6384      1.7365      2.0754      2.7765      3.9990      5.8605      8.3227    
  16.246      17.761      18.272      17.761      16.246      13.855      10.934      7.9796      5.4995      3.7707    
  2.7545      2.2605      2.1172      2.2605      2.7545      3.7707      5.4995      7.9796      10.934      13.855    
  17.761      18.690      18.690      17.761      15.885      13.214      10.162      7.2717      5.0273      3.5790    
  2.7964      2.4718      2.4718      2.7964      3.5791      5.0273      7.2717      10.162      13.214      15.885    
  18.272      18.690      18.272      16.972      14.788      11.966      8.9845      6.3980      4.5569      3.4640    
  2.9326      2.7791      2.9326      3.4640      4.5570      6.3980      8.9845      11.966      14.788      16.972    
  17.761      17.761      16.972      15.350      12.993      10.243      7.6031      5.5339      4.1896      3.4640    
  3.1661      3.1661      3.4640      4.1896      5.5339      7.6031      10.243      12.993      15.350      16.972    
  16.246      15.885      14.788      12.993      10.707      8.3167      6.2731      4.8287      3.9807      3.5790    
  3.4665      3.5790      3.9807      4.8287      6.2732      8.3167      10.707      12.993      14.788      15.885    
  13.855      13.214      11.966      10.243      8.3167      6.5505      5.2082      4.3636      3.9330      3.7707    
  3.7707      3.9330      4.3636      5.2082      6.5505      8.3167      10.243      11.966      13.214      13.855    
  10.934      10.162      8.9845      7.6031      6.2731      5.2082      4.5057      4.1388      3.9989      3.9691    
  3.9989      4.1388      4.5057      5.2082      6.2731      7.6031      8.9845      10.162      10.934      11.202    
  7.9796      7.2717      6.3980      5.5339      4.8287      4.3636      4.1388      4.0839      4.0951      4.0951    
  4.0839      4.1388      4.3636      4.8286      5.5339      6.3980      7.2717      7.9796      8.3740      8.3740    
  5.4995      5.0273      4.5569      4.1896      3.9807      3.9330      3.9989      4.0951      4.1388      4.0951    
  3.9989      3.9330      3.9807      4.1896      4.5569      5.0273      5.4995      5.8515      5.9820      5.8515    
  3.7707      3.5790      3.4640      3.4640      3.5790      3.7707      3.9691      4.0951      4.0951      3.9691    
  3.7707      3.5790      3.4640      3.4640      3.5790      3.7707      3.9691      4.0951      4.0951      3.9691    
  2.7545      2.7964      2.9326      3.1661      3.4665      3.7707      3.9989      4.0839      3.9989      3.7707    
  3.4665      3.1661      2.9326      2.7964      2.7545      2.7765      2.8175      2.8366      2.8175      2.7765    
  2.2605      2.4718      2.7791      3.1661      3.5790      3.9330      4.1388      4.1388      3.9330      3.5790    
  3.1661      2.7791      2.4718      2.2605      2.1338      2.0685      2.0424      2.0424      2.0685      2.1338    
  2.1172      2.4718      2.9326      3.4640      3.9807      4.3636      4.5057      4.3636      3.9807      3.4640    
  2.9326      2.4718      2.1173      1.8659      1.6999      1.6042      1.5727      1.6042      1.6999      1.8659    
  2.2605      2.7964      3.4640      4.1896      4.8287      5.2082      5.2082      4.8286      4.1896      3.4640    
  2.7964      2.2605      1.8659      1.5917      1.4161      1.3289      1.3289      1.4161      1.5917      1.8659    
  2.7545      3.5791      4.5570      5.5339      6.2732      6.5505      6.2731      5.5339      4.5569      3.5790    
  2.7545      2.1338      1.6999      1.4161      1.2544      1.2016      1.2544      1.4161      1.6999      2.1338    
  3.7707      5.0273      6.3980      7.6031      8.3167      8.3167      7.6031      6.3980      5.0273      3.7707    
  2.7765      2.0685      1.6042      1.3289      1.2016      1.2016      1.3289      1.6042      2.0685      2.7765    
  5.4995      7.2717      8.9845      10.243      10.707      10.243      8.9845      7.2717      5.4995      3.9691    
  2.8175      2.0424      1.5727      1.3289      1.2544      1.3289      1.5727      2.0424      2.8175      3.9691    
  7.9796      10.162      11.966      12.993      12.993      11.966      10.162      7.9796      5.8515      4.0951    
  2.8366      2.0424      1.6042      1.4161      1.4161      1.6042      2.0424      2.8367      4.0951      5.8516    
  10.934      13.214      14.788      15.350      14.788      13.214      10.934      8.3740      5.9820      4.0951    
  2.8175      2.0685      1.6999      1.5917      1.6999      2.0685      2.8175      4.0951      5.9820      8.3740    
  13.855      15.885      16.972      16.972      15.885      13.855      11.202      8.3740      5.8515      3.9691    
  2.7765      2.1338      1.8659      1.8659      2.1338      2.7765      3.9691      5.8516      8.3740      11.202    
  16.916      17.332      17.332      16.916      15.765      13.676      10.891      7.9796      5.5566      3.9330    
  3.0380      2.6628      2.6628      3.0380      3.9330      5.5566      7.9796      10.891      13.676      15.765    
  17.332      17.425      17.332      16.805      15.408      13.054      10.162      7.3808      5.2740      3.9807    
  3.3402      3.1536      3.3402      3.9807      5.2740      7.3808      10.162      13.054      15.408      16.805    
  17.332      17.332      17.117      16.287      14.520      11.966      9.1622      6.7532      5.1056      4.1896    
  3.8069      3.8069      4.1896      5.1056      6.7532      9.1622      11.966      14.520      16.287      17.117    
  16.916      16.805      16.287      15.037      12.993      10.481      8.0642      6.2301      5.1056      4.5569    
  4.4003      4.5569      5.1056      6.2301      8.0642      10.481      12.993      15.037      16.287      16.805    
  15.765      15.408      14.520      12.993      10.970      8.8442      7.0797      5.9024      5.2740      5.0273    
  5.0273      5.2740      5.9024      7.0797      8.8442      10.970      12.993      14.520      15.408      15.765    
  13.676      13.054      11.966      10.481      8.8442      7.3980      6.3708      5.7961      5.5566      5.4995    
  5.5566      5.7961      6.3708      7.3980      8.8442      10.481      11.966      13.054      13.676      13.872    
  10.891      10.162      9.1622      8.0642      7.0797      6.3708      5.9877      5.8605      5.8516      5.8515    
  5.8605      5.9877      6.3708      7.0797      8.0642      9.1622      10.162      10.891      11.270      11.270    
  7.9796      7.3808      6.7532      6.2301      5.9024      5.7961      5.8605      5.9820      6.0400      5.9820    
  5.8605      5.7961      5.9024      6.2300      6.7532      7.3808      7.9796      8.4098      8.5661      8.4098    
  5.5566      5.2740      5.1056      5.1056      5.2740      5.5566      5.8516      6.0400      6.0400      5.8515    
  5.5566      5.2740      5.1056      5.1056      5.2740      5.5566      5.8515      6.0400      6.0400      5.8516    
  3.9330      3.9807      4.1896      4.5569      5.0273      5.4995      5.8515      5.9820      5.8515      5.4995    
  5.0273      4.5569      4.1896      3.9807      3.9330      3.9989      4.0951      4.1388      4.0951      3.9989    
  3.0380      3.3402      3.8069      4.4003      5.0273      5.5566      5.8605      5.8605      5.5566      5.0273    
  4.4003      3.8069      3.3402      3.0380      2.8871      2.8397      2.8366      2.8366      2.8397      2.8871    
  2.6628      3.1536      3.8069      4.5569      5.2740      5.7961      5.9877      5.7961      5.2740      4.5569    
  3.8069      3.1536      2.6628      2.3402      2.1555      2.0674      2.0424      2.0674      2.1555      2.3402    
  2.6628      3.3402      4.1896      5.1056      5.9024      6.3708      6.3708      5.9024      5.1056      4.1896    
  3.3402      2.6628      2.1806      1.8682      1.6866      1.6042      1.6042      1.6866      1.8682      2.1806    
  3.0380      3.9807      5.1056      6.2301      7.0797      7.3980      7.0797      6.2300      5.1056      3.9807    
  3.0380      2.3402      1.8682      1.5745      1.4161      1.3662      1.4161      1.5745      1.8682      2.3402    
  3.9330      5.2740      6.7532      8.0642      8.8442      8.8442      8.0642      6.7532      5.2740      3.9330    
  2.8871      2.1555      1.6866      1.4161      1.2940      1.2940      1.4161      1.6866      2.1555      2.8871    
  5.5566      7.3808      9.1622      10.481      10.970      10.481      9.1622      7.3808      5.5566      3.9989    
  2.8397      2.0674      1.6042      1.3662      1.2940      1.3662      1.6042      2.0674      2.8397      3.9990    
  7.9796      10.162      11.966      12.993      12.993      11.966      10.162      7.9796      5.8515      4.0951    
  2.8366      2.0424      1.6042      1.4161      1.4161      1.6042      2.0424      2.8367      4.0951      5.8516    
  10.891      13.054      14.520      15.037      14.520      13.054      10.891      8.4098      6.0400      4.1388    
  2.8366      2.0674      1.6866      1.5745      1.6866      2.0674      2.8367      4.1388      6.0400      8.4098    
  13.676      15.408      16.287      16.287      15.408      13.676      11.270      8.5661      6.0400      4.0951    
  2.8397      2.1555      1.8682      1.8682      2.1555      2.8397      4.0951      6.0400      8.5661      11.270    
  15.765      16.805      17.117      16.805      15.765      13.872      11.270      8.4098      5.8516      3.9989    
  2.8871      2.3402      2.1806      2.3402      2.8871      3.9990      5.8516      8.4098      11.270      13.872    
  16.055      15.858      16.055      16.226      15.559      13.676      10.934      8.0734      5.7961      4.3636    
  3.6459      3.4358      3.6459      4.3636      5.7961      8.0734      10.934      13.676      15.559      16.226    
  15.858      15.858      16.304      16.412      15.408      13.214      10.411      7.7855      5.9024      4.8287    
  4.3738      4.3738      4.8286      5.9024      7.7855      10.411      13.214      15.408      16.412      16.304    
  16.055      16.304      16.647      16.287      14.788      12.396      9.7704      7.6139      6.2301      5.5339    
  5.3314      5.5339      6.2300      7.6139      9.7703      12.396      14.788      16.287      16.647      16.304    
  16.226      16.412      16.287      15.350      13.544      11.264      9.1379      7.6139      6.7532      6.3980    
  6.3980      6.7532      7.6139      9.1379      11.264      13.544      15.350      16.287      16.412      16.226    
  15.559      15.408      14.788      13.544      11.821      10.047      8.6476      7.7855      7.3808      7.2717    
  7.3808      7.7854      8.6476      10.047      11.821      13.544      14.788      15.408      15.559      15.557    
  13.676      13.214      12.396      11.264      10.047      9.0324      8.3802      8.0734      7.9796      7.9796    
  8.0734      8.3802      9.0324      10.047      11.264      12.396      13.214      13.676      13.861      13.861    
  10.934      10.411      9.7704      9.1379      8.6476      8.3802      8.3227      8.3740      8.4098      8.3740    
  8.3227      8.3802      8.6476      9.1379      9.7703      10.411      10.934      11.270      11.387      11.270    
  8.0734      7.7855      7.6139      7.6139      7.7855      8.0734      8.3740      8.5661      8.5661      8.3740    
  8.0733      7.7854      7.6139      7.6139      7.7854      8.0733      8.3740      8.5661      8.5661      8.3740    
  5.7961      5.9024      6.2301      6.7532      7.3808      7.9796      8.4098      8.5661      8.4098      7.9796    
  7.3808      6.7532      6.2300      5.9024      5.7961      5.8605      5.9820      6.0400      5.9820      5.8605    
  4.3636      4.8287      5.5339      6.3980      7.2717      7.9796      8.3740      8.3740      7.9796      7.2717    
  6.3980      5.5339      4.8286      4.3636      4.1388      4.0839      4.0951      4.0951      4.0839      4.1388    
  3.6459      4.3738      5.3314      6.3980      7.3808      8.0734      8.3227      8.0733      7.3808      6.3980    
  5.3314      4.3738      3.6459      3.1798      2.9363      2.8397      2.8175      2.8397      2.9363      3.1798    
  3.4358      4.3738      5.5339      6.7532      7.7854      8.3802      8.3802      7.7854      6.7532      5.5339    
  4.3738      3.4358      2.7760      2.3699      2.1555      2.0685      2.0685      2.1555      2.3699      2.7760    
  3.6459      4.8286      6.2300      7.6139      8.6476      9.0324      8.6476      7.6139      6.2300      4.8286    
  3.6459      2.7760      2.2044      1.8682      1.6999      1.6498      1.6999      1.8682      2.2044      2.7760    
  4.3636      5.9024      7.6139      9.1379      10.047      10.047      9.1379      7.6139      5.9024      4.3636    
  3.1798      2.3699      1.8682      1.5917      1.4726      1.4725      1.5917      1.8682      2.3699      3.1798    
  5.7961      7.7855      9.7703      11.264      11.821      11.264      9.7703      7.7854      5.7961      4.1388    
  2.9363      2.1555      1.6999      1.4726      1.4051      1.4726      1.6999      2.1555      2.9363      4.1388    
  8.0734      10.411      12.396      13.544      13.544      12.396      10.411      8.0733      5.8605      4.0839    
  2.8397      2.0685      1.6498      1.4725      1.4726      1.6498      2.0685      2.8397      4.0839      5.8605    
  10.934      13.214      14.788      15.350      14.788      13.214      10.934      8.3740      5.9820      4.0951    
  2.8175      2.0685      1.6999      1.5917      1.6999      2.0685      2.8175      4.0951      5.9820      8.3740    
  13.676      15.408      16.287      16.287      15.408      13.676      11.270      8.5661      6.0400      4.0951    
  2.8397      2.1555      1.8682      1.8682      2.1555      2.8397      4.0951      6.0400      8.5661      11.270    
  15.559      16.412      16.647      16.412      15.559      13.861      11.387      8.5661      5.9820      4.0839    
  2.9363      2.3699      2.2044      2.3699      2.9363      4.0839      5.9820      8.5661      11.387      13.861    
  16.226      16.304      16.304      16.226      15.557      13.861      11.270      8.3740      5.8605      4.1388    
  3.1798      2.7760      2.7760      3.1798      4.1388      5.8605      8.3740      11.270      13.861      15.557    
  14.575      14.575      15.470      16.226      15.765      13.855      11.102      8.3802      6.3708      5.2082    
  4.7119      4.7119      5.2081      6.3708      8.3802      11.102      13.855      15.765      16.226      15.470    
  14.575      15.155      16.304      16.805      15.885      13.702      11.007      8.6476      7.0797      6.2731    
  6.0355      6.2731      7.0797      8.6476      11.007      13.702      15.885      16.805      16.304      15.155    
  15.470      16.304      17.117      16.972      15.569      13.312      10.949      9.1379      8.0642      7.6031    
  7.6031      8.0642      9.1379      10.949      13.312      15.569      16.972      17.117      16.304      15.470    
  16.226      16.805      16.972      16.249      14.672      12.696      10.949      9.7704      9.1622      8.9845    
  9.1622      9.7703      10.949      12.696      14.672      16.249      16.972      16.805      16.226      15.923    
  15.765      15.885      15.569      14.672      13.352      12.020      11.007      10.411      10.162      10.162    
  10.411      11.007      12.020      13.352      14.672      15.569      15.885      15.765      15.557      15.557    
  13.855      13.702      13.312      12.696      12.020      11.459      11.102      10.934      10.891      10.934    
  11.102      11.459      12.020      12.696      13.312      13.702      13.855      13.872      13.861      13.872    
  11.102      11.007      10.949      10.949      11.007      11.102      11.202      11.270      11.270      11.202    
  11.102      11.007      10.949      10.949      11.007      11.102      11.202      11.270      11.270      11.202    
  8.3802      8.6476      9.1379      9.7704      10.411      10.934      11.270      11.387      11.270      10.934    
  10.411      9.7703      9.1379      8.6476      8.3802      8.3227      8.3740      8.4098      8.3740      8.3227    
  6.3708      7.0797      8.0642      9.1622      10.162      10.891      11.270      11.270      10.891      10.162    
  9.1622      8.0642      7.0797      6.3708      5.9877      5.8605      5.8515      5.8516      5.8605      5.9877    
  5.2082      6.2731      7.6031      8.9845      10.162      10.934      11.202      10.934      10.162      8.9845    
  7.6031      6.2731      5.2081      4.5057      4.1388      3.9989      3.9691      3.9989      4.1388      4.5057    
  4.7119      6.0355      7.6031      9.1622      10.411      11.102      11.102      10.411      9.1622      7.6031    
  6.0355      4.7119      3.7603      3.1798      2.8871      2.7765      2.7765      2.8871      3.1798      3.7602    
  4.7119      6.2731      8.0642      9.7703      11.007      11.459      11.007      9.7703      8.0642      6.2731    
  4.7119      3.5417      2.7760      2.3402      2.1338      2.0754      2.1338      2.3402      2.7760      3.5417    
  5.2081      7.0797      9.1379      10.949      12.020      12.020      10.949      9.1379      7.0797      5.2081    
  3.7603      2.7760      2.1806      1.8659      1.7365      1.7365      1.8659      2.1806      2.7760      3.7602    
  6.3708      8.6476      10.949      12.696      13.352      12.696      10.949      8.6476      6.3708      4.5057    
  3.1798      2.3402      1.8659      1.6384      1.5730      1.6384      1.8659      2.3402      3.1798      4.5057    
  8.3802      11.007      13.312      14.672      14.672      13.312      11.007      8.3802      5.9877      4.1388    
  2.8871      2.1338      1.7365      1.5730      1.5730      1.7365      2.1338      2.8871      4.1388      5.9877    
  11.102      13.702      15.569      16.249      15.569      13.702      11.102      8.3227      5.8605      3.9989    
  2.7765      2.0754      1.7365      1.6384      1.7365      2.0754      2.7765      3.9990      5.8605      8.3227    
  13.855      15.885      16.972      16.972      15.885      13.855      11.202      8.3740      5.8515      3.9691    
  2.7765      2.1338      1.8659      1.8659      2.1338      2.7765      3.9691      5.8516      8.3740      11.202    
  15.765      16.805      17.117      16.805      15.765      13.872      11.270      8.4098      5.8516      3.9989    
  2.8871      2.3402      2.1806      2.3402      2.8871      3.9990      5.8516      8.4098      11.270      13.872    
  16.226      16.304      16.304      16.226      15.557      13.861      11.270      8.3740      5.8605      4.1388    
  3.1798      2.7760      2.7760      3.1798      4.1388      5.8605      8.3740      11.270      13.861      15.557    
  15.470      15.155      15.470      15.923      15.557      13.872      11.202      8.3227      5.9877      4.5057    
  3.7602      3.5417      3.7602      4.5057      5.9877      8.3227      11.202      13.872      15.557      15.923    
