    2    2    1    1
  0.5639752E+01  0.2517300E-09  0.2517300E-09  0.2517300E-09  0.5000000E-15
  1.000000000000000E-004
  CAR 
 unknown system                          
      8     47      8
 
  0.1276756E-14  0.1276756E-14  0.1276756E-14  0.1000000E-02
      1        -11.913388   1.000000
      2         10.782049   1.000000
      3         10.782104   1.000000
      4         10.782104   1.000000
      5         16.205599   0.000000
      6         16.205647   0.000000
      7         16.205647   0.000000
      8         22.907437   0.000000
 
  0.1000000E+00  0.1257202E-14  0.1278733E-14  0.8000000E-02
      1        -11.633231   1.000000
      2          8.901501   1.000000
      3         10.309394   1.000000
      4         10.309441   1.000000
      5         16.847419   0.000000
      6         16.847463   0.000000
      7         17.135356   0.000000
      8         23.426400   0.000000
 
  0.2000000E+00  0.1255815E-14  0.1296939E-14  0.8000000E-02
      1        -10.802412   1.000000
      2          5.167207   1.000000
      3          9.420958   1.000000
      4          9.420964   1.000000
      5         18.068326   0.000000
      6         18.143782   0.000000
      7         18.144089   0.000000
      8         24.728550   0.000000
 
  0.3000000E+00  0.1203015E-14  0.1309915E-14  0.8000000E-02
      1         -9.441258   1.000000
      2          1.509589   1.000000
      3          8.278991   1.000000
      4          8.280102   1.000000
      5         18.314032   0.000000
      6         18.860357   0.000000
      7         18.860999   0.000000
      8         25.325130   0.000000
 
  0.4000000E+00  0.1224943E-14  0.1342384E-14  0.8000000E-02
      1         -7.617610   1.000000
      2         -1.639728   1.000000
      3          7.743250   1.000000
      4          7.744342   1.000000
      5         18.475704   0.000000
      6         19.087088   0.000000
      7         19.087671   0.000000
      8         26.221242   0.000000
 
  0.5000000E+00  0.1216617E-14  0.1247647E-14  0.4000000E-02
      1         -6.149955   1.000000
      2         -3.669156   1.000000
      3          7.555790   1.000000
      4          7.556933   1.000000
      5         18.485827   0.000000
      6         19.076711   0.000000
      7         19.077393   0.000000
      8         26.285438   0.000000
 
  0.1000000E+00  0.1000000E+00  0.1257559E-14  0.6000000E-02
      1        -11.539894   1.000000
      2          9.464681   1.000000
      3          9.464715   1.000000
      4          9.746149   1.000000
      5         15.941212   0.000000
      6         17.900118   0.000000
      7         17.900152   0.000000
      8         23.339332   0.000000
 
  0.2000000E+00  0.1000000E+00  0.1290028E-14  0.2400000E-01
      1        -10.892134   1.000000
      2          6.472713   1.000000
      3          8.493718   1.000000
      4          9.318490   1.000000
      5         16.308727   0.000000
      6         19.202559   0.000000
      7         19.410653   0.000000
      8         23.652807   0.000000
 
  0.3000000E+00  0.1000000E+00  0.1316497E-14  0.2400000E-01
      1         -9.707319   1.000000
      2          2.860892   1.000000
      3          7.552457   1.000000
      4          8.270535   1.000000
      5         17.293573   0.000000
      6         19.692677   0.000000
      7         20.335762   0.000000
      8         23.952530   0.000000
 
  0.4000000E+00  0.1000000E+00  0.1363612E-14  0.2400000E-01
      1         -8.024703   1.000000
      2         -0.475643   1.000000
      3          7.040707   1.000000
      4          7.215327   1.000000
      5         17.896264   0.000000
      6         19.760399   0.000000
      7         20.364239   0.000000
      8         24.863797   0.000000
 
  0.5000000E+00  0.1000000E+00  0.1297399E-14  0.2400000E-01
      1         -6.178197   1.000000
      2         -3.031098   1.000000
      3          6.559156   1.000000
      4          7.071082   1.000000
      5         18.263894   0.000000
      6         19.814333   0.000000
      7         20.056160   0.000000
      8         26.231446   0.000000
 
 -0.4000000E+00  0.1000000E+00  0.1241531E-14  0.2400000E-01
      1         -6.736137   1.000000
      2         -2.326054   1.000000
      3          6.259313   1.000000
      4          7.495023   1.000000
      5         18.636151   0.000000
      6         19.636300   0.000000
      7         19.787706   0.000000
      8         26.337590   0.000000
 
 -0.3000000E+00  0.1000000E+00  0.1259737E-14  0.2400000E-01
      1         -8.635261   1.000000
      2          0.610897   1.000000
      3          6.442659   1.000000
      4          8.288725   1.000000
      5         18.911087   0.000000
      6         19.045227   0.000000
      7         19.838653   0.000000
      8         25.257979   0.000000
 
 -0.2000000E+00  0.1000000E+00  0.1280036E-14  0.2400000E-01
      1        -10.161121   1.000000
      2          4.020137   1.000000
      3          7.006121   1.000000
      4          9.494771   1.000000
      5         18.159142   0.000000
      6         18.936406   0.000000
      7         19.377011   0.000000
      8         24.351323   0.000000
 
 -0.1000000E+00  0.1000000E+00  0.1258124E-14  0.1200000E-01
      1        -11.170916   1.000000
      2          7.409654   1.000000
      3          8.202014   1.000000
      4         10.318415   1.000000
      5         17.123020   0.000000
      6         18.050656   0.000000
      7         18.303430   0.000000
      8         23.912124   0.000000
 
  0.2000000E+00  0.2000000E+00  0.1282348E-14  0.6000000E-02
      1        -10.437366   1.000000
      2          7.080984   1.000000
      3          7.081028   1.000000
      4          7.109666   1.000000
      5         14.875648   0.000000
      6         20.976364   0.000000
      7         20.976403   0.000000
      8         22.001061   0.000000
 
  0.3000000E+00  0.2000000E+00  0.1309202E-14  0.2400000E-01
      1         -9.429518   1.000000
      2          4.140087   1.000000
      3          6.259911   1.000000
      4          6.552462   1.000000
      5         15.389134   0.000000
      6         20.702344   0.000000
      7         22.267010   0.000000
      8         22.464969   0.000000
 
  0.4000000E+00  0.2000000E+00  0.1328561E-14  0.2400000E-01
      1         -7.913177   1.000000
      2          1.006267   1.000000
      3          5.343593   1.000000
      4          5.789214   1.000000
      5         16.298055   0.000000
      6         21.348518   0.000000
      7         22.546799   0.000000
      8         22.791920   0.000000
 
  0.5000000E+00  0.2000000E+00  0.1290872E-14  0.2400000E-01
      1         -6.045273   1.000000
      2         -1.722339   1.000000
      3          4.312768   1.000000
      4          5.860968   1.000000
      5         16.840456   0.000000
      6         22.447497   0.000000
      7         22.457172   0.000000
      8         23.931758   0.000000
 
 -0.4000000E+00  0.2000000E+00  0.1234619E-14  0.2400000E-01
      1         -5.518632   1.000000
      2         -2.370910   1.000000
      3          3.493115   1.000000
      4          6.362448   1.000000
      5         17.393282   0.000000
      6         21.684679   0.000000
      7         22.213579   0.000000
      8         26.080848   0.000000
 
 -0.3000000E+00  0.2000000E+00  0.1260149E-14  0.2400000E-01
      1         -7.319233   1.000000
      2          0.147422   1.000000
      3          3.425649   1.000000
      4          7.504357   1.000000
      5         18.262821   0.000000
      6         20.795722   0.000000
      7         22.264725   0.000000
      8         25.139238   0.000000
 
 -0.2000000E+00  0.2000000E+00  0.1301415E-14  0.1200000E-01
      1         -8.984270   1.000000
      2          2.840653   1.000000
      3          4.082772   1.000000
      4          8.710194   1.000000
      5         18.885897   0.000000
      6         19.367509   0.000000
      7         21.253593   0.000000
      8         23.917009   0.000000
 
  0.3000000E+00  0.3000000E+00  0.1302674E-14  0.6000000E-02
      1         -8.614440   1.000000
      2          3.648596   1.000000
      3          5.313508   1.000000
      4          5.313541   1.000000
      5         14.218338   0.000000
      6         18.559116   0.000000
      7         24.280815   0.000000
      8         24.280857   0.000000
 
  0.4000000E+00  0.3000000E+00  0.1321265E-14  0.2400000E-01
      1         -7.277446   1.000000
      2          1.672425   1.000000
      3          4.156351   1.000000
      4          4.875261   1.000000
      5         14.766816   0.000000
      6         17.976725   0.000000
      7         25.378329   0.000000
      8         25.475966   0.000000
 
  0.5000000E+00  0.3000000E+00  0.1311331E-14  0.2400000E-01
      1         -5.521715   1.000000
      2         -0.487149   1.000000
      3          2.392184   1.000000
      4          4.807320   1.000000
      5         15.535407   0.000000
      6         19.719848   0.000000
      7         25.250906   0.000000
      8         25.492791   0.000000
 
 -0.4000000E+00  0.3000000E+00  0.1248716E-14  0.2400000E-01
      1         -4.161060   1.000000
      2         -1.886727   1.000000
      3          1.344409   1.000000
      4          5.309617   1.000000
      5         16.199810   0.000000
      6         23.265420   0.000000
      7         24.394412   0.000000
      8         25.405432   0.000000
 
 -0.3000000E+00  0.3000000E+00  0.1270508E-14  0.1200000E-01
      1         -5.593212   1.000000
      2         -0.387010   1.000000
      3          1.108171   1.000000
      4          6.235817   1.000000
      5         17.103801   0.000000
      6         22.890123   0.000000
      7         24.926520   0.000000
      8         25.248993   0.000000
 
  0.4000000E+00  0.4000000E+00  0.1238198E-14  0.6000000E-02
      1         -6.123774   1.000000
      2          0.219903   1.000000
      3          4.234694   1.000000
      4          4.234727   1.000000
      5         14.054651   0.000000
      6         16.095135   0.000000
      7         27.207156   0.000000
      8         27.207204   0.000000
 
  0.5000000E+00  0.4000000E+00  0.1219232E-14  0.2400000E-01
      1         -4.505328   1.000000
      2         -1.361224   1.000000
      3          2.960778   1.000000
      4          4.126058   1.000000
      5         14.781352   0.000000
      6         16.309616   0.000000
      7         27.607241   0.000000
      8         27.805487   0.000000
 
 -0.4000000E+00  0.4000000E+00  0.1231745E-14  0.1200000E-01
      1         -3.043158   1.000000
      2         -2.359795   1.000000
      3          1.195188   1.000000
      4          4.557749   1.000000
      5         15.345920   0.000000
      6         19.227300   0.000000
      7         26.783146   0.000000
      8         27.329573   0.000000
 
  0.5000000E+00  0.5000000E+00  0.1193213E-14  0.3000000E-02
      1         -3.021581   1.000000
      2         -3.021581   1.000000
      3          4.047562   1.000000
      4          4.047593   1.000000
      5         14.700219   0.000000
      6         14.700222   0.000000
      7         29.183576   0.000000
      8         29.183624   0.000000
 
  0.3000000E+00  0.2000000E+00  0.1000000E+00  0.2400000E-01
      1        -10.067504   1.000000
      2          5.000363   1.000000
      3          6.102053   1.000000
      4          8.761365   1.000000
      5         16.664801   0.000000
      6         20.039290   0.000000
      7         20.971660   0.000000
      8         22.853105   0.000000
 
  0.4000000E+00  0.2000000E+00  0.1000000E+00  0.4800000E-01
      1         -8.714881   1.000000
      2          1.981951   1.000000
      3          5.045170   1.000000
      4          7.622290   1.000000
      5         17.745398   0.000000
      6         20.119831   0.000000
      7         21.981946   0.000000
      8         23.035731   0.000000
 
  0.5000000E+00  0.2000000E+00  0.1000000E+00  0.4800000E-01
      1         -6.911973   1.000000
      2         -1.030437   1.000000
      3          4.746812   1.000000
      4          6.665154   1.000000
      5         18.436591   0.000000
      6         19.665231   0.000000
      7         22.406496   0.000000
      8         24.833819   0.000000
 
 -0.4000000E+00  0.2000000E+00  0.1000000E+00  0.2400000E-01
      1         -5.478786   1.000000
      2         -2.936660   1.000000
      3          4.635642   1.000000
      4          6.267436   1.000000
      5         18.613193   0.000000
      6         19.375869   0.000000
      7         22.437848   0.000000
      8         26.107556   0.000000
 
  0.4000000E+00  0.3000000E+00  0.1000000E+00  0.2400000E-01
      1         -8.258233   1.000000
      2          2.717882   1.000000
      3          4.400318   1.000000
      4          5.872347   1.000000
      5         15.922058   0.000000
      6         19.754446   0.000000
      7         22.560835   0.000000
      8         24.419997   0.000000
 
  0.5000000E+00  0.3000000E+00  0.1000000E+00  0.4800000E-01
      1         -6.608241   1.000000
      2          0.385856   1.000000
      3          3.326524   1.000000
      4          5.046955   1.000000
      5         17.052867   0.000000
      6         20.621423   0.000000
      7         22.392887   0.000000
      8         25.564578   0.000000
 
 -0.4000000E+00  0.3000000E+00  0.1000000E+00  0.4800000E-01
      1         -4.818671   1.000000
      2         -1.877675   1.000000
      3          2.631098   1.000000
      4          4.887103   1.000000
      5         17.695291   0.000000
      6         21.565720   0.000000
      7         23.552074   0.000000
      8         25.464136   0.000000
 
 -0.3000000E+00  0.3000000E+00  0.1000000E+00  0.4800000E-01
      1         -5.392190   1.000000
      2         -1.136090   1.000000
      3          2.155355   1.000000
      4          5.503585   1.000000
      5         18.444291   0.000000
      6         20.926089   0.000000
      7         24.094296   0.000000
      8         25.780247   0.000000
 
 -0.2000000E+00  0.3000000E+00  0.1000000E+00  0.2400000E-01
      1         -7.223895   1.000000
      2          1.050243   1.000000
      3          2.494570   1.000000
      4          6.531996   1.000000
      5         19.300623   0.000000
      6         19.411066   0.000000
      7         22.690512   0.000000
      8         24.430212   0.000000
 
  0.5000000E+00  0.4000000E+00  0.1000000E+00  0.2400000E-01
      1         -5.789158   1.000000
      2          0.186735   1.000000
      3          3.396594   1.000000
      4          3.807216   1.000000
      5         15.685539   0.000000
      6         17.492868   0.000000
      7         25.267361   0.000000
      8         27.235148   0.000000
 
 -0.4000000E+00  0.4000000E+00  0.1000000E+00  0.4800000E-01
      1         -4.005693   1.000000
      2         -1.348994   1.000000
      3          1.631083   1.000000
      4          3.743005   1.000000
      5         16.703472   0.000000
      6         19.485332   0.000000
      7         24.886416   0.000000
      8         26.886087   0.000000
 
 -0.3000000E+00  0.4000000E+00  0.1000000E+00  0.2400000E-01
      1         -3.741667   1.000000
      2         -1.461961   1.000000
      3          0.723354   1.000000
      4          4.352082   1.000000
      5         17.441705   0.000000
      6         23.242413   0.000000
      7         23.716413   0.000000
      8         25.104115   0.000000
 
 -0.4000000E+00  0.5000000E+00  0.1000000E+00  0.1200000E-01
      1         -2.843264   1.000000
      2         -2.843134   1.000000
      3          3.045451   1.000000
      4          3.046718   1.000000
      5         16.229000   0.000000
      6         16.229535   0.000000
      7         27.635212   0.000000
      8         27.636593   0.000000
 
 -0.4000000E+00  0.4000000E+00  0.2000000E+00  0.2400000E-01
      1         -4.917733   1.000000
      2         -0.435845   1.000000
      3          1.691138   1.000000
      4          3.691234   1.000000
      5         19.405023   0.000000
      6         20.422518   0.000000
      7         21.970697   0.000000
      8         26.501099   0.000000
 
 -0.3000000E+00  0.4000000E+00  0.2000000E+00  0.2400000E-01
      1         -3.555508   1.000000
      2         -1.603874   1.000000
      3          1.326592   1.000000
      4          3.069065   1.000000
      5         19.967147   0.000000
      6         21.022373   0.000000
      7         23.783549   0.000000
      8         23.800809   0.000000
 
 -0.3000000E+00  0.5000000E+00  0.2000000E+00  0.1200000E-01
      1         -2.388658   1.000000
      2         -2.388608   1.000000
      3          1.886395   1.000000
      4          1.887645   1.000000
      5         19.729131   0.000000
      6         19.730213   0.000000
      7         24.382437   0.000000
      8         24.383851   0.000000
