 vasp.6.5.1 10Mar25 (build Feb 13 2026 23:13:13) complex                        
  
 executed on             LinuxIFC date 2026.06.23  04:04:02
 running   28 mpi-ranks, with    1 threads/rank, on    1 nodes
 distrk:  each k-point on   28 cores,    1 groups
 distr:  one band on NCORE=   7 cores,    4 groups


--------------------------------------------------------------------------------------------------------


 INCAR:
   ALGO = Fast
   NELMIN = 4
   EDIFF = 1E-6
   ENCUT = 200
   PREC = Normal
   LREAL = .FALSE.
   ISMEAR = 0
   SIGMA = 0.2
   ISPIN = 1
   NSW = 0
   LWAVE = .FALSE.
   NPAR = 4
   NCORE = 7

 POTCAR:    PAW_PBE C 08Apr2002                   
 POTCAR:    PAW_PBE C 08Apr2002                   
   SHA256 =  253f7b50bb8d59471dbedb8285d89021f4a42ed1a2c5d38a03a736e69125dd95 C/POTCAR              
   COPYR  = (c) Copyright 08Apr2002 Georg Kresse                                                    
   COPYR  = This file is part of the software VASP. Any use, copying, and all other rights are regul
   COPYR  = If you do not have a valid VASP license, you may not use, copy or distribute this file. 
   VRHFIN =C: s2p2                                                                                  
   LEXCH  = PE                                                                                      
   EATOM  =   147.1560 eV,   10.8157 Ry                                                             
                                                                                                    
   TITEL  = PAW_PBE C 08Apr2002                                                                     
   LULTRA =        F    use ultrasoft PP ?                                                          
   IUNSCR =        1    unscreen: 0-lin 1-nonlin 2-no                                               
   RPACOR =    1.200    partial core radius                                                         
   POMASS =   12.011; ZVAL   =    4.000    mass and valenz                                          
   RCORE  =    1.500    outmost cutoff radius                                                       
   RWIGS  =    1.630; RWIGS  =    0.863    wigner-seitz radius (au A)                               
   ENMAX  =  400.000; ENMIN  =  300.000 eV                                                          
   ICORE  =        2    local potential                                                             
   LCOR   =        T    correct aug charges                                                         
   LPAW   =        T    paw PP                                                                      
   EAUG   =  644.873                                                                                
   DEXC   =    0.000                                                                                
   RMAX   =    1.529    core radius for proj-oper                                                   
   RAUG   =    1.300    factor for augmentation sphere                                              
   RDEP   =    1.501    radius for radial grids                                                     
   RDEPT  =    1.300    core radius for aug-charge                                                  
                                                                                                    
   Atomic configuration                                                                             
    4 entries                                                                                       
     n  l   j            E        occ.                                                              
     1  0  0.50      -273.3789   2.0000                                                             
     2  0  0.50       -13.7508   2.0000                                                             
     2  1  0.50        -5.2854   2.0000                                                             
     3  2  1.50        -5.4423   0.0000                                                             
   Description                                                                                      
     l       E           TYP  RCUT    TYP  RCUT                                                     
     0    -13.7508458     23  1.200                                                                 
     0     -8.2022199     23  1.200                                                                 
     1     -5.2854383     23  1.500                                                                 
     1     34.0145650     23  1.500                                                                 
     2     -5.4423304      7  1.500                                                                 
  local pseudopotential read in
  partial core-charges read in
  partial kinetic energy density read in
  atomic valenz-charges read in
  non local Contribution for L=           0  read in
    real space projection operators read in
  non local Contribution for L=           0  read in
    real space projection operators read in
  non local Contribution for L=           1  read in
    real space projection operators read in
  non local Contribution for L=           1  read in
    real space projection operators read in
    PAW grid and wavefunctions read in
 
   number of l-projection  operators is LMAX  =           4
   number of lm-projection operators is LMMAX =           8
 
  PAW_PBE C 08Apr2002                   :
 energy of atom  1       EATOM= -147.1560
 kinetic energy error for atom=    1.6647 (will be added to EATOM!!)
 
 
 POSCAR: C8
  positions in direct lattice
  No initial velocities read in


 exchange-correlation table for PE
   RHO(1)=    0.500       N(1)  =     2000
   RHO(2)=  100.500       N(2)  =     4000
 


--------------------------------------------------------------------------------------------------------


 ion  position               nearest neighbor table
   1  0.250  0.250  0.250-   2 1.54   2 1.54   2 1.54   2 1.54
   2  0.000  0.000  0.000-   1 1.54   1 1.54   1 1.54   1 1.54
 
  LATTYP: Found a face centered cubic cell.
 ALAT       =     3.5599999829
  
  Lattice vectors:
  
 A1 = (   2.5173001289,   0.0000000000,   0.0000000000)
 A2 = (   1.2586500645,   2.1800458606,   0.0000000000)
 A3 = (   1.2586500645,   0.7266819535,   2.0553669484)


Analysis of symmetry for initial positions (statically):
=====================================================================
 Subroutine PRICEL returns:
 Original cell was already a primitive cell.
 

 Routine SETGRP: Setting up the symmetry group for a 
 face centered cubic supercell.


 Subroutine GETGRP returns: Found 48 space group operations
 (whereof 24 operations were pure point group operations)
 out of a pool of 48 trial point group operations.


The static configuration has the point symmetry T_d .
 The point group associated with its full space group is O_h .


Analysis of symmetry for dynamics (positions and initial velocities):
=====================================================================
 Subroutine PRICEL returns:
 Original cell was already a primitive cell.
 

 Routine SETGRP: Setting up the symmetry group for a 
 face centered cubic supercell.


 Subroutine GETGRP returns: Found 48 space group operations
 (whereof 24 operations were pure point group operations)
 out of a pool of 48 trial point group operations.


The dynamic configuration has the point symmetry T_d .
 The point group associated with its full space group is O_h .


 Subroutine INISYM returns: Found 48 space group operations
 (whereof 24 operations are pure point group operations),
 and found     1 'primitive' translations


----------------------------------------------------------------------------------------

                                     Primitive cell                                     

  volume of cell :      11.2795

  direct lattice vectors                    reciprocal lattice vectors
     2.517300129  0.000000000  0.000000000     0.397251003 -0.229352973 -0.162177043
     1.258650065  2.180045861  0.000000000     0.000000000  0.458705947 -0.162177043
     1.258650065  0.726681953  2.055366948     0.000000000  0.000000000  0.486531128

  length of vectors
     2.517300129  2.517300129  2.517300129     0.486531128  0.486531128  0.486531128

  position of ions in fractional coordinates (direct lattice)
     0.250000000  0.250000000  0.250000000
     0.000000000  0.000000000  0.000000000

  ion indices of the primitive-cell ions
   primitive index   ion index
                 1           1
                 2           2

----------------------------------------------------------------------------------------

 
 
 KPOINTS: k-density: 4.0                          

Automatic generation of k-mesh.
 Grid dimensions read from file:
 generate k-points for:   10   10   10

 Generating k-lattice:

  Cartesian coordinates                     Fractional coordinates (reciprocal lattice)
     0.039725100 -0.022935297 -0.016217704     0.100000000 -0.000000000 -0.000000000
     0.000000000  0.045870595 -0.016217704     0.000000000  0.100000000 -0.000000000
     0.000000000  0.000000000  0.048653113     0.000000000  0.000000000  0.100000000

  Length of vectors
     0.048653113  0.048653113  0.048653113

  Shift w.r.t. Gamma in fractional coordinates (k-lattice)
     0.000000000  0.000000000  0.000000000

 
 Subroutine IBZKPT returns following result:
 ===========================================
 
 Found     47 irreducible k-points:
 
 Following reciprocal coordinates:
            Coordinates               Weight
  0.000000  0.000000  0.000000      1.000000
  0.100000  0.000000  0.000000      8.000000
  0.200000  0.000000  0.000000      8.000000
  0.300000  0.000000  0.000000      8.000000
  0.400000  0.000000  0.000000      8.000000
  0.500000  0.000000  0.000000      4.000000
  0.100000  0.100000  0.000000      6.000000
  0.200000  0.100000  0.000000     24.000000
  0.300000  0.100000  0.000000     24.000000
  0.400000  0.100000  0.000000     24.000000
  0.500000  0.100000  0.000000     24.000000
 -0.400000  0.100000  0.000000     24.000000
 -0.300000  0.100000  0.000000     24.000000
 -0.200000  0.100000  0.000000     24.000000
 -0.100000  0.100000  0.000000     12.000000
  0.200000  0.200000  0.000000      6.000000
  0.300000  0.200000  0.000000     24.000000
  0.400000  0.200000  0.000000     24.000000
  0.500000  0.200000  0.000000     24.000000
 -0.400000  0.200000  0.000000     24.000000
 -0.300000  0.200000  0.000000     24.000000
 -0.200000  0.200000  0.000000     12.000000
  0.300000  0.300000  0.000000      6.000000
  0.400000  0.300000  0.000000     24.000000
  0.500000  0.300000  0.000000     24.000000
 -0.400000  0.300000  0.000000     24.000000
 -0.300000  0.300000  0.000000     12.000000
  0.400000  0.400000  0.000000      6.000000
  0.500000  0.400000  0.000000     24.000000
 -0.400000  0.400000  0.000000     12.000000
  0.500000  0.500000  0.000000      3.000000
  0.300000  0.200000  0.100000     24.000000
  0.400000  0.200000  0.100000     48.000000
  0.500000  0.200000  0.100000     48.000000
 -0.400000  0.200000  0.100000     24.000000
  0.400000  0.300000  0.100000     24.000000
  0.500000  0.300000  0.100000     48.000000
 -0.400000  0.300000  0.100000     48.000000
 -0.300000  0.300000  0.100000     48.000000
 -0.200000  0.300000  0.100000     24.000000
  0.500000  0.400000  0.100000     24.000000
 -0.400000  0.400000  0.100000     48.000000
 -0.300000  0.400000  0.100000     24.000000
 -0.400000  0.500000  0.100000     12.000000
 -0.400000  0.400000  0.200000     24.000000
 -0.300000  0.400000  0.200000     24.000000
 -0.300000  0.500000  0.200000     12.000000
 
 Following cartesian coordinates:
            Coordinates               Weight
  0.000000  0.000000  0.000000      1.000000
  0.039725 -0.022935 -0.016218      8.000000
  0.079450 -0.045871 -0.032435      8.000000
  0.119175 -0.068806 -0.048653      8.000000
  0.158900 -0.091741 -0.064871      8.000000
  0.198626 -0.114676 -0.081089      4.000000
  0.039725  0.022935 -0.032435      6.000000
  0.079450 -0.000000 -0.048653     24.000000
  0.119175 -0.022935 -0.064871     24.000000
  0.158900 -0.045871 -0.081089     24.000000
  0.198626 -0.068806 -0.097306     24.000000
 -0.158900  0.137612  0.048653     24.000000
 -0.119175  0.114676  0.032435     24.000000
 -0.079450  0.091741  0.016218     24.000000
 -0.039725  0.068806  0.000000     12.000000
  0.079450  0.045871 -0.064871      6.000000
  0.119175  0.022935 -0.081089     24.000000
  0.158900 -0.000000 -0.097306     24.000000
  0.198626 -0.022935 -0.113524     24.000000
 -0.158900  0.183482  0.032435     24.000000
 -0.119175  0.160547  0.016218     24.000000
 -0.079450  0.137612  0.000000     12.000000
  0.119175  0.068806 -0.097306      6.000000
  0.158900  0.045871 -0.113524     24.000000
  0.198626  0.022935 -0.129742     24.000000
 -0.158900  0.229353  0.016218     24.000000
 -0.119175  0.206418  0.000000     12.000000
  0.158900  0.091741 -0.129742      6.000000
  0.198626  0.068806 -0.145959     24.000000
 -0.158900  0.275224  0.000000     12.000000
  0.198626  0.114676 -0.162177      3.000000
  0.119175  0.022935 -0.032435     24.000000
  0.158900 -0.000000 -0.048653     48.000000
  0.198626 -0.022935 -0.064871     48.000000
 -0.158900  0.183482  0.081089     24.000000
  0.158900  0.045871 -0.064871     24.000000
  0.198626  0.022935 -0.081089     48.000000
 -0.158900  0.229353  0.064871     48.000000
 -0.119175  0.206418  0.048653     48.000000
 -0.079450  0.183482  0.032435     24.000000
  0.198626  0.068806 -0.097306     24.000000
 -0.158900  0.275224  0.048653     48.000000
 -0.119175  0.252288  0.032435     24.000000
 -0.158900  0.321094  0.032435     12.000000
 -0.158900  0.275224  0.097306     24.000000
 -0.119175  0.252288  0.081089     24.000000
 -0.119175  0.298159  0.064871     12.000000
 


--------------------------------------------------------------------------------------------------------




 Dimension of arrays:
   k-points           NKPTS =     47   k-points in BZ     NKDIM =     47   number of bands    NBANDS=      8
   number of dos      NEDOS =    301   number of ions     NIONS =      2
   non local maximal  LDIM  =      4   non local SUM 2l+1 LMDIM =      8
   total plane-waves  NPLWV =   1000
   max r-space proj   IRMAX =      1   max aug-charges    IRDMAX=   1246
   dimension x,y,z NGX =    10 NGY =   10 NGZ =   10
   dimension x,y,z NGXF=    20 NGYF=   20 NGZF=   20
   support grid    NGXF=    20 NGYF=   20 NGZF=   20
   ions per type =               2
   NGX,Y,Z   is equivalent  to a cutoff of   6.60,  6.60,  6.60 a.u.
   NGXF,Y,Z  is equivalent  to a cutoff of  13.21, 13.21, 13.21 a.u.

 SYSTEM =  unknown system                          
 POSCAR =  C8                                      

 Startparameter for this run:
   NWRITE =      2    write-flag & timer
   PREC   = normal    normal or accurate (medium, high low for compatibility)
   ISTART =      0    job   : 0-new  1-cont  2-samecut
   ICHARG =      2    charge: 1-file 2-atom 10-const
   ISPIN  =      1    spin polarized calculation?
   LNONCOLLINEAR =      F non collinear calculations
   LSORBIT =      F    spin-orbit coupling
   INIWAV =      1    electr: 0-lowe 1-rand  2-diag
   LASPH  =      F    aspherical Exc in radial PAW
 Electronic Relaxation 1
   ENCUT  =  200.0 eV  14.70 Ry    3.83 a.u.   2.90  2.90  2.90*2*pi/ulx,y,z
   ENINI  =  200.0     initial cutoff
   ENAUG  =  644.9 eV  augmentation charge cutoff
   NELM   =     60;   NELMIN=  4; NELMDL= -5     # of ELM steps 
   EDIFF  = 0.1E-05   stopping-criterion for ELM
   LREAL  =      F    real-space projection
   NLSPLINE    = F    spline interpolate recip. space projectors
   LCOMPAT=      F    compatible to vasp.4.4
   GGA_COMPAT  = T    GGA compatible to vasp.4.4-vasp.4.6
   LMAXPAW     = -100 max onsite density
   LMAXMIX     =    2 max onsite mixed and CHGCAR
   VOSKOWN=      0    Vosko Wilk Nusair interpolation
   ROPT   =    0.00000
 Ionic relaxation
   EDIFFG = 0.1E-04   stopping-criterion for IOM
   NSW    =      0    number of steps for IOM
   NBLOCK =      1;   KBLOCK =      1    inner block; outer block 
   IBRION =     -1    ionic relax: 0-MD 1-quasi-New 2-CG
   NFREE  =      0    steps in history (QN), initial steepest desc. (CG)
   ISIF   =      2    stress and relaxation
   IWAVPR =     10    prediction:  0-non 1-charg 2-wave 3-comb
   ISYM   =      2    0-nonsym 1-usesym 2-fastsym
   LCORR  =      T    Harris-Foulkes like correction to forces

   POTIM  = 0.5000    time-step for ionic-motion
   TEIN   =    0.0    initial temperature
   TEBEG  =    0.0;   TEEND  =   0.0 temperature during run
   SMASS  =  -3.00    Nose mass-parameter (am)
   estimated Nose-frequenzy (Omega)   =  0.10E-29 period in steps = 0.13E+47 mass=  -0.145E-27a.u.
   SCALEE = 1.0000    scale energy and forces
   NPACO  =    256;   APACO  = 10.0  distance and # of slots for P.C.
   PSTRESS=    0.0 pullay stress

  Mass of Ions in am
   POMASS =  12.01
  Ionic Valenz
   ZVAL   =   4.00
  Atomic Wigner-Seitz radii
   RWIGS  =  -1.00
  virtual crystal weights 
   VCA    =   1.00
   NELECT =       8.0000    total number of electrons
   NUPDOWN=      -1.0000    fix difference up-down

 DOS related values:
   EMIN   =  10.00;   EMAX   =-10.00  energy-range for DOS
   EFERMI =   0.00;   METHOD = LEGACY      
   ISMEAR =     0;   SIGMA  =   0.20  broadening in eV -4-tet -1-fermi 0-gaus
   EFERMI_NEDOS =   21; number of points for ismear=-14 and -15

 Electronic relaxation 2 (details)
   IALGO  =     68    algorithm
   LDIAG  =      T    sub-space diagonalisation (order eigenvalues)
   LSUBROT=      F    optimize rotation matrix (better conditioning)
   LROBUST=      F    robust break criterion during scf (extrapolated energy error)
   ISEARCH=      0    line search for conjugate gradient (0, 1=use gradient)
   TURBO    =      0    0=normal 1=particle mesh
   IRESTART =      0    0=no restart 2=restart with 2 vectors
   NREBOOT  =      0    no. of reboots
   NMIN     =      0    reboot dimension
   EREF     =   0.00    reference energy to select bands
   IMIX   =      4    mixing-type and parameters
     AMIX     =   0.40;   BMIX     =  1.00
     AMIX_MAG =   1.60;   BMIX_MAG =  1.00
     AMIN     =   0.10
     WC   =   100.;   INIMIX=   1;  MIXPRE=   1;  MAXMIX= -45

 Intra band minimization:
   WEIMIN = 0.0000     energy-eigenvalue tresh-hold
   EBREAK =  0.31E-07  absolut break condition
   DEPER  =   0.30     relativ break condition  

   TIME   =   0.40     timestep for ELM

  volume/ion in A,a.u.               =       5.64        38.06
  Fermi-wavevector in a.u.,A,eV,Ry     =   1.459962  2.758928 29.000661  2.131488
  Thomas-Fermi vector in A             =   2.576467
 
 Write flags
   LWAVE        =      F    write WAVECAR
   LDOWNSAMPLE  =      F    k-point downsampling of WAVECAR
   LCHARG       =      T    write CHGCAR
   LVTOT        =      F    write LOCPOT, total local potential
   LVHAR        =      F    write LOCPOT, Hartree potential only
   WRT_POTENTIAL= false  ! write potential to hdf5 file
   LELF         =      F    write electronic localiz. function (ELF)
   LORBIT       =      0    0 simple, 1 ext, 2 COOP (PROOUT), +10 PAW based schemes


 Python interface
   PLUGINS active      =      F    recompile with -DPLUGINS to activate
 
 Dipole corrections
   LMONO      =      F    monopole corrections only (constant potential shift)
   LDIPOL     =      F    correct potential (dipole corrections)
   IDIPOL     =      0    1-x, 2-y, 3-z, 4-all directions 
   EPSILON    =  1.0000000 bulk dielectric constant
   LVACPOTAV  =      F  vacuum potentials using an averaging scheme for the charge density
   VACPOTFLAT =  0.1000000 required flatness to determine vacuum potential
 
Coulomb truncation method
  LTRUNCATE          =      F  Coulomb kernel truncation to be used

 
 Exchange correlation treatment:
   GGA     = PE    functional components
   XC_C    = 1    coefficients multiplying the functional components
   LIBXC   =     F    Libxc                    
   VOSKOWN =     0    Vosko Wilk Nusair interpolation
   LHFCALC =     F    Hartree Fock is set to
   LHFONE  =     F    Hartree Fock one center treatment
   AEXX    =    0.0000 exact exchange contribution

 Parameters of functionals:
   PE:
     No parameter
 
 Van der Waals corrections
   IVDW    =     0    specifies the selected vdW correction

 Linear response parameters
   LEPSILON=     F    determine dielectric tensor
   LRPA    =     F    only Hartree local field effects (RPA)
   LNABLA  =     F    use nabla operator in PAW spheres
   LVEL    =     F    velocity operator in full k-point grid
   CSHIFT  =0.1000    complex shift for real part using Kramers Kronig
   OMEGAMAX=  -1.0    maximum frequency
   DEG_THRESHOLD= 0.2000000E-02 threshold for treating states as degnerate
   RTIME   =   -0.100 relaxation time in fs
  (WPLASMAI=    0.000 imaginary part of plasma frequency in eV, 0.658/RTIME)
   DFIELD  = 0.0000000 0.0000000 0.0000000 field for delta impulse in time
 
  Optional k-point grid parameters
   LKPOINTS_OPT  =     F    use optional k-point grid
   KPOINTS_OPT_MODE=     1    mode for optional k-point grid
 
 Orbital magnetization related:
   ORBITALMAG=     F  switch on orbital magnetization
   LCHIMAG   =     F  perturbation theory with respect to B field
   DQ        =  0.001000  dq finite difference perturbation B field
   LLRAUG    =     F  two centre corrections for induced B field
   LBONE     =     F  B-component reconstruction in AE one-centre
   LVGVCALC  =     T  calculate vGv susceptibility
   LVGVAPPL  =     F  apply vGv susceptibility instead of pGv for G=0

 Random number generation:
   RANDOM_GENERATOR = DEFAULT
   PCG_SEED         = not used


--------------------------------------------------------------------------------------------------------


 Static calculation
 charge density and potential will be updated during run
 non-spin polarized calculation
 RMM-DIIS sequential band-by-band and
  variant of blocked Davidson during initial phase
 perform sub-space diagonalisation
    before iterative eigenvector-optimisation
 modified Broyden-mixing scheme, WC =      100.0
 initial mixing is a Kerker type mixing with AMIX =  0.4000 and BMIX =      1.0000
 Hartree-type preconditioning will be used
 using additional bands            4
 reciprocal scheme for non local part
 use partial core corrections
 calculate Harris-corrections to forces 
   (improved forces if not selfconsistent)
 use gradient corrections 
 use of overlap-Matrix (Vanderbilt PP)
 Gauss-broadening in eV      SIGMA  =   0.20


--------------------------------------------------------------------------------------------------------


  energy-cutoff  :      200.00
  volume of cell :       11.28
      direct lattice vectors                 reciprocal lattice vectors
     2.517300129  0.000000000  0.000000000     0.397251003 -0.229352973 -0.162177043
     1.258650065  2.180045861  0.000000000     0.000000000  0.458705947 -0.162177043
     1.258650065  0.726681953  2.055366948     0.000000000  0.000000000  0.486531128

  length of vectors
     2.517300129  2.517300129  2.517300129     0.486531128  0.486531128  0.486531128


 
 k-points in units of 2pi/SCALE and weight: k-density: 4.0                          
   0.00000000  0.00000000  0.00000000       0.001
   0.03972510 -0.02293530 -0.01621770       0.008
   0.07945020 -0.04587059 -0.03243541       0.008
   0.11917530 -0.06880589 -0.04865311       0.008
   0.15890040 -0.09174119 -0.06487082       0.008
   0.19862550 -0.11467649 -0.08108852       0.004
   0.03972510  0.02293530 -0.03243541       0.006
   0.07945020 -0.00000000 -0.04865311       0.024
   0.11917530 -0.02293530 -0.06487082       0.024
   0.15890040 -0.04587059 -0.08108852       0.024
   0.19862550 -0.06880589 -0.09730623       0.024
  -0.15890040  0.13761178  0.04865311       0.024
  -0.11917530  0.11467649  0.03243541       0.024
  -0.07945020  0.09174119  0.01621770       0.024
  -0.03972510  0.06880589  0.00000000       0.012
   0.07945020  0.04587059 -0.06487082       0.006
   0.11917530  0.02293530 -0.08108852       0.024
   0.15890040 -0.00000000 -0.09730623       0.024
   0.19862550 -0.02293530 -0.11352393       0.024
  -0.15890040  0.18348238  0.03243541       0.024
  -0.11917530  0.16054708  0.01621770       0.024
  -0.07945020  0.13761178  0.00000000       0.012
   0.11917530  0.06880589 -0.09730623       0.006
   0.15890040  0.04587059 -0.11352393       0.024
   0.19862550  0.02293530 -0.12974163       0.024
  -0.15890040  0.22935297  0.01621770       0.024
  -0.11917530  0.20641768  0.00000000       0.012
   0.15890040  0.09174119 -0.12974163       0.006
   0.19862550  0.06880589 -0.14595934       0.024
  -0.15890040  0.27522357  0.00000000       0.012
   0.19862550  0.11467649 -0.16217704       0.003
   0.11917530  0.02293530 -0.03243541       0.024
   0.15890040 -0.00000000 -0.04865311       0.048
   0.19862550 -0.02293530 -0.06487082       0.048
  -0.15890040  0.18348238  0.08108852       0.024
   0.15890040  0.04587059 -0.06487082       0.024
   0.19862550  0.02293530 -0.08108852       0.048
  -0.15890040  0.22935297  0.06487082       0.048
  -0.11917530  0.20641768  0.04865311       0.048
  -0.07945020  0.18348238  0.03243541       0.024
   0.19862550  0.06880589 -0.09730623       0.024
  -0.15890040  0.27522357  0.04865311       0.048
  -0.11917530  0.25228827  0.03243541       0.024
  -0.15890040  0.32109416  0.03243541       0.012
  -0.15890040  0.27522357  0.09730623       0.024
  -0.11917530  0.25228827  0.08108852       0.024
  -0.11917530  0.29815887  0.06487082       0.012
 
 k-points in reciprocal lattice and weights: k-density: 4.0                          
   0.00000000  0.00000000  0.00000000       0.001
   0.10000000  0.00000000  0.00000000       0.008
   0.20000000  0.00000000  0.00000000       0.008
   0.30000000  0.00000000  0.00000000       0.008
   0.40000000  0.00000000  0.00000000       0.008
   0.50000000  0.00000000  0.00000000       0.004
   0.10000000  0.10000000  0.00000000       0.006
   0.20000000  0.10000000  0.00000000       0.024
   0.30000000  0.10000000  0.00000000       0.024
   0.40000000  0.10000000  0.00000000       0.024
   0.50000000  0.10000000  0.00000000       0.024
  -0.40000000  0.10000000  0.00000000       0.024
  -0.30000000  0.10000000  0.00000000       0.024
  -0.20000000  0.10000000  0.00000000       0.024
  -0.10000000  0.10000000  0.00000000       0.012
   0.20000000  0.20000000  0.00000000       0.006
   0.30000000  0.20000000  0.00000000       0.024
   0.40000000  0.20000000  0.00000000       0.024
   0.50000000  0.20000000  0.00000000       0.024
  -0.40000000  0.20000000  0.00000000       0.024
  -0.30000000  0.20000000  0.00000000       0.024
  -0.20000000  0.20000000  0.00000000       0.012
   0.30000000  0.30000000  0.00000000       0.006
   0.40000000  0.30000000  0.00000000       0.024
   0.50000000  0.30000000  0.00000000       0.024
  -0.40000000  0.30000000  0.00000000       0.024
  -0.30000000  0.30000000  0.00000000       0.012
   0.40000000  0.40000000  0.00000000       0.006
   0.50000000  0.40000000  0.00000000       0.024
  -0.40000000  0.40000000  0.00000000       0.012
   0.50000000  0.50000000  0.00000000       0.003
   0.30000000  0.20000000  0.10000000       0.024
   0.40000000  0.20000000  0.10000000       0.048
   0.50000000  0.20000000  0.10000000       0.048
  -0.40000000  0.20000000  0.10000000       0.024
   0.40000000  0.30000000  0.10000000       0.024
   0.50000000  0.30000000  0.10000000       0.048
  -0.40000000  0.30000000  0.10000000       0.048
  -0.30000000  0.30000000  0.10000000       0.048
  -0.20000000  0.30000000  0.10000000       0.024
   0.50000000  0.40000000  0.10000000       0.024
  -0.40000000  0.40000000  0.10000000       0.048
  -0.30000000  0.40000000  0.10000000       0.024
  -0.40000000  0.50000000  0.10000000       0.012
  -0.40000000  0.40000000  0.20000000       0.024
  -0.30000000  0.40000000  0.20000000       0.024
  -0.30000000  0.50000000  0.20000000       0.012
 
 position of ions in fractional coordinates (direct lattice) 
   0.25000000  0.25000000  0.25000000
   0.00000000  0.00000000  0.00000000
 
 position of ions in cartesian coordinates  (Angst):
   1.25865006  0.72668195  0.51384174
   0.00000000  0.00000000  0.00000000
 


--------------------------------------------------------------------------------------------------------


 k-point     1 :   0.0000 0.0000 0.0000  plane waves:      65
 k-point     2 :   0.1000 0.0000 0.0000  plane waves:      65
 k-point     3 :   0.2000 0.0000 0.0000  plane waves:      65
 k-point     4 :   0.3000 0.0000 0.0000  plane waves:      74
 k-point     5 :   0.4000 0.0000 0.0000  plane waves:      73
 k-point     6 :   0.5000 0.0000 0.0000  plane waves:      76
 k-point     7 :   0.1000 0.1000 0.0000  plane waves:      64
 k-point     8 :   0.2000 0.1000 0.0000  plane waves:      64
 k-point     9 :   0.3000 0.1000 0.0000  plane waves:      69
 k-point    10 :   0.4000 0.1000 0.0000  plane waves:      74
 k-point    11 :   0.5000 0.1000 0.0000  plane waves:      73
 k-point    12 :  -0.4000 0.1000 0.0000  plane waves:      73
 k-point    13 :  -0.3000 0.1000 0.0000  plane waves:      72
 k-point    14 :  -0.2000 0.1000 0.0000  plane waves:      68
 k-point    15 :  -0.1000 0.1000 0.0000  plane waves:      65
 k-point    16 :   0.2000 0.2000 0.0000  plane waves:      72
 k-point    17 :   0.3000 0.2000 0.0000  plane waves:      72
 k-point    18 :   0.4000 0.2000 0.0000  plane waves:      75
 k-point    19 :   0.5000 0.2000 0.0000  plane waves:      74
 k-point    20 :  -0.4000 0.2000 0.0000  plane waves:      77
 k-point    21 :  -0.3000 0.2000 0.0000  plane waves:      71
 k-point    22 :  -0.2000 0.2000 0.0000  plane waves:      71
 k-point    23 :   0.3000 0.3000 0.0000  plane waves:      76
 k-point    24 :   0.4000 0.3000 0.0000  plane waves:      74
 k-point    25 :   0.5000 0.3000 0.0000  plane waves:      76
 k-point    26 :  -0.4000 0.3000 0.0000  plane waves:      72
 k-point    27 :  -0.3000 0.3000 0.0000  plane waves:      73
 k-point    28 :   0.4000 0.4000 0.0000  plane waves:      76
 k-point    29 :   0.5000 0.4000 0.0000  plane waves:      74
 k-point    30 :  -0.4000 0.4000 0.0000  plane waves:      71
 k-point    31 :   0.5000 0.5000 0.0000  plane waves:      64
 k-point    32 :   0.3000 0.2000 0.1000  plane waves:      68
 k-point    33 :   0.4000 0.2000 0.1000  plane waves:      72
 k-point    34 :   0.5000 0.2000 0.1000  plane waves:      73
 k-point    35 :  -0.4000 0.2000 0.1000  plane waves:      76
 k-point    36 :   0.4000 0.3000 0.1000  plane waves:      74
 k-point    37 :   0.5000 0.3000 0.1000  plane waves:      73
 k-point    38 :  -0.4000 0.3000 0.1000  plane waves:      73
 k-point    39 :  -0.3000 0.3000 0.1000  plane waves:      72
 k-point    40 :  -0.2000 0.3000 0.1000  plane waves:      75
 k-point    41 :   0.5000 0.4000 0.1000  plane waves:      74
 k-point    42 :  -0.4000 0.4000 0.1000  plane waves:      73
 k-point    43 :  -0.3000 0.4000 0.1000  plane waves:      71
 k-point    44 :  -0.4000 0.5000 0.1000  plane waves:      72
 k-point    45 :  -0.4000 0.4000 0.2000  plane waves:      74
 k-point    46 :  -0.3000 0.4000 0.2000  plane waves:      74
 k-point    47 :  -0.3000 0.5000 0.2000  plane waves:      72

 maximum and minimum number of plane-waves per node :        16        7

 maximum number of plane-waves:        77
 maximum index in each direction: 
   IXMAX=    3   IYMAX=    2   IZMAX=    2
   IXMIN=   -3   IYMIN=   -3   IZMIN=   -3


 parallel 3D FFT for wavefunctions:
    minimum data exchange during FFTs selected (reduces bandwidth)
 parallel 3D FFT for charge:
    minimum data exchange during FFTs selected (reduces bandwidth)


 total amount of memory used by VASP MPI-rank0    30115. kBytes
=======================================================================

   base                                    :      30000. kBytes
   nonl-proj                               :         36. kBytes
   fftplans                                :         18. kBytes
   grid                                    :         28. kBytes
   one-center                              :          3. kBytes
   wavefun                                 :         30. kBytes
 
     INWAV:  cpu time      0.0000: real time      0.0003
 Broyden mixing: mesh for mixing (old mesh)
   NGX =  5   NGY =  5   NGZ =  5
  (NGX  = 20   NGY  = 20   NGZ  = 20)
  gives a total of    125 points

 initial charge density was supplied:
 charge density of overlapping atoms calculated
 number of electron       8.0000000 magnetization 
 keeping initial charge density in first step


--------------------------------------------------------------------------------------------------------


 Maximum index for augmentation-charges          109 (set IRDMAX)


--------------------------------------------------------------------------------------------------------


 First call to EWALD:  gamma=   0.790
 Maximum number of real-space cells   3x   3x   3
 Maximum number of reciprocal cells   3x   3x   3

    FEWALD:  cpu time      0.0009: real time      0.0009


--------------------------------------- Ionic step        1  -------------------------------------------




--------------------------------------- Iteration      1(   1)  ---------------------------------------


    POTLOK:  cpu time      0.0025: real time      0.0026
    SETDIJ:  cpu time      0.0014: real time      0.0014
     EDDAV:  cpu time      0.0603: real time      0.0607
       DOS:  cpu time      0.0007: real time      0.0007
    --------------------------------------------
      LOOP:  cpu time      0.0649: real time      0.0654

 eigenvalue-minimisations  :   928
 total energy-change (2. order) :-0.1384833E+02  (-0.2756830E+03)
 number of electron       8.0000000 magnetization 
 augmentation part        8.0000000 magnetization 

 Free energy of the ion-electron system (eV)
  ---------------------------------------------------
  alpha Z        PSCENC =        29.13132251
  Ewald energy   TEWEN  =      -348.62358043
  -Hartree energ DENC   =       -17.48913656
  -exchange      EXHF   =         0.00000000
  -V(xc)+E(xc)   XCENC  =        27.44127340
  PAW double counting   =       217.04409276     -218.18290438
  entropy T*S    EENTRO =        -0.00139971
  eigenvalues    EBANDS =         5.84944896
  atomic energy  EATOM  =       290.98255214
  Solvation  Ediel_sol  =         0.00000000
  ---------------------------------------------------
  free energy    TOTEN  =       -13.84833130 eV

  energy without entropy =      -13.84693160  energy(sigma->0) =      -13.84763145


--------------------------------------------------------------------------------------------------------




--------------------------------------- Iteration      1(   2)  ---------------------------------------


     EDDAV:  cpu time      0.0629: real time      0.0640
       DOS:  cpu time      0.0002: real time      0.0002
    --------------------------------------------
      LOOP:  cpu time      0.0631: real time      0.0642

 eigenvalue-minimisations  :  1048
 total energy-change (2. order) :-0.4233356E+01  (-0.4194416E+01)
 number of electron       8.0000000 magnetization 
 augmentation part        8.0000000 magnetization 

 Free energy of the ion-electron system (eV)
  ---------------------------------------------------
  alpha Z        PSCENC =        29.13132251
  Ewald energy   TEWEN  =      -348.62358043
  -Hartree energ DENC   =       -17.48913656
  -exchange      EXHF   =         0.00000000
  -V(xc)+E(xc)   XCENC  =        27.44127340
  PAW double counting   =       217.04409276     -218.18290438
  entropy T*S    EENTRO =        -0.00000000
  eigenvalues    EBANDS =         1.61469282
  atomic energy  EATOM  =       290.98255214
  Solvation  Ediel_sol  =         0.00000000
  ---------------------------------------------------
  free energy    TOTEN  =       -18.08168773 eV

  energy without entropy =      -18.08168773  energy(sigma->0) =      -18.08168773


--------------------------------------------------------------------------------------------------------




--------------------------------------- Iteration      1(   3)  ---------------------------------------


     EDDAV:  cpu time      0.0490: real time      0.0495
       DOS:  cpu time      0.0002: real time      0.0002
    --------------------------------------------
      LOOP:  cpu time      0.0492: real time      0.0497

 eigenvalue-minimisations  :   856
 total energy-change (2. order) :-0.8302225E-02  (-0.8302225E-02)
 number of electron       8.0000000 magnetization 
 augmentation part        8.0000000 magnetization 

 Free energy of the ion-electron system (eV)
  ---------------------------------------------------
  alpha Z        PSCENC =        29.13132251
  Ewald energy   TEWEN  =      -348.62358043
  -Hartree energ DENC   =       -17.48913656
  -exchange      EXHF   =         0.00000000
  -V(xc)+E(xc)   XCENC  =        27.44127340
  PAW double counting   =       217.04409276     -218.18290438
  entropy T*S    EENTRO =        -0.00000000
  eigenvalues    EBANDS =         1.60639060
  atomic energy  EATOM  =       290.98255214
  Solvation  Ediel_sol  =         0.00000000
  ---------------------------------------------------
  free energy    TOTEN  =       -18.08998996 eV

  energy without entropy =      -18.08998996  energy(sigma->0) =      -18.08998996


--------------------------------------------------------------------------------------------------------




--------------------------------------- Iteration      1(   4)  ---------------------------------------


     EDDAV:  cpu time      0.0564: real time      0.0568
       DOS:  cpu time      0.0002: real time      0.0002
    --------------------------------------------
      LOOP:  cpu time      0.0566: real time      0.0570

 eigenvalue-minimisations  :   992
 total energy-change (2. order) :-0.3204849E-05  (-0.3204849E-05)
 number of electron       8.0000000 magnetization 
 augmentation part        8.0000000 magnetization 

 Free energy of the ion-electron system (eV)
  ---------------------------------------------------
  alpha Z        PSCENC =        29.13132251
  Ewald energy   TEWEN  =      -348.62358043
  -Hartree energ DENC   =       -17.48913656
  -exchange      EXHF   =         0.00000000
  -V(xc)+E(xc)   XCENC  =        27.44127340
  PAW double counting   =       217.04409276     -218.18290438
  entropy T*S    EENTRO =        -0.00000000
  eigenvalues    EBANDS =         1.60638739
  atomic energy  EATOM  =       290.98255214
  Solvation  Ediel_sol  =         0.00000000
  ---------------------------------------------------
  free energy    TOTEN  =       -18.08999316 eV

  energy without entropy =      -18.08999316  energy(sigma->0) =      -18.08999316


--------------------------------------------------------------------------------------------------------




--------------------------------------- Iteration      1(   5)  ---------------------------------------


     EDDAV:  cpu time      0.0503: real time      0.0506
       DOS:  cpu time      0.0002: real time      0.0002
    CHARGE:  cpu time      0.0019: real time      0.0019
    MIXING:  cpu time      0.0001: real time      0.0001
    --------------------------------------------
      LOOP:  cpu time      0.0525: real time      0.0529

 eigenvalue-minimisations  :   880
 total energy-change (2. order) :-0.5640004E-09  (-0.5640052E-09)
 number of electron       7.9999971 magnetization 
 augmentation part        0.1167717 magnetization 

 Broyden mixing:
  rms(total) = 0.52300E+00    rms(broyden)= 0.51721E+00
  rms(prec ) = 0.16381E+01
  weight for this iteration     100.00

 Free energy of the ion-electron system (eV)
  ---------------------------------------------------
  alpha Z        PSCENC =        29.13132251
  Ewald energy   TEWEN  =      -348.62358043
  -Hartree energ DENC   =       -17.48913656
  -exchange      EXHF   =         0.00000000
  -V(xc)+E(xc)   XCENC  =        27.44127340
  PAW double counting   =       217.04409276     -218.18290438
  entropy T*S    EENTRO =        -0.00000000
  eigenvalues    EBANDS =         1.60638739
  atomic energy  EATOM  =       290.98255214
  Solvation  Ediel_sol  =         0.00000000
  ---------------------------------------------------
  free energy    TOTEN  =       -18.08999316 eV

  energy without entropy =      -18.08999316  energy(sigma->0) =      -18.08999316


--------------------------------------------------------------------------------------------------------




--------------------------------------- Iteration      1(   6)  ---------------------------------------


    POTLOK:  cpu time      0.0017: real time      0.0017
    SETDIJ:  cpu time      0.0011: real time      0.0011
    EDDIAG:  cpu time      0.0438: real time      0.0442
  RMM-DIIS:  cpu time      0.0158: real time      0.0159
    ORTHCH:  cpu time      0.0035: real time      0.0035
       DOS:  cpu time      0.0002: real time      0.0002
    CHARGE:  cpu time      0.0014: real time      0.0014
    MIXING:  cpu time      0.0002: real time      0.0002
    --------------------------------------------
      LOOP:  cpu time      0.0676: real time      0.0682

 eigenvalue-minimisations  :   760
 total energy-change (2. order) : 0.1994784E+00  (-0.8225939E-02)
 number of electron       7.9999971 magnetization 
 augmentation part        0.1164970 magnetization 

 Broyden mixing:
  rms(total) = 0.30548E+00    rms(broyden)= 0.30505E+00
  rms(prec ) = 0.94897E+00
  weight for this iteration     100.00

 eigenvalues of (default mixing * dielectric matrix)
  average eigenvalue GAMMA=   2.4230
  2.4230

 Free energy of the ion-electron system (eV)
  ---------------------------------------------------
  alpha Z        PSCENC =        29.13132251
  Ewald energy   TEWEN  =      -348.62358043
  -Hartree energ DENC   =       -20.27607460
  -exchange      EXHF   =         0.00000000
  -V(xc)+E(xc)   XCENC  =        27.70327789
  PAW double counting   =       333.69769764     -334.74736094
  entropy T*S    EENTRO =        -0.00000000
  eigenvalues    EBANDS =         4.24165101
  atomic energy  EATOM  =       290.98255214
  Solvation  Ediel_sol  =         0.00000000
  ---------------------------------------------------
  free energy    TOTEN  =       -17.89051478 eV

  energy without entropy =      -17.89051478  energy(sigma->0) =      -17.89051478


--------------------------------------------------------------------------------------------------------




--------------------------------------- Iteration      1(   7)  ---------------------------------------


    POTLOK:  cpu time      0.0012: real time      0.0013
    SETDIJ:  cpu time      0.0010: real time      0.0010
    EDDIAG:  cpu time      0.0326: real time      0.0328
  RMM-DIIS:  cpu time      0.0170: real time      0.0170
    ORTHCH:  cpu time      0.0035: real time      0.0035
       DOS:  cpu time      0.0002: real time      0.0002
    CHARGE:  cpu time      0.0014: real time      0.0014
    MIXING:  cpu time      0.0001: real time      0.0001
    --------------------------------------------
      LOOP:  cpu time      0.0570: real time      0.0574

 eigenvalue-minimisations  :   821
 total energy-change (2. order) : 0.8739529E-01  (-0.1426401E-01)
 number of electron       7.9999971 magnetization 
 augmentation part        0.1154472 magnetization 

 Broyden mixing:
  rms(total) = 0.25698E-01    rms(broyden)= 0.25057E-01
  rms(prec ) = 0.62989E-01
  weight for this iteration     100.00

 eigenvalues of (default mixing * dielectric matrix)
  average eigenvalue GAMMA=   2.4152
  2.2374  2.5930

 Free energy of the ion-electron system (eV)
  ---------------------------------------------------
  alpha Z        PSCENC =        29.13132251
  Ewald energy   TEWEN  =      -348.62358043
  -Hartree energ DENC   =       -24.53281510
  -exchange      EXHF   =         0.00000000
  -V(xc)+E(xc)   XCENC  =        28.13663311
  PAW double counting   =       546.53935700     -547.46044470
  entropy T*S    EENTRO =        -0.00000000
  eigenvalues    EBANDS =         8.02385597
  atomic energy  EATOM  =       290.98255214
  Solvation  Ediel_sol  =         0.00000000
  ---------------------------------------------------
  free energy    TOTEN  =       -17.80311949 eV

  energy without entropy =      -17.80311949  energy(sigma->0) =      -17.80311949


--------------------------------------------------------------------------------------------------------




--------------------------------------- Iteration      1(   8)  ---------------------------------------


    POTLOK:  cpu time      0.0011: real time      0.0013
    SETDIJ:  cpu time      0.0010: real time      0.0010
    EDDIAG:  cpu time      0.0300: real time      0.0302
  RMM-DIIS:  cpu time      0.0164: real time      0.0165
    ORTHCH:  cpu time      0.0035: real time      0.0035
       DOS:  cpu time      0.0002: real time      0.0002
    CHARGE:  cpu time      0.0013: real time      0.0013
    MIXING:  cpu time      0.0001: real time      0.0001
    --------------------------------------------
      LOOP:  cpu time      0.0537: real time      0.0541

 eigenvalue-minimisations  :   778
 total energy-change (2. order) :-0.1034518E-02  (-0.6732245E-03)
 number of electron       7.9999971 magnetization 
 augmentation part        0.1149113 magnetization 

 Broyden mixing:
  rms(total) = 0.47745E-02    rms(broyden)= 0.45993E-02
  rms(prec ) = 0.94094E-02
  weight for this iteration     100.00

 eigenvalues of (default mixing * dielectric matrix)
  average eigenvalue GAMMA=   2.1470
  1.4895  2.7389  2.2125

 Free energy of the ion-electron system (eV)
  ---------------------------------------------------
  alpha Z        PSCENC =        29.13132251
  Ewald energy   TEWEN  =      -348.62358043
  -Hartree energ DENC   =       -24.50928247
  -exchange      EXHF   =         0.00000000
  -V(xc)+E(xc)   XCENC  =        28.14062779
  PAW double counting   =       565.61562272     -566.51481798
  entropy T*S    EENTRO =        -0.00000000
  eigenvalues    EBANDS =         7.97340171
  atomic energy  EATOM  =       290.98255214
  Solvation  Ediel_sol  =         0.00000000
  ---------------------------------------------------
  free energy    TOTEN  =       -17.80415401 eV

  energy without entropy =      -17.80415401  energy(sigma->0) =      -17.80415401


--------------------------------------------------------------------------------------------------------




--------------------------------------- Iteration      1(   9)  ---------------------------------------


    POTLOK:  cpu time      0.0011: real time      0.0012
    SETDIJ:  cpu time      0.0010: real time      0.0010
    EDDIAG:  cpu time      0.0289: real time      0.0291
  RMM-DIIS:  cpu time      0.0175: real time      0.0176
    ORTHCH:  cpu time      0.0035: real time      0.0035
       DOS:  cpu time      0.0002: real time      0.0002
    CHARGE:  cpu time      0.0013: real time      0.0013
    MIXING:  cpu time      0.0001: real time      0.0001
    --------------------------------------------
      LOOP:  cpu time      0.0536: real time      0.0540

 eigenvalue-minimisations  :   822
 total energy-change (2. order) :-0.8563175E-04  (-0.4180778E-04)
 number of electron       7.9999972 magnetization 
 augmentation part        0.1148565 magnetization 

 Broyden mixing:
  rms(total) = 0.25707E-02    rms(broyden)= 0.25465E-02
  rms(prec ) = 0.50512E-02
  weight for this iteration     100.00

 eigenvalues of (default mixing * dielectric matrix)
  average eigenvalue GAMMA=   2.0601
  2.9871  2.5420  0.9534  1.7579

 Free energy of the ion-electron system (eV)
  ---------------------------------------------------
  alpha Z        PSCENC =        29.13132251
  Ewald energy   TEWEN  =      -348.62358043
  -Hartree energ DENC   =       -24.51102154
  -exchange      EXHF   =         0.00000000
  -V(xc)+E(xc)   XCENC  =        28.14130561
  PAW double counting   =       567.67685137     -568.57419922
  entropy T*S    EENTRO =        -0.00000000
  eigenvalues    EBANDS =         7.97252991
  atomic energy  EATOM  =       290.98255214
  Solvation  Ediel_sol  =         0.00000000
  ---------------------------------------------------
  free energy    TOTEN  =       -17.80423964 eV

  energy without entropy =      -17.80423964  energy(sigma->0) =      -17.80423964


--------------------------------------------------------------------------------------------------------




--------------------------------------- Iteration      1(  10)  ---------------------------------------


    POTLOK:  cpu time      0.0011: real time      0.0012
    SETDIJ:  cpu time      0.0010: real time      0.0010
    EDDIAG:  cpu time      0.0283: real time      0.0285
  RMM-DIIS:  cpu time      0.0164: real time      0.0165
    ORTHCH:  cpu time      0.0035: real time      0.0035
       DOS:  cpu time      0.0002: real time      0.0002
    CHARGE:  cpu time      0.0013: real time      0.0013
    MIXING:  cpu time      0.0002: real time      0.0002
    --------------------------------------------
      LOOP:  cpu time      0.0520: real time      0.0524

 eigenvalue-minimisations  :   792
 total energy-change (2. order) :-0.2422927E-04  (-0.3709335E-05)
 number of electron       7.9999972 magnetization 
 augmentation part        0.1148389 magnetization 

 Broyden mixing:
  rms(total) = 0.84245E-03    rms(broyden)= 0.84023E-03
  rms(prec ) = 0.33029E-02
  weight for this iteration     100.00

 eigenvalues of (default mixing * dielectric matrix)
  average eigenvalue GAMMA=   1.8810
  2.7749  2.5035  2.1583  0.9841  0.9841

 Free energy of the ion-electron system (eV)
  ---------------------------------------------------
  alpha Z        PSCENC =        29.13132251
  Ewald energy   TEWEN  =      -348.62358043
  -Hartree energ DENC   =       -24.48228926
  -exchange      EXHF   =         0.00000000
  -V(xc)+E(xc)   XCENC  =        28.13854383
  PAW double counting   =       567.55494136     -568.45228380
  entropy T*S    EENTRO =        -0.00000000
  eigenvalues    EBANDS =         7.94652978
  atomic energy  EATOM  =       290.98255214
  Solvation  Ediel_sol  =         0.00000000
  ---------------------------------------------------
  free energy    TOTEN  =       -17.80426387 eV

  energy without entropy =      -17.80426387  energy(sigma->0) =      -17.80426387


--------------------------------------------------------------------------------------------------------




--------------------------------------- Iteration      1(  11)  ---------------------------------------


    POTLOK:  cpu time      0.0011: real time      0.0012
    SETDIJ:  cpu time      0.0010: real time      0.0010
    EDDIAG:  cpu time      0.0282: real time      0.0283
  RMM-DIIS:  cpu time      0.0163: real time      0.0164
    ORTHCH:  cpu time      0.0035: real time      0.0035
       DOS:  cpu time      0.0002: real time      0.0002
    CHARGE:  cpu time      0.0013: real time      0.0013
    MIXING:  cpu time      0.0002: real time      0.0002
    --------------------------------------------
      LOOP:  cpu time      0.0517: real time      0.0521

 eigenvalue-minimisations  :   778
 total energy-change (2. order) : 0.3137766E-05  (-0.5677674E-06)
 number of electron       7.9999972 magnetization 
 augmentation part        0.1148389 magnetization 

 Broyden mixing:
  rms(total) = 0.13308E-03    rms(broyden)= 0.12990E-03
  rms(prec ) = 0.22290E-03
  weight for this iteration     100.00

 eigenvalues of (default mixing * dielectric matrix)
  average eigenvalue GAMMA=   1.7968
  2.9392  2.5244  2.3018  1.0005  1.1960  0.8189

 Free energy of the ion-electron system (eV)
  ---------------------------------------------------
  alpha Z        PSCENC =        29.13132251
  Ewald energy   TEWEN  =      -348.62358043
  -Hartree energ DENC   =       -24.49877392
  -exchange      EXHF   =         0.00000000
  -V(xc)+E(xc)   XCENC  =        28.14005577
  PAW double counting   =       567.94253108     -568.84014422
  entropy T*S    EENTRO =        -0.00000000
  eigenvalues    EBANDS =         7.96177634
  atomic energy  EATOM  =       290.98255214
  Solvation  Ediel_sol  =         0.00000000
  ---------------------------------------------------
  free energy    TOTEN  =       -17.80426073 eV

  energy without entropy =      -17.80426073  energy(sigma->0) =      -17.80426073


--------------------------------------------------------------------------------------------------------




--------------------------------------- Iteration      1(  12)  ---------------------------------------


    POTLOK:  cpu time      0.0011: real time      0.0012
    SETDIJ:  cpu time      0.0010: real time      0.0010
    EDDIAG:  cpu time      0.0280: real time      0.0282
  RMM-DIIS:  cpu time      0.0125: real time      0.0125
    ORTHCH:  cpu time      0.0035: real time      0.0035
       DOS:  cpu time      0.0002: real time      0.0002
    --------------------------------------------
      LOOP:  cpu time      0.0462: real time      0.0466

 eigenvalue-minimisations  :   569
 total energy-change (2. order) :-0.3123546E-08  (-0.6115152E-07)
 number of electron       7.9999972 magnetization 
 augmentation part        0.1148389 magnetization 

 Free energy of the ion-electron system (eV)
  ---------------------------------------------------
  alpha Z        PSCENC =        29.13132251
  Ewald energy   TEWEN  =      -348.62358043
  -Hartree energ DENC   =       -24.50079270
  -exchange      EXHF   =         0.00000000
  -V(xc)+E(xc)   XCENC  =        28.14024758
  PAW double counting   =       568.07541664     -568.97303308
  entropy T*S    EENTRO =        -0.00000000
  eigenvalues    EBANDS =         7.96360661
  atomic energy  EATOM  =       290.98255214
  Solvation  Ediel_sol  =         0.00000000
  ---------------------------------------------------
  free energy    TOTEN  =       -17.80426073 eV

  energy without entropy =      -17.80426073  energy(sigma->0) =      -17.80426073


--------------------------------------------------------------------------------------------------------




 average (electrostatic) potential at core
  the test charge radii are     0.6991
  (the norm of the test charge is              1.0000)
       1 -46.4902       2 -46.4902
 
 
 
 E-fermi :  11.6492     XC(G=0): -13.3032     alpha+bet :-17.7709

 val. band max:       10.7821038262   @ k =   0.0000   0.0000   0.0000
 cond. band min:      14.0546511450   @ k =   0.4000   0.4000   0.0000
 fundamental gap:      3.2725473188
 Fermi energy:        11.6491929219

 k-point     1 :       0.0000    0.0000    0.0000
  band No.  band energies     occupation 
      1     -11.9134      2.00000
      2      10.7820      2.00000
      3      10.7821      2.00000
      4      10.7821      2.00000
      5      16.2056      0.00000
      6      16.2056      0.00000
      7      16.2056      0.00000
      8      22.9074      0.00000

 k-point     2 :       0.1000    0.0000    0.0000
  band No.  band energies     occupation 
      1     -11.6332      2.00000
      2       8.9015      2.00000
      3      10.3094      2.00000
      4      10.3094      2.00000
      5      16.8474      0.00000
      6      16.8475      0.00000
      7      17.1354      0.00000
      8      23.4264      0.00000

 k-point     3 :       0.2000    0.0000    0.0000
  band No.  band energies     occupation 
      1     -10.8024      2.00000
      2       5.1672      2.00000
      3       9.4210      2.00000
      4       9.4210      2.00000
      5      18.0683      0.00000
      6      18.1438      0.00000
      7      18.1441      0.00000
      8      24.7285      0.00000

 k-point     4 :       0.3000    0.0000    0.0000
  band No.  band energies     occupation 
      1      -9.4413      2.00000
      2       1.5096      2.00000
      3       8.2790      2.00000
      4       8.2801      2.00000
      5      18.3140      0.00000
      6      18.8604      0.00000
      7      18.8610      0.00000
      8      25.3251      0.00000

 k-point     5 :       0.4000    0.0000    0.0000
  band No.  band energies     occupation 
      1      -7.6176      2.00000
      2      -1.6397      2.00000
      3       7.7432      2.00000
      4       7.7443      2.00000
      5      18.4757      0.00000
      6      19.0871      0.00000
      7      19.0877      0.00000
      8      26.2212      0.00000

 k-point     6 :       0.5000    0.0000    0.0000
  band No.  band energies     occupation 
      1      -6.1500      2.00000
      2      -3.6692      2.00000
      3       7.5558      2.00000
      4       7.5569      2.00000
      5      18.4858      0.00000
      6      19.0767      0.00000
      7      19.0774      0.00000
      8      26.2854      0.00000

 k-point     7 :       0.1000    0.1000    0.0000
  band No.  band energies     occupation 
      1     -11.5399      2.00000
      2       9.4647      2.00000
      3       9.4647      2.00000
      4       9.7461      2.00000
      5      15.9412      0.00000
      6      17.9001      0.00000
      7      17.9002      0.00000
      8      23.3393      0.00000

 k-point     8 :       0.2000    0.1000    0.0000
  band No.  band energies     occupation 
      1     -10.8921      2.00000
      2       6.4727      2.00000
      3       8.4937      2.00000
      4       9.3185      2.00000
      5      16.3087      0.00000
      6      19.2026      0.00000
      7      19.4107      0.00000
      8      23.6528      0.00000

 k-point     9 :       0.3000    0.1000    0.0000
  band No.  band energies     occupation 
      1      -9.7073      2.00000
      2       2.8609      2.00000
      3       7.5525      2.00000
      4       8.2705      2.00000
      5      17.2936      0.00000
      6      19.6927      0.00000
      7      20.3358      0.00000
      8      23.9525      0.00000

 k-point    10 :       0.4000    0.1000    0.0000
  band No.  band energies     occupation 
      1      -8.0247      2.00000
      2      -0.4756      2.00000
      3       7.0407      2.00000
      4       7.2153      2.00000
      5      17.8963      0.00000
      6      19.7604      0.00000
      7      20.3642      0.00000
      8      24.8638      0.00000

 k-point    11 :       0.5000    0.1000    0.0000
  band No.  band energies     occupation 
      1      -6.1782      2.00000
      2      -3.0311      2.00000
      3       6.5592      2.00000
      4       7.0711      2.00000
      5      18.2639      0.00000
      6      19.8143      0.00000
      7      20.0562      0.00000
      8      26.2314      0.00000

 k-point    12 :      -0.4000    0.1000    0.0000
  band No.  band energies     occupation 
      1      -6.7361      2.00000
      2      -2.3261      2.00000
      3       6.2593      2.00000
      4       7.4950      2.00000
      5      18.6362      0.00000
      6      19.6363      0.00000
      7      19.7877      0.00000
      8      26.3376      0.00000

 k-point    13 :      -0.3000    0.1000    0.0000
  band No.  band energies     occupation 
      1      -8.6353      2.00000
      2       0.6109      2.00000
      3       6.4427      2.00000
      4       8.2887      2.00000
      5      18.9111      0.00000
      6      19.0452      0.00000
      7      19.8387      0.00000
      8      25.2580      0.00000

 k-point    14 :      -0.2000    0.1000    0.0000
  band No.  band energies     occupation 
      1     -10.1611      2.00000
      2       4.0201      2.00000
      3       7.0061      2.00000
      4       9.4948      2.00000
      5      18.1591      0.00000
      6      18.9364      0.00000
      7      19.3770      0.00000
      8      24.3513      0.00000

 k-point    15 :      -0.1000    0.1000    0.0000
  band No.  band energies     occupation 
      1     -11.1709      2.00000
      2       7.4097      2.00000
      3       8.2020      2.00000
      4      10.3184      2.00000
      5      17.1230      0.00000
      6      18.0507      0.00000
      7      18.3034      0.00000
      8      23.9121      0.00000

 k-point    16 :       0.2000    0.2000    0.0000
  band No.  band energies     occupation 
      1     -10.4374      2.00000
      2       7.0810      2.00000
      3       7.0810      2.00000
      4       7.1097      2.00000
      5      14.8756      0.00000
      6      20.9764      0.00000
      7      20.9764      0.00000
      8      22.0011      0.00000

 k-point    17 :       0.3000    0.2000    0.0000
  band No.  band energies     occupation 
      1      -9.4295      2.00000
      2       4.1401      2.00000
      3       6.2599      2.00000
      4       6.5525      2.00000
      5      15.3891      0.00000
      6      20.7023      0.00000
      7      22.2670      0.00000
      8      22.4650      0.00000

 k-point    18 :       0.4000    0.2000    0.0000
  band No.  band energies     occupation 
      1      -7.9132      2.00000
      2       1.0063      2.00000
      3       5.3436      2.00000
      4       5.7892      2.00000
      5      16.2981      0.00000
      6      21.3485      0.00000
      7      22.5468      0.00000
      8      22.7919      0.00000

 k-point    19 :       0.5000    0.2000    0.0000
  band No.  band energies     occupation 
      1      -6.0453      2.00000
      2      -1.7223      2.00000
      3       4.3128      2.00000
      4       5.8610      2.00000
      5      16.8405      0.00000
      6      22.4475      0.00000
      7      22.4572      0.00000
      8      23.9318      0.00000

 k-point    20 :      -0.4000    0.2000    0.0000
  band No.  band energies     occupation 
      1      -5.5186      2.00000
      2      -2.3709      2.00000
      3       3.4931      2.00000
      4       6.3624      2.00000
      5      17.3933      0.00000
      6      21.6847      0.00000
      7      22.2136      0.00000
      8      26.0808      0.00000

 k-point    21 :      -0.3000    0.2000    0.0000
  band No.  band energies     occupation 
      1      -7.3192      2.00000
      2       0.1474      2.00000
      3       3.4256      2.00000
      4       7.5044      2.00000
      5      18.2628      0.00000
      6      20.7957      0.00000
      7      22.2647      0.00000
      8      25.1392      0.00000

 k-point    22 :      -0.2000    0.2000    0.0000
  band No.  band energies     occupation 
      1      -8.9843      2.00000
      2       2.8407      2.00000
      3       4.0828      2.00000
      4       8.7102      2.00000
      5      18.8859      0.00000
      6      19.3675      0.00000
      7      21.2536      0.00000
      8      23.9170      0.00000

 k-point    23 :       0.3000    0.3000    0.0000
  band No.  band energies     occupation 
      1      -8.6144      2.00000
      2       3.6486      2.00000
      3       5.3135      2.00000
      4       5.3135      2.00000
      5      14.2183      0.00000
      6      18.5591      0.00000
      7      24.2808      0.00000
      8      24.2809      0.00000

 k-point    24 :       0.4000    0.3000    0.0000
  band No.  band energies     occupation 
      1      -7.2774      2.00000
      2       1.6724      2.00000
      3       4.1564      2.00000
      4       4.8753      2.00000
      5      14.7668      0.00000
      6      17.9767      0.00000
      7      25.3783      0.00000
      8      25.4760      0.00000

 k-point    25 :       0.5000    0.3000    0.0000
  band No.  band energies     occupation 
      1      -5.5217      2.00000
      2      -0.4871      2.00000
      3       2.3922      2.00000
      4       4.8073      2.00000
      5      15.5354      0.00000
      6      19.7198      0.00000
      7      25.2509      0.00000
      8      25.4928      0.00000

 k-point    26 :      -0.4000    0.3000    0.0000
  band No.  band energies     occupation 
      1      -4.1611      2.00000
      2      -1.8867      2.00000
      3       1.3444      2.00000
      4       5.3096      2.00000
      5      16.1998      0.00000
      6      23.2654      0.00000
      7      24.3944      0.00000
      8      25.4054      0.00000

 k-point    27 :      -0.3000    0.3000    0.0000
  band No.  band energies     occupation 
      1      -5.5932      2.00000
      2      -0.3870      2.00000
      3       1.1082      2.00000
      4       6.2358      2.00000
      5      17.1038      0.00000
      6      22.8901      0.00000
      7      24.9265      0.00000
      8      25.2490      0.00000

 k-point    28 :       0.4000    0.4000    0.0000
  band No.  band energies     occupation 
      1      -6.1238      2.00000
      2       0.2199      2.00000
      3       4.2347      2.00000
      4       4.2347      2.00000
      5      14.0547      0.00000
      6      16.0951      0.00000
      7      27.2072      0.00000
      8      27.2072      0.00000

 k-point    29 :       0.5000    0.4000    0.0000
  band No.  band energies     occupation 
      1      -4.5053      2.00000
      2      -1.3612      2.00000
      3       2.9608      2.00000
      4       4.1261      2.00000
      5      14.7814      0.00000
      6      16.3096      0.00000
      7      27.6072      0.00000
      8      27.8055      0.00000

 k-point    30 :      -0.4000    0.4000    0.0000
  band No.  band energies     occupation 
      1      -3.0432      2.00000
      2      -2.3598      2.00000
      3       1.1952      2.00000
      4       4.5577      2.00000
      5      15.3459      0.00000
      6      19.2273      0.00000
      7      26.7831      0.00000
      8      27.3296      0.00000

 k-point    31 :       0.5000    0.5000    0.0000
  band No.  band energies     occupation 
      1      -3.0216      2.00000
      2      -3.0216      2.00000
      3       4.0476      2.00000
      4       4.0476      2.00000
      5      14.7002      0.00000
      6      14.7002      0.00000
      7      29.1836      0.00000
      8      29.1836      0.00000

 k-point    32 :       0.3000    0.2000    0.1000
  band No.  band energies     occupation 
      1     -10.0675      2.00000
      2       5.0004      2.00000
      3       6.1021      2.00000
      4       8.7614      2.00000
      5      16.6648      0.00000
      6      20.0393      0.00000
      7      20.9717      0.00000
      8      22.8531      0.00000

 k-point    33 :       0.4000    0.2000    0.1000
  band No.  band energies     occupation 
      1      -8.7149      2.00000
      2       1.9820      2.00000
      3       5.0452      2.00000
      4       7.6223      2.00000
      5      17.7454      0.00000
      6      20.1198      0.00000
      7      21.9819      0.00000
      8      23.0357      0.00000

 k-point    34 :       0.5000    0.2000    0.1000
  band No.  band energies     occupation 
      1      -6.9120      2.00000
      2      -1.0304      2.00000
      3       4.7468      2.00000
      4       6.6652      2.00000
      5      18.4366      0.00000
      6      19.6652      0.00000
      7      22.4065      0.00000
      8      24.8338      0.00000

 k-point    35 :      -0.4000    0.2000    0.1000
  band No.  band energies     occupation 
      1      -5.4788      2.00000
      2      -2.9367      2.00000
      3       4.6356      2.00000
      4       6.2674      2.00000
      5      18.6132      0.00000
      6      19.3759      0.00000
      7      22.4378      0.00000
      8      26.1076      0.00000

 k-point    36 :       0.4000    0.3000    0.1000
  band No.  band energies     occupation 
      1      -8.2582      2.00000
      2       2.7179      2.00000
      3       4.4003      2.00000
      4       5.8723      2.00000
      5      15.9221      0.00000
      6      19.7544      0.00000
      7      22.5608      0.00000
      8      24.4200      0.00000

 k-point    37 :       0.5000    0.3000    0.1000
  band No.  band energies     occupation 
      1      -6.6082      2.00000
      2       0.3859      2.00000
      3       3.3265      2.00000
      4       5.0470      2.00000
      5      17.0529      0.00000
      6      20.6214      0.00000
      7      22.3929      0.00000
      8      25.5646      0.00000

 k-point    38 :      -0.4000    0.3000    0.1000
  band No.  band energies     occupation 
      1      -4.8187      2.00000
      2      -1.8777      2.00000
      3       2.6311      2.00000
      4       4.8871      2.00000
      5      17.6953      0.00000
      6      21.5657      0.00000
      7      23.5521      0.00000
      8      25.4641      0.00000

 k-point    39 :      -0.3000    0.3000    0.1000
  band No.  band energies     occupation 
      1      -5.3922      2.00000
      2      -1.1361      2.00000
      3       2.1554      2.00000
      4       5.5036      2.00000
      5      18.4443      0.00000
      6      20.9261      0.00000
      7      24.0943      0.00000
      8      25.7802      0.00000

 k-point    40 :      -0.2000    0.3000    0.1000
  band No.  band energies     occupation 
      1      -7.2239      2.00000
      2       1.0502      2.00000
      3       2.4946      2.00000
      4       6.5320      2.00000
      5      19.3006      0.00000
      6      19.4111      0.00000
      7      22.6905      0.00000
      8      24.4302      0.00000

 k-point    41 :       0.5000    0.4000    0.1000
  band No.  band energies     occupation 
      1      -5.7892      2.00000
      2       0.1867      2.00000
      3       3.3966      2.00000
      4       3.8072      2.00000
      5      15.6855      0.00000
      6      17.4929      0.00000
      7      25.2674      0.00000
      8      27.2351      0.00000

 k-point    42 :      -0.4000    0.4000    0.1000
  band No.  band energies     occupation 
      1      -4.0057      2.00000
      2      -1.3490      2.00000
      3       1.6311      2.00000
      4       3.7430      2.00000
      5      16.7035      0.00000
      6      19.4853      0.00000
      7      24.8864      0.00000
      8      26.8861      0.00000

 k-point    43 :      -0.3000    0.4000    0.1000
  band No.  band energies     occupation 
      1      -3.7417      2.00000
      2      -1.4620      2.00000
      3       0.7234      2.00000
      4       4.3521      2.00000
      5      17.4417      0.00000
      6      23.2424      0.00000
      7      23.7164      0.00000
      8      25.1041      0.00000

 k-point    44 :      -0.4000    0.5000    0.1000
  band No.  band energies     occupation 
      1      -2.8433      2.00000
      2      -2.8431      2.00000
      3       3.0455      2.00000
      4       3.0467      2.00000
      5      16.2290      0.00000
      6      16.2295      0.00000
      7      27.6352      0.00000
      8      27.6366      0.00000

 k-point    45 :      -0.4000    0.4000    0.2000
  band No.  band energies     occupation 
      1      -4.9177      2.00000
      2      -0.4358      2.00000
      3       1.6911      2.00000
      4       3.6912      2.00000
      5      19.4050      0.00000
      6      20.4225      0.00000
      7      21.9707      0.00000
      8      26.5011      0.00000

 k-point    46 :      -0.3000    0.4000    0.2000
  band No.  band energies     occupation 
      1      -3.5555      2.00000
      2      -1.6039      2.00000
      3       1.3266      2.00000
      4       3.0691      2.00000
      5      19.9671      0.00000
      6      21.0224      0.00000
      7      23.7835      0.00000
      8      23.8008      0.00000

 k-point    47 :      -0.3000    0.5000    0.2000
  band No.  band energies     occupation 
      1      -2.3887      2.00000
      2      -2.3886      2.00000
      3       1.8864      2.00000
      4       1.8876      2.00000
      5      19.7291      0.00000
      6      19.7302      0.00000
      7      24.3824      0.00000
      8      24.3839      0.00000


--------------------------------------------------------------------------------------------------------


 soft charge-density along one line, spin component           1
         0         1         2         3         4         5         6         7         8         9
 total charge-density along one line
 
 pseudopotential strength for first ion, spin component:           1
  9.429  12.523   0.000   0.000   0.000  -0.000  -0.000  -0.000
 12.523  16.630   0.000   0.000   0.000  -0.000  -0.000  -0.000
  0.000   0.000  -3.755  -0.000  -0.000   7.369   0.000   0.000
  0.000   0.000  -0.000  -3.755  -0.000   0.000   7.369   0.000
  0.000   0.000  -0.000  -0.000  -3.755   0.000   0.000   7.369
 -0.000  -0.000   7.369   0.000   0.000 -16.563  -0.000  -0.000
 -0.000  -0.000   0.000   7.369   0.000  -0.000 -16.563  -0.000
 -0.000  -0.000   0.000   0.000   7.369  -0.000  -0.000 -16.563
 total augmentation occupancy for first ion, spin component:           1
  2.487  -0.840  -0.000   0.000   0.000  -0.000   0.000  -0.000
 -0.840   0.695   0.000  -0.000   0.000   0.000  -0.000  -0.000
 -0.000   0.000   1.934  -0.000   0.000   0.308  -0.000   0.000
  0.000  -0.000  -0.000   1.934   0.000  -0.000   0.308   0.000
  0.000   0.000   0.000   0.000   1.934   0.000   0.000   0.308
 -0.000   0.000   0.308  -0.000   0.000   0.050  -0.000   0.000
  0.000  -0.000  -0.000   0.308   0.000  -0.000   0.050   0.000
 -0.000  -0.000   0.000   0.000   0.308   0.000   0.000   0.050


------------------------ aborting loop because EDIFF is reached ----------------------------------------


    CHARGE:  cpu time      0.0014: real time      0.0014
    FORLOC:  cpu time      0.0000: real time      0.0000
    FORNL :  cpu time      0.0010: real time      0.0010
    STRESS:  cpu time      0.0053: real time      0.0053
    FORCOR:  cpu time      0.0008: real time      0.0008
    FORHAR:  cpu time      0.0003: real time      0.0003
    MIXING:  cpu time      0.0002: real time      0.0002
    OFIELD:  cpu time      0.0000: real time      0.0000

  FORCE on cell =-STRESS in cart. coord.  units (eV):
  Direction    XX          YY          ZZ          XY          YZ          ZX
  --------------------------------------------------------------------------------------
  Alpha Z    29.13132    29.13132    29.13132
  Ewald    -116.20791  -116.20791  -116.20791    -0.00000     0.00000    -0.00000
  Hartree     8.16658     8.16658     8.16658     0.00000     0.00000     0.00000
  E(xc)     -30.34785   -30.34785   -30.34785     0.00000     0.00000     0.00000
  Local     -16.50549   -16.50556   -16.50557     0.00005     0.00002     0.00004
  n-local    -5.30876    -5.11384    -5.80021    -0.66634    -0.08324     0.17265
  augment    -0.40319    -0.40322    -0.40323     0.00002     0.00001     0.00002
  Kinetic   122.84606   124.08843   127.60104     5.39403     2.18638     0.45378
  Fock        0.00000     0.00000     0.00000     0.00000     0.00000     0.00000
  -------------------------------------------------------------------------------------
  Total      -6.72903    -6.72903    -6.72903    -0.00000     0.00000    -0.00000
  in kB    -955.81287  -955.81287  -955.81287    -0.00000     0.00000    -0.00000
  external pressure =     -955.81 kB  Pullay stress =        0.00 kB


 VOLUME and BASIS-vectors are now :
 -----------------------------------------------------------------------------
  energy-cutoff  :      200.00
  volume of cell :       11.28
      direct lattice vectors                 reciprocal lattice vectors
     2.517300129  0.000000000  0.000000000     0.397251003 -0.229352973 -0.162177043
     1.258650065  2.180045861  0.000000000     0.000000000  0.458705947 -0.162177043
     1.258650065  0.726681953  2.055366948     0.000000000  0.000000000  0.486531128

  length of vectors
     2.517300129  2.517300129  2.517300129     0.486531128  0.486531128  0.486531128


 FORCES acting on ions
    electron-ion (+dipol)            ewald-force                    non-local-force                 convergence-correction
 -----------------------------------------------------------------------------------------------
   -.339E-05 -.196E-05 0.544E-06   -.514E-08 0.327E-08 -.272E-08   -.984E-16 -.631E-16 -.351E-16   -.848E-06 -.490E-06 -.346E-06
   0.339E-05 0.196E-05 -.544E-06   0.514E-08 -.327E-08 0.272E-08   0.984E-16 0.471E-16 0.471E-16   0.848E-06 0.490E-06 0.346E-06
 -----------------------------------------------------------------------------------------------
   0.406E-13 0.355E-13 0.738E-13   -.598E-16 0.887E-16 0.222E-15   0.108E-19 -.160E-16 0.120E-16   -.622E-14 0.415E-14 -.147E-13
 
 
 POSITION                                       TOTAL-FORCE (eV/Angst)
 -----------------------------------------------------------------------------------
      1.25865      0.72668      0.51384        -0.000000      0.000000      0.000000
      0.00000      0.00000      0.00000         0.000000     -0.000000     -0.000000
 -----------------------------------------------------------------------------------
    total drift:                                0.000000      0.000000      0.000000


--------------------------------------------------------------------------------------------------------



  FREE ENERGIE OF THE ION-ELECTRON SYSTEM (eV)
  ---------------------------------------------------
  free  energy   TOTEN  =       -17.80426073 eV

  energy  without entropy=      -17.80426073  energy(sigma->0) =      -17.80426073
 


--------------------------------------------------------------------------------------------------------


    POTLOK:  cpu time      0.0022: real time      0.0022


--------------------------------------------------------------------------------------------------------


     LOOP+:  cpu time      0.6888: real time      0.6999
    4ORBIT:  cpu time      0.0000: real time      0.0000

 total amount of memory used by VASP MPI-rank0    30115. kBytes
=======================================================================

   base                                    :      30000. kBytes
   nonl-proj                               :         36. kBytes
   fftplans                                :         18. kBytes
   grid                                    :         28. kBytes
   one-center                              :          3. kBytes
   wavefun                                 :         30. kBytes
 
  
  
 General timing and accounting informations for this job:
 ========================================================
  
                  Total CPU time used (sec):        1.129
                            User time (sec):        0.798
                          System time (sec):        0.331
                         Elapsed time (sec):        1.583
  
                   Maximum memory used (kb):      172976.
                   Average memory used (kb):          N/A
  
                          Minor page faults:        10527
                          Major page faults:           52
                 Voluntary context switches:         1085
