<?xml version="1.0" encoding="ISO-8859-1"?>
<modeling>
 <generator>
  <i name="program" type="string">vasp </i>
  <i name="version" type="string">6.5.1  </i>
  <i name="subversion" type="string">10Mar25 (build Feb 13 2026 23:13:13) complex                          parallel </i>
  <i name="platform" type="string">LinuxIFC </i>
  <i name="date" type="string">2026 06 23 </i>
  <i name="time" type="string">04:04:02 </i>
 </generator>
 <incar>
  <i type="string" name="PREC">Normal</i>
  <i type="string" name="ALGO">Fast</i>
  <i type="int" name="ISPIN">     1</i>
  <i type="int" name="NELMIN">     4</i>
  <i name="EDIFF">      0.00000100</i>
  <i type="int" name="NSW">     0</i>
  <i name="ENCUT">    200.00000000</i>
  <i type="logical" name="LREAL"> F  </i>
  <i type="int" name="ISMEAR">     0</i>
  <i name="SIGMA">      0.20000000</i>
  <i type="logical" name="LWAVE"> F  </i>
 </incar>
 <primitive_cell>
  <structure name="primitive_cell" >
   <crystal>
    <varray name="basis" >
     <v>       2.51730013       0.00000000       0.00000000 </v>
     <v>       1.25865006       2.18004586       0.00000000 </v>
     <v>       1.25865006       0.72668195       2.05536695 </v>
    </varray>
    <i name="volume">     11.27950384 </i>
    <varray name="rec_basis" >
     <v>       0.39725100      -0.22935297      -0.16217704 </v>
     <v>       0.00000000       0.45870595      -0.16217704 </v>
     <v>       0.00000000       0.00000000       0.48653113 </v>
    </varray>
   </crystal>
   <varray name="positions" >
    <v>       0.25000000       0.25000000       0.25000000 </v>
    <v>       0.00000000       0.00000000       0.00000000 </v>
   </varray>
  </structure>
  <varray name="primitive_index" >
   <v type="int" >        1 </v>
   <v type="int" >        2 </v>
  </varray>
 </primitive_cell>
 <kpoints>
  <generation param="Gamma">
   <v type="int" name="divisions">      10       10       10 </v>
   <v name="usershift">      0.00000000       0.00000000       0.00000000 </v>
   <v name="genvec1">      0.10000000      -0.00000000      -0.00000000 </v>
   <v name="genvec2">      0.00000000       0.10000000      -0.00000000 </v>
   <v name="genvec3">      0.00000000       0.00000000       0.10000000 </v>
   <v name="shift">      0.00000000       0.00000000       0.00000000 </v>
  </generation>
  <varray name="kpointlist" >
   <v>       0.00000000       0.00000000       0.00000000 </v>
   <v>       0.10000000       0.00000000       0.00000000 </v>
   <v>       0.20000000       0.00000000       0.00000000 </v>
   <v>       0.30000000       0.00000000       0.00000000 </v>
   <v>       0.40000000       0.00000000       0.00000000 </v>
   <v>       0.50000000       0.00000000       0.00000000 </v>
   <v>       0.10000000       0.10000000       0.00000000 </v>
   <v>       0.20000000       0.10000000       0.00000000 </v>
   <v>       0.30000000       0.10000000       0.00000000 </v>
   <v>       0.40000000       0.10000000       0.00000000 </v>
   <v>       0.50000000       0.10000000       0.00000000 </v>
   <v>      -0.40000000       0.10000000       0.00000000 </v>
   <v>      -0.30000000       0.10000000       0.00000000 </v>
   <v>      -0.20000000       0.10000000       0.00000000 </v>
   <v>      -0.10000000       0.10000000       0.00000000 </v>
   <v>       0.20000000       0.20000000       0.00000000 </v>
   <v>       0.30000000       0.20000000       0.00000000 </v>
   <v>       0.40000000       0.20000000       0.00000000 </v>
   <v>       0.50000000       0.20000000       0.00000000 </v>
   <v>      -0.40000000       0.20000000       0.00000000 </v>
   <v>      -0.30000000       0.20000000       0.00000000 </v>
   <v>      -0.20000000       0.20000000       0.00000000 </v>
   <v>       0.30000000       0.30000000       0.00000000 </v>
   <v>       0.40000000       0.30000000       0.00000000 </v>
   <v>       0.50000000       0.30000000       0.00000000 </v>
   <v>      -0.40000000       0.30000000       0.00000000 </v>
   <v>      -0.30000000       0.30000000       0.00000000 </v>
   <v>       0.40000000       0.40000000       0.00000000 </v>
   <v>       0.50000000       0.40000000       0.00000000 </v>
   <v>      -0.40000000       0.40000000       0.00000000 </v>
   <v>       0.50000000       0.50000000       0.00000000 </v>
   <v>       0.30000000       0.20000000       0.10000000 </v>
   <v>       0.40000000       0.20000000       0.10000000 </v>
   <v>       0.50000000       0.20000000       0.10000000 </v>
   <v>      -0.40000000       0.20000000       0.10000000 </v>
   <v>       0.40000000       0.30000000       0.10000000 </v>
   <v>       0.50000000       0.30000000       0.10000000 </v>
   <v>      -0.40000000       0.30000000       0.10000000 </v>
   <v>      -0.30000000       0.30000000       0.10000000 </v>
   <v>      -0.20000000       0.30000000       0.10000000 </v>
   <v>       0.50000000       0.40000000       0.10000000 </v>
   <v>      -0.40000000       0.40000000       0.10000000 </v>
   <v>      -0.30000000       0.40000000       0.10000000 </v>
   <v>      -0.40000000       0.50000000       0.10000000 </v>
   <v>      -0.40000000       0.40000000       0.20000000 </v>
   <v>      -0.30000000       0.40000000       0.20000000 </v>
   <v>      -0.30000000       0.50000000       0.20000000 </v>
  </varray>
  <varray name="weights" >
   <v>       0.00100000 </v>
   <v>       0.00800000 </v>
   <v>       0.00800000 </v>
   <v>       0.00800000 </v>
   <v>       0.00800000 </v>
   <v>       0.00400000 </v>
   <v>       0.00600000 </v>
   <v>       0.02400000 </v>
   <v>       0.02400000 </v>
   <v>       0.02400000 </v>
   <v>       0.02400000 </v>
   <v>       0.02400000 </v>
   <v>       0.02400000 </v>
   <v>       0.02400000 </v>
   <v>       0.01200000 </v>
   <v>       0.00600000 </v>
   <v>       0.02400000 </v>
   <v>       0.02400000 </v>
   <v>       0.02400000 </v>
   <v>       0.02400000 </v>
   <v>       0.02400000 </v>
   <v>       0.01200000 </v>
   <v>       0.00600000 </v>
   <v>       0.02400000 </v>
   <v>       0.02400000 </v>
   <v>       0.02400000 </v>
   <v>       0.01200000 </v>
   <v>       0.00600000 </v>
   <v>       0.02400000 </v>
   <v>       0.01200000 </v>
   <v>       0.00300000 </v>
   <v>       0.02400000 </v>
   <v>       0.04800000 </v>
   <v>       0.04800000 </v>
   <v>       0.02400000 </v>
   <v>       0.02400000 </v>
   <v>       0.04800000 </v>
   <v>       0.04800000 </v>
   <v>       0.04800000 </v>
   <v>       0.02400000 </v>
   <v>       0.02400000 </v>
   <v>       0.04800000 </v>
   <v>       0.02400000 </v>
   <v>       0.01200000 </v>
   <v>       0.02400000 </v>
   <v>       0.02400000 </v>
   <v>       0.01200000 </v>
  </varray>
 </kpoints>
 <parameters>
  <separator name="general" >
   <i type="string" name="SYSTEM">unknown system</i>
   <i type="logical" name="LCOMPAT"> F  </i>
  </separator>
  <separator name="electronic" >
   <i type="string" name="PREC">normal</i>
   <i name="ENMAX">    200.00000000</i>
   <i name="ENAUG">    644.87300000</i>
   <i name="EDIFF">      0.00000100</i>
   <i type="int" name="IALGO">    68</i>
   <i type="int" name="IWAVPR">    10</i>
   <i type="int" name="NBANDS">     8</i>
   <i type="int" name="NBANDSLOW">    -1</i>
   <i type="int" name="NBANDSHIGH">    -1</i>
   <i name="NELECT">      8.00000000</i>
   <i type="int" name="TURBO">     0</i>
   <i type="int" name="IRESTART">     0</i>
   <i type="int" name="NREBOOT">     0</i>
   <i type="int" name="NMIN">     0</i>
   <i name="EREF">      0.00000000</i>
   <separator name="electronic smearing" >
    <i type="int" name="ISMEAR">     0</i>
    <i name="SIGMA">      0.20000000</i>
    <i name="KSPACING">      0.50000000</i>
    <i type="logical" name="KGAMMA"> T  </i>
    <i type="logical" name="KBLOWUP"> T  </i>
   </separator>
   <separator name="electronic projectors" >
    <i type="logical" name="LREAL"> F  </i>
    <v name="ROPT">      0.00000000</v>
    <i type="int" name="LMAXPAW">  -100</i>
    <i type="int" name="LMAXMIX">     2</i>
    <i type="logical" name="NLSPLINE"> F  </i>
   </separator>
   <separator name="electronic startup" >
    <i type="int" name="ISTART">     0</i>
    <i type="int" name="ICHARG">     2</i>
    <i type="int" name="INIWAV">     1</i>
   </separator>
   <separator name="electronic spin" >
    <i type="int" name="ISPIN">     1</i>
    <i type="logical" name="LNONCOLLINEAR"> F  </i>
    <v name="MAGMOM">      1.00000000      1.00000000</v>
    <i name="NUPDOWN">     -1.00000000</i>
    <i type="logical" name="LSORBIT"> F  </i>
    <v name="SAXIS">      0.00000000      0.00000000      1.00000000</v>
    <i type="logical" name="LSPIRAL"> F  </i>
    <v name="QSPIRAL">      0.00000000      0.00000000      0.00000000</v>
    <i type="logical" name="LZEROZ"> F  </i>
   </separator>
   <separator name="electronic exchange-correlation" >
    <i type="logical" name="LASPH"> F  </i>
   </separator>
   <separator name="electronic convergence" >
    <i type="int" name="NELM">    60</i>
    <i type="int" name="NELMDL">    -5</i>
    <i type="int" name="NELMIN">     4</i>
    <i name="ENINI">    200.00000000</i>
    <separator name="electronic convergence detail" >
     <i type="logical" name="LDIAG"> T  </i>
     <i type="logical" name="LSUBROT"> F  </i>
     <i type="logical" name="LROBUST"> F  </i>
     <i type="int" name="ISEARCH">     0</i>
     <i name="WEIMIN">      0.00000000</i>
     <i name="EBREAK">      0.00000003</i>
     <i name="DEPER">      0.30000000</i>
     <i type="int" name="NRMM">     4</i>
     <i name="TIME">      0.40000000</i>
    </separator>
   </separator>
   <separator name="electronic mixer" >
    <i name="AMIX">      0.40000000</i>
    <i name="BMIX">      1.00000000</i>
    <i name="AMIN">      0.10000000</i>
    <i name="AMIX_MAG">      1.60000000</i>
    <i name="BMIX_MAG">      1.00000000</i>
    <separator name="electronic mixer details" >
     <i type="int" name="IMIX">     4</i>
     <i type="logical" name="MIXFIRST"> F  </i>
     <i type="int" name="MAXMIX">   -45</i>
     <i name="WC">    100.00000000</i>
     <i type="int" name="INIMIX">     1</i>
     <i type="int" name="MIXPRE">     1</i>
     <i type="int" name="MREMOVE">     5</i>
    </separator>
   </separator>
   <separator name="electronic dipolcorrection" >
    <i type="logical" name="LDIPOL"> F  </i>
    <i type="logical" name="LMONO"> F  </i>
    <i type="int" name="IDIPOL">     0</i>
    <i name="EPSILON">      1.00000000</i>
    <v name="DIPOL">   -100.00000000   -100.00000000   -100.00000000</v>
    <i name="EFIELD">      0.00000000</i>
    <i type="logical" name="LVACPOTAV"> F  </i>
   </separator>
  </separator>
  <separator name="grids" >
   <i type="int" name="NGX">    10</i>
   <i type="int" name="NGY">    10</i>
   <i type="int" name="NGZ">    10</i>
   <i type="int" name="NGXF">    20</i>
   <i type="int" name="NGYF">    20</i>
   <i type="int" name="NGZF">    20</i>
   <i type="logical" name="ADDGRID"> F  </i>
  </separator>
  <separator name="ionic" >
   <i type="int" name="NSW">     0</i>
   <i type="int" name="IBRION">    -1</i>
   <i type="int" name="MDALGO">     0</i>
   <i type="int" name="ISIF">     2</i>
   <i name="PSTRESS">      0.00000000</i>
   <i name="EDIFFG">      0.00001000</i>
   <i type="int" name="NFREE">     0</i>
   <i name="POTIM">      0.50000000</i>
   <i name="SMASS">     -3.00000000</i>
   <i name="SCALEE">      1.00000000</i>
  </separator>
  <separator name="ionic md" >
   <i name="TEBEG">      0.00010000</i>
   <i name="TEEND">      0.00010000</i>
   <i type="int" name="NBLOCK">     1</i>
   <i type="int" name="KBLOCK">     1</i>
   <i type="int" name="NPACO">   256</i>
   <i name="APACO">     10.00000000</i>
  </separator>
  <separator name="symmetry" >
   <i type="int" name="ISYM">     2</i>
   <i name="SYMPREC">      0.00001000</i>
  </separator>
  <separator name="dos" >
   <i type="int" name="LORBIT">     0</i>
   <v name="RWIGS">     -1.00000000</v>
   <i type="int" name="NEDOS">   301</i>
   <i name="EMIN">     10.00000000</i>
   <i name="EMAX">    -10.00000000</i>
   <i name="EFERMI">      0.00000000</i>
  </separator>
  <separator name="writing" >
   <i type="int" name="NWRITE">     2</i>
   <i type="logical" name="LWAVE"> F  </i>
   <i type="logical" name="LDOWNSAMPLE"> F  </i>
   <i type="logical" name="LCHARG"> T  </i>
   <i type="logical" name="LPARD"> F  </i>
   <i type="logical" name="LVTOT"> F  </i>
   <i type="logical" name="LVHAR"> F  </i>
   <i type="logical" name="LELF"> F  </i>
   <i type="logical" name="LOPTICS"> F  </i>
   <v name="STM">      0.00000000      0.00000000      0.00000000      0.00000000      0.00000000      0.00000000      0.00000000</v>
  </separator>
  <separator name="performance" >
   <i type="int" name="NPAR">     4</i>
   <i type="int" name="NSIM">     4</i>
   <i type="int" name="NBLK">    -1</i>
   <i type="logical" name="LPLANE"> T  </i>
   <i type="logical" name="LSCALAPACK"> T  </i>
   <i type="logical" name="LSCAAWARE"> T  </i>
   <i type="logical" name="LSCALU"> F  </i>
   <i type="logical" name="LASYNC"> F  </i>
   <i type="logical" name="LORBITALREAL"> F  </i>
  </separator>
  <separator name="miscellaneous" >
   <i type="int" name="IDIOT">     3</i>
   <i type="int" name="PHON_NSTRUCT">    -1</i>
   <i type="logical" name="LMUSIC"> F  </i>
   <v name="POMASS">     12.01100000</v>
   <v name="DARWINR">      0.00000000</v>
   <v name="DARWINV">      1.00000000</v>
   <i type="logical" name="LCORR"> T  </i>
  </separator>
  <i type="logical" name="GGA_COMPAT"> T  </i>
  <i type="logical" name="LBERRY"> F  </i>
  <i type="int" name="ICORELEVEL">     0</i>
  <i type="logical" name="LDAU"> F  </i>
  <i type="int" name="I_CONSTRAINED_M">     0</i>
  <separator name="electronic exchange-correlation" >
   <i type="string" name="GGA    ">PE</i>
   <i type="string" name="XC_C">1</i>
   <i type="int" name="VOSKOWN">     0</i>
   <i type="logical" name="LHFCALC"> F  </i>
   <i type="string" name="PRECFOCK"></i>
   <i type="logical" name="LSYMGRAD"> F  </i>
   <i type="logical" name="LHFONE"> F  </i>
   <i type="logical" name="LRHFCALC"> F  </i>
   <i type="logical" name="LTHOMAS"> F  </i>
   <i type="logical" name="LMODELHF"> F  </i>
   <i type="logical" name="LFOCKACE"> F  </i>
   <i name="ENCUT4O">     -1.00000000</i>
   <i type="int" name="EXXOEP">     0</i>
   <i type="int" name="FOURORBIT">     0</i>
   <i name="AEXX">      0.00000000</i>
   <i name="HFALPHA">      0.00000000</i>
   <i name="MCALPHA">      0.00000000</i>
   <i name="ALDAX">      1.00000000</i>
   <i name="AGGAX">      1.00000000</i>
   <i name="AMGGAX">      1.00000000</i>
   <i name="ALDAC">      1.00000000</i>
   <i name="AGGAC">      1.00000000</i>
   <i name="AMGGAC">      1.00000000</i>
   <i type="int" name="NKREDX">     1</i>
   <i type="int" name="NKREDY">     1</i>
   <i type="int" name="NKREDZ">     1</i>
   <i type="logical" name="SHIFTRED"> F  </i>
   <i type="logical" name="ODDONLY"> F  </i>
   <i type="logical" name="EVENONLY"> F  </i>
   <i type="int" name="LMAXFOCK">     0</i>
   <i type="int" name="NMAXFOCKAE">     0</i>
   <i type="logical" name="LFOCKAEDFT"> F  </i>
   <i name="HFSCREEN">      0.00000000</i>
   <i name="HFSCREENC">      0.00000000</i>
   <i type="int" name="NBANDSGWLOW">     0</i>
  </separator>
  <separator name="vdW DFT" >
   <i type="logical" name="LUSE_VDW"> F  </i>
   <i type="int" name="IVDW_NL">    -1</i>
   <i type="logical" name="LSPIN_VDW"> F  </i>
   <i name="ZAB_VDW">     -0.84910000</i>
   <i name="GAMMA_VDW">      1.39626340</i>
   <i name="ALPHA_VDW">      0.00000000</i>
   <i name="PARAM1">      0.12340000</i>
   <i name="PARAM2">      1.00000000</i>
   <i name="BPARAM">      6.30000000</i>
   <i name="CPARAM">      0.00930000</i>
  </separator>
  <separator name="model GW" >
   <i type="int" name="MODEL_GW">     0</i>
   <i name="MODEL_EPS0">      3.38385115</i>
   <i name="MODEL_ALPHA">      1.00000000</i>
  </separator>
  <separator name="linear response parameters" >
   <i type="logical" name="LEPSILON"> F  </i>
   <i type="logical" name="LRPA"> F  </i>
   <i type="logical" name="LNABLA"> F  </i>
   <i type="logical" name="LVEL"> F  </i>
   <i name="CSHIFT">      0.10000000</i>
   <i name="OMEGAMAX">     -1.00000000</i>
   <i name="DEG_THRESHOLD">      0.00200000</i>
   <i name="RTIME">     -0.10000000</i>
   <i name="WPLASMAI">      0.00000000</i>
   <v name="DFIELD">      0.00000000      0.00000000      0.00000000</v>
   <v name="WPLASMA">      0.00000000      0.00000000      0.00000000      0.00000000      0.00000000      0.00000000      0.00000000      0.00000000      0.00000000</v>
  </separator>
  <separator name="orbital magnetization" >
   <i type="logical" name="NUCIND"> F  </i>
   <v name="MAGPOS">      0.00000000      0.00000000      0.00000000</v>
   <i type="logical" name="LNICSALL"> T  </i>
   <i type="logical" name="ORBITALMAG"> F  </i>
   <i type="logical" name="LMAGBLOCH"> F  </i>
   <i type="logical" name="LCHIMAG"> F  </i>
   <i type="logical" name="LGAUGE"> T  </i>
   <i type="int" name="MAGATOM">     0</i>
   <v name="MAGDIPOL">      0.00000000      0.00000000      0.00000000</v>
   <v name="AVECCONST">      0.00000000      0.00000000      0.00000000</v>
  </separator>
  <separator name="response functions" >
   <i type="logical" name="LALL_IN_ONE"> F  </i>
   <i type="int" name="IALL_IN_ONE">    -1</i>
   <i type="int" name="NBANDS_WAVE">    -1</i>
   <i type="logical" name="LFINITE_TEMPERATURE"> F  </i>
   <i type="logical" name="LADDER"> F  </i>
   <i type="logical" name="LRPAFORCE"> F  </i>
   <i type="logical" name="LFXC"> F  </i>
   <i type="logical" name="LHARTREE"> T  </i>
   <i type="int" name="IBSE">     2</i>
   <v type="int" name="KPOINT">    -1     0     0     0</v>
   <i type="logical" name="LTCTC"> F  </i>
   <i type="logical" name="LTCTE"> F  </i>
   <i type="logical" name="LTETE"> F  </i>
   <i type="logical" name="LTRIPLET"> F  </i>
   <i type="logical" name="LFXCEPS"> F  </i>
   <i type="logical" name="LFXHEG"> F  </i>
   <i type="int" name="NATURALO">     2</i>
   <i type="logical" name="LHOLEGF"> F  </i>
   <i type="logical" name="L2ORDER"> F  </i>
   <i type="logical" name="LDMP1"> F  </i>
   <i type="logical" name="LMP2LT"> F  </i>
   <i type="logical" name="LSMP2LT"> F  </i>
   <i type="logical" name="LGWLF"> F  </i>
   <i name="ENCUTGW">     -1.60000002</i>
   <i name="ENCUTGWSOFT">     -1.60000002</i>
   <i name="ENCUTLF">     -1.00000000</i>
   <i type="logical" name="ESF_SPLINES"> F  </i>
   <i name="ESF_CONV">      0.01000000</i>
   <i type="int" name="ESF_NINTER">    15</i>
   <i type="int" name="LMAXMP2">    -1</i>
   <i name="SCISSOR">      0.00000000</i>
   <i type="int" name="NOMEGA">     0</i>
   <i type="int" name="NOMEGAR">     0</i>
   <i type="int" name="NBANDSGW">    -1</i>
   <i type="int" name="NBANDSO">    -1</i>
   <i type="int" name="NBANDSV">    -1</i>
   <i type="int" name="NELMGW">     1</i>
   <i type="int" name="NELMHF">     1</i>
   <i type="int" name="DIM">     3</i>
   <i type="int" name="IESPILON">     4</i>
   <i type="int" name="ANTIRES">     0</i>
   <i name="OMEGAMAX">    -30.00000000</i>
   <i name="OMEGAMIN">    -30.00000000</i>
   <i name="OMEGATL">   -200.00000000</i>
   <i type="int" name="OMEGAGRID">     0</i>
   <i name="CSHIFT">     -0.10000000</i>
   <i type="logical" name="LSELFENERGY"> F  </i>
   <i type="logical" name="LSPECTRAL"> F  </i>
   <i type="logical" name="LSPECTRALGW"> F  </i>
   <i type="logical" name="LSINGLES"> F  </i>
   <i type="logical" name="LFERMIGW"> F  </i>
   <i type="logical" name="ODDONLYGW"> F  </i>
   <i type="logical" name="EVENONLYGW"> F  </i>
   <i type="int" name="NKREDLFX">     1</i>
   <i type="int" name="NKREDLFY">     1</i>
   <i type="int" name="NKREDLFZ">     1</i>
   <i type="int" name="MAXMEM">  2800</i>
   <i type="int" name="TELESCOPE">     0</i>
   <i type="int" name="NTAUPAR">    -1</i>
   <i type="int" name="NOMEGAPAR">    -1</i>
   <i name="DAMP_NEWTON">      0.80000001</i>
   <i name="LAMBDA">      1.00000000</i>
  </separator>
  <separator name="External order field" >
   <i name="OFIELD_KAPPA">      0.00000000</i>
   <v name="OFIELD_K">      0.00000000      0.00000000      0.00000000</v>
   <i name="OFIELD_Q6_NEAR">      0.00000000</i>
   <i name="OFIELD_Q6_FAR">      0.00000000</i>
   <i name="OFIELD_A">      0.00000000</i>
  </separator>
  <separator name="optional k-points parameters" >
   <i type="int" name="KPOINTS_OPT_MODE">     1</i>
   <i type="logical" name="LKPOINTS_OPT"> F  </i>
  </separator>
 </parameters>
 <atominfo>
  <atoms>       2 </atoms>
  <types>       1 </types>
  <array name="atoms" >
   <dimension dim="1">ion</dimension>
   <field type="string">element</field>
   <field type="int">atomtype</field>
   <set>
    <rc><c>C </c><c>   1</c></rc>
    <rc><c>C </c><c>   1</c></rc>
   </set>
  </array>
  <array name="atomtypes" >
   <dimension dim="1">type</dimension>
   <field type="int">atomspertype</field>
   <field type="string">element</field>
   <field>mass</field>
   <field>valence</field>
   <field type="string">pseudopotential</field>
   <set>
    <rc><c>   2</c><c>C </c><c>     12.01100000</c><c>      4.00000000</c><c>  PAW_PBE C 08Apr2002                   </c></rc>
   </set>
  </array>
 </atominfo>
 <structure name="initialpos" >
  <crystal>
   <varray name="basis" >
    <v>       2.51730013       0.00000000       0.00000000 </v>
    <v>       1.25865006       2.18004586       0.00000000 </v>
    <v>       1.25865006       0.72668195       2.05536695 </v>
   </varray>
   <i name="volume">     11.27950384 </i>
   <varray name="rec_basis" >
    <v>       0.39725100      -0.22935297      -0.16217704 </v>
    <v>       0.00000000       0.45870595      -0.16217704 </v>
    <v>       0.00000000       0.00000000       0.48653113 </v>
   </varray>
  </crystal>
  <varray name="positions" >
   <v>       0.25000000       0.25000000       0.25000000 </v>
   <v>       0.00000000       0.00000000       0.00000000 </v>
  </varray>
 </structure>
 <calculation>
  <scstep>
   <time name="dav">    0.06    0.06</time>
   <time name="total">    0.06    0.07</time>
   <energy>
    <i name="alphaZ">     29.13132251 </i>
    <i name="ewald">   -348.62358043 </i>
    <i name="hartreedc">    -17.48913656 </i>
    <i name="XCdc">     27.44127340 </i>
    <i name="pawpsdc">    217.04409276 </i>
    <i name="pawaedc">   -218.18290438 </i>
    <i name="eentropy">     -0.00139971 </i>
    <i name="bandstr">      5.84944896 </i>
    <i name="atom">    290.98255214 </i>
    <i name="e_fr_energy">    -13.84833130 </i>
    <i name="e_wo_entrp">    -13.84693160 </i>
    <i name="e_0_energy">    -13.84763145 </i>
   </energy>
  </scstep>
  <scstep>
   <time name="dav">    0.06    0.06</time>
   <time name="total">    0.06    0.06</time>
   <energy>
    <i name="e_fr_energy">    -18.08168773 </i>
    <i name="e_wo_entrp">    -18.08168773 </i>
    <i name="e_0_energy">    -18.08168773 </i>
   </energy>
  </scstep>
  <scstep>
   <time name="dav">    0.05    0.05</time>
   <time name="total">    0.05    0.05</time>
   <energy>
    <i name="e_fr_energy">    -18.08998996 </i>
    <i name="e_wo_entrp">    -18.08998996 </i>
    <i name="e_0_energy">    -18.08998996 </i>
   </energy>
  </scstep>
  <scstep>
   <time name="dav">    0.06    0.06</time>
   <time name="total">    0.06    0.06</time>
   <energy>
    <i name="e_fr_energy">    -18.08999316 </i>
    <i name="e_wo_entrp">    -18.08999316 </i>
    <i name="e_0_energy">    -18.08999316 </i>
   </energy>
  </scstep>
  <scstep>
   <time name="dav">    0.05    0.05</time>
   <time name="total">    0.05    0.05</time>
   <energy>
    <i name="e_fr_energy">    -18.08999316 </i>
    <i name="e_wo_entrp">    -18.08999316 </i>
    <i name="e_0_energy">    -18.08999316 </i>
   </energy>
  </scstep>
  <scstep>
   <time name="diag">    0.04    0.04</time>
   <time name="diis">    0.02    0.02</time>
   <time name="orth">    0.00    0.00</time>
   <time name="total">    0.07    0.07</time>
   <energy>
    <i name="e_fr_energy">    -17.89051478 </i>
    <i name="e_wo_entrp">    -17.89051478 </i>
    <i name="e_0_energy">    -17.89051478 </i>
   </energy>
  </scstep>
  <scstep>
   <time name="diag">    0.03    0.03</time>
   <time name="diis">    0.02    0.02</time>
   <time name="orth">    0.00    0.00</time>
   <time name="total">    0.06    0.06</time>
   <energy>
    <i name="e_fr_energy">    -17.80311949 </i>
    <i name="e_wo_entrp">    -17.80311949 </i>
    <i name="e_0_energy">    -17.80311949 </i>
   </energy>
  </scstep>
  <scstep>
   <time name="diag">    0.03    0.03</time>
   <time name="diis">    0.02    0.02</time>
   <time name="orth">    0.00    0.00</time>
   <time name="total">    0.05    0.05</time>
   <energy>
    <i name="e_fr_energy">    -17.80415401 </i>
    <i name="e_wo_entrp">    -17.80415401 </i>
    <i name="e_0_energy">    -17.80415401 </i>
   </energy>
  </scstep>
  <scstep>
   <time name="diag">    0.03    0.03</time>
   <time name="diis">    0.02    0.02</time>
   <time name="orth">    0.00    0.00</time>
   <time name="total">    0.05    0.05</time>
   <energy>
    <i name="e_fr_energy">    -17.80423964 </i>
    <i name="e_wo_entrp">    -17.80423964 </i>
    <i name="e_0_energy">    -17.80423964 </i>
   </energy>
  </scstep>
  <scstep>
   <time name="diag">    0.03    0.03</time>
   <time name="diis">    0.02    0.02</time>
   <time name="orth">    0.00    0.00</time>
   <time name="total">    0.05    0.05</time>
   <energy>
    <i name="e_fr_energy">    -17.80426387 </i>
    <i name="e_wo_entrp">    -17.80426387 </i>
    <i name="e_0_energy">    -17.80426387 </i>
   </energy>
  </scstep>
  <scstep>
   <time name="diag">    0.03    0.03</time>
   <time name="diis">    0.02    0.02</time>
   <time name="orth">    0.00    0.00</time>
   <time name="total">    0.05    0.05</time>
   <energy>
    <i name="e_fr_energy">    -17.80426073 </i>
    <i name="e_wo_entrp">    -17.80426073 </i>
    <i name="e_0_energy">    -17.80426073 </i>
   </energy>
  </scstep>
  <scstep>
   <time name="diag">    0.03    0.03</time>
   <time name="diis">    0.01    0.01</time>
   <time name="orth">    0.00    0.00</time>
   <time name="total">    0.05    0.05</time>
   <energy>
    <i name="alphaZ">     29.13132251 </i>
    <i name="ewald">   -348.62358043 </i>
    <i name="hartreedc">    -24.50079270 </i>
    <i name="XCdc">     28.14024758 </i>
    <i name="pawpsdc">    568.07541664 </i>
    <i name="pawaedc">   -568.97303308 </i>
    <i name="eentropy">     -0.00000000 </i>
    <i name="bandstr">      7.96360661 </i>
    <i name="atom">    290.98255214 </i>
    <i name="e_fr_energy">    -17.80426073 </i>
    <i name="e_wo_entrp">    -17.80426073 </i>
    <i name="e_0_energy">    -17.80426073 </i>
   </energy>
  </scstep>
  <structure>
   <crystal>
    <varray name="basis" >
     <v>       2.51730013       0.00000000       0.00000000 </v>
     <v>       1.25865006       2.18004586       0.00000000 </v>
     <v>       1.25865006       0.72668195       2.05536695 </v>
    </varray>
    <i name="volume">     11.27950384 </i>
    <varray name="rec_basis" >
     <v>       0.39725100      -0.22935297      -0.16217704 </v>
     <v>       0.00000000       0.45870595      -0.16217704 </v>
     <v>       0.00000000       0.00000000       0.48653113 </v>
    </varray>
   </crystal>
   <varray name="positions" >
    <v>       0.25000000       0.25000000       0.25000000 </v>
    <v>       0.00000000       0.00000000       0.00000000 </v>
   </varray>
  </structure>
  <varray name="forces" >
   <v>      -0.00000000       0.00000000       0.00000000 </v>
   <v>       0.00000000      -0.00000000      -0.00000000 </v>
  </varray>
  <varray name="stress" >
   <v>    -955.81286762      -0.00000002      -0.00000002 </v>
   <v>      -0.00000002    -955.81286764       0.00000002 </v>
   <v>      -0.00000002       0.00000002    -955.81286760 </v>
  </varray>
  <energy>
   <i name="e_fr_energy">    -17.80426073 </i>
   <i name="e_wo_entrp">    -17.80426073 </i>
   <i name="e_0_energy">    -17.80426073 </i>
  </energy>
  <time name="totalsc">    0.69    0.70</time>
  <eigenvalues>
   <array>
    <dimension dim="1">band</dimension>
    <dimension dim="2">kpoint</dimension>
    <dimension dim="3">spin</dimension>
    <field>eigene</field>
    <field>occ</field>
    <set>
     <set comment="spin 1">
      <set comment="kpoint 1">
       <r>  -11.9134    1.0000 </r>
       <r>   10.7820    1.0000 </r>
       <r>   10.7821    1.0000 </r>
       <r>   10.7821    1.0000 </r>
       <r>   16.2056    0.0000 </r>
       <r>   16.2056    0.0000 </r>
       <r>   16.2056    0.0000 </r>
       <r>   22.9074    0.0000 </r>
      </set>
      <set comment="kpoint 2">
       <r>  -11.6332    1.0000 </r>
       <r>    8.9015    1.0000 </r>
       <r>   10.3094    1.0000 </r>
       <r>   10.3094    1.0000 </r>
       <r>   16.8474    0.0000 </r>
       <r>   16.8475    0.0000 </r>
       <r>   17.1354    0.0000 </r>
       <r>   23.4264    0.0000 </r>
      </set>
      <set comment="kpoint 3">
       <r>  -10.8024    1.0000 </r>
       <r>    5.1672    1.0000 </r>
       <r>    9.4210    1.0000 </r>
       <r>    9.4210    1.0000 </r>
       <r>   18.0683    0.0000 </r>
       <r>   18.1438    0.0000 </r>
       <r>   18.1441    0.0000 </r>
       <r>   24.7285    0.0000 </r>
      </set>
      <set comment="kpoint 4">
       <r>   -9.4413    1.0000 </r>
       <r>    1.5096    1.0000 </r>
       <r>    8.2790    1.0000 </r>
       <r>    8.2801    1.0000 </r>
       <r>   18.3140    0.0000 </r>
       <r>   18.8604    0.0000 </r>
       <r>   18.8610    0.0000 </r>
       <r>   25.3251    0.0000 </r>
      </set>
      <set comment="kpoint 5">
       <r>   -7.6176    1.0000 </r>
       <r>   -1.6397    1.0000 </r>
       <r>    7.7432    1.0000 </r>
       <r>    7.7443    1.0000 </r>
       <r>   18.4757    0.0000 </r>
       <r>   19.0871    0.0000 </r>
       <r>   19.0877    0.0000 </r>
       <r>   26.2212    0.0000 </r>
      </set>
      <set comment="kpoint 6">
       <r>   -6.1500    1.0000 </r>
       <r>   -3.6692    1.0000 </r>
       <r>    7.5558    1.0000 </r>
       <r>    7.5569    1.0000 </r>
       <r>   18.4858    0.0000 </r>
       <r>   19.0767    0.0000 </r>
       <r>   19.0774    0.0000 </r>
       <r>   26.2854    0.0000 </r>
      </set>
      <set comment="kpoint 7">
       <r>  -11.5399    1.0000 </r>
       <r>    9.4647    1.0000 </r>
       <r>    9.4647    1.0000 </r>
       <r>    9.7461    1.0000 </r>
       <r>   15.9412    0.0000 </r>
       <r>   17.9001    0.0000 </r>
       <r>   17.9002    0.0000 </r>
       <r>   23.3393    0.0000 </r>
      </set>
      <set comment="kpoint 8">
       <r>  -10.8921    1.0000 </r>
       <r>    6.4727    1.0000 </r>
       <r>    8.4937    1.0000 </r>
       <r>    9.3185    1.0000 </r>
       <r>   16.3087    0.0000 </r>
       <r>   19.2026    0.0000 </r>
       <r>   19.4107    0.0000 </r>
       <r>   23.6528    0.0000 </r>
      </set>
      <set comment="kpoint 9">
       <r>   -9.7073    1.0000 </r>
       <r>    2.8609    1.0000 </r>
       <r>    7.5525    1.0000 </r>
       <r>    8.2705    1.0000 </r>
       <r>   17.2936    0.0000 </r>
       <r>   19.6927    0.0000 </r>
       <r>   20.3358    0.0000 </r>
       <r>   23.9525    0.0000 </r>
      </set>
      <set comment="kpoint 10">
       <r>   -8.0247    1.0000 </r>
       <r>   -0.4756    1.0000 </r>
       <r>    7.0407    1.0000 </r>
       <r>    7.2153    1.0000 </r>
       <r>   17.8963    0.0000 </r>
       <r>   19.7604    0.0000 </r>
       <r>   20.3642    0.0000 </r>
       <r>   24.8638    0.0000 </r>
      </set>
      <set comment="kpoint 11">
       <r>   -6.1782    1.0000 </r>
       <r>   -3.0311    1.0000 </r>
       <r>    6.5592    1.0000 </r>
       <r>    7.0711    1.0000 </r>
       <r>   18.2639    0.0000 </r>
       <r>   19.8143    0.0000 </r>
       <r>   20.0562    0.0000 </r>
       <r>   26.2314    0.0000 </r>
      </set>
      <set comment="kpoint 12">
       <r>   -6.7361    1.0000 </r>
       <r>   -2.3261    1.0000 </r>
       <r>    6.2593    1.0000 </r>
       <r>    7.4950    1.0000 </r>
       <r>   18.6362    0.0000 </r>
       <r>   19.6363    0.0000 </r>
       <r>   19.7877    0.0000 </r>
       <r>   26.3376    0.0000 </r>
      </set>
      <set comment="kpoint 13">
       <r>   -8.6353    1.0000 </r>
       <r>    0.6109    1.0000 </r>
       <r>    6.4427    1.0000 </r>
       <r>    8.2887    1.0000 </r>
       <r>   18.9111    0.0000 </r>
       <r>   19.0452    0.0000 </r>
       <r>   19.8387    0.0000 </r>
       <r>   25.2580    0.0000 </r>
      </set>
      <set comment="kpoint 14">
       <r>  -10.1611    1.0000 </r>
       <r>    4.0201    1.0000 </r>
       <r>    7.0061    1.0000 </r>
       <r>    9.4948    1.0000 </r>
       <r>   18.1591    0.0000 </r>
       <r>   18.9364    0.0000 </r>
       <r>   19.3770    0.0000 </r>
       <r>   24.3513    0.0000 </r>
      </set>
      <set comment="kpoint 15">
       <r>  -11.1709    1.0000 </r>
       <r>    7.4097    1.0000 </r>
       <r>    8.2020    1.0000 </r>
       <r>   10.3184    1.0000 </r>
       <r>   17.1230    0.0000 </r>
       <r>   18.0507    0.0000 </r>
       <r>   18.3034    0.0000 </r>
       <r>   23.9121    0.0000 </r>
      </set>
      <set comment="kpoint 16">
       <r>  -10.4374    1.0000 </r>
       <r>    7.0810    1.0000 </r>
       <r>    7.0810    1.0000 </r>
       <r>    7.1097    1.0000 </r>
       <r>   14.8756    0.0000 </r>
       <r>   20.9764    0.0000 </r>
       <r>   20.9764    0.0000 </r>
       <r>   22.0011    0.0000 </r>
      </set>
      <set comment="kpoint 17">
       <r>   -9.4295    1.0000 </r>
       <r>    4.1401    1.0000 </r>
       <r>    6.2599    1.0000 </r>
       <r>    6.5525    1.0000 </r>
       <r>   15.3891    0.0000 </r>
       <r>   20.7023    0.0000 </r>
       <r>   22.2670    0.0000 </r>
       <r>   22.4650    0.0000 </r>
      </set>
      <set comment="kpoint 18">
       <r>   -7.9132    1.0000 </r>
       <r>    1.0063    1.0000 </r>
       <r>    5.3436    1.0000 </r>
       <r>    5.7892    1.0000 </r>
       <r>   16.2981    0.0000 </r>
       <r>   21.3485    0.0000 </r>
       <r>   22.5468    0.0000 </r>
       <r>   22.7919    0.0000 </r>
      </set>
      <set comment="kpoint 19">
       <r>   -6.0453    1.0000 </r>
       <r>   -1.7223    1.0000 </r>
       <r>    4.3128    1.0000 </r>
       <r>    5.8610    1.0000 </r>
       <r>   16.8405    0.0000 </r>
       <r>   22.4475    0.0000 </r>
       <r>   22.4572    0.0000 </r>
       <r>   23.9318    0.0000 </r>
      </set>
      <set comment="kpoint 20">
       <r>   -5.5186    1.0000 </r>
       <r>   -2.3709    1.0000 </r>
       <r>    3.4931    1.0000 </r>
       <r>    6.3624    1.0000 </r>
       <r>   17.3933    0.0000 </r>
       <r>   21.6847    0.0000 </r>
       <r>   22.2136    0.0000 </r>
       <r>   26.0808    0.0000 </r>
      </set>
      <set comment="kpoint 21">
       <r>   -7.3192    1.0000 </r>
       <r>    0.1474    1.0000 </r>
       <r>    3.4256    1.0000 </r>
       <r>    7.5044    1.0000 </r>
       <r>   18.2628    0.0000 </r>
       <r>   20.7957    0.0000 </r>
       <r>   22.2647    0.0000 </r>
       <r>   25.1392    0.0000 </r>
      </set>
      <set comment="kpoint 22">
       <r>   -8.9843    1.0000 </r>
       <r>    2.8407    1.0000 </r>
       <r>    4.0828    1.0000 </r>
       <r>    8.7102    1.0000 </r>
       <r>   18.8859    0.0000 </r>
       <r>   19.3675    0.0000 </r>
       <r>   21.2536    0.0000 </r>
       <r>   23.9170    0.0000 </r>
      </set>
      <set comment="kpoint 23">
       <r>   -8.6144    1.0000 </r>
       <r>    3.6486    1.0000 </r>
       <r>    5.3135    1.0000 </r>
       <r>    5.3135    1.0000 </r>
       <r>   14.2183    0.0000 </r>
       <r>   18.5591    0.0000 </r>
       <r>   24.2808    0.0000 </r>
       <r>   24.2809    0.0000 </r>
      </set>
      <set comment="kpoint 24">
       <r>   -7.2774    1.0000 </r>
       <r>    1.6724    1.0000 </r>
       <r>    4.1564    1.0000 </r>
       <r>    4.8753    1.0000 </r>
       <r>   14.7668    0.0000 </r>
       <r>   17.9767    0.0000 </r>
       <r>   25.3783    0.0000 </r>
       <r>   25.4760    0.0000 </r>
      </set>
      <set comment="kpoint 25">
       <r>   -5.5217    1.0000 </r>
       <r>   -0.4871    1.0000 </r>
       <r>    2.3922    1.0000 </r>
       <r>    4.8073    1.0000 </r>
       <r>   15.5354    0.0000 </r>
       <r>   19.7198    0.0000 </r>
       <r>   25.2509    0.0000 </r>
       <r>   25.4928    0.0000 </r>
      </set>
      <set comment="kpoint 26">
       <r>   -4.1611    1.0000 </r>
       <r>   -1.8867    1.0000 </r>
       <r>    1.3444    1.0000 </r>
       <r>    5.3096    1.0000 </r>
       <r>   16.1998    0.0000 </r>
       <r>   23.2654    0.0000 </r>
       <r>   24.3944    0.0000 </r>
       <r>   25.4054    0.0000 </r>
      </set>
      <set comment="kpoint 27">
       <r>   -5.5932    1.0000 </r>
       <r>   -0.3870    1.0000 </r>
       <r>    1.1082    1.0000 </r>
       <r>    6.2358    1.0000 </r>
       <r>   17.1038    0.0000 </r>
       <r>   22.8901    0.0000 </r>
       <r>   24.9265    0.0000 </r>
       <r>   25.2490    0.0000 </r>
      </set>
      <set comment="kpoint 28">
       <r>   -6.1238    1.0000 </r>
       <r>    0.2199    1.0000 </r>
       <r>    4.2347    1.0000 </r>
       <r>    4.2347    1.0000 </r>
       <r>   14.0547    0.0000 </r>
       <r>   16.0951    0.0000 </r>
       <r>   27.2072    0.0000 </r>
       <r>   27.2072    0.0000 </r>
      </set>
      <set comment="kpoint 29">
       <r>   -4.5053    1.0000 </r>
       <r>   -1.3612    1.0000 </r>
       <r>    2.9608    1.0000 </r>
       <r>    4.1261    1.0000 </r>
       <r>   14.7814    0.0000 </r>
       <r>   16.3096    0.0000 </r>
       <r>   27.6072    0.0000 </r>
       <r>   27.8055    0.0000 </r>
      </set>
      <set comment="kpoint 30">
       <r>   -3.0432    1.0000 </r>
       <r>   -2.3598    1.0000 </r>
       <r>    1.1952    1.0000 </r>
       <r>    4.5577    1.0000 </r>
       <r>   15.3459    0.0000 </r>
       <r>   19.2273    0.0000 </r>
       <r>   26.7831    0.0000 </r>
       <r>   27.3296    0.0000 </r>
      </set>
      <set comment="kpoint 31">
       <r>   -3.0216    1.0000 </r>
       <r>   -3.0216    1.0000 </r>
       <r>    4.0476    1.0000 </r>
       <r>    4.0476    1.0000 </r>
       <r>   14.7002    0.0000 </r>
       <r>   14.7002    0.0000 </r>
       <r>   29.1836    0.0000 </r>
       <r>   29.1836    0.0000 </r>
      </set>
      <set comment="kpoint 32">
       <r>  -10.0675    1.0000 </r>
       <r>    5.0004    1.0000 </r>
       <r>    6.1021    1.0000 </r>
       <r>    8.7614    1.0000 </r>
       <r>   16.6648    0.0000 </r>
       <r>   20.0393    0.0000 </r>
       <r>   20.9717    0.0000 </r>
       <r>   22.8531    0.0000 </r>
      </set>
      <set comment="kpoint 33">
       <r>   -8.7149    1.0000 </r>
       <r>    1.9820    1.0000 </r>
       <r>    5.0452    1.0000 </r>
       <r>    7.6223    1.0000 </r>
       <r>   17.7454    0.0000 </r>
       <r>   20.1198    0.0000 </r>
       <r>   21.9819    0.0000 </r>
       <r>   23.0357    0.0000 </r>
      </set>
      <set comment="kpoint 34">
       <r>   -6.9120    1.0000 </r>
       <r>   -1.0304    1.0000 </r>
       <r>    4.7468    1.0000 </r>
       <r>    6.6652    1.0000 </r>
       <r>   18.4366    0.0000 </r>
       <r>   19.6652    0.0000 </r>
       <r>   22.4065    0.0000 </r>
       <r>   24.8338    0.0000 </r>
      </set>
      <set comment="kpoint 35">
       <r>   -5.4788    1.0000 </r>
       <r>   -2.9367    1.0000 </r>
       <r>    4.6356    1.0000 </r>
       <r>    6.2674    1.0000 </r>
       <r>   18.6132    0.0000 </r>
       <r>   19.3759    0.0000 </r>
       <r>   22.4378    0.0000 </r>
       <r>   26.1076    0.0000 </r>
      </set>
      <set comment="kpoint 36">
       <r>   -8.2582    1.0000 </r>
       <r>    2.7179    1.0000 </r>
       <r>    4.4003    1.0000 </r>
       <r>    5.8723    1.0000 </r>
       <r>   15.9221    0.0000 </r>
       <r>   19.7544    0.0000 </r>
       <r>   22.5608    0.0000 </r>
       <r>   24.4200    0.0000 </r>
      </set>
      <set comment="kpoint 37">
       <r>   -6.6082    1.0000 </r>
       <r>    0.3859    1.0000 </r>
       <r>    3.3265    1.0000 </r>
       <r>    5.0470    1.0000 </r>
       <r>   17.0529    0.0000 </r>
       <r>   20.6214    0.0000 </r>
       <r>   22.3929    0.0000 </r>
       <r>   25.5646    0.0000 </r>
      </set>
      <set comment="kpoint 38">
       <r>   -4.8187    1.0000 </r>
       <r>   -1.8777    1.0000 </r>
       <r>    2.6311    1.0000 </r>
       <r>    4.8871    1.0000 </r>
       <r>   17.6953    0.0000 </r>
       <r>   21.5657    0.0000 </r>
       <r>   23.5521    0.0000 </r>
       <r>   25.4641    0.0000 </r>
      </set>
      <set comment="kpoint 39">
       <r>   -5.3922    1.0000 </r>
       <r>   -1.1361    1.0000 </r>
       <r>    2.1554    1.0000 </r>
       <r>    5.5036    1.0000 </r>
       <r>   18.4443    0.0000 </r>
       <r>   20.9261    0.0000 </r>
       <r>   24.0943    0.0000 </r>
       <r>   25.7802    0.0000 </r>
      </set>
      <set comment="kpoint 40">
       <r>   -7.2239    1.0000 </r>
       <r>    1.0502    1.0000 </r>
       <r>    2.4946    1.0000 </r>
       <r>    6.5320    1.0000 </r>
       <r>   19.3006    0.0000 </r>
       <r>   19.4111    0.0000 </r>
       <r>   22.6905    0.0000 </r>
       <r>   24.4302    0.0000 </r>
      </set>
      <set comment="kpoint 41">
       <r>   -5.7892    1.0000 </r>
       <r>    0.1867    1.0000 </r>
       <r>    3.3966    1.0000 </r>
       <r>    3.8072    1.0000 </r>
       <r>   15.6855    0.0000 </r>
       <r>   17.4929    0.0000 </r>
       <r>   25.2674    0.0000 </r>
       <r>   27.2351    0.0000 </r>
      </set>
      <set comment="kpoint 42">
       <r>   -4.0057    1.0000 </r>
       <r>   -1.3490    1.0000 </r>
       <r>    1.6311    1.0000 </r>
       <r>    3.7430    1.0000 </r>
       <r>   16.7035    0.0000 </r>
       <r>   19.4853    0.0000 </r>
       <r>   24.8864    0.0000 </r>
       <r>   26.8861    0.0000 </r>
      </set>
      <set comment="kpoint 43">
       <r>   -3.7417    1.0000 </r>
       <r>   -1.4620    1.0000 </r>
       <r>    0.7234    1.0000 </r>
       <r>    4.3521    1.0000 </r>
       <r>   17.4417    0.0000 </r>
       <r>   23.2424    0.0000 </r>
       <r>   23.7164    0.0000 </r>
       <r>   25.1041    0.0000 </r>
      </set>
      <set comment="kpoint 44">
       <r>   -2.8433    1.0000 </r>
       <r>   -2.8431    1.0000 </r>
       <r>    3.0455    1.0000 </r>
       <r>    3.0467    1.0000 </r>
       <r>   16.2290    0.0000 </r>
       <r>   16.2295    0.0000 </r>
       <r>   27.6352    0.0000 </r>
       <r>   27.6366    0.0000 </r>
      </set>
      <set comment="kpoint 45">
       <r>   -4.9177    1.0000 </r>
       <r>   -0.4358    1.0000 </r>
       <r>    1.6911    1.0000 </r>
       <r>    3.6912    1.0000 </r>
       <r>   19.4050    0.0000 </r>
       <r>   20.4225    0.0000 </r>
       <r>   21.9707    0.0000 </r>
       <r>   26.5011    0.0000 </r>
      </set>
      <set comment="kpoint 46">
       <r>   -3.5555    1.0000 </r>
       <r>   -1.6039    1.0000 </r>
       <r>    1.3266    1.0000 </r>
       <r>    3.0691    1.0000 </r>
       <r>   19.9671    0.0000 </r>
       <r>   21.0224    0.0000 </r>
       <r>   23.7835    0.0000 </r>
       <r>   23.8008    0.0000 </r>
      </set>
      <set comment="kpoint 47">
       <r>   -2.3887    1.0000 </r>
       <r>   -2.3886    1.0000 </r>
       <r>    1.8864    1.0000 </r>
       <r>    1.8876    1.0000 </r>
       <r>   19.7291    0.0000 </r>
       <r>   19.7302    0.0000 </r>
       <r>   24.3824    0.0000 </r>
       <r>   24.3839    0.0000 </r>
      </set>
     </set>
    </set>
   </array>
  </eigenvalues>
  <separator name="orbital magnetization" >
   <v name="MAGDIPOLOUT">      0.00000000      0.00000000      0.00000000</v>
  </separator>
  <dos>
   <i name="efermi">     11.64919292 </i>
   <total>
    <array>
     <dimension dim="1">gridpoints</dimension>
     <dimension dim="2">spin</dimension>
     <field>energy</field>
     <field>total</field>
     <field>integrated</field>
     <set>
      <set comment="spin 1">
       <r>   -13.9682     0.0000     0.0000 </r>
       <r>   -13.8175     0.0000     0.0000 </r>
       <r>   -13.6669     0.0000     0.0000 </r>
       <r>   -13.5162     0.0000     0.0000 </r>
       <r>   -13.3655     0.0000     0.0000 </r>
       <r>   -13.2148     0.0000     0.0000 </r>
       <r>   -13.0641     0.0000     0.0000 </r>
       <r>   -12.9134     0.0000     0.0000 </r>
       <r>   -12.7627     0.0000     0.0000 </r>
       <r>   -12.6120     0.0000     0.0000 </r>
       <r>   -12.4613     0.0000     0.0000 </r>
       <r>   -12.3107     0.0000     0.0000 </r>
       <r>   -12.1600     0.0005     0.0001 </r>
       <r>   -12.0093     0.0032     0.0006 </r>
       <r>   -11.8586     0.0117     0.0023 </r>
       <r>   -11.7079     0.0379     0.0080 </r>
       <r>   -11.5572     0.0711     0.0188 </r>
       <r>   -11.4065     0.0628     0.0282 </r>
       <r>   -11.2558     0.0550     0.0365 </r>
       <r>   -11.1051     0.0876     0.0497 </r>
       <r>   -10.9545     0.1385     0.0706 </r>
       <r>   -10.8038     0.1761     0.0971 </r>
       <r>   -10.6531     0.1138     0.1143 </r>
       <r>   -10.5024     0.0506     0.1219 </r>
       <r>   -10.3517     0.0674     0.1321 </r>
       <r>   -10.2010     0.1616     0.1564 </r>
       <r>   -10.0503     0.2512     0.1943 </r>
       <r>    -9.8996     0.1909     0.2230 </r>
       <r>    -9.7489     0.1432     0.2446 </r>
       <r>    -9.5983     0.1761     0.2711 </r>
       <r>    -9.4476     0.2029     0.3017 </r>
       <r>    -9.2969     0.1707     0.3274 </r>
       <r>    -9.1462     0.0819     0.3398 </r>
       <r>    -8.9955     0.0795     0.3517 </r>
       <r>    -8.8448     0.1825     0.3792 </r>
       <r>    -8.6941     0.3691     0.4349 </r>
       <r>    -8.5434     0.3801     0.4921 </r>
       <r>    -8.3927     0.2020     0.5226 </r>
       <r>    -8.2421     0.1650     0.5474 </r>
       <r>    -8.0914     0.2199     0.5806 </r>
       <r>    -7.9407     0.2658     0.6206 </r>
       <r>    -7.7900     0.2099     0.6523 </r>
       <r>    -7.6393     0.1078     0.6685 </r>
       <r>    -7.4886     0.1115     0.6853 </r>
       <r>    -7.3379     0.2658     0.7254 </r>
       <r>    -7.1872     0.3920     0.7844 </r>
       <r>    -7.0365     0.3252     0.8334 </r>
       <r>    -6.8859     0.3474     0.8858 </r>
       <r>    -6.7352     0.4243     0.9497 </r>
       <r>    -6.5845     0.4182     1.0127 </r>
       <r>    -6.4338     0.2669     1.0529 </r>
       <r>    -6.2831     0.1604     1.0771 </r>
       <r>    -6.1324     0.2543     1.1154 </r>
       <r>    -5.9817     0.2947     1.1598 </r>
       <r>    -5.8310     0.2365     1.1955 </r>
       <r>    -5.6803     0.2931     1.2396 </r>
       <r>    -5.5297     0.5276     1.3191 </r>
       <r>    -5.3790     0.6505     1.4172 </r>
       <r>    -5.2283     0.3851     1.4752 </r>
       <r>    -5.0776     0.1511     1.4980 </r>
       <r>    -4.9269     0.2397     1.5341 </r>
       <r>    -4.7762     0.3780     1.5911 </r>
       <r>    -4.6255     0.2872     1.6343 </r>
       <r>    -4.4748     0.1837     1.6620 </r>
       <r>    -4.3241     0.1480     1.6843 </r>
       <r>    -4.1735     0.2052     1.7152 </r>
       <r>    -4.0228     0.3415     1.7667 </r>
       <r>    -3.8721     0.3420     1.8182 </r>
       <r>    -3.7214     0.2718     1.8592 </r>
       <r>    -3.5707     0.2474     1.8965 </r>
       <r>    -3.4200     0.1648     1.9213 </r>
       <r>    -3.2693     0.0806     1.9334 </r>
       <r>    -3.1186     0.1688     1.9589 </r>
       <r>    -2.9679     0.3776     2.0158 </r>
       <r>    -2.8172     0.3911     2.0747 </r>
       <r>    -2.6666     0.2075     2.1060 </r>
       <r>    -2.5159     0.1802     2.1331 </r>
       <r>    -2.3652     0.3931     2.1924 </r>
       <r>    -2.2145     0.4068     2.2537 </r>
       <r>    -2.0638     0.2365     2.2893 </r>
       <r>    -1.9131     0.3511     2.3422 </r>
       <r>    -1.7624     0.5300     2.4221 </r>
       <r>    -1.6117     0.5138     2.4995 </r>
       <r>    -1.4610     0.5370     2.5804 </r>
       <r>    -1.3104     0.6333     2.6759 </r>
       <r>    -1.1597     0.6365     2.7718 </r>
       <r>    -1.0090     0.5655     2.8570 </r>
       <r>    -0.8583     0.3207     2.9053 </r>
       <r>    -0.7076     0.1219     2.9237 </r>
       <r>    -0.5569     0.2319     2.9586 </r>
       <r>    -0.4062     0.4346     3.0241 </r>
       <r>    -0.2555     0.3162     3.0718 </r>
       <r>    -0.1048     0.1044     3.0875 </r>
       <r>     0.0458     0.1297     3.1070 </r>
       <r>     0.1965     0.3237     3.1558 </r>
       <r>     0.3472     0.4339     3.2212 </r>
       <r>     0.4979     0.3970     3.2810 </r>
       <r>     0.6486     0.3296     3.3307 </r>
       <r>     0.7993     0.2803     3.3729 </r>
       <r>     0.9500     0.2825     3.4155 </r>
       <r>     1.1007     0.3924     3.4746 </r>
       <r>     1.2514     0.4323     3.5398 </r>
       <r>     1.4020     0.4242     3.6037 </r>
       <r>     1.5527     0.4765     3.6755 </r>
       <r>     1.7034     0.6128     3.7678 </r>
       <r>     1.8541     0.5873     3.8564 </r>
       <r>     2.0048     0.5478     3.9389 </r>
       <r>     2.1555     0.5166     4.0167 </r>
       <r>     2.3062     0.4044     4.0777 </r>
       <r>     2.4569     0.3870     4.1360 </r>
       <r>     2.6076     0.5050     4.2121 </r>
       <r>     2.7582     0.5783     4.2993 </r>
       <r>     2.9089     0.5729     4.3856 </r>
       <r>     3.0596     0.5513     4.4687 </r>
       <r>     3.2103     0.4907     4.5426 </r>
       <r>     3.3610     0.5788     4.6298 </r>
       <r>     3.5117     0.6579     4.7290 </r>
       <r>     3.6624     0.6142     4.8215 </r>
       <r>     3.8131     0.6246     4.9156 </r>
       <r>     3.9638     0.5700     5.0015 </r>
       <r>     4.1144     0.6817     5.1043 </r>
       <r>     4.2651     0.7872     5.2229 </r>
       <r>     4.4158     0.6607     5.3225 </r>
       <r>     4.5665     0.5168     5.4003 </r>
       <r>     4.7172     0.6441     5.4974 </r>
       <r>     4.8679     0.9653     5.6428 </r>
       <r>     5.0186     1.1194     5.8115 </r>
       <r>     5.1693     0.9168     5.9497 </r>
       <r>     5.3200     0.6390     6.0460 </r>
       <r>     5.4706     0.5397     6.1273 </r>
       <r>     5.6213     0.4161     6.1900 </r>
       <r>     5.7720     0.3685     6.2455 </r>
       <r>     5.9227     0.4334     6.3108 </r>
       <r>     6.0734     0.4302     6.3756 </r>
       <r>     6.2241     0.6022     6.4664 </r>
       <r>     6.3748     0.8640     6.5966 </r>
       <r>     6.5255     0.9720     6.7430 </r>
       <r>     6.6762     0.8335     6.8686 </r>
       <r>     6.8268     0.4814     6.9412 </r>
       <r>     6.9775     0.4070     7.0025 </r>
       <r>     7.1282     0.5610     7.0871 </r>
       <r>     7.2789     0.4872     7.1605 </r>
       <r>     7.4296     0.4889     7.2342 </r>
       <r>     7.5803     0.7109     7.3413 </r>
       <r>     7.7310     0.6270     7.4358 </r>
       <r>     7.8817     0.2746     7.4771 </r>
       <r>     8.0324     0.1059     7.4931 </r>
       <r>     8.1831     0.2387     7.5291 </r>
       <r>     8.3337     0.4387     7.5952 </r>
       <r>     8.4844     0.3855     7.6533 </r>
       <r>     8.6351     0.2712     7.6941 </r>
       <r>     8.7858     0.2548     7.7325 </r>
       <r>     8.9365     0.1903     7.7612 </r>
       <r>     9.0872     0.0902     7.7748 </r>
       <r>     9.2379     0.1246     7.7936 </r>
       <r>     9.3886     0.2962     7.8382 </r>
       <r>     9.5393     0.3590     7.8923 </r>
       <r>     9.6899     0.2080     7.9237 </r>
       <r>     9.8406     0.0719     7.9345 </r>
       <r>     9.9913     0.0241     7.9381 </r>
       <r>    10.1420     0.0410     7.9443 </r>
       <r>    10.2927     0.1225     7.9628 </r>
       <r>    10.4434     0.1411     7.9840 </r>
       <r>    10.5941     0.0610     7.9932 </r>
       <r>    10.7448     0.0205     7.9963 </r>
       <r>    10.8955     0.0161     7.9987 </r>
       <r>    11.0461     0.0072     7.9998 </r>
       <r>    11.1968     0.0012     8.0000 </r>
       <r>    11.3475     0.0001     8.0000 </r>
       <r>    11.4982     0.0000     8.0000 </r>
       <r>    11.6489     0.0000     8.0000 </r>
       <r>    11.7996     0.0000     8.0000 </r>
       <r>    11.9503     0.0000     8.0000 </r>
       <r>    12.1010     0.0000     8.0000 </r>
       <r>    12.2517     0.0000     8.0000 </r>
       <r>    12.4023     0.0000     8.0000 </r>
       <r>    12.5530     0.0000     8.0000 </r>
       <r>    12.7037     0.0000     8.0000 </r>
       <r>    12.8544     0.0000     8.0000 </r>
       <r>    13.0051     0.0000     8.0000 </r>
       <r>    13.1558     0.0000     8.0000 </r>
       <r>    13.3065     0.0000     8.0000 </r>
       <r>    13.4572     0.0000     8.0000 </r>
       <r>    13.6079     0.0001     8.0000 </r>
       <r>    13.7585     0.0014     8.0002 </r>
       <r>    13.9092     0.0118     8.0020 </r>
       <r>    14.0599     0.0382     8.0078 </r>
       <r>    14.2106     0.0555     8.0161 </r>
       <r>    14.3613     0.0404     8.0222 </r>
       <r>    14.5120     0.0384     8.0280 </r>
       <r>    14.6627     0.1475     8.0502 </r>
       <r>    14.8134     0.3031     8.0959 </r>
       <r>    14.9641     0.2392     8.1320 </r>
       <r>    15.1147     0.0880     8.1452 </r>
       <r>    15.2654     0.1071     8.1614 </r>
       <r>    15.4161     0.2508     8.1991 </r>
       <r>    15.5668     0.3226     8.2477 </r>
       <r>    15.7175     0.2888     8.2913 </r>
       <r>    15.8682     0.2497     8.3289 </r>
       <r>    16.0189     0.2827     8.3715 </r>
       <r>    16.1696     0.4586     8.4406 </r>
       <r>    16.3203     0.6640     8.5407 </r>
       <r>    16.4709     0.5142     8.6181 </r>
       <r>    16.6216     0.3974     8.6780 </r>
       <r>    16.7723     0.5474     8.7605 </r>
       <r>    16.9230     0.5705     8.8465 </r>
       <r>    17.0737     0.5591     8.9307 </r>
       <r>    17.2244     0.5476     9.0132 </r>
       <r>    17.3751     0.5306     9.0932 </r>
       <r>    17.5258     0.5720     9.1794 </r>
       <r>    17.6765     0.6407     9.2760 </r>
       <r>    17.8271     0.7286     9.3857 </r>
       <r>    17.9778     0.6871     9.4893 </r>
       <r>    18.1285     0.6851     9.5925 </r>
       <r>    18.2792     0.8201     9.7161 </r>
       <r>    18.4299     0.9680     9.8620 </r>
       <r>    18.5806     0.8893     9.9960 </r>
       <r>    18.7313     0.6143    10.0886 </r>
       <r>    18.8820     0.5493    10.1713 </r>
       <r>    19.0327     0.6638    10.2714 </r>
       <r>    19.1834     0.7406    10.3830 </r>
       <r>    19.3340     1.0094    10.5351 </r>
       <r>    19.4847     1.2980    10.7307 </r>
       <r>    19.6354     1.3899    10.9401 </r>
       <r>    19.7861     1.5074    11.1672 </r>
       <r>    19.9368     1.2428    11.3545 </r>
       <r>    20.0875     0.8876    11.4883 </r>
       <r>    20.2382     0.6762    11.5902 </r>
       <r>    20.3889     0.5549    11.6738 </r>
       <r>    20.5396     0.5347    11.7544 </r>
       <r>    20.6902     0.5795    11.8417 </r>
       <r>    20.8409     0.6654    11.9420 </r>
       <r>    20.9916     0.7195    12.0504 </r>
       <r>    21.1423     0.5314    12.1305 </r>
       <r>    21.2930     0.3112    12.1774 </r>
       <r>    21.4437     0.3127    12.2245 </r>
       <r>    21.5944     0.3990    12.2846 </r>
       <r>    21.7451     0.3915    12.3436 </r>
       <r>    21.8958     0.3871    12.4019 </r>
       <r>    22.0464     0.5248    12.4810 </r>
       <r>    22.1971     0.6719    12.5823 </r>
       <r>    22.3478     1.0897    12.7465 </r>
       <r>    22.4985     1.4248    12.9612 </r>
       <r>    22.6492     1.0896    13.1254 </r>
       <r>    22.7999     0.6751    13.2271 </r>
       <r>    22.9506     0.5576    13.3111 </r>
       <r>    23.1013     0.5033    13.3870 </r>
       <r>    23.2520     0.4570    13.4558 </r>
       <r>    23.4026     0.4333    13.5211 </r>
       <r>    23.5533     0.5062    13.5974 </r>
       <r>    23.7040     0.6852    13.7007 </r>
       <r>    23.8547     0.8023    13.8216 </r>
       <r>    24.0054     0.7806    13.9392 </r>
       <r>    24.1561     0.6383    14.0354 </r>
       <r>    24.3068     0.6358    14.1312 </r>
       <r>    24.4575     0.7334    14.2417 </r>
       <r>    24.6082     0.5176    14.3197 </r>
       <r>    24.7588     0.4836    14.3926 </r>
       <r>    24.9095     0.7721    14.5089 </r>
       <r>    25.0602     0.7873    14.6275 </r>
       <r>    25.2109     0.8420    14.7544 </r>
       <r>    25.3616     1.1167    14.9227 </r>
       <r>    25.5123     1.2192    15.1064 </r>
       <r>    25.6630     0.9098    15.2435 </r>
       <r>    25.8137     0.5203    15.3219 </r>
       <r>    25.9644     0.3461    15.3740 </r>
       <r>    26.1150     0.3983    15.4340 </r>
       <r>    26.2657     0.4919    15.5082 </r>
       <r>    26.4164     0.4171    15.5710 </r>
       <r>    26.5671     0.2720    15.6120 </r>
       <r>    26.7178     0.2106    15.6438 </r>
       <r>    26.8685     0.2995    15.6889 </r>
       <r>    27.0192     0.3112    15.7358 </r>
       <r>    27.1699     0.2530    15.7739 </r>
       <r>    27.3206     0.2711    15.8148 </r>
       <r>    27.4712     0.2441    15.8515 </r>
       <r>    27.6219     0.2957    15.8961 </r>
       <r>    27.7726     0.3294    15.9457 </r>
       <r>    27.9233     0.2052    15.9767 </r>
       <r>    28.0740     0.0656    15.9865 </r>
       <r>    28.2247     0.0091    15.9879 </r>
       <r>    28.3754     0.0005    15.9880 </r>
       <r>    28.5261     0.0000    15.9880 </r>
       <r>    28.6768     0.0000    15.9880 </r>
       <r>    28.8274     0.0005    15.9881 </r>
       <r>    28.9781     0.0054    15.9889 </r>
       <r>    29.1288     0.0220    15.9922 </r>
       <r>    29.2795     0.0320    15.9970 </r>
       <r>    29.4302     0.0166    15.9995 </r>
       <r>    29.5809     0.0030    16.0000 </r>
       <r>    29.7316     0.0002    16.0000 </r>
       <r>    29.8823     0.0000    16.0000 </r>
       <r>    30.0330     0.0000    16.0000 </r>
       <r>    30.1837     0.0000    16.0000 </r>
       <r>    30.3343     0.0000    16.0000 </r>
       <r>    30.4850     0.0000    16.0000 </r>
       <r>    30.6357     0.0000    16.0000 </r>
       <r>    30.7864     0.0000    16.0000 </r>
       <r>    30.9371     0.0000    16.0000 </r>
       <r>    31.0878     0.0000    16.0000 </r>
       <r>    31.2385     0.0000    16.0000 </r>
      </set>
     </set>
    </array>
   </total>
  </dos>
 </calculation>
 <structure name="finalpos" >
  <crystal>
   <varray name="basis" >
    <v>       2.51730013       0.00000000       0.00000000 </v>
    <v>       1.25865006       2.18004586       0.00000000 </v>
    <v>       1.25865006       0.72668195       2.05536695 </v>
   </varray>
   <i name="volume">     11.27950384 </i>
   <varray name="rec_basis" >
    <v>       0.39725100      -0.22935297      -0.16217704 </v>
    <v>       0.00000000       0.45870595      -0.16217704 </v>
    <v>       0.00000000       0.00000000       0.48653113 </v>
   </varray>
  </crystal>
  <varray name="positions" >
   <v>       0.25000000       0.25000000       0.25000000 </v>
   <v>       0.00000000       0.00000000       0.00000000 </v>
  </varray>
 </structure>
</modeling>
