  215  215  200    2
  0.5731707E+01  0.1072114E-08  0.1072114E-08  0.1072114E-08  0.5000000E-15
  1.000000000000000E-004
  CAR 
 unknown system                          
    863      1    648
 
  0.1276756E-14  0.1276756E-14  0.1276756E-14  0.1000000E+01
      1        -11.923154      -11.921399   1.000000   1.000000
      2        -11.081640      -11.080391   1.000000   1.000000
      3        -10.922887      -10.921794   1.000000   1.000000
      4        -10.922887      -10.921794   1.000000   1.000000
      5        -10.860439      -10.857977   1.000000   1.000000
      6        -10.860439      -10.857977   1.000000   1.000000
      7        -10.766190      -10.762270   1.000000   1.000000
      8        -10.252485      -10.251019   1.000000   1.000000
      9         -9.920275       -9.919394   1.000000   1.000000
     10         -9.920275       -9.919394   1.000000   1.000000
     11         -9.905142       -9.904241   1.000000   1.000000
     12         -9.905142       -9.904241   1.000000   1.000000
     13         -9.889626       -9.887660   1.000000   1.000000
     14         -9.847066       -9.844893   1.000000   1.000000
     15         -9.847066       -9.844893   1.000000   1.000000
     16         -9.843393       -9.842198   1.000000   1.000000
     17         -9.762177       -9.755425   1.000000   1.000000
     18         -9.762177       -9.755425   1.000000   1.000000
     19         -9.593788       -9.585958   1.000000   1.000000
     20         -9.149820       -9.147922   1.000000   1.000000
     21         -8.867447       -8.865562   1.000000   1.000000
     22         -8.852651       -8.849922   1.000000   1.000000
     23         -8.852651       -8.849922   1.000000   1.000000
     24         -8.813694       -8.810307   1.000000   1.000000
     25         -8.809063       -8.801928   1.000000   1.000000
     26         -8.809063       -8.801928   1.000000   1.000000
     27         -8.615009       -8.604405   1.000000   1.000000
     28         -8.047800       -8.042880   1.000000   1.000000
     29         -7.893262       -7.891054   1.000000   1.000000
     30         -7.893262       -7.891053   1.000000   1.000000
     31         -7.871624       -7.868251   1.000000   1.000000
     32         -7.871624       -7.868251   1.000000   1.000000
     33         -7.826758       -7.823481   1.000000   1.000000
     34         -7.477084       -7.470730   1.000000   1.000000
     35         -7.017310       -7.017039   1.000000   1.000000
     36         -7.014814       -7.014170   1.000000   1.000000
     37         -7.014814       -7.014170   1.000000   1.000000
     38         -7.006675       -7.005109   1.000000   1.000000
     39         -7.006675       -7.005109   1.000000   1.000000
     40         -6.994269       -6.992767   1.000000   1.000000
     41         -6.983989       -6.982493   1.000000   1.000000
     42         -6.983989       -6.982493   1.000000   1.000000
     43         -6.976372       -6.975826   1.000000   1.000000
     44         -6.964291       -6.963407   1.000000   1.000000
     45         -6.964291       -6.963407   1.000000   1.000000
     46         -6.958162       -6.957273   1.000000   1.000000
     47         -6.950531       -6.948696   1.000000   1.000000
     48         -6.950531       -6.948696   1.000000   1.000000
     49         -6.901709       -6.897974   1.000000   1.000000
     50         -6.901709       -6.897974   1.000000   1.000000
     51         -6.900158       -6.895735   1.000000   1.000000
     52         -6.883715       -6.878977   1.000000   1.000000
     53         -6.883715       -6.878977   1.000000   1.000000
     54         -6.874773       -6.873666   1.000000   1.000000
     55         -6.791308       -6.782007   1.000000   1.000000
     56         -6.791308       -6.782007   1.000000   1.000000
     57         -6.658098       -6.653435   1.000000   1.000000
     58         -6.464505       -6.462807   1.000000   1.000000
     59         -6.255143       -6.254386   1.000000   1.000000
     60         -6.255143       -6.254386   1.000000   1.000000
     61         -6.222468       -6.221373   1.000000   1.000000
     62         -6.218837       -6.216682   1.000000   1.000000
     63         -6.218837       -6.216682   1.000000   1.000000
     64         -6.197539       -6.196531   1.000000   1.000000
     65         -6.187513       -6.186144   1.000000   1.000000
     66         -6.187513       -6.186144   1.000000   1.000000
     67         -6.187413       -6.184193   1.000000   1.000000
     68         -6.154356       -6.151237   1.000000   1.000000
     69         -6.154356       -6.151237   1.000000   1.000000
     70         -6.122026       -6.117894   1.000000   1.000000
     71         -6.108082       -6.105201   1.000000   1.000000
     72         -6.108082       -6.105201   1.000000   1.000000
     73         -6.093990       -6.091906   1.000000   1.000000
     74         -6.093990       -6.091906   1.000000   1.000000
     75         -6.040706       -6.034549   1.000000   1.000000
     76         -6.019342       -6.011699   1.000000   1.000000
     77         -6.019342       -6.011699   1.000000   1.000000
     78         -5.939222       -5.934353   1.000000   1.000000
     79         -5.788073       -5.758577   1.000000   1.000000
     80         -5.788073       -5.758577   1.000000   1.000000
     81         -5.171105       -5.149004   1.000000   1.000000
     82         -4.682021       -4.678892   1.000000   1.000000
     83         -4.523647       -4.521857   1.000000   1.000000
     84         -4.523647       -4.521857   1.000000   1.000000
     85         -4.476636       -4.471885   1.000000   1.000000
     86         -4.476636       -4.471885   1.000000   1.000000
     87         -4.473177       -4.471151   1.000000   1.000000
     88         -4.453729       -4.451282   1.000000   1.000000
     89         -4.453729       -4.451282   1.000000   1.000000
     90         -4.444913       -4.442133   1.000000   1.000000
     91         -4.378399       -4.362413   1.000000   1.000000
     92         -4.378399       -4.362413   1.000000   1.000000
     93         -3.981212       -3.952854   1.000000   1.000000
     94         -3.268489       -3.264984   1.000000   1.000000
     95         -3.242064       -3.240971   1.000000   1.000000
     96         -3.242064       -3.240971   1.000000   1.000000
     97         -3.223294       -3.221008   1.000000   1.000000
     98         -3.223294       -3.221008   1.000000   1.000000
     99         -3.195068       -3.192669   1.000000   1.000000
    100         -2.921523       -2.910695   1.000000   1.000000
    101         -2.781396       -2.780493   1.000000   1.000000
    102         -2.781396       -2.780493   1.000000   1.000000
    103         -2.772264       -2.772262   1.000000   1.000000
    104         -2.745732       -2.744783   1.000000   1.000000
    105         -2.745732       -2.744783   1.000000   1.000000
    106         -2.738062       -2.737174   1.000000   1.000000
    107         -2.734488       -2.733527   1.000000   1.000000
    108         -2.734488       -2.733527   1.000000   1.000000
    109         -2.732816       -2.731986   1.000000   1.000000
    110         -2.705787       -2.703636   1.000000   1.000000
    111         -2.705787       -2.703636   1.000000   1.000000
    112         -2.680759       -2.679561   1.000000   1.000000
    113         -2.680759       -2.679561   1.000000   1.000000
    114         -2.650072       -2.647075   1.000000   1.000000
    115         -2.594221       -2.588948   1.000000   1.000000
    116         -2.576012       -2.573598   1.000000   1.000000
    117         -2.576012       -2.573598   1.000000   1.000000
    118         -2.554758       -2.551882   1.000000   1.000000
    119         -2.554758       -2.551882   1.000000   1.000000
    120         -2.545449       -2.543116   1.000000   1.000000
    121         -2.545205       -2.543105   1.000000   1.000000
    122         -2.519020       -2.515584   1.000000   1.000000
    123         -2.519020       -2.515583   1.000000   1.000000
    124         -2.511305       -2.510503   1.000000   1.000000
    125         -2.511305       -2.510503   1.000000   1.000000
    126         -2.509213       -2.506637   1.000000   1.000000
    127         -2.500620       -2.499730   1.000000   1.000000
    128         -2.492246       -2.488921   1.000000   1.000000
    129         -2.492246       -2.488921   1.000000   1.000000
    130         -2.488604       -2.487286   1.000000   1.000000
    131         -2.452659       -2.448622   1.000000   1.000000
    132         -2.452659       -2.448622   1.000000   1.000000
    133         -2.446357       -2.442748   1.000000   1.000000
    134         -2.434835       -2.429981   1.000000   1.000000
    135         -2.434835       -2.429981   1.000000   1.000000
    136         -2.401171       -2.398635   1.000000   1.000000
    137         -2.401171       -2.398635   1.000000   1.000000
    138         -2.387258       -2.384818   1.000000   1.000000
    139         -2.387258       -2.384818   1.000000   1.000000
    140         -2.386058       -2.382400   1.000000   1.000000
    141         -2.363015       -2.348489   1.000000   1.000000
    142         -2.363015       -2.348489   1.000000   1.000000
    143         -2.301239       -2.284096   1.000000   1.000000
    144         -2.103866       -2.097795   1.000000   1.000000
    145         -1.993080       -1.973884   1.000000   1.000000
    146         -1.993080       -1.973884   1.000000   1.000000
    147         -1.674804       -1.665268   1.000000   1.000000
    148         -1.407343       -1.404764   1.000000   1.000000
    149         -1.407343       -1.404764   1.000000   1.000000
    150         -1.399156       -1.390369   1.000000   1.000000
    151         -1.367408       -1.365354   1.000000   1.000000
    152         -1.367408       -1.365354   1.000000   1.000000
    153         -1.364889       -1.363501   1.000000   1.000000
    154         -1.340045       -1.334931   1.000000   1.000000
    155         -1.318273       -1.315326   1.000000   1.000000
    156         -1.318273       -1.315326   1.000000   1.000000
    157         -1.129811       -1.098343   1.000000   1.000000
    158         -1.129811       -1.098343   1.000000   1.000000
    159         -0.165130       -0.138754   1.000000   1.000000
    160          0.102822        0.105030   1.000000   1.000000
    161          0.102822        0.105030   1.000000   1.000000
    162          0.123976        0.127973   1.000000   1.000000
    163          0.165227        0.165956   1.000000   1.000000
    164          0.175255        0.176503   1.000000   1.000000
    165          0.175255        0.176503   1.000000   1.000000
    166          0.186814        0.188470   1.000000   1.000000
    167          0.186814        0.188471   1.000000   1.000000
    168          0.191863        0.194762   1.000000   1.000000
    169          0.195279        0.198167   1.000000   1.000000
    170          0.197052        0.199356   1.000000   1.000000
    171          0.217740        0.220104   1.000000   1.000000
    172          0.218078        0.220104   1.000000   1.000000
    173          0.218078        0.221639   1.000000   1.000000
    174          0.241200        0.245608   1.000000   1.000000
    175          0.241200        0.245608   1.000000   1.000000
    176          0.354878        0.361075   1.000000   1.000000
    177          0.354878        0.361075   1.000000   1.000000
    178          0.360732        0.365890   1.000000   1.000000
    179          0.401591        0.410280   1.000000   1.000000
    180          0.734450        0.737292   1.000000   1.000000
    181          0.734450        0.737292   1.000000   1.000000
    182          0.773849        0.783636   1.000000   1.000000
    183          0.809997        0.810208   1.000000   1.000000
    184          0.824919        0.826408   1.000000   1.000000
    185          0.827737        0.828690   1.000000   1.000000
    186          0.827737        0.828690   1.000000   1.000000
    187          0.837013        0.839185   1.000000   1.000000
    188          0.837013        0.839185   1.000000   1.000000
    189          0.848326        0.850546   1.000000   1.000000
    190          0.848326        0.850546   1.000000   1.000000
    191          0.855188        0.856770   1.000000   1.000000
    192          0.869906        0.872336   1.000000   1.000000
    193          0.869906        0.872336   1.000000   1.000000
    194          0.895803        0.901388   1.000000   1.000000
    195          0.898309        0.901388   1.000000   1.000000
    196          0.898309        0.903362   1.000000   1.000000
    197          0.902963        0.908765   1.000000   1.000000
    198          0.930169        0.935362   1.000000   1.000000
    199          0.930169        0.936231   1.000000   1.000000
    200          0.930785        0.936231   1.000000   1.000000
    201          1.178837        1.207375   1.000000   1.000000
    202          1.178837        1.207376   1.000000   1.000000
    203          1.626763        1.628796   1.000000   1.000000
    204          1.627620        1.628796   1.000000   1.000000
    205          1.627620        1.630700   1.000000   1.000000
    206          1.661167        1.662190   1.000000   1.000000
    207          1.661167        1.662190   1.000000   1.000000
    208          1.663060        1.663564   1.000000   1.000000
    209          1.669993        1.672210   1.000000   1.000000
    210          1.680069        1.681094   1.000000   1.000000
    211          1.680069        1.681094   1.000000   1.000000
    212          1.693815        1.694792   1.000000   1.000000
    213          1.699930        1.701958   1.000000   1.000000
    214          1.699930        1.701958   1.000000   1.000000
    215          1.733886        1.735849   1.000000   1.000000
    216          1.733886        1.735849   1.000000   1.000000
    217          1.813598        1.816092   1.000000   1.000000
    218          1.813598        1.816092   1.000000   1.000000
    219          1.823579        1.827081   1.000000   1.000000
    220          1.836814        1.840026   1.000000   1.000000
    221          1.838540        1.841275   1.000000   1.000000
    222          1.875961        1.880748   1.000000   1.000000
    223          1.875961        1.880748   1.000000   1.000000
    224          1.907588        1.908377   1.000000   1.000000
    225          1.924488        1.928069   1.000000   1.000000
    226          1.924488        1.928069   1.000000   1.000000
    227          2.026286        2.041079   1.000000   1.000000
    228          2.112630        2.115066   1.000000   1.000000
    229          2.112630        2.115066   1.000000   1.000000
    230          2.215227        2.216093   1.000000   1.000000
    231          2.215227        2.216093   1.000000   1.000000
    232          2.217340        2.222852   1.000000   1.000000
    233          2.231626        2.233849   1.000000   1.000000
    234          2.239419        2.240868   1.000000   1.000000
    235          2.239419        2.240868   1.000000   1.000000
    236          2.262400        2.264985   1.000000   1.000000
    237          2.270148        2.273929   1.000000   1.000000
    238          2.270148        2.273929   1.000000   1.000000
    239          2.277468        2.281877   1.000000   1.000000
    240          2.279631        2.282903   1.000000   1.000000
    241          2.291808        2.293827   1.000000   1.000000
    242          2.291808        2.293827   1.000000   1.000000
    243          2.299577        2.303988   1.000000   1.000000
    244          2.323840        2.325723   1.000000   1.000000
    245          2.331209        2.336090   1.000000   1.000000
    246          2.331209        2.336090   1.000000   1.000000
    247          2.347123        2.353264   1.000000   1.000000
    248          2.347123        2.353264   1.000000   1.000000
    249          2.348603        2.359524   1.000000   1.000000
    250          2.390940        2.394511   1.000000   1.000000
    251          2.390940        2.394511   1.000000   1.000000
    252          2.421561        2.433016   1.000000   1.000000
    253          2.421561        2.433016   1.000000   1.000000
    254          2.740997        2.750845   1.000000   1.000000
    255          2.775064        2.792816   1.000000   1.000000
    256          2.775064        2.792816   1.000000   1.000000
    257          3.245068        3.248130   1.000000   1.000000
    258          3.245068        3.248130   1.000000   1.000000
    259          3.308079        3.312045   1.000000   1.000000
    260          3.324313        3.328002   1.000000   1.000000
    261          3.347836        3.355803   1.000000   1.000000
    262          3.347836        3.355803   1.000000   1.000000
    263          3.499925        3.530317   1.000000   1.000000
    264          3.756525        3.761570   1.000000   1.000000
    265          3.756525        3.761570   1.000000   1.000000
    266          3.833166        3.834365   1.000000   1.000000
    267          3.833166        3.834365   1.000000   1.000000
    268          3.833495        3.837150   1.000000   1.000000
    269          3.848685        3.850628   1.000000   1.000000
    270          3.857677        3.861021   1.000000   1.000000
    271          3.857677        3.861021   1.000000   1.000000
    272          3.909068        3.917075   1.000000   1.000000
    273          3.950221        3.957505   1.000000   1.000000
    274          3.950221        3.957505   1.000000   1.000000
    275          4.099037        4.100845   1.000000   1.000000
    276          4.099037        4.100845   1.000000   1.000000
    277          4.231368        4.234976   1.000000   1.000000
    278          4.251712        4.253486   1.000000   1.000000
    279          4.254747        4.256420   1.000000   1.000000
    280          4.254747        4.256420   1.000000   1.000000
    281          4.273894        4.278464   1.000000   1.000000
    282          4.273894        4.278464   1.000000   1.000000
    283          4.276615        4.285166   1.000000   1.000000
    284          4.300102        4.304208   1.000000   1.000000
    285          4.326227        4.331295   1.000000   1.000000
    286          4.326227        4.331295   1.000000   1.000000
    287          4.334761        4.343085   1.000000   1.000000
    288          4.426989        4.427581   1.000000   1.000000
    289          4.446166        4.447155   1.000000   1.000000
    290          4.446166        4.447155   1.000000   1.000000
    291          4.449551        4.451085   1.000000   1.000000
    292          4.454787        4.456877   1.000000   1.000000
    293          4.454787        4.456877   1.000000   1.000000
    294          4.476982        4.477543   1.000000   1.000000
    295          4.476982        4.477543   1.000000   1.000000
    296          4.478195        4.478710   1.000000   1.000000
    297          4.484906        4.486656   1.000000   1.000000
    298          4.484906        4.486656   1.000000   1.000000
    299          4.491484        4.492131   1.000000   1.000000
    300          4.504408        4.505780   1.000000   1.000000
    301          4.504408        4.505780   1.000000   1.000000
    302          4.525780        4.528312   1.000000   1.000000
    303          4.549771        4.552054   1.000000   1.000000
    304          4.549771        4.552054   1.000000   1.000000
    305          4.565290        4.567064   1.000000   1.000000
    306          4.565290        4.567064   1.000000   1.000000
    307          4.568933        4.571110   1.000000   1.000000
    308          4.593592        4.595858   1.000000   1.000000
    309          4.595564        4.600817   1.000000   1.000000
    310          4.595564        4.600817   1.000000   1.000000
    311          4.651715        4.654100   1.000000   1.000000
    312          4.651715        4.654100   1.000000   1.000000
    313          4.663695        4.664020   1.000000   1.000000
    314          4.667338        4.670423   1.000000   1.000000
    315          4.682627        4.683483   1.000000   1.000000
    316          4.684189        4.685361   1.000000   1.000000
    317          4.684189        4.685361   1.000000   1.000000
    318          4.690819        4.691920   1.000000   1.000000
    319          4.690819        4.691920   1.000000   1.000000
    320          4.697372        4.698139   1.000000   1.000000
    321          4.697372        4.698139   1.000000   1.000000
    322          4.711929        4.712825   1.000000   1.000000
    323          4.716906        4.719721   1.000000   1.000000
    324          4.730909        4.737253   1.000000   1.000000
    325          4.737753        4.738981   1.000000   1.000000
    326          4.737753        4.738981   1.000000   1.000000
    327          4.743341        4.744488   1.000000   1.000000
    328          4.743341        4.744488   1.000000   1.000000
    329          4.745585        4.747850   1.000000   1.000000
    330          4.749635        4.752954   1.000000   1.000000
    331          4.749635        4.752954   1.000000   1.000000
    332          4.764175        4.766605   1.000000   1.000000
    333          4.777642        4.780722   1.000000   1.000000
    334          4.777642        4.780722   1.000000   1.000000
    335          4.787064        4.789229   1.000000   1.000000
    336          4.788595        4.791468   1.000000   1.000000
    337          4.788595        4.791468   1.000000   1.000000
    338          4.803993        4.812143   1.000000   1.000000
    339          4.810828        4.815154   1.000000   1.000000
    340          4.810829        4.815154   1.000000   1.000000
    341          4.847687        4.852415   1.000000   1.000000
    342          4.847687        4.852415   1.000000   1.000000
    343          4.854533        4.858487   1.000000   1.000000
    344          4.869891        4.874444   1.000000   1.000000
    345          4.869891        4.874444   1.000000   1.000000
    346          4.923635        4.930157   1.000000   1.000000
    347          4.923635        4.930157   1.000000   1.000000
    348          4.937764        4.941979   1.000000   1.000000
    349          4.949148        4.962840   1.000000   1.000000
    350          4.975268        4.977141   1.000000   1.000000
    351          4.975844        4.986262   1.000000   1.000000
    352          4.975844        4.986262   1.000000   1.000000
    353          4.991245        5.001252   1.000000   1.000000
    354          5.124651        5.139203   1.000000   1.000000
    355          5.124651        5.139203   1.000000   1.000000
    356          5.292987        5.300878   1.000000   1.000000
    357          5.292987        5.300878   1.000000   1.000000
    358          5.296514        5.302394   1.000000   1.000000
    359          5.464443        5.466701   1.000000   1.000000
    360          5.464443        5.466701   1.000000   1.000000
    361          5.513141        5.514483   1.000000   1.000000
    362          5.521094        5.522219   1.000000   1.000000
    363          5.523072        5.524605   1.000000   1.000000
    364          5.523072        5.524605   1.000000   1.000000
    365          5.590671        5.592742   1.000000   1.000000
    366          5.590878        5.592742   1.000000   1.000000
    367          5.590878        5.592925   1.000000   1.000000
    368          5.603508        5.608545   1.000000   1.000000
    369          5.636127        5.639677   1.000000   1.000000
    370          5.636127        5.639677   1.000000   1.000000
    371          5.652075        5.662007   1.000000   1.000000
    372          5.652075        5.662007   1.000000   1.000000
    373          5.662099        5.668374   1.000000   1.000000
    374          5.691006        5.699628   1.000000   1.000000
    375          5.691006        5.699628   1.000000   1.000000
    376          5.723484        5.727177   1.000000   1.000000
    377          5.798009        5.817392   1.000000   1.000000
    378          5.798009        5.817392   1.000000   1.000000
    379          5.859969        5.878952   1.000000   1.000000
    380          6.477502        6.483983   1.000000   1.000000
    381          6.619508        6.645415   1.000000   1.000000
    382          6.619508        6.645415   1.000000   1.000000
    383          6.901402        6.906638   1.000000   1.000000
    384          6.901402        6.906639   1.000000   1.000000
    385          6.946709        6.948039   1.000000   1.000000
    386          6.946709        6.948039   1.000000   1.000000
    387          6.947328        6.949530   1.000000   1.000000
    388          6.976030        6.977687   1.000000   1.000000
    389          6.980734        7.005082   1.000000   1.000000
    390          6.998683        7.005082   1.000000   1.000000
    391          6.998683        7.011483   1.000000   1.000000
    392          7.016563        7.032829   1.000000   1.000000
    393          7.043375        7.045614   1.000000   1.000000
    394          7.043375        7.045614   1.000000   1.000000
    395          7.069167        7.073819   1.000000   1.000000
    396          7.146441        7.148015   1.000000   1.000000
    397          7.146442        7.148015   1.000000   1.000000
    398          7.205472        7.207382   1.000000   1.000000
    399          7.205617        7.207382   1.000000   1.000000
    400          7.205617        7.208352   1.000000   1.000000
    401          7.223383        7.226887   1.000000   1.000000
    402          7.223383        7.226888   1.000000   1.000000
    403          7.243743        7.246470   1.000000   1.000000
    404          7.258329        7.263197   1.000000   1.000000
    405          7.258329        7.263197   1.000000   1.000000
    406          7.270439        7.275913   1.000000   1.000000
    407          7.270439        7.275913   1.000000   1.000000
    408          7.307282        7.315611   1.000000   1.000000
    409          7.311920        7.317348   1.000000   1.000000
    410          7.311921        7.317349   1.000000   1.000000
    411          7.334319        7.345323   1.000000   1.000000
    412          7.338229        7.349312   1.000000   1.000000
    413          7.338229        7.349312   1.000000   1.000000
    414          7.897517        7.909070   1.000000   1.000000
    415          7.897517        7.910838   1.000000   1.000000
    416          7.899995        7.910838   1.000000   1.000000
    417          8.119267        8.120188   1.000000   1.000000
    418          8.134358        8.137692   1.000000   1.000000
    419          8.134358        8.137692   1.000000   1.000000
    420          8.167520        8.169992   1.000000   1.000000
    421          8.190900        8.195173   1.000000   1.000000
    422          8.190900        8.195173   1.000000   1.000000
    423          8.245492        8.253907   1.000000   1.000000
    424          8.317683        8.328098   1.000000   1.000000
    425          8.317683        8.328098   1.000000   1.000000
    426          8.668783        8.779784   1.000000   1.000000
    427          9.413346        9.433444   1.000000   1.000000
    428          9.419685        9.433444   1.000000   1.000000
    429          9.419685        9.463707   1.000000   1.000000
    430         10.814110       11.136535   1.000000   1.000000
    431         12.368149       12.927937   1.000000   0.500003
    432         12.368149       12.927937   1.000000   0.499997
    433         13.631562       13.633070   0.000000   0.000000
    434         13.631562       13.633070   0.000000   0.000000
    435         13.658204       13.662811   0.000000   0.000000
    436         13.687228       13.696325   0.000000   0.000000
    437         13.687228       13.696325   0.000000   0.000000
    438         13.707227       13.711590   0.000000   0.000000
    439         14.225883       14.228366   0.000000   0.000000
    440         14.290713       14.293643   0.000000   0.000000
    441         14.290713       14.293643   0.000000   0.000000
    442         14.305847       14.309039   0.000000   0.000000
    443         14.305847       14.309039   0.000000   0.000000
    444         14.380093       14.383952   0.000000   0.000000
    445         14.437554       14.439642   0.000000   0.000000
    446         14.437554       14.439642   0.000000   0.000000
    447         14.507595       14.518543   0.000000   0.000000
    448         14.535531       14.547188   0.000000   0.000000
    449         14.535531       14.547188   0.000000   0.000000
    450         14.572127       14.579501   0.000000   0.000000
    451         15.204821       15.217814   0.000000   0.000000
    452         15.204821       15.217814   0.000000   0.000000
    453         15.215821       15.220984   0.000000   0.000000
    454         15.747068       15.749979   0.000000   0.000000
    455         15.805081       15.806451   0.000000   0.000000
    456         15.805081       15.806451   0.000000   0.000000
    457         15.820396       15.821429   0.000000   0.000000
    458         15.848847       15.851664   0.000000   0.000000
    459         15.848847       15.851664   0.000000   0.000000
    460         15.857171       15.859279   0.000000   0.000000
    461         15.857171       15.859279   0.000000   0.000000
    462         15.872941       15.874648   0.000000   0.000000
    463         15.879887       15.882381   0.000000   0.000000
    464         15.879887       15.882381   0.000000   0.000000
    465         15.906621       15.909713   0.000000   0.000000
    466         16.363835       16.365736   0.000000   0.000000
    467         16.514128       16.514845   0.000000   0.000000
    468         16.514128       16.514845   0.000000   0.000000
    469         16.538795       16.539411   0.000000   0.000000
    470         16.540534       16.541647   0.000000   0.000000
    471         16.540534       16.541647   0.000000   0.000000
    472         16.551764       16.552635   0.000000   0.000000
    473         16.555565       16.556906   0.000000   0.000000
    474         16.555565       16.556906   0.000000   0.000000
    475         16.566833       16.570541   0.000000   0.000000
    476         16.566833       16.570541   0.000000   0.000000
    477         16.597073       16.599309   0.000000   0.000000
    478         16.597073       16.599309   0.000000   0.000000
    479         16.603875       16.606081   0.000000   0.000000
    480         16.619355       16.620737   0.000000   0.000000
    481         16.638452       16.640594   0.000000   0.000000
    482         16.645110       16.647782   0.000000   0.000000
    483         16.645110       16.647782   0.000000   0.000000
    484         16.670206       16.673414   0.000000   0.000000
    485         16.670206       16.673414   0.000000   0.000000
    486         16.687987       16.692005   0.000000   0.000000
    487         16.708199       16.711516   0.000000   0.000000
    488         16.718798       16.722020   0.000000   0.000000
    489         16.718798       16.722020   0.000000   0.000000
    490         17.001531       17.003532   0.000000   0.000000
    491         17.002503       17.004324   0.000000   0.000000
    492         17.002503       17.004324   0.000000   0.000000
    493         17.007132       17.007720   0.000000   0.000000
    494         17.022636       17.023352   0.000000   0.000000
    495         17.030506       17.031363   0.000000   0.000000
    496         17.030506       17.031363   0.000000   0.000000
    497         17.043783       17.045095   0.000000   0.000000
    498         17.052991       17.053951   0.000000   0.000000
    499         17.052991       17.053951   0.000000   0.000000
    500         17.068339       17.069449   0.000000   0.000000
    501         17.068339       17.069449   0.000000   0.000000
    502         17.075338       17.076121   0.000000   0.000000
    503         17.114436       17.115789   0.000000   0.000000
    504         17.114436       17.115789   0.000000   0.000000
    505         17.149542       17.151049   0.000000   0.000000
    506         17.149542       17.151049   0.000000   0.000000
    507         17.153643       17.155204   0.000000   0.000000
    508         17.176481       17.179174   0.000000   0.000000
    509         17.176481       17.179174   0.000000   0.000000
    510         17.186704       17.190544   0.000000   0.000000
    511         17.196095       17.198049   0.000000   0.000000
    512         17.209188       17.214531   0.000000   0.000000
    513         17.209188       17.214531   0.000000   0.000000
    514         17.226259       17.228171   0.000000   0.000000
    515         17.226259       17.229759   0.000000   0.000000
    516         17.226598       17.229759   0.000000   0.000000
    517         17.239306       17.244229   0.000000   0.000000
    518         17.239306       17.244229   0.000000   0.000000
    519         17.247224       17.248793   0.000000   0.000000
    520         17.259428       17.261871   0.000000   0.000000
    521         17.259428       17.261871   0.000000   0.000000
    522         17.264582       17.266613   0.000000   0.000000
    523         17.264582       17.266613   0.000000   0.000000
    524         17.303622       17.305330   0.000000   0.000000
    525         17.306174       17.310121   0.000000   0.000000
    526         17.354459       17.358887   0.000000   0.000000
    527         17.372992       17.375093   0.000000   0.000000
    528         17.372992       17.375093   0.000000   0.000000
    529         17.430650       17.434099   0.000000   0.000000
    530         17.430650       17.434099   0.000000   0.000000
    531         17.438426       17.441383   0.000000   0.000000
    532         17.547048       17.548903   0.000000   0.000000
    533         17.632956       17.634590   0.000000   0.000000
    534         17.632956       17.634590   0.000000   0.000000
    535         17.643651       17.645228   0.000000   0.000000
    536         17.674658       17.676101   0.000000   0.000000
    537         17.674658       17.676101   0.000000   0.000000
    538         17.675956       17.677582   0.000000   0.000000
    539         17.675956       17.677582   0.000000   0.000000
    540         17.678851       17.680526   0.000000   0.000000
    541         17.701302       17.703221   0.000000   0.000000
    542         17.707689       17.710067   0.000000   0.000000
    543         17.707689       17.710067   0.000000   0.000000
    544         17.721058       17.722789   0.000000   0.000000
    545         17.721058       17.722789   0.000000   0.000000
    546         17.733012       17.734577   0.000000   0.000000
    547         17.746206       17.747764   0.000000   0.000000
    548         17.746206       17.747764   0.000000   0.000000
    549         17.751117       17.754209   0.000000   0.000000
    550         17.767152       17.768959   0.000000   0.000000
    551         17.767152       17.768959   0.000000   0.000000
    552         17.788934       17.792446   0.000000   0.000000
    553         17.790463       17.793883   0.000000   0.000000
    554         17.790463       17.793883   0.000000   0.000000
    555         17.797325       17.801576   0.000000   0.000000
    556         17.797325       17.801576   0.000000   0.000000
    557         17.803896       17.806290   0.000000   0.000000
    558         17.820602       17.830537   0.000000   0.000000
    559         17.820602       17.830537   0.000000   0.000000
    560         17.846209       17.850234   0.000000   0.000000
    561         17.846209       17.850234   0.000000   0.000000
    562         17.861810       17.867653   0.000000   0.000000
    563         17.862225       17.869188   0.000000   0.000000
    564         17.898266       17.907061   0.000000   0.000000
    565         17.898266       17.907061   0.000000   0.000000
    566         17.905145       17.907875   0.000000   0.000000
    567         17.940410       17.944046   0.000000   0.000000
    568         17.944904       17.947172   0.000000   0.000000
    569         17.966447       17.968204   0.000000   0.000000
    570         17.966447       17.971712   0.000000   0.000000
    571         17.966863       17.971712   0.000000   0.000000
    572         18.002262       18.008426   0.000000   0.000000
    573         18.002262       18.008426   0.000000   0.000000
    574         18.027832       18.031784   0.000000   0.000000
    575         18.027832       18.031784   0.000000   0.000000
    576         18.051855       18.054752   0.000000   0.000000
    577         18.081302       18.085099   0.000000   0.000000
    578         18.081302       18.085099   0.000000   0.000000
    579         18.084405       18.094746   0.000000   0.000000
    580         18.101252       18.103154   0.000000   0.000000
    581         18.101252       18.103154   0.000000   0.000000
    582         18.117286       18.119610   0.000000   0.000000
    583         18.164537       18.171705   0.000000   0.000000
    584         18.164537       18.171705   0.000000   0.000000
    585         18.172473       18.182457   0.000000   0.000000
    586         18.322014       18.325742   0.000000   0.000000
    587         18.343121       18.350396   0.000000   0.000000
    588         18.343121       18.350396   0.000000   0.000000
    589         18.386944       18.396723   0.000000   0.000000
    590         18.386944       18.396723   0.000000   0.000000
    591         18.452556       18.454043   0.000000   0.000000
    592         18.452556       18.454043   0.000000   0.000000
    593         18.469225       18.470329   0.000000   0.000000
    594         18.530118       18.533199   0.000000   0.000000
    595         18.530118       18.534681   0.000000   0.000000
    596         18.531526       18.534681   0.000000   0.000000
    597         18.568955       18.574160   0.000000   0.000000
    598         18.568955       18.574160   0.000000   0.000000
    599         18.577174       18.582777   0.000000   0.000000
    600         18.683487       18.687510   0.000000   0.000000
    601         18.701865       18.707041   0.000000   0.000000
    602         18.701865       18.707041   0.000000   0.000000
    603         18.799769       18.808735   0.000000   0.000000
    604         18.825163       18.829263   0.000000   0.000000
    605         18.825163       18.829263   0.000000   0.000000
    606         18.853845       18.855978   0.000000   0.000000
    607         18.853845       18.855978   0.000000   0.000000
    608         18.854898       18.859338   0.000000   0.000000
    609         19.088271       19.094141   0.000000   0.000000
    610         19.117550       19.134213   0.000000   0.000000
    611         19.117550       19.134213   0.000000   0.000000
    612         19.278116       19.306221   0.000000   0.000000
    613         19.381637       19.386628   0.000000   0.000000
    614         19.381637       19.386628   0.000000   0.000000
    615         19.382764       19.389502   0.000000   0.000000
    616         19.443792       19.444566   0.000000   0.000000
    617         19.445965       19.449157   0.000000   0.000000
    618         19.445965       19.449157   0.000000   0.000000
    619         19.459581       19.460549   0.000000   0.000000
    620         19.459581       19.460549   0.000000   0.000000
    621         19.468436       19.471604   0.000000   0.000000
    622         19.468436       19.471604   0.000000   0.000000
    623         19.485965       19.488630   0.000000   0.000000
    624         19.490485       19.493080   0.000000   0.000000
    625         19.494878       19.496139   0.000000   0.000000
    626         19.494878       19.496139   0.000000   0.000000
    627         19.518251       19.520522   0.000000   0.000000
    628         19.579430       19.584085   0.000000   0.000000
    629         19.604351       19.610773   0.000000   0.000000
    630         19.604352       19.610773   0.000000   0.000000
    631         19.625335       19.635643   0.000000   0.000000
    632         19.673200       19.691108   0.000000   0.000000
    633         19.686019       19.709354   0.000000   0.000000
    634         19.686019       19.709354   0.000000   0.000000
    635         19.731697       19.742223   0.000000   0.000000
    636         19.731697       19.742223   0.000000   0.000000
    637         19.813045       19.820749   0.000000   0.000000
    638         19.834570       19.847918   0.000000   0.000000
    639         19.834571       19.847918   0.000000   0.000000
    640         20.098891       20.100027   0.000000   0.000000
    641         20.112291       20.113655   0.000000   0.000000
    642         20.112292       20.113656   0.000000   0.000000
    643         20.123590       20.124722   0.000000   0.000000
    644         20.139148       20.140903   0.000000   0.000000
    645         20.161789       20.163801   0.000000   0.000000
    646         20.161811       20.163833   0.000000   0.000000
    647         20.174617       20.176637   0.000000   0.000000
    648         20.177210       20.176710   0.000000   0.000000
