   2   2   0   0
  0.5639752E+01  0.2517300E-09  0.2517300E-09  0.2517300E-09  0.5000000E-15
  1.000000000000000E-004
  CAR 
 unknown system                          
     28.66414456    -13.74095075  301     10.57185605      1.00000000
    -13.741  0.0000E+00  0.0000E+00
    -13.600  0.0000E+00  0.0000E+00
    -13.458  0.0000E+00  0.0000E+00
    -13.317  0.0000E+00  0.0000E+00
    -13.176  0.0000E+00  0.0000E+00
    -13.034  0.0000E+00  0.0000E+00
    -12.893  0.1937E-18  0.2737E-19
    -12.751  0.8588E-15  0.1214E-15
    -12.610  0.9083E-12  0.1285E-12
    -12.469  0.3781E-09  0.5357E-10
    -12.327  0.6264E-07  0.8908E-08
    -12.186  0.4199E-05  0.6024E-06
    -12.045  0.1170E-03  0.1715E-04
    -11.903  0.1422E-02  0.2181E-03
    -11.762  0.8100E-02  0.1363E-02
    -11.621  0.2421E-01  0.4784E-02
    -11.479  0.4484E-01  0.1112E-01
    -11.338  0.6234E-01  0.1993E-01
    -11.197  0.7588E-01  0.3066E-01
    -11.055  0.8756E-01  0.4304E-01
    -10.914  0.9621E-01  0.5664E-01
    -10.773  0.1075E+00  0.7183E-01
    -10.631  0.1143E+00  0.8799E-01
    -10.490  0.1203E+00  0.1050E+00
    -10.349  0.1334E+00  0.1238E+00
    -10.207  0.1370E+00  0.1432E+00
    -10.066  0.1381E+00  0.1627E+00
     -9.924  0.1549E+00  0.1846E+00
     -9.783  0.1616E+00  0.2075E+00
     -9.642  0.1557E+00  0.2295E+00
     -9.500  0.1648E+00  0.2528E+00
     -9.359  0.1847E+00  0.2789E+00
     -9.218  0.1842E+00  0.3049E+00
     -9.076  0.1778E+00  0.3301E+00
     -8.935  0.1847E+00  0.3562E+00
     -8.794  0.2061E+00  0.3853E+00
     -8.652  0.2169E+00  0.4160E+00
     -8.511  0.1992E+00  0.4441E+00
     -8.370  0.1977E+00  0.4721E+00
     -8.228  0.2256E+00  0.5040E+00
     -8.087  0.2394E+00  0.5378E+00
     -7.946  0.2363E+00  0.5712E+00
     -7.804  0.2238E+00  0.6028E+00
     -7.663  0.2254E+00  0.6347E+00
     -7.522  0.2540E+00  0.6706E+00
     -7.380  0.2700E+00  0.7088E+00
     -7.239  0.2655E+00  0.7463E+00
     -7.097  0.2585E+00  0.7828E+00
     -6.956  0.2508E+00  0.8183E+00
     -6.815  0.2688E+00  0.8563E+00
     -6.673  0.3145E+00  0.9007E+00
     -6.532  0.3131E+00  0.9450E+00
     -6.391  0.2906E+00  0.9860E+00
     -6.249  0.2930E+00  0.1027E+01
     -6.108  0.3163E+00  0.1072E+01
     -5.967  0.3657E+00  0.1124E+01
     -5.825  0.3937E+00  0.1179E+01
     -5.684  0.3769E+00  0.1233E+01
     -5.543  0.3485E+00  0.1282E+01
     -5.401  0.3243E+00  0.1328E+01
     -5.260  0.3488E+00  0.1377E+01
     -5.119  0.3726E+00  0.1430E+01
     -4.977  0.3331E+00  0.1477E+01
     -4.836  0.2981E+00  0.1519E+01
     -4.695  0.2838E+00  0.1559E+01
     -4.553  0.2901E+00  0.1600E+01
     -4.412  0.3056E+00  0.1643E+01
     -4.270  0.2788E+00  0.1683E+01
     -4.129  0.2555E+00  0.1719E+01
     -3.988  0.2471E+00  0.1754E+01
     -3.846  0.2355E+00  0.1787E+01
     -3.705  0.2373E+00  0.1821E+01
     -3.564  0.2419E+00  0.1855E+01
     -3.422  0.2574E+00  0.1891E+01
     -3.281  0.2715E+00  0.1930E+01
     -3.140  0.2652E+00  0.1967E+01
     -2.998  0.2794E+00  0.2007E+01
     -2.857  0.2856E+00  0.2047E+01
     -2.716  0.2633E+00  0.2084E+01
     -2.574  0.2681E+00  0.2122E+01
     -2.433  0.2768E+00  0.2161E+01
     -2.292  0.2803E+00  0.2201E+01
     -2.150  0.3405E+00  0.2249E+01
     -2.009  0.4277E+00  0.2309E+01
     -1.868  0.4882E+00  0.2378E+01
     -1.726  0.5388E+00  0.2455E+01
     -1.585  0.5773E+00  0.2536E+01
     -1.443  0.5788E+00  0.2618E+01
     -1.302  0.4994E+00  0.2689E+01
     -1.161  0.4193E+00  0.2748E+01
     -1.019  0.3870E+00  0.2803E+01
     -0.878  0.3776E+00  0.2856E+01
     -0.737  0.3739E+00  0.2909E+01
     -0.595  0.3454E+00  0.2958E+01
     -0.454  0.3115E+00  0.3002E+01
     -0.313  0.2903E+00  0.3043E+01
     -0.171  0.2838E+00  0.3083E+01
     -0.030  0.3030E+00  0.3126E+01
      0.111  0.2909E+00  0.3167E+01
      0.253  0.2494E+00  0.3202E+01
      0.394  0.2686E+00  0.3240E+01
      0.535  0.3453E+00  0.3289E+01
      0.677  0.3909E+00  0.3344E+01
      0.818  0.4122E+00  0.3402E+01
      0.959  0.4465E+00  0.3465E+01
      1.101  0.4832E+00  0.3534E+01
      1.242  0.5111E+00  0.3606E+01
      1.384  0.5264E+00  0.3680E+01
      1.525  0.5211E+00  0.3754E+01
      1.666  0.4946E+00  0.3824E+01
      1.808  0.5026E+00  0.3895E+01
      1.949  0.5192E+00  0.3968E+01
      2.090  0.4989E+00  0.4039E+01
      2.232  0.5258E+00  0.4113E+01
      2.373  0.5586E+00  0.4192E+01
      2.514  0.5571E+00  0.4271E+01
      2.656  0.5448E+00  0.4348E+01
      2.797  0.5673E+00  0.4428E+01
      2.938  0.6054E+00  0.4514E+01
      3.080  0.6115E+00  0.4600E+01
      3.221  0.6424E+00  0.4691E+01
      3.362  0.6969E+00  0.4789E+01
      3.504  0.7438E+00  0.4895E+01
      3.645  0.7706E+00  0.5003E+01
      3.786  0.7520E+00  0.5110E+01
      3.928  0.7823E+00  0.5220E+01
      4.069  0.8064E+00  0.5334E+01
      4.211  0.7401E+00  0.5439E+01
      4.352  0.7359E+00  0.5543E+01
      4.493  0.7842E+00  0.5654E+01
      4.635  0.7320E+00  0.5757E+01
      4.776  0.6894E+00  0.5855E+01
      4.917  0.7348E+00  0.5959E+01
      5.059  0.7549E+00  0.6065E+01
      5.200  0.7012E+00  0.6164E+01
      5.341  0.6634E+00  0.6258E+01
      5.483  0.6842E+00  0.6355E+01
      5.624  0.7236E+00  0.6457E+01
      5.765  0.6911E+00  0.6555E+01
      5.907  0.6496E+00  0.6647E+01
      6.048  0.6453E+00  0.6738E+01
      6.189  0.6525E+00  0.6830E+01
      6.331  0.6617E+00  0.6924E+01
      6.472  0.6687E+00  0.7018E+01
      6.613  0.6381E+00  0.7108E+01
      6.755  0.6004E+00  0.7193E+01
      6.896  0.6081E+00  0.7279E+01
      7.038  0.5775E+00  0.7361E+01
      7.179  0.5174E+00  0.7434E+01
      7.320  0.4762E+00  0.7501E+01
      7.462  0.4040E+00  0.7558E+01
      7.603  0.3479E+00  0.7608E+01
      7.744  0.3325E+00  0.7654E+01
      7.886  0.2999E+00  0.7697E+01
      8.027  0.2886E+00  0.7738E+01
      8.168  0.2727E+00  0.7776E+01
      8.310  0.2295E+00  0.7809E+01
      8.451  0.2085E+00  0.7838E+01
      8.592  0.1940E+00  0.7866E+01
      8.734  0.1735E+00  0.7890E+01
      8.875  0.1676E+00  0.7914E+01
      9.016  0.1460E+00  0.7934E+01
      9.158  0.1194E+00  0.7951E+01
      9.299  0.1066E+00  0.7966E+01
      9.441  0.8992E-01  0.7979E+01
      9.582  0.7112E-01  0.7989E+01
      9.723  0.4696E-01  0.7996E+01
      9.865  0.2217E-01  0.7999E+01
     10.006  0.6587E-02  0.8000E+01
     10.147  0.1025E-02  0.8000E+01
     10.289  0.7373E-04  0.8000E+01
     10.430  0.2325E-05  0.8000E+01
     10.571  0.3121E-07  0.8000E+01
     10.713  0.1732E-09  0.8000E+01
     10.854  0.3855E-12  0.8000E+01
     10.995  0.3345E-15  0.8000E+01
     11.137  0.0000E+00  0.8000E+01
     11.278  0.0000E+00  0.8000E+01
     11.419  0.0000E+00  0.8000E+01
     11.561  0.0000E+00  0.8000E+01
     11.702  0.0000E+00  0.8000E+01
     11.843  0.0000E+00  0.8000E+01
     11.985  0.0000E+00  0.8000E+01
     12.126  0.0000E+00  0.8000E+01
     12.268  0.0000E+00  0.8000E+01
     12.409  0.0000E+00  0.8000E+01
     12.550  0.0000E+00  0.8000E+01
     12.692  0.0000E+00  0.8000E+01
     12.833  0.7359E-17  0.8000E+01
     12.974  0.1560E-13  0.8000E+01
     13.116  0.1220E-10  0.8000E+01
     13.257  0.3637E-08  0.8000E+01
     13.398  0.4203E-06  0.8000E+01
     13.540  0.1943E-04  0.8000E+01
     13.681  0.3813E-03  0.8000E+01
     13.822  0.3500E-02  0.8001E+01
     13.964  0.1689E-01  0.8003E+01
     14.105  0.4730E-01  0.8010E+01
     14.246  0.8495E-01  0.8022E+01
     14.388  0.1160E+00  0.8038E+01
     14.529  0.1484E+00  0.8059E+01
     14.670  0.1946E+00  0.8087E+01
     14.812  0.2328E+00  0.8119E+01
     14.953  0.2566E+00  0.8156E+01
     15.095  0.3050E+00  0.8199E+01
     15.236  0.3456E+00  0.8248E+01
     15.377  0.3555E+00  0.8298E+01
     15.519  0.3829E+00  0.8352E+01
     15.660  0.4479E+00  0.8415E+01
     15.801  0.4923E+00  0.8485E+01
     15.943  0.4960E+00  0.8555E+01
     16.084  0.4887E+00  0.8624E+01
     16.225  0.5047E+00  0.8695E+01
     16.367  0.5305E+00  0.8770E+01
     16.508  0.5457E+00  0.8848E+01
     16.649  0.5771E+00  0.8929E+01
     16.791  0.6236E+00  0.9017E+01
     16.932  0.6537E+00  0.9110E+01
     17.073  0.6676E+00  0.9204E+01
     17.215  0.7125E+00  0.9305E+01
     17.356  0.7423E+00  0.9410E+01
     17.497  0.7205E+00  0.9512E+01
     17.639  0.7466E+00  0.9617E+01
     17.780  0.8579E+00  0.9738E+01
     17.922  0.9443E+00  0.9872E+01
     18.063  0.9829E+00  0.1001E+02
     18.204  0.1036E+01  0.1016E+02
     18.346  0.1066E+01  0.1031E+02
     18.487  0.1066E+01  0.1046E+02
     18.628  0.1024E+01  0.1060E+02
     18.770  0.9482E+00  0.1074E+02
     18.911  0.8607E+00  0.1086E+02
     19.052  0.8418E+00  0.1098E+02
     19.194  0.8745E+00  0.1110E+02
     19.335  0.8644E+00  0.1122E+02
     19.476  0.8130E+00  0.1134E+02
     19.618  0.7948E+00  0.1145E+02
     19.759  0.8302E+00  0.1157E+02
     19.900  0.8779E+00  0.1169E+02
     20.042  0.9227E+00  0.1182E+02
     20.183  0.8553E+00  0.1194E+02
     20.324  0.6634E+00  0.1204E+02
     20.466  0.5141E+00  0.1211E+02
     20.607  0.5029E+00  0.1218E+02
     20.749  0.5176E+00  0.1225E+02
     20.890  0.5947E+00  0.1234E+02
     21.031  0.7854E+00  0.1245E+02
     21.173  0.8124E+00  0.1256E+02
     21.314  0.6154E+00  0.1265E+02
     21.455  0.4830E+00  0.1272E+02
     21.597  0.4925E+00  0.1279E+02
     21.738  0.5107E+00  0.1286E+02
     21.879  0.5815E+00  0.1294E+02
     22.021  0.7694E+00  0.1305E+02
     22.162  0.8875E+00  0.1318E+02
     22.303  0.7878E+00  0.1329E+02
     22.445  0.6639E+00  0.1338E+02
     22.586  0.5898E+00  0.1347E+02
     22.727  0.5865E+00  0.1355E+02
     22.869  0.7186E+00  0.1365E+02
     23.010  0.8575E+00  0.1377E+02
     23.151  0.9247E+00  0.1390E+02
     23.293  0.8839E+00  0.1403E+02
     23.434  0.8316E+00  0.1415E+02
     23.576  0.8500E+00  0.1427E+02
     23.717  0.8611E+00  0.1439E+02
     23.858  0.8267E+00  0.1450E+02
     24.000  0.7879E+00  0.1462E+02
     24.141  0.8469E+00  0.1474E+02
     24.282  0.9797E+00  0.1487E+02
     24.424  0.1004E+01  0.1502E+02
     24.565  0.8465E+00  0.1514E+02
     24.706  0.6886E+00  0.1523E+02
     24.848  0.6697E+00  0.1533E+02
     24.989  0.7194E+00  0.1543E+02
     25.130  0.7400E+00  0.1553E+02
     25.272  0.6847E+00  0.1563E+02
     25.413  0.5876E+00  0.1571E+02
     25.554  0.4726E+00  0.1578E+02
     25.696  0.3648E+00  0.1583E+02
     25.837  0.2942E+00  0.1587E+02
     25.978  0.2424E+00  0.1591E+02
     26.120  0.1861E+00  0.1593E+02
     26.261  0.1481E+00  0.1595E+02
     26.403  0.1321E+00  0.1597E+02
     26.544  0.1020E+00  0.1599E+02
     26.685  0.5827E-01  0.1600E+02
     26.827  0.2247E-01  0.1600E+02
     26.968  0.4983E-02  0.1600E+02
     27.109  0.5335E-03  0.1600E+02
     27.251  0.2456E-04  0.1600E+02
     27.392  0.4574E-06  0.1600E+02
     27.533  0.3339E-08  0.1600E+02
     27.675  0.9379E-11  0.1600E+02
     27.816  0.1002E-13  0.1600E+02
     27.957  0.4648E-17  0.1600E+02
     28.099  0.0000E+00  0.1600E+02
     28.240  0.0000E+00  0.1600E+02
     28.381  0.0000E+00  0.1600E+02
     28.523  0.0000E+00  0.1600E+02
     28.664  0.0000E+00  0.1600E+02
