       N       E                     dE             d eps       ncg     rms          rms(c)
DAV:   1     0.295980049374E+04    0.29598E+04   -0.45420E+05  2160   0.153E+03
DAV:   2    -0.174532360300E+04   -0.47051E+04   -0.45098E+04  2624   0.298E+02
DAV:   3    -0.199664929680E+04   -0.25133E+03   -0.24889E+03  2592   0.668E+01
DAV:   4    -0.200323554545E+04   -0.65862E+01   -0.65681E+01  2656   0.105E+01
DAV:   5    -0.200340437253E+04   -0.16883E+00   -0.16851E+00  2592   0.169E+00    0.579E+01
DAV:   6    -0.195164796219E+04    0.51756E+02   -0.40585E+01  2488   0.843E+00    0.344E+01
DAV:   7    -0.193453974455E+04    0.17108E+02   -0.47555E+01  2496   0.914E+00    0.813E+00
DAV:   8    -0.193484210051E+04   -0.30236E+00   -0.21354E+00  2592   0.198E+00    0.421E+00
DAV:   9    -0.193485004010E+04   -0.79396E-02   -0.26877E-01  2568   0.895E-01    0.106E+00
DAV:  10    -0.193485383567E+04   -0.37956E-02   -0.59133E-02  2552   0.373E-01    0.432E-01
DAV:  11    -0.193485382001E+04    0.15666E-04   -0.62533E-03  2608   0.126E-01    0.148E-01
DAV:  12    -0.193485434611E+04   -0.52610E-03   -0.14427E-03  2592   0.651E-02    0.743E-02
DAV:  13    -0.193485460637E+04   -0.26026E-03   -0.33378E-04  2608   0.317E-02    0.386E-02
DAV:  14    -0.193485469884E+04   -0.92470E-04   -0.78530E-05  2600   0.159E-02    0.174E-02
DAV:  15    -0.193485471026E+04   -0.11426E-04   -0.14937E-05  2472   0.681E-03    0.718E-03
DAV:  16    -0.193485471051E+04   -0.24495E-06   -0.28193E-06  1928   0.288E-03
   1 F= -.19348547E+04 E0= -.19348547E+04  d E =-.128295E-26  mag=     2.0000
