
     Program PWSCF v.7.4.1 starts on 27Jul2026 at 20:32:23 

     This program is part of the open-source Quantum ESPRESSO suite
     for quantum simulation of materials; please cite
         "P. Giannozzi et al., J. Phys.:Condens. Matter 21 395502 (2009);
         "P. Giannozzi et al., J. Phys.:Condens. Matter 29 465901 (2017);
         "P. Giannozzi et al., J. Chem. Phys. 152 154105 (2020);
          URL http://www.quantum-espresso.org", 
     in publications or presentations arising from this work. More details at
     http://www.quantum-espresso.org/quote

     Parallel version (MPI), running on    28 processors

     MPI processes distributed on     1 nodes
     120078 MiB available memory on the printing compute node when the environment starts
 
     Reading input from diamond_scf.in

     Current dimensions of program PWSCF are:
     Max number of different atomic species (ntypx) = 10
     Max number of k-points (npk) =  40000
     Max angular momentum in pseudopotentials (lmaxx) =  4
     file C.pbe-n-kjpaw_psl.1.0.0.UPF: wavefunction(s)  2S 2P renormalized

     IMPORTANT: XC functional enforced from input :
     Exchange-correlation= HSE
                           (   1   4  12   4   0   0   0)
     EXX-fraction              =        0.25
     Any further DFT definition will be discarded
     Please, verify this is what you really want

     EXX fraction changed:   0.25
     EXX Screening parameter changed:    0.2000000
     Message from routine setup :
     BEWARE: nonlinear core correction is not consistent with hybrid XC
 
     R & G space division:  proc/nbgrp/npool/nimage =      28
     WARNING: too many processors for an effective parallelization!
     wavefunctions fft division:  task group distribution
                                  #TG    x Z-proc =       7      4
     Subspace diagonalization in iterative solution of the eigenvalue problem:
     a serial algorithm will be used

     EXX: q-point mesh:     1    1    1
     EXX: setup a grid of 512 q-points centered on each k-point
     (set verbosity='high' to see the list)
 
     Parallelization info
     --------------------
     sticks:   dense  smooth     PW     G-vecs:    dense   smooth      PW
     Min          10      10      3                  110      110      23
     Max          11      11      4                  113      113      27
     Sum         283     283    109                 3119     3119     701
 
     Using Pencil Decomposition
 


     bravais-lattice index     =            0
     lattice parameter (alat)  =       4.7733  a.u.
     unit-cell volume          =      76.9035 (a.u.)^3
     number of atoms/cell      =            2
     number of atomic types    =            1
     number of electrons       =         8.00
     number of Kohn-Sham states=            8
     kinetic-energy cutoff     =      45.0000  Ry
     charge density cutoff     =     180.0000  Ry
     cutoff for Fock operator  =     180.0000  Ry
     scf convergence threshold =      1.0E-08
     mixing beta               =       0.7000
     number of iterations used =            8  plain     mixing
     Exchange-correlation= HSE
                           (   1   4  12   4   0   0   0)
     EXX-fraction              =        0.25

     celldm(1)=   4.773317  celldm(2)=   0.000000  celldm(3)=   0.000000
     celldm(4)=   0.000000  celldm(5)=   0.000000  celldm(6)=   0.000000

     crystal axes: (cart. coord. in units of alat)
               a(1) = (  -0.707107   0.000000   0.707107 )  
               a(2) = (   0.000000   0.707107   0.707107 )  
               a(3) = (  -0.707107   0.707107   0.000000 )  

     reciprocal axes: (cart. coord. in units 2 pi/alat)
               b(1) = ( -0.707107 -0.707107  0.707107 )  
               b(2) = (  0.707107  0.707107  0.707107 )  
               b(3) = ( -0.707107  0.707107 -0.707107 )  


     PseudoPot. # 1 for C  read from file:
     ../pseudos/C.pbe-n-kjpaw_psl.1.0.0.UPF
     MD5 check sum: 5f16ad9a65e90284d1d834d4ab3b0f7d
     Pseudo is Projector augmented-wave + core cor, Zval =  4.0
     Generated using &quot;atomic&quot; code by A. Dal Corso  v.6.3
     Shape of augmentation charge: PSQ
     Using radial grid of 1073 points,  4 beta functions with: 
                l(1) =   0
                l(2) =   0
                l(3) =   1
                l(4) =   1
     Q(r) pseudized with 0 coefficients 


     atomic species   valence    mass     pseudopotential
     C                 4.00    12.01070     C ( 1.00)

     No symmetry found



   Cartesian axes

     site n.     atom                  positions (alat units)
         1        C      tau(   1) = (   0.0000000   0.0000000   0.0000000  )
         2        C      tau(   2) = (  -0.3541036   0.3541036   0.3541036  )

     number of k points=   512

     Number of k-points >= 100: set verbosity='high' to print them.

     Dense  grid:     3119 G-vectors     FFT dimensions: (  24,  24,  24)

     Estimated max dynamical RAM per process >      16.50 MB

     Estimated total dynamical RAM >     461.87 MB
     EXX: ACE will be initialized later

     Check: negative core charge=   -0.000077

     Initial potential from superposition of free atoms

     starting charge       7.9999, renormalised to       8.0000
     Starting wfcs are random

     total cpu time spent up to now is        0.5 secs

     per-process dynamical memory:    25.4 Mb

     Self-consistent Calculation

     iteration #  1     ecut=    45.00 Ry     beta= 0.70
     Davidson diagonalization with overlap
     ethr =  1.00E-02,  avg # of iterations =  7.4

     total cpu time spent up to now is        3.2 secs

     total energy              =     -36.85859333 Ry
     estimated scf accuracy    <       0.11546876 Ry

     iteration #  2     ecut=    45.00 Ry     beta= 0.70
     Davidson diagonalization with overlap
     ethr =  1.44E-03,  avg # of iterations =  1.0

     total cpu time spent up to now is        4.0 secs

     total energy              =     -36.86670967 Ry
     estimated scf accuracy    <       0.00247569 Ry

     iteration #  3     ecut=    45.00 Ry     beta= 0.70
     Davidson diagonalization with overlap
     ethr =  3.09E-05,  avg # of iterations =  2.3

     total cpu time spent up to now is        5.3 secs

     total energy              =     -36.86712571 Ry
     estimated scf accuracy    <       0.00006659 Ry

     iteration #  4     ecut=    45.00 Ry     beta= 0.70
     Davidson diagonalization with overlap
     ethr =  8.32E-07,  avg # of iterations =  2.3

     total cpu time spent up to now is        6.4 secs

     total energy              =     -36.86713154 Ry
     estimated scf accuracy    <       0.00000964 Ry

     iteration #  5     ecut=    45.00 Ry     beta= 0.70
     Davidson diagonalization with overlap
     ethr =  1.21E-07,  avg # of iterations =  1.0

     total cpu time spent up to now is        7.3 secs

     total energy              =     -36.86713353 Ry
     estimated scf accuracy    <       0.00000017 Ry

     iteration #  6     ecut=    45.00 Ry     beta= 0.70
     Davidson diagonalization with overlap
     ethr =  2.14E-09,  avg # of iterations =  2.0

     total cpu time spent up to now is        8.4 secs

     End of self-consistent calculation

     Number of k-points >= 100: set verbosity='high' to print the bands.

     highest occupied, lowest unoccupied level (ev):    13.31257187   17.40870396

!    total energy              =     -36.86713357 Ry
     estimated scf accuracy    <          7.5E-09 Ry

     convergence has been achieved in   6 iterations

     Using ACE for calculation of exact exchange

     EXX grid:     3119 G-vectors     FFT dimensions: (  24,  24,  24)
     ACE projected onto     8 (nbndproj) and applied to     8 (nbnd) bands

     EXX: now go back to refine exchange calculation

     total cpu time spent up to now is       15.2 secs

     per-process dynamical memory:    70.9 Mb

     Self-consistent Calculation

     iteration #  1     ecut=    45.00 Ry     beta= 0.70
     Davidson diagonalization with overlap
     ethr =  2.14E-09,  avg # of iterations =  6.1

     total cpu time spent up to now is       17.7 secs

     total energy              =     -33.64761861 Ry
     estimated scf accuracy    <       0.00051701 Ry

     iteration #  2     ecut=    45.00 Ry     beta= 0.70
     Davidson diagonalization with overlap
     ethr =  6.46E-06,  avg # of iterations =  3.0

     total cpu time spent up to now is       19.3 secs

     total energy              =     -33.53515938 Ry
     estimated scf accuracy    <       0.00052221 Ry

     iteration #  3     ecut=    45.00 Ry     beta= 0.70
     Davidson diagonalization with overlap
     ethr =  6.46E-06,  avg # of iterations =  1.0

     total cpu time spent up to now is       20.2 secs

     total energy              =     -33.53498919 Ry
     estimated scf accuracy    <       0.00031894 Ry

     iteration #  4     ecut=    45.00 Ry     beta= 0.70
     Davidson diagonalization with overlap
     ethr =  3.99E-06,  avg # of iterations =  1.0

     total cpu time spent up to now is       21.1 secs

     total energy              =     -33.53498738 Ry
     estimated scf accuracy    <       0.00003127 Ry

     iteration #  5     ecut=    45.00 Ry     beta= 0.70
     Davidson diagonalization with overlap
     ethr =  3.91E-07,  avg # of iterations =  2.0

     total cpu time spent up to now is       22.3 secs

     total energy              =     -33.53499212 Ry
     estimated scf accuracy    <       0.00000005 Ry

     iteration #  6     ecut=    45.00 Ry     beta= 0.70
     Davidson diagonalization with overlap
     ethr =  6.35E-10,  avg # of iterations =  1.4

     total cpu time spent up to now is       23.2 secs

     total energy              =     -33.53499216 Ry
     estimated scf accuracy    <       0.00000005 Ry

     iteration #  7     ecut=    45.00 Ry     beta= 0.70
     Davidson diagonalization with overlap
     ethr =  5.91E-10,  avg # of iterations =  2.0

     total cpu time spent up to now is       24.4 secs

     total energy              =     -33.53499213 Ry
     estimated scf accuracy    <       0.00000010 Ry

     iteration #  8     ecut=    45.00 Ry     beta= 0.70
     Davidson diagonalization with overlap
     ethr =  5.91E-10,  avg # of iterations =  1.5

     total cpu time spent up to now is       25.4 secs

     End of self-consistent calculation

     Number of k-points >= 100: set verbosity='high' to print the bands.

     highest occupied, lowest unoccupied level (ev):    12.12121718   18.51190964

!    total energy              =     -33.53499213 Ry
     estimated scf accuracy    <          9.2E-09 Ry

     convergence has been achieved in   8 iterations

     Using ACE for calculation of exact exchange
     ACE projected onto     8 (nbndproj) and applied to     8 (nbnd) bands

     total energy              =     -33.53529819 Ry
     Harris-Foulkes estimate   =     -33.53529819 Ry
     est. exchange err (dexx)  =       0.00030605 Ry
     - averaged Fock potential =       2.45807032 Ry
     + Fock energy (ACE)       =      -1.22811034 Ry

     EXX: now go back to refine exchange calculation

     total cpu time spent up to now is       32.0 secs

     per-process dynamical memory:    71.8 Mb

     Self-consistent Calculation

     iteration #  1     ecut=    45.00 Ry     beta= 0.70
     Davidson diagonalization with overlap
     ethr =  5.91E-10,  avg # of iterations =  4.9

     total cpu time spent up to now is       33.9 secs

     total energy              =     -33.53531989 Ry
     estimated scf accuracy    <       0.00001086 Ry

     iteration #  2     ecut=    45.00 Ry     beta= 0.70
     Davidson diagonalization with overlap
     ethr =  1.36E-07,  avg # of iterations =  1.3

     total cpu time spent up to now is       34.9 secs

     total energy              =     -33.53532099 Ry
     estimated scf accuracy    <       0.00000009 Ry

     iteration #  3     ecut=    45.00 Ry     beta= 0.70
     Davidson diagonalization with overlap
     ethr =  1.09E-09,  avg # of iterations =  2.0

     total cpu time spent up to now is       36.0 secs

     End of self-consistent calculation

     Number of k-points >= 100: set verbosity='high' to print the bands.

     highest occupied, lowest unoccupied level (ev):    12.10046390   18.51254453

!    total energy              =     -33.53532104 Ry
     estimated scf accuracy    <          1.6E-09 Ry

     convergence has been achieved in   3 iterations

     Using ACE for calculation of exact exchange
     ACE projected onto     8 (nbndproj) and applied to     8 (nbnd) bands

     total energy              =     -33.53532299 Ry
     Harris-Foulkes estimate   =     -33.53532299 Ry
     est. exchange err (dexx)  =       0.00000195 Ry
     - averaged Fock potential =       2.45596000 Ry
     + Fock energy (ACE)       =      -1.22785161 Ry

     EXX: now go back to refine exchange calculation

     total cpu time spent up to now is       42.7 secs

     per-process dynamical memory:    71.8 Mb

     Self-consistent Calculation

     iteration #  1     ecut=    45.00 Ry     beta= 0.70
     Davidson diagonalization with overlap
     ethr =  1.09E-09,  avg # of iterations =  2.5

     total cpu time spent up to now is       43.9 secs

     total energy              =     -33.53532318 Ry
     estimated scf accuracy    <       0.00000008 Ry

     iteration #  2     ecut=    45.00 Ry     beta= 0.70
     Davidson diagonalization with overlap
     ethr =  1.04E-09,  avg # of iterations =  1.0

     total cpu time spent up to now is       44.9 secs

     End of self-consistent calculation

     Number of k-points >= 100: set verbosity='high' to print the bands.

     highest occupied, lowest unoccupied level (ev):    12.09862825   18.51249015

!    total energy              =     -33.53532318 Ry
     estimated scf accuracy    <          8.1E-10 Ry

     convergence has been achieved in   2 iterations

     Using ACE for calculation of exact exchange
     ACE projected onto     8 (nbndproj) and applied to     8 (nbnd) bands

     total energy              =     -33.53532320 Ry
     Harris-Foulkes estimate   =     -33.53532321 Ry
     est. exchange err (dexx)  =       0.00000002 Ry
     - averaged Fock potential =       2.45567015 Ry
     + Fock energy (ACE)       =      -1.22781856 Ry

     EXX: now go back to refine exchange calculation

     total cpu time spent up to now is       51.5 secs

     per-process dynamical memory:    71.8 Mb

     Self-consistent Calculation

     iteration #  1     ecut=    45.00 Ry     beta= 0.70
     Davidson diagonalization with overlap
     ethr =  1.04E-09,  avg # of iterations =  1.0

     Threshold (ethr) on eigenvalues was too large:
     Diagonalizing with lowered threshold

     Davidson diagonalization with overlap
     ethr =  5.25E-12,  avg # of iterations =  1.9

     total cpu time spent up to now is       53.5 secs

     End of self-consistent calculation

     Number of k-points >= 100: set verbosity='high' to print the bands.

     highest occupied, lowest unoccupied level (ev):    12.09838365   18.51243839

!    total energy              =     -33.53532321 Ry
     estimated scf accuracy    <          4.2E-10 Ry

     convergence has been achieved in   1 iterations

     Using ACE for calculation of exact exchange
     ACE projected onto     8 (nbndproj) and applied to     8 (nbnd) bands

!!   total energy              =     -33.53532321 Ry
     Harris-Foulkes estimate   =     -33.53532321 Ry
     est. exchange err (dexx)  =          3.0E-10 Ry
     - averaged Fock potential =       2.45563353 Ry
     + Fock energy (ACE)       =      -1.22781497 Ry

     EXX self-consistency reached

     Forces acting on atoms (cartesian axes, Ry/au):

     atom    1 type  1   force =    -0.00201605    0.00201605    0.00201605
     atom    2 type  1   force =     0.00201605   -0.00201605   -0.00201605

     Total force =     0.004938     Total SCF correction =     0.000000


     Computing stress (Cartesian axis) and pressure

     Message from routine exx_stress:
     USPP stress not tested
          total   stress  (Ry/bohr**3)                   (kbar)     P=      -41.62
  -0.00028294   0.00000507   0.00000507          -41.62        0.75        0.75
   0.00000507  -0.00028294  -0.00000507            0.75      -41.62       -0.75
   0.00000507  -0.00000507  -0.00028294            0.75       -0.75      -41.62


     Writing all to output data dir ./tmp/diamond-HSE06.save/ :
     XML data file, charge density
     init_run     :      0.28s CPU      0.36s WALL (       1 calls)
     electrons    :     21.72s CPU     26.21s WALL (       5 calls)
     forces       :      0.03s CPU      0.03s WALL (       1 calls)
     stress       :      0.69s CPU      0.80s WALL (       1 calls)

     Called by init_run:
     aceinit0     :      0.00s CPU      0.00s WALL (       1 calls)
     wfcinit      :      0.26s CPU      0.33s WALL (       1 calls)
     potinit      :      0.01s CPU      0.01s WALL (       1 calls)
     hinit0       :      0.01s CPU      0.01s WALL (       1 calls)

     Called by electrons:
     c_bands      :     18.82s CPU     22.64s WALL (      21 calls)
     sum_band     :      2.71s CPU      3.31s WALL (      21 calls)
     v_of_rho     :      0.01s CPU      0.02s WALL (      22 calls)
     newd         :      0.00s CPU      0.01s WALL (      21 calls)
     PAW_pot      :      0.19s CPU      0.22s WALL (      22 calls)
     mix_rho      :      0.00s CPU      0.00s WALL (      21 calls)

     Called by c_bands:
     init_us_2    :      0.21s CPU      0.24s WALL (   46080 calls)
     cegterg      :     18.42s CPU     22.16s WALL (   10752 calls)

     Called by *egterg:
     cdiaghg      :      2.72s CPU      3.23s WALL (   33116 calls)
     h_psi        :     14.06s CPU     16.98s WALL (   36188 calls)
     s_psi        :      0.14s CPU      0.17s WALL (   36188 calls)
     g_psi        :      0.04s CPU      0.05s WALL (   24924 calls)

     Called by h_psi:
     h_psi:calbec :      0.52s CPU      0.63s WALL (   36188 calls)
     vloc_psi     :     12.66s CPU     15.28s WALL (   36188 calls)
     vloc_psi:tg_ :      0.07s CPU      0.09s WALL (   36188 calls)
     add_vuspsi   :      0.16s CPU      0.19s WALL (   36188 calls)

     General routines
     calbec       :      0.95s CPU      1.16s WALL (   94358 calls)
     fft          :      0.01s CPU      0.01s WALL (     261 calls)
     ffts         :      0.00s CPU      0.00s WALL (      21 calls)
     fftw         :     13.74s CPU     16.62s WALL (  563898 calls)
     fftc         :      9.48s CPU     10.39s WALL (  344064 calls)
     fftcw        :      1.51s CPU      1.69s WALL (   65536 calls)
 
     Parallel routines
     fft_scatt_xy :      1.72s CPU      1.99s WALL (  973780 calls)
     fft_scatt_yz :     15.51s CPU     17.96s WALL (  973780 calls)
     fft_scatt_tg :      1.41s CPU      1.71s WALL (  563898 calls)

     EXX routines
     exx_grid     :      0.01s CPU      0.01s WALL (       1 calls)
     exxinit      :      3.16s CPU      3.37s WALL (       5 calls)
     vexx         :     27.13s CPU     29.72s WALL (    2560 calls)
     matcalc      :      0.40s CPU      0.49s WALL (   36154 calls)
     aceupdate    :      0.02s CPU      0.02s WALL (    2560 calls)
     vexxace      :      0.50s CPU      0.63s WALL (   28986 calls)
     aceinit      :     27.21s CPU     29.82s WALL (    2560 calls)

     EXX+US  routines
     becxx        :      0.01s CPU      0.01s WALL (       5 calls)
     addusxx      :      4.95s CPU      5.48s WALL (  163840 calls)
     newdxx       :      5.18s CPU      5.66s WALL (  163840 calls)
     qvan_init    :      0.13s CPU      0.14s WALL (    2560 calls)
     nlxx_pot     :      0.18s CPU      0.19s WALL (   20480 calls)

     EXX+PAW routines
     PAW_newdxx   :      4.49s CPU      4.89s WALL (  163840 calls)
 
     PWSCF        :     53.36s CPU   1m 1.02s WALL

 
   This run was terminated on:  20:33:24  27Jul2026            

=------------------------------------------------------------------------------=
   JOB DONE.
=------------------------------------------------------------------------------=
