  215  215    1    2
  0.5731707E+01  0.1072114E-08  0.1072114E-08  0.1072114E-08  0.5000000E-15
  1.000000000000000E-004
  CAR 
 unknown system                          
    862      1    540
 
  0.1276756E-14  0.1276756E-14  0.1276756E-14  0.1000000E+01
      1        -11.897681      -11.887937   1.000000   1.000000
      2        -11.159782      -11.123815   1.000000   1.000000
      3        -10.878883      -10.875989   1.000000   1.000000
      4        -10.878883      -10.875989   1.000000   1.000000
      5        -10.826726      -10.820491   1.000000   1.000000
      6        -10.826726      -10.820491   1.000000   1.000000
      7        -10.750874      -10.738187   1.000000   1.000000
      8        -10.289240      -10.261359   1.000000   1.000000
      9         -9.884281       -9.881423   1.000000   1.000000
     10         -9.884281       -9.881423   1.000000   1.000000
     11         -9.868192       -9.865502   1.000000   1.000000
     12         -9.868192       -9.865502   1.000000   1.000000
     13         -9.852902       -9.849197   1.000000   1.000000
     14         -9.823399       -9.818848   1.000000   1.000000
     15         -9.820801       -9.814612   1.000000   1.000000
     16         -9.820801       -9.814612   1.000000   1.000000
     17         -9.770339       -9.756010   1.000000   1.000000
     18         -9.770339       -9.756010   1.000000   1.000000
     19         -9.605325       -9.583049   1.000000   1.000000
     20         -9.140697       -9.122842   1.000000   1.000000
     21         -8.852088       -8.846985   1.000000   1.000000
     22         -8.849773       -8.842763   1.000000   1.000000
     23         -8.849773       -8.842763   1.000000   1.000000
     24         -8.821937       -8.813269   1.000000   1.000000
     25         -8.821937       -8.808624   1.000000   1.000000
     26         -8.820562       -8.808624   1.000000   1.000000
     27         -8.659860       -8.637448   1.000000   1.000000
     28         -8.090290       -8.065102   1.000000   1.000000
     29         -7.865539       -7.859605   1.000000   1.000000
     30         -7.865539       -7.859605   1.000000   1.000000
     31         -7.841245       -7.832633   1.000000   1.000000
     32         -7.841244       -7.832633   1.000000   1.000000
     33         -7.786471       -7.779114   1.000000   1.000000
     34         -7.505169       -7.479730   1.000000   1.000000
     35         -6.991558       -6.984823   1.000000   1.000000
     36         -6.991558       -6.984823   1.000000   1.000000
     37         -6.971998       -6.969115   1.000000   1.000000
     38         -6.971998       -6.969115   1.000000   1.000000
     39         -6.966918       -6.965341   1.000000   1.000000
     40         -6.954292       -6.950532   1.000000   1.000000
     41         -6.954292       -6.950532   1.000000   1.000000
     42         -6.951638       -6.949418   1.000000   1.000000
     43         -6.947914       -6.945465   1.000000   1.000000
     44         -6.940126       -6.937240   1.000000   1.000000
     45         -6.940126       -6.937240   1.000000   1.000000
     46         -6.921609       -6.920025   1.000000   1.000000
     47         -6.915780       -6.911867   1.000000   1.000000
     48         -6.915780       -6.911867   1.000000   1.000000
     49         -6.889873       -6.876990   1.000000   1.000000
     50         -6.889873       -6.876990   1.000000   1.000000
     51         -6.885782       -6.876168   1.000000   1.000000
     52         -6.883857       -6.873775   1.000000   1.000000
     53         -6.883857       -6.873775   1.000000   1.000000
     54         -6.865968       -6.861290   1.000000   1.000000
     55         -6.791644       -6.771700   1.000000   1.000000
     56         -6.791644       -6.771700   1.000000   1.000000
     57         -6.626316       -6.614682   1.000000   1.000000
     58         -6.442019       -6.433057   1.000000   1.000000
     59         -6.227101       -6.222484   1.000000   1.000000
     60         -6.227101       -6.222484   1.000000   1.000000
     61         -6.184273       -6.180753   1.000000   1.000000
     62         -6.174464       -6.169963   1.000000   1.000000
     63         -6.174464       -6.169963   1.000000   1.000000
     64         -6.168206       -6.160242   1.000000   1.000000
     65         -6.158647       -6.155387   1.000000   1.000000
     66         -6.158647       -6.154823   1.000000   1.000000
     67         -6.157051       -6.154823   1.000000   1.000000
     68         -6.139910       -6.132330   1.000000   1.000000
     69         -6.139910       -6.132330   1.000000   1.000000
     70         -6.120047       -6.114342   1.000000   1.000000
     71         -6.120047       -6.114341   1.000000   1.000000
     72         -6.114992       -6.105979   1.000000   1.000000
     73         -6.098063       -6.093531   1.000000   1.000000
     74         -6.098063       -6.093531   1.000000   1.000000
     75         -6.077845       -6.067673   1.000000   1.000000
     76         -6.052188       -6.041242   1.000000   1.000000
     77         -6.052188       -6.041242   1.000000   1.000000
     78         -6.002933       -5.991442   1.000000   1.000000
     79         -5.905885       -5.853114   1.000000   1.000000
     80         -5.905885       -5.853114   1.000000   1.000000
     81         -5.248501       -5.194749   1.000000   1.000000
     82         -4.674712       -4.661003   1.000000   1.000000
     83         -4.510806       -4.505138   1.000000   1.000000
     84         -4.510806       -4.505137   1.000000   1.000000
     85         -4.470010       -4.460082   1.000000   1.000000
     86         -4.470010       -4.460082   1.000000   1.000000
     87         -4.454167       -4.449090   1.000000   1.000000
     88         -4.451191       -4.446179   1.000000   1.000000
     89         -4.447011       -4.440782   1.000000   1.000000
     90         -4.447011       -4.440782   1.000000   1.000000
     91         -4.393594       -4.367631   1.000000   1.000000
     92         -4.393594       -4.367631   1.000000   1.000000
     93         -4.052342       -3.997887   1.000000   1.000000
     94         -3.264233       -3.248285   1.000000   1.000000
     95         -3.202155       -3.197753   1.000000   1.000000
     96         -3.202155       -3.197753   1.000000   1.000000
     97         -3.184418       -3.177401   1.000000   1.000000
     98         -3.184418       -3.177401   1.000000   1.000000
     99         -3.143481       -3.138106   1.000000   1.000000
    100         -2.939275       -2.914830   1.000000   1.000000
    101         -2.774985       -2.766473   1.000000   1.000000
    102         -2.774985       -2.766473   1.000000   1.000000
    103         -2.703468       -2.702669   1.000000   1.000000
    104         -2.703468       -2.700820   1.000000   1.000000
    105         -2.702997       -2.700820   1.000000   1.000000
    106         -2.697743       -2.695667   1.000000   1.000000
    107         -2.697743       -2.695667   1.000000   1.000000
    108         -2.687240       -2.681555   1.000000   1.000000
    109         -2.687240       -2.681555   1.000000   1.000000
    110         -2.683215       -2.680493   1.000000   1.000000
    111         -2.679458       -2.677407   1.000000   1.000000
    112         -2.649195       -2.646031   1.000000   1.000000
    113         -2.649195       -2.646031   1.000000   1.000000
    114         -2.626918       -2.619356   1.000000   1.000000
    115         -2.614480       -2.604298   1.000000   1.000000
    116         -2.576972       -2.567597   1.000000   1.000000
    117         -2.576972       -2.567597   1.000000   1.000000
    118         -2.562449       -2.557278   1.000000   1.000000
    119         -2.558970       -2.547216   1.000000   1.000000
    120         -2.558970       -2.547216   1.000000   1.000000
    121         -2.536424       -2.523284   1.000000   1.000000
    122         -2.536424       -2.523284   1.000000   1.000000
    123         -2.510358       -2.505995   1.000000   1.000000
    124         -2.490024       -2.481954   1.000000   1.000000
    125         -2.486936       -2.481954   1.000000   1.000000
    126         -2.486936       -2.479506   1.000000   1.000000
    127         -2.458305       -2.455367   1.000000   1.000000
    128         -2.457902       -2.453972   1.000000   1.000000
    129         -2.457902       -2.452250   1.000000   1.000000
    130         -2.457677       -2.452250   1.000000   1.000000
    131         -2.451268       -2.447311   1.000000   1.000000
    132         -2.451268       -2.447311   1.000000   1.000000
    133         -2.450106       -2.440769   1.000000   1.000000
    134         -2.416507       -2.412877   1.000000   1.000000
    135         -2.416507       -2.412877   1.000000   1.000000
    136         -2.397095       -2.390952   1.000000   1.000000
    137         -2.397095       -2.390952   1.000000   1.000000
    138         -2.394975       -2.389496   1.000000   1.000000
    139         -2.386371       -2.381046   1.000000   1.000000
    140         -2.386371       -2.381046   1.000000   1.000000
    141         -2.384668       -2.366086   1.000000   1.000000
    142         -2.384668       -2.366086   1.000000   1.000000
    143         -2.373680       -2.345332   1.000000   1.000000
    144         -2.161056       -2.141224   1.000000   1.000000
    145         -2.028682       -1.988008   1.000000   1.000000
    146         -2.028682       -1.988008   1.000000   1.000000
    147         -1.653558       -1.634609   1.000000   1.000000
    148         -1.408789       -1.401124   1.000000   1.000000
    149         -1.408789       -1.401124   1.000000   1.000000
    150         -1.403573       -1.383823   1.000000   1.000000
    151         -1.363056       -1.355220   1.000000   1.000000
    152         -1.356158       -1.352202   1.000000   1.000000
    153         -1.356158       -1.352202   1.000000   1.000000
    154         -1.346123       -1.342430   1.000000   1.000000
    155         -1.317496       -1.311414   1.000000   1.000000
    156         -1.317496       -1.311414   1.000000   1.000000
    157         -1.182505       -1.131603   1.000000   1.000000
    158         -1.182505       -1.131603   1.000000   1.000000
    159         -0.227575       -0.163207   1.000000   1.000000
    160          0.096925        0.108599   1.000000   1.000000
    161          0.096925        0.108599   1.000000   1.000000
    162          0.127032        0.140960   1.000000   1.000000
    163          0.185735        0.193753   1.000000   1.000000
    164          0.197595        0.202198   1.000000   1.000000
    165          0.200686        0.203097   1.000000   1.000000
    166          0.200686        0.203097   1.000000   1.000000
    167          0.202447        0.207510   1.000000   1.000000
    168          0.202447        0.207510   1.000000   1.000000
    169          0.213288        0.222878   1.000000   1.000000
    170          0.220848        0.223517   1.000000   1.000000
    171          0.230936        0.235568   1.000000   1.000000
    172          0.232201        0.236703   1.000000   1.000000
    173          0.232201        0.236703   1.000000   1.000000
    174          0.249060        0.257536   1.000000   1.000000
    175          0.249060        0.257536   1.000000   1.000000
    176          0.362867        0.377136   1.000000   1.000000
    177          0.362867        0.377136   1.000000   1.000000
    178          0.369473        0.381870   1.000000   1.000000
    179          0.417640        0.434973   1.000000   1.000000
    180          0.735799        0.746794   1.000000   1.000000
    181          0.735799        0.746794   1.000000   1.000000
    182          0.776177        0.800282   1.000000   1.000000
    183          0.836824        0.840206   1.000000   1.000000
    184          0.851861        0.855741   1.000000   1.000000
    185          0.851861        0.856004   1.000000   1.000000
    186          0.854971        0.856004   1.000000   1.000000
    187          0.858739        0.863286   1.000000   1.000000
    188          0.858739        0.863286   1.000000   1.000000
    189          0.867480        0.873098   1.000000   1.000000
    190          0.867480        0.873098   1.000000   1.000000
    191          0.881209        0.883986   1.000000   1.000000
    192          0.888861        0.894001   1.000000   1.000000
    193          0.888861        0.894001   1.000000   1.000000
    194          0.890933        0.900801   1.000000   1.000000
    195          0.893124        0.900801   1.000000   1.000000
    196          0.893124        0.906623   1.000000   1.000000
    197          0.905003        0.918501   1.000000   1.000000
    198          0.913466        0.922681   1.000000   1.000000
    199          0.913466        0.922681   1.000000   1.000000
    200          0.926486        0.934395   1.000000   1.000000
    201          1.144371        1.193525   1.000000   1.000000
    202          1.144371        1.193525   1.000000   1.000000
    203          1.614566        1.626982   1.000000   1.000000
    204          1.614566        1.626982   1.000000   1.000000
    205          1.654346        1.670798   1.000000   1.000000
    206          1.718733        1.720750   1.000000   1.000000
    207          1.718734        1.720750   1.000000   1.000000
    208          1.718789        1.722967   1.000000   1.000000
    209          1.721137        1.723514   1.000000   1.000000
    210          1.723581        1.726378   1.000000   1.000000
    211          1.723581        1.726378   1.000000   1.000000
    212          1.737191        1.739066   1.000000   1.000000
    213          1.740903        1.744696   1.000000   1.000000
    214          1.740903        1.744696   1.000000   1.000000
    215          1.763891        1.767563   1.000000   1.000000
    216          1.763891        1.767563   1.000000   1.000000
    217          1.807206        1.815847   1.000000   1.000000
    218          1.813286        1.820098   1.000000   1.000000
    219          1.813286        1.820098   1.000000   1.000000
    220          1.832231        1.842768   1.000000   1.000000
    221          1.843915        1.848963   1.000000   1.000000
    222          1.872003        1.883710   1.000000   1.000000
    223          1.872003        1.883710   1.000000   1.000000
    224          1.919569        1.930119   1.000000   1.000000
    225          1.945544        1.954571   1.000000   1.000000
    226          1.945544        1.954571   1.000000   1.000000
    227          2.013924        2.046790   1.000000   1.000000
    228          2.129351        2.138694   1.000000   1.000000
    229          2.129351        2.138694   1.000000   1.000000
    230          2.216549        2.229850   1.000000   1.000000
    231          2.239551        2.242340   1.000000   1.000000
    232          2.239551        2.242340   1.000000   1.000000
    233          2.248281        2.252390   1.000000   1.000000
    234          2.260496        2.265989   1.000000   1.000000
    235          2.261838        2.265989   1.000000   1.000000
    236          2.261838        2.270131   1.000000   1.000000
    237          2.266115        2.272294   1.000000   1.000000
    238          2.266115        2.272841   1.000000   1.000000
    239          2.267659        2.272841   1.000000   1.000000
    240          2.281936        2.287576   1.000000   1.000000
    241          2.281936        2.287576   1.000000   1.000000
    242          2.283444        2.290307   1.000000   1.000000
    243          2.303176        2.314933   1.000000   1.000000
    244          2.314314        2.319990   1.000000   1.000000
    245          2.314314        2.325257   1.000000   1.000000
    246          2.316845        2.325257   1.000000   1.000000
    247          2.338113        2.347767   1.000000   1.000000
    248          2.338113        2.347767   1.000000   1.000000
    249          2.348865        2.366764   1.000000   1.000000
    250          2.378019        2.391522   1.000000   1.000000
    251          2.378019        2.391522   1.000000   1.000000
    252          2.411144        2.423484   1.000000   1.000000
    253          2.411144        2.423484   1.000000   1.000000
    254          2.706518        2.738855   1.000000   1.000000
    255          2.754306        2.792322   1.000000   1.000000
    256          2.754306        2.792322   1.000000   1.000000
    257          3.243700        3.253006   1.000000   1.000000
    258          3.243700        3.253006   1.000000   1.000000
    259          3.303657        3.310748   1.000000   1.000000
    260          3.313066        3.329938   1.000000   1.000000
    261          3.341010        3.356006   1.000000   1.000000
    262          3.341010        3.356006   1.000000   1.000000
    263          3.462334        3.529532   1.000000   1.000000
    264          3.747809        3.764787   1.000000   1.000000
    265          3.747809        3.764787   1.000000   1.000000
    266          3.843159        3.853260   1.000000   1.000000
    267          3.850262        3.853260   1.000000   1.000000
    268          3.850262        3.854831   1.000000   1.000000
    269          3.868832        3.872766   1.000000   1.000000
    270          3.872472        3.878640   1.000000   1.000000
    271          3.872472        3.878640   1.000000   1.000000
    272          3.906581        3.924804   1.000000   1.000000
    273          3.955234        3.968676   1.000000   1.000000
    274          3.955235        3.968676   1.000000   1.000000
    275          4.093732        4.104068   1.000000   1.000000
    276          4.093732        4.104068   1.000000   1.000000
    277          4.213668        4.236546   1.000000   1.000000
    278          4.256759        4.261745   1.000000   1.000000
    279          4.262332        4.274829   1.000000   1.000000
    280          4.269299        4.274829   1.000000   1.000000
    281          4.269299        4.281532   1.000000   1.000000
    282          4.272793        4.282099   1.000000   1.000000
    283          4.272793        4.282099   1.000000   1.000000
    284          4.299947        4.307050   1.000000   1.000000
    285          4.325541        4.334576   1.000000   1.000000
    286          4.325541        4.334576   1.000000   1.000000
    287          4.336480        4.352076   1.000000   1.000000
    288          4.442025        4.452260   1.000000   1.000000
    289          4.442025        4.452260   1.000000   1.000000
    290          4.487373        4.491818   1.000000   1.000000
    291          4.508363        4.511267   1.000000   1.000000
    292          4.512356        4.515033   1.000000   1.000000
    293          4.512356        4.515033   1.000000   1.000000
    294          4.534417        4.537028   1.000000   1.000000
    295          4.534691        4.537365   1.000000   1.000000
    296          4.534691        4.537365   1.000000   1.000000
    297          4.536919        4.539578   1.000000   1.000000
    298          4.538698        4.542149   1.000000   1.000000
    299          4.538698        4.542149   1.000000   1.000000
    300          4.551940        4.554309   1.000000   1.000000
    301          4.551940        4.554309   1.000000   1.000000
    302          4.557873        4.563920   1.000000   1.000000
    303          4.581371        4.587690   1.000000   1.000000
    304          4.581371        4.587690   1.000000   1.000000
    305          4.589225        4.594011   1.000000   1.000000
    306          4.603661        4.608068   1.000000   1.000000
    307          4.603661        4.608068   1.000000   1.000000
    308          4.604198        4.616626   1.000000   1.000000
    309          4.604198        4.616626   1.000000   1.000000
    310          4.620503        4.627399   1.000000   1.000000
    311          4.666724        4.672455   1.000000   1.000000
    312          4.666724        4.672456   1.000000   1.000000
    313          4.692924        4.700797   1.000000   1.000000
    314          4.707654        4.722085   1.000000   1.000000
    315          4.719316        4.722085   1.000000   1.000000
    316          4.719316        4.723148   1.000000   1.000000
    317          4.722827        4.724357   1.000000   1.000000
    318          4.730348        4.732738   1.000000   1.000000
    319          4.732077        4.735936   1.000000   1.000000
    320          4.732077        4.735936   1.000000   1.000000
    321          4.738140        4.740407   1.000000   1.000000
    322          4.738140        4.740407   1.000000   1.000000
    323          4.741918        4.746255   1.000000   1.000000
    324          4.750108        4.754709   1.000000   1.000000
    325          4.750109        4.754709   1.000000   1.000000
    326          4.751553        4.755586   1.000000   1.000000
    327          4.754558        4.759884   1.000000   1.000000
    328          4.754558        4.759884   1.000000   1.000000
    329          4.761608        4.765255   1.000000   1.000000
    330          4.763951        4.768141   1.000000   1.000000
    331          4.764859        4.768141   1.000000   1.000000
    332          4.764859        4.768616   1.000000   1.000000
    333          4.778264        4.784343   1.000000   1.000000
    334          4.778264        4.784343   1.000000   1.000000
    335          4.783562        4.788526   1.000000   1.000000
    336          4.783653        4.798142   1.000000   1.000000
    337          4.790310        4.798142   1.000000   1.000000
    338          4.790310        4.802393   1.000000   1.000000
    339          4.801492        4.815287   1.000000   1.000000
    340          4.801492        4.815287   1.000000   1.000000
    341          4.830751        4.837391   1.000000   1.000000
    342          4.830751        4.837391   1.000000   1.000000
    343          4.849457        4.856118   1.000000   1.000000
    344          4.853167        4.858529   1.000000   1.000000
    345          4.853167        4.858529   1.000000   1.000000
    346          4.882300        4.893745   1.000000   1.000000
    347          4.882658        4.893745   1.000000   1.000000
    348          4.882658        4.895492   1.000000   1.000000
    349          4.909128        4.940095   1.000000   1.000000
    350          4.937319        4.945396   1.000000   1.000000
    351          4.950628        4.954819   1.000000   1.000000
    352          4.952899        4.973318   1.000000   1.000000
    353          4.952899        4.973318   1.000000   1.000000
    354          5.070041        5.100167   1.000000   1.000000
    355          5.070041        5.100167   1.000000   1.000000
    356          5.312127        5.330488   1.000000   1.000000
    357          5.321025        5.337118   1.000000   1.000000
    358          5.321025        5.337118   1.000000   1.000000
    359          5.481995        5.488646   1.000000   1.000000
    360          5.481995        5.488646   1.000000   1.000000
    361          5.545479        5.548416   1.000000   1.000000
    362          5.557691        5.560971   1.000000   1.000000
    363          5.557691        5.560971   1.000000   1.000000
    364          5.563589        5.565337   1.000000   1.000000
    365          5.594506        5.599283   1.000000   1.000000
    366          5.595474        5.600027   1.000000   1.000000
    367          5.595474        5.600027   1.000000   1.000000
    368          5.606301        5.618641   1.000000   1.000000
    369          5.606574        5.620903   1.000000   1.000000
    370          5.606574        5.620903   1.000000   1.000000
    371          5.616305        5.622813   1.000000   1.000000
    372          5.629258        5.637116   1.000000   1.000000
    373          5.629258        5.637116   1.000000   1.000000
    374          5.633022        5.646781   1.000000   1.000000
    375          5.633022        5.646781   1.000000   1.000000
    376          5.657661        5.661440   1.000000   1.000000
    377          5.734482        5.762715   1.000000   1.000000
    378          5.734482        5.762715   1.000000   1.000000
    379          5.763738        5.790662   1.000000   1.000000
    380          6.320855        6.399059   1.000000   1.000000
    381          6.530825        6.586715   1.000000   1.000000
    382          6.530825        6.586715   1.000000   1.000000
    383          6.874885        6.914835   1.000000   1.000000
    384          6.899160        6.914835   1.000000   1.000000
    385          6.899160        6.971078   1.000000   1.000000
    386          6.967118        6.972888   1.000000   1.000000
    387          6.969761        6.972888   1.000000   1.000000
    388          6.969761        6.988759   1.000000   1.000000
    389          6.993135        6.995604   1.000000   1.000000
    390          6.999685        7.010580   1.000000   1.000000
    391          6.999685        7.010580   1.000000   1.000000
    392          7.006063        7.037805   1.000000   1.000000
    393          7.063128        7.067796   1.000000   1.000000
    394          7.063128        7.067796   1.000000   1.000000
    395          7.082264        7.090717   1.000000   1.000000
    396          7.159929        7.164850   1.000000   1.000000
    397          7.159929        7.164850   1.000000   1.000000
    398          7.225863        7.234443   1.000000   1.000000
    399          7.229092        7.234570   1.000000   1.000000
    400          7.229092        7.234570   1.000000   1.000000
    401          7.230971        7.237826   1.000000   1.000000
    402          7.230971        7.237826   1.000000   1.000000
    403          7.234079        7.244277   1.000000   1.000000
    404          7.234079        7.244277   1.000000   1.000000
    405          7.241974        7.246257   1.000000   1.000000
    406          7.274608        7.284399   1.000000   1.000000
    407          7.274609        7.284399   1.000000   1.000000
    408          7.290179        7.304098   1.000000   1.000000
    409          7.293655        7.304098   1.000000   1.000000
    410          7.293655        7.305083   1.000000   1.000000
    411          7.299884        7.312311   1.000000   1.000000
    412          7.336355        7.346149   1.000000   1.000000
    413          7.336355        7.346149   1.000000   1.000000
    414          7.822143        7.890457   1.000000   1.000000
    415          7.917502        7.941136   1.000000   1.000000
    416          7.917502        7.941136   1.000000   1.000000
    417          8.119693        8.138377   1.000000   1.000000
    418          8.130797        8.138377   1.000000   1.000000
    419          8.130797        8.146741   1.000000   1.000000
    420          8.144553        8.176485   1.000000   1.000000
    421          8.173386        8.184154   1.000000   1.000000
    422          8.177658        8.184154   1.000000   1.000000
    423          8.177658        8.204245   1.000000   1.000000
    424          8.194883        8.270531   1.000000   1.000000
    425          8.254493        8.270531   1.000000   1.000000
    426          8.254493        8.406441   1.000000   1.000000
    427          9.357459        9.433005   1.000000   1.000000
    428          9.403640        9.433005   1.000000   1.000000
    429          9.403640        9.457468   1.000000   1.000000
    430         10.260541       11.031686   1.000000   0.000000
    431         11.606314       12.583949   1.000000   1.000000
    432         11.606314       12.583949   1.000000   0.000000
    433         13.669176       13.673151   0.000000   0.000000
    434         13.669176       13.673151   0.000000   0.000000
    435         13.677437       13.692347   0.000000   0.000000
    436         13.733211       13.744687   0.000000   0.000000
    437         13.733211       13.744687   0.000000   0.000000
    438         13.743860       13.755239   0.000000   0.000000
    439         14.207243       14.218009   0.000000   0.000000
    440         14.318328       14.325364   0.000000   0.000000
    441         14.318328       14.325364   0.000000   0.000000
    442         14.324507       14.330557   0.000000   0.000000
    443         14.324507       14.330557   0.000000   0.000000
    444         14.389724       14.399540   0.000000   0.000000
    445         14.452734       14.457941   0.000000   0.000000
    446         14.452734       14.457941   0.000000   0.000000
    447         14.506548       14.538604   0.000000   0.000000
    448         14.571338       14.581337   0.000000   0.000000
    449         14.572516       14.589386   0.000000   0.000000
    450         14.572516       14.589386   0.000000   0.000000
    451         15.186858       15.203659   0.000000   0.000000
    452         15.186858       15.203659   0.000000   0.000000
    453         15.204689       15.217409   0.000000   0.000000
    454         15.710348       15.728658   0.000000   0.000000
    455         15.838603       15.842009   0.000000   0.000000
    456         15.838603       15.842009   0.000000   0.000000
    457         15.856122       15.858490   0.000000   0.000000
    458         15.881590       15.890517   0.000000   0.000000
    459         15.881590       15.890517   0.000000   0.000000
    460         15.899721       15.905401   0.000000   0.000000
    461         15.912209       15.916791   0.000000   0.000000
    462         15.912209       15.916791   0.000000   0.000000
    463         15.918123       15.923552   0.000000   0.000000
    464         15.918123       15.923552   0.000000   0.000000
    465         15.961310       15.969488   0.000000   0.000000
    466         16.313798       16.328974   0.000000   0.000000
    467         16.544628       16.548731   0.000000   0.000000
    468         16.544628       16.548731   0.000000   0.000000
    469         16.582598       16.585189   0.000000   0.000000
    470         16.586864       16.589655   0.000000   0.000000
    471         16.586864       16.589655   0.000000   0.000000
    472         16.597154       16.601001   0.000000   0.000000
    473         16.597154       16.601001   0.000000   0.000000
    474         16.598694       16.602067   0.000000   0.000000
    475         16.598694       16.605699   0.000000   0.000000
    476         16.599737       16.605699   0.000000   0.000000
    477         16.617274       16.622895   0.000000   0.000000
    478         16.617274       16.624896   0.000000   0.000000
    479         16.617531       16.624896   0.000000   0.000000
    480         16.628537       16.633551   0.000000   0.000000
    481         16.655503       16.663673   0.000000   0.000000
    482         16.655503       16.663673   0.000000   0.000000
    483         16.660311       16.665603   0.000000   0.000000
    484         16.692483       16.697994   0.000000   0.000000
    485         16.692483       16.697994   0.000000   0.000000
    486         16.728157       16.736696   0.000000   0.000000
    487         16.740955       16.750938   0.000000   0.000000
    488         16.742621       16.750970   0.000000   0.000000
    489         16.742621       16.750970   0.000000   0.000000
    490         16.963228       16.974571   0.000000   0.000000
    491         17.018516       17.028758   0.000000   0.000000
    492         17.018519       17.028784   0.000000   0.000000
    493         17.080024       17.081840   0.000000   0.000000
    494         17.090197       17.091602   0.000000   0.000000
    495         17.090920       17.093674   0.000000   0.000000
    496         17.090957       17.093680   0.000000   0.000000
    497         17.099588       17.102632   0.000000   0.000000
    498         17.099612       17.102674   0.000000   0.000000
    499         17.117024       17.119239   0.000000   0.000000
    500         17.121156       17.124615   0.000000   0.000000
    501         17.124360       17.127171   0.000000   0.000000
    502         17.124397       17.127199   0.000000   0.000000
    503         17.150207       17.154632   0.000000   0.000000
    504         17.150226       17.154683   0.000000   0.000000
    505         17.177742       17.182185   0.000000   0.000000
    506         17.177766       17.182240   0.000000   0.000000
    507         17.187988       17.191457   0.000000   0.000000
    508         17.189528       17.202805   0.000000   0.000000
    509         17.198909       17.203037   0.000000   0.000000
    510         17.198923       17.203089   0.000000   0.000000
    511         17.211633       17.215018   0.000000   0.000000
    512         17.215223       17.227940   0.000000   0.000000
    513         17.215263       17.228057   0.000000   0.000000
    514         17.226165       17.232149   0.000000   0.000000
    515         17.226259       17.232227   0.000000   0.000000
    516         17.236393       17.240087   0.000000   0.000000
    517         17.236618       17.245976   0.000000   0.000000
    518         17.236665       17.246131   0.000000   0.000000
    519         17.253536       17.262309   0.000000   0.000000
    520         17.253545       17.262412   0.000000   0.000000
    521         17.268717       17.273671   0.000000   0.000000
    522         17.283355       17.290966   0.000000   0.000000
    523         17.283649       17.291260   0.000000   0.000000
    524         17.320471       17.327796   0.000000   0.000000
    525         17.329470       17.337092   0.000000   0.000000
    526         17.380073       17.392158   0.000000   0.000000
    527         17.390795       17.396898   0.000000   0.000000
    528         17.391295       17.399570   0.000000   0.000000
    529         17.453387       17.464057   0.000000   0.000000
    530         17.455934       17.466650   0.000000   0.000000
    531         17.463599       17.471182   0.000000   0.000000
    532         17.571616       17.570913   0.000000   0.000000
    533         17.675338       17.689606   0.000000   0.000000
    534         17.696104       17.704016   0.000000   0.000000
    535         17.715821       17.713566   0.000000   0.000000
    536         17.722747       17.734175   0.000000   0.000000
    537         17.735970       17.743655   0.000000   0.000000
    538         17.747949       17.757471   0.000000   0.000000
    539         17.761410       17.770521   0.000000   0.000000
    540         17.777709       17.785779   0.000000   0.000000
