       N       E                     dE             d eps       ncg     rms          rms(c)
DAV:   1     0.296001671292E+04    0.29600E+04   -0.45413E+05  2160   0.153E+03
DAV:   2    -0.174419979238E+04   -0.47042E+04   -0.45088E+04  2624   0.298E+02
DAV:   3    -0.199554236274E+04   -0.25134E+03   -0.24887E+03  2592   0.668E+01
DAV:   4    -0.200216194706E+04   -0.66196E+01   -0.66024E+01  2664   0.105E+01
DAV:   5    -0.200231562656E+04   -0.15368E+00   -0.15343E+00  2592   0.167E+00    0.578E+01
DAV:   6    -0.194998282325E+04    0.52333E+02   -0.41432E+01  2488   0.865E+00    0.344E+01
DAV:   7    -0.193299730855E+04    0.16986E+02   -0.50056E+01  2496   0.934E+00    0.837E+00
DAV:   8    -0.193325340205E+04   -0.25609E+00   -0.20371E+00  2576   0.203E+00    0.431E+00
DAV:   9    -0.193326412728E+04   -0.10725E-01   -0.31594E-01  2528   0.890E-01    0.112E+00
DAV:  10    -0.193326739720E+04   -0.32699E-02   -0.69212E-02  2568   0.388E-01    0.444E-01
DAV:  11    -0.193326836975E+04   -0.97255E-03   -0.84267E-03  2576   0.142E-01    0.161E-01
DAV:  12    -0.193326883764E+04   -0.46788E-03   -0.16001E-03  2608   0.602E-02    0.826E-02
DAV:  13    -0.193326904184E+04   -0.20421E-03   -0.31607E-04  2624   0.298E-02    0.466E-02
DAV:  14    -0.193326916559E+04   -0.12375E-03   -0.10245E-04  2576   0.174E-02    0.209E-02
DAV:  15    -0.193326918895E+04   -0.23351E-04   -0.22710E-05  2560   0.789E-03    0.966E-03
DAV:  16    -0.193326919201E+04   -0.30606E-05   -0.53022E-06  2312   0.385E-03    0.371E-03
DAV:  17    -0.193326919188E+04    0.12381E-06   -0.86348E-07  1616   0.157E-03
   1 F= -.19332692E+04 E0= -.19332692E+04  d E =0.000000E+00  mag=     2.0000
