 vasp.6.5.1 10Mar25 (build Feb 13 2026 23:13:13) complex                        
  
 executed on             LinuxIFC date 2026.09.17  21:36:42
 running   28 mpi-ranks, with    1 threads/rank, on    1 nodes
 distrk:  each k-point on   28 cores,    1 groups
 distr:  one band on NCORE=   7 cores,    4 groups


--------------------------------------------------------------------------------------------------------


 INCAR:
   ALGO = Normal
   PREC = Normal
   LREAL = Auto
   EDIFF = 1e-06
   ENCUT = 500.0
   NELM = 100
   ISIF = 2
   IBRION = 2
   EDIFFG = -0.01
   NSW = 0
   ISMEAR = -2
   SIGMA = 0.005
   NUPDOWN = 2
   FERWE = 432*1.0 216*0.0
   FERDO = 429*1.0 1*0.0 1*1.0 217*0.0
   ISPIN = 2
   LWAVE = False
   LCHARG = False
   LORBIT = 10
   NELECT = 862.0
   NPAR = 4
   NCORE = 7

 POTCAR:    PAW_PBE C 08Apr2002                   
 POTCAR:    PAW_PBE N 08Apr2002                   
 -----------------------------------------------------------------------------
|                                                                             |
|           W    W    AA    RRRRR   N    N  II  N    N   GGGG   !!!           |
|           W    W   A  A   R    R  NN   N  II  NN   N  G    G  !!!           |
|           W    W  A    A  R    R  N N  N  II  N N  N  G       !!!           |
|           W WW W  AAAAAA  RRRRR   N  N N  II  N  N N  G  GGG   !            |
|           WW  WW  A    A  R   R   N   NN  II  N   NN  G    G                |
|           W    W  A    A  R    R  N    N  II  N    N   GGGG   !!!           |
|                                                                             |
|     You requested a magnetic or noncollinear calculation, but did not       |
|     specify the initial magnetic moment with the MAGMOM tag. Note that      |
|     a default of 9.302e-3 will be used for all atoms. This                  |
|     ferromagnetic setup may break the symmetry of the crystal, in           |
|     particular it may rule out finding an antiferromagnetic solution.       |
|     Thence, we recommend setting the initial magnetic moment manually       |
|     or verifying carefully that this magnetic setup is desired.             |
|                                                                             |
 -----------------------------------------------------------------------------

 POTCAR:    PAW_PBE C 08Apr2002                   
   SHA256 =  253f7b50bb8d59471dbedb8285d89021f4a42ed1a2c5d38a03a736e69125dd95 C/POTCAR              
   COPYR  = (c) Copyright 08Apr2002 Georg Kresse                                                    
   COPYR  = This file is part of the software VASP. Any use, copying, and all other rights are regul
   COPYR  = If you do not have a valid VASP license, you may not use, copy or distribute this file. 
   VRHFIN =C: s2p2                                                                                  
   LEXCH  = PE                                                                                      
   EATOM  =   147.1560 eV,   10.8157 Ry                                                             
                                                                                                    
   TITEL  = PAW_PBE C 08Apr2002                                                                     
   LULTRA =        F    use ultrasoft PP ?                                                          
   IUNSCR =        1    unscreen: 0-lin 1-nonlin 2-no                                               
   RPACOR =    1.200    partial core radius                                                         
   POMASS =   12.011; ZVAL   =    4.000    mass and valenz                                          
   RCORE  =    1.500    outmost cutoff radius                                                       
   RWIGS  =    1.630; RWIGS  =    0.863    wigner-seitz radius (au A)                               
   ENMAX  =  400.000; ENMIN  =  300.000 eV                                                          
   ICORE  =        2    local potential                                                             
   LCOR   =        T    correct aug charges                                                         
   LPAW   =        T    paw PP                                                                      
   EAUG   =  644.873                                                                                
   DEXC   =    0.000                                                                                
   RMAX   =    1.529    core radius for proj-oper                                                   
   RAUG   =    1.300    factor for augmentation sphere                                              
   RDEP   =    1.501    radius for radial grids                                                     
   RDEPT  =    1.300    core radius for aug-charge                                                  
                                                                                                    
   Atomic configuration                                                                             
    4 entries                                                                                       
     n  l   j            E        occ.                                                              
     1  0  0.50      -273.3789   2.0000                                                             
     2  0  0.50       -13.7508   2.0000                                                             
     2  1  0.50        -5.2854   2.0000                                                             
     3  2  1.50        -5.4423   0.0000                                                             
   Description                                                                                      
     l       E           TYP  RCUT    TYP  RCUT                                                     
     0    -13.7508458     23  1.200                                                                 
     0     -8.2022199     23  1.200                                                                 
     1     -5.2854383     23  1.500                                                                 
     1     34.0145650     23  1.500                                                                 
     2     -5.4423304      7  1.500                                                                 
  local pseudopotential read in
  partial core-charges read in
  partial kinetic energy density read in
  atomic valenz-charges read in
  non local Contribution for L=           0  read in
    real space projection operators read in
  non local Contribution for L=           0  read in
    real space projection operators read in
  non local Contribution for L=           1  read in
    real space projection operators read in
  non local Contribution for L=           1  read in
    real space projection operators read in
    PAW grid and wavefunctions read in
 
   number of l-projection  operators is LMAX  =           4
   number of lm-projection operators is LMMAX =           8
 
 POTCAR:    PAW_PBE N 08Apr2002                   
   SHA256 =  e053789ff3a61a86a1b75d8a110fcc91f86041011e7b0817c7c99e4e8a6349d7 N/POTCAR              
   COPYR  = (c) Copyright 08Apr2002 Georg Kresse                                                    
   COPYR  = This file is part of the software VASP. Any use, copying, and all other rights are regul
   COPYR  = If you do not have a valid VASP license, you may not use, copy or distribute this file. 
   VRHFIN =N: s2p3                                                                                  
   LEXCH  = PE                                                                                      
   EATOM  =   264.5486 eV,   19.4438 Ry                                                             
                                                                                                    
   TITEL  = PAW_PBE N 08Apr2002                                                                     
   LULTRA =        F    use ultrasoft PP ?                                                          
   IUNSCR =        1    unscreen: 0-lin 1-nonlin 2-no                                               
   RPACOR =    1.200    partial core radius                                                         
   POMASS =   14.001; ZVAL   =    5.000    mass and valenz                                          
   RCORE  =    1.500    outmost cutoff radius                                                       
   RWIGS  =    1.400; RWIGS  =    0.741    wigner-seitz radius (au A)                               
   ENMAX  =  400.000; ENMIN  =  300.000 eV                                                          
   ICORE  =        2    local potential                                                             
   LCOR   =        T    correct aug charges                                                         
   LPAW   =        T    paw PP                                                                      
   EAUG   =  627.112                                                                                
   DEXC   =    0.000                                                                                
   RMAX   =    1.529    core radius for proj-oper                                                   
   RAUG   =    1.300    factor for augmentation sphere                                              
   RDEP   =    1.514    radius for radial grids                                                     
   RDEPT  =    1.338    core radius for aug-charge                                                  
                                                                                                    
   Atomic configuration                                                                             
    4 entries                                                                                       
     n  l   j            E        occ.                                                              
     1  0  0.50      -384.7179   2.0000                                                             
     2  0  0.50       -18.5828   2.0000                                                             
     2  1  0.50        -7.0898   3.0000                                                             
     3  2  1.50        -6.8029   0.0000                                                             
   Description                                                                                      
     l       E           TYP  RCUT    TYP  RCUT                                                     
     0    -18.5828119     23  1.200                                                                 
     0    -13.5018863     23  1.200                                                                 
     1     -7.0897853     23  1.500                                                                 
     1      9.5240782     23  1.500                                                                 
     2     -6.8029130      7  1.500                                                                 
  local pseudopotential read in
  partial core-charges read in
  partial kinetic energy density read in
  atomic valenz-charges read in
  non local Contribution for L=           0  read in
    real space projection operators read in
  non local Contribution for L=           0  read in
    real space projection operators read in
  non local Contribution for L=           1  read in
    real space projection operators read in
  non local Contribution for L=           1  read in
    real space projection operators read in
    PAW grid and wavefunctions read in
 
   number of l-projection  operators is LMAX  =           4
   number of lm-projection operators is LMMAX =           8
 
 Optimization of the real space projectors (new method)

 maximal supplied QI-value         = 25.13
 optimisation between [QCUT,QGAM] = [ 11.31, 22.87] = [ 35.82,146.48] Ry 
 Optimized for a Real-space Cutoff    1.00 Angstroem

   l    n(q)    QCUT    max X(q) W(low)/X(q) W(high)/X(q)  e(spline) 
   0      7    11.310   115.676    0.43E-03    0.13E-02    0.19E-06
   0      7    11.310    87.132    0.43E-03    0.13E-02    0.18E-06
   1      6    11.310     4.429    0.42E-03    0.74E-03    0.11E-06
   1      6    11.310     2.733    0.34E-03    0.55E-03    0.92E-07
 Optimization of the real space projectors (new method)

 maximal supplied QI-value         = 25.13
 optimisation between [QCUT,QGAM] = [ 11.31, 22.87] = [ 35.82,146.48] Ry 
 Optimized for a Real-space Cutoff    1.27 Angstroem

   l    n(q)    QCUT    max X(q) W(low)/X(q) W(high)/X(q)  e(spline) 
   0      9    11.310    79.467    0.75E-04    0.16E-03    0.36E-06
   0      9    11.310    66.151    0.74E-04    0.16E-03    0.36E-06
   1      8    11.310    17.416    0.35E-03    0.12E-03    0.95E-06
   1      8    11.310    12.382    0.37E-03    0.13E-03    0.98E-06
  PAW_PBE C 08Apr2002                   :
 energy of atom  1       EATOM= -147.1560
 kinetic energy error for atom=    0.0076 (will be added to EATOM!!)
  PAW_PBE N 08Apr2002                   :
 energy of atom  2       EATOM= -264.5486
 kinetic energy error for atom=    0.0138 (will be added to EATOM!!)
 
 
 POSCAR: C  N
  positions in direct lattice
  velocities in cartesian coordinates


 exchange-correlation table for PE
   RHO(1)=    0.500       N(1)  =     2000
   RHO(2)=  100.500       N(2)  =     4000
 


--------------------------------------------------------------------------------------------------------


 ion  position               nearest neighbor table
   1  0.083  0.083  0.083- 135 1.55 189 1.55 108 1.55 162 1.55
   2  0.084  0.083  0.417- 163 1.54 190 1.54 136 1.55 109 1.55
   3  0.083  0.083  0.750- 137 1.55 110 1.55 191 1.55 164 1.55
   4  0.084  0.417  0.083- 192 1.54 138 1.54 111 1.55 165 1.55
   5  0.083  0.417  0.417- 112 1.55 139 1.55 166 1.55 193 1.55
   6  0.083  0.417  0.750- 194 1.55 140 1.55 167 1.55 113 1.55
   7  0.083  0.750  0.083- 114 1.55 168 1.55 141 1.55 195 1.55
   8  0.083  0.750  0.417- 142 1.55 196 1.55 169 1.55 115 1.55
   9  0.084  0.750  0.750- 116 1.55 143 1.55 170 1.55 197 1.55
  10  0.417  0.083  0.084- 144 1.55 171 1.55 198 1.55 117 1.55
  11  0.417  0.084  0.417- 199 1.55 172 1.55 118 1.55 145 1.55
  12  0.416  0.083  0.750- 146 1.54 173 1.55 119 1.55 200 1.55
  13  0.417  0.417  0.084- 201 1.55 147 1.55 120 1.55 174 1.55
  14  0.418  0.418  0.418- 202 1.54 148 1.55 175 1.56 121 1.56
  15  0.416  0.416  0.751- 203 1.54 176 1.55 122 1.55 149 1.55
  16  0.417  0.750  0.083- 177 1.55 150 1.55 123 1.55 204 1.55
  17  0.416  0.751  0.417- 205 1.54 124 1.55 151 1.55 178 1.56
  18  0.417  0.749  0.749- 179 1.55 125 1.55 152 1.55 206 1.55
  19  0.750  0.083  0.083- 126 1.54 207 1.54 153 1.55 180 1.55
  20  0.750  0.084  0.417- 181 1.55 127 1.55 154 1.55 208 1.55
  21  0.750  0.084  0.750- 209 1.55 128 1.55 182 1.55 155 1.55
  22  0.750  0.417  0.083- 183 1.55 156 1.55 129 1.55 210 1.55
  23  0.757  0.410  0.410- 184 1.49 130 1.49 157 1.49
  24  0.748  0.418  0.748- 211 1.54 158 1.55 131 1.56 185 1.56
  25  0.750  0.750  0.083- 159 1.55 212 1.55 132 1.55 186 1.55
  26  0.750  0.749  0.417- 213 1.54 187 1.55 133 1.55 160 1.55
  27  0.750  0.751  0.751- 214 1.54 188 1.55 161 1.55 134 1.56
  28  0.250  0.250  0.084- 120 1.55 165 1.55 198 1.55 135 1.55
  29  0.250  0.250  0.417- 199 1.55 166 1.55 136 1.55 121 1.55
  30  0.249  0.250  0.750- 122 1.54 137 1.55 167 1.55 200 1.55
  31  0.250  0.583  0.083- 138 1.54 201 1.54 123 1.55 168 1.55
  32  0.250  0.583  0.417- 139 1.55 169 1.55 124 1.55 202 1.55
  33  0.250  0.583  0.750- 203 1.55 140 1.55 170 1.55 125 1.55
  34  0.250  0.917  0.083- 117 1.55 204 1.55 162 1.55 141 1.55
  35  0.250  0.917  0.417- 163 1.54 205 1.54 118 1.55 142 1.55
  36  0.250  0.916  0.750- 119 1.55 143 1.55 206 1.55 164 1.55
  37  0.583  0.250  0.084- 207 1.55 129 1.55 144 1.55 174 1.55
  38  0.584  0.252  0.418- 208 1.54 130 1.55 175 1.56 145 1.56
  39  0.583  0.249  0.751- 209 1.54 146 1.55 176 1.55 131 1.55
  40  0.583  0.583  0.083- 177 1.55 132 1.55 147 1.55 210 1.55
  41  0.577  0.590  0.410- 148 1.49 178 1.49 133 1.49
  42  0.584  0.582  0.748- 211 1.54 134 1.55 149 1.56 179 1.56
  43  0.583  0.917  0.083- 212 1.54 126 1.54 171 1.55 150 1.55
  44  0.583  0.917  0.417- 151 1.55 127 1.55 172 1.55 213 1.55
  45  0.583  0.916  0.750- 214 1.55 128 1.55 173 1.55 152 1.55
  46  0.917  0.250  0.083- 183 1.55 111 1.55 153 1.55 189 1.55
  47  0.917  0.249  0.417- 190 1.54 154 1.55 112 1.55 184 1.56
  48  0.916  0.251  0.749- 155 1.55 185 1.55 113 1.55 191 1.55
  49  0.917  0.583  0.083- 114 1.55 192 1.55 156 1.55 186 1.55
  50  0.916  0.583  0.417- 193 1.54 187 1.55 157 1.55 115 1.55
  51  0.917  0.583  0.751- 194 1.54 188 1.55 116 1.55 158 1.56
  52  0.917  0.917  0.083- 159 1.55 180 1.55 108 1.55 195 1.55
  53  0.917  0.917  0.417- 109 1.55 196 1.55 181 1.55 160 1.55
  54  0.917  0.917  0.750- 161 1.55 110 1.55 182 1.55 197 1.55
  55  0.250  0.084  0.250- 118 1.55 136 1.55 198 1.55 162 1.55
  56  0.250  0.083  0.584- 163 1.54 199 1.54 119 1.55 137 1.55
  57  0.250  0.083  0.917- 200 1.55 117 1.55 164 1.55 135 1.55
  58  0.250  0.417  0.250- 139 1.55 201 1.55 165 1.55 121 1.55
  59  0.250  0.417  0.583- 166 1.55 140 1.55 122 1.55 202 1.55
  60  0.250  0.416  0.917- 138 1.54 203 1.54 120 1.55 167 1.55
  61  0.250  0.750  0.250- 124 1.55 142 1.55 168 1.55 204 1.55
  62  0.250  0.750  0.583- 169 1.55 205 1.55 143 1.55 125 1.55
  63  0.250  0.750  0.916- 123 1.55 170 1.55 206 1.55 141 1.55
  64  0.584  0.084  0.250- 127 1.55 207 1.55 171 1.55 145 1.55
  65  0.583  0.083  0.583- 172 1.55 128 1.55 146 1.55 208 1.55
  66  0.583  0.083  0.917- 126 1.54 209 1.54 173 1.55 144 1.55
  67  0.584  0.417  0.251- 210 1.54 148 1.55 130 1.55 174 1.55
  68  0.583  0.417  0.917- 147 1.55 129 1.55 176 1.55 211 1.55
  69  0.584  0.751  0.249- 212 1.54 177 1.55 151 1.55 133 1.56
  70  0.584  0.749  0.583- 213 1.54 178 1.55 134 1.55 152 1.55
  71  0.584  0.750  0.916- 132 1.55 214 1.55 150 1.55 179 1.55
  72  0.917  0.083  0.250- 154 1.55 109 1.55 180 1.55 189 1.55
  73  0.916  0.084  0.583- 181 1.55 190 1.55 110 1.55 155 1.55
  74  0.916  0.084  0.916- 153 1.55 182 1.55 191 1.55 108 1.55
  75  0.918  0.417  0.249- 192 1.54 112 1.55 183 1.55 157 1.56
  76  0.916  0.417  0.583- 193 1.54 184 1.55 158 1.55 113 1.55
  77  0.916  0.417  0.916- 156 1.55 194 1.55 111 1.55 185 1.55
  78  0.917  0.750  0.250- 115 1.55 160 1.55 186 1.55 195 1.55
  79  0.918  0.751  0.583- 196 1.54 116 1.55 161 1.55 187 1.56
  80  0.917  0.750  0.917- 188 1.55 114 1.55 159 1.55 197 1.55
  81  0.084  0.250  0.250- 112 1.55 165 1.55 136 1.55 189 1.55
  82  0.083  0.250  0.583- 190 1.55 166 1.55 137 1.55 113 1.55
  83  0.083  0.250  0.917- 167 1.55 111 1.55 191 1.55 135 1.55
  84  0.083  0.583  0.250- 168 1.55 192 1.55 139 1.55 115 1.55
  85  0.083  0.583  0.583- 116 1.55 169 1.55 140 1.55 193 1.55
  86  0.084  0.583  0.917- 138 1.54 194 1.54 170 1.55 114 1.55
  87  0.083  0.917  0.250- 109 1.55 142 1.55 162 1.55 195 1.55
  88  0.084  0.917  0.583- 196 1.54 163 1.54 110 1.55 143 1.55
  89  0.083  0.917  0.917- 164 1.55 197 1.55 108 1.55 141 1.55
  90  0.417  0.251  0.251- 145 1.55 121 1.55 174 1.55 198 1.55
  91  0.416  0.249  0.584- 199 1.54 146 1.55 122 1.55 175 1.55
  92  0.416  0.250  0.917- 176 1.54 144 1.55 120 1.55 200 1.55
  93  0.416  0.583  0.249- 201 1.54 124 1.55 177 1.55 148 1.56
  94  0.418  0.582  0.582- 202 1.54 178 1.55 149 1.56 125 1.56
  95  0.417  0.583  0.916- 203 1.55 147 1.55 123 1.55 179 1.55
  96  0.417  0.917  0.250- 151 1.55 171 1.55 118 1.55 204 1.55
  97  0.417  0.916  0.583- 205 1.55 172 1.55 119 1.55 152 1.55
  98  0.417  0.916  0.917- 173 1.55 150 1.55 206 1.55 117 1.55
  99  0.750  0.249  0.249- 207 1.54 154 1.55 183 1.55 130 1.56
 100  0.748  0.252  0.582- 208 1.54 184 1.55 131 1.56 155 1.56
 101  0.750  0.250  0.916- 209 1.55 129 1.55 153 1.55 185 1.55
 102  0.750  0.583  0.251- 210 1.54 157 1.55 133 1.55 186 1.55
 103  0.757  0.590  0.590- 158 1.49 134 1.49 187 1.49
 104  0.750  0.583  0.916- 156 1.55 132 1.55 188 1.55 211 1.55
 105  0.750  0.917  0.250- 180 1.55 212 1.55 127 1.55 160 1.55
 106  0.750  0.917  0.583- 161 1.55 181 1.55 128 1.55 213 1.55
 107  0.750  0.917  0.917- 126 1.54 214 1.54 182 1.55 159 1.55
 108  1.000  0.000  1.000-  52 1.55   1 1.55  89 1.55  74 1.55
 109  0.000  0.000  0.333-  87 1.55  72 1.55  53 1.55   2 1.55
 110  1.000  0.000  0.667-   3 1.55  54 1.55  73 1.55  88 1.55
 111  1.000  0.333  1.000-  83 1.55  46 1.55  77 1.55   4 1.55
 112  0.000  0.333  0.333-  81 1.55   5 1.55  75 1.55  47 1.55
 113  0.999  0.334  0.666-  48 1.55  76 1.55   6 1.55  82 1.55
 114  0.000  0.667  1.000-   7 1.55  80 1.55  49 1.55  86 1.55
 115  1.000  0.666  0.334-  78 1.55  50 1.55   8 1.55  84 1.55
 116  0.000  0.667  0.667-   9 1.55  85 1.55  79 1.55  51 1.55
 117  0.333  1.000  0.000-  34 1.55  57 1.55  10 1.55  98 1.55
 118  0.333  0.000  0.333-  55 1.55  96 1.55  35 1.55  11 1.55
 119  0.333  1.000  0.667-  36 1.55  12 1.55  97 1.55  56 1.55
 120  0.333  0.333  0.000-  28 1.55  92 1.55  13 1.55  60 1.55
 121  0.334  0.334  0.334-  90 1.55  29 1.55  58 1.55  14 1.56
 122  0.333  0.333  0.667-  30 1.54  15 1.55  91 1.55  59 1.55
 123  0.333  0.667  1.000-  63 1.55  16 1.55  31 1.55  95 1.55
 124  0.333  0.667  0.333-  61 1.55  32 1.55  17 1.55  93 1.55
 125  0.334  0.666  0.666-  18 1.55  33 1.55  62 1.55  94 1.56
 126  0.667  0.000  1.000-  43 1.54  66 1.54  19 1.54 107 1.54
 127  0.667  0.000  0.334-  20 1.55  64 1.55  44 1.55 105 1.55
 128  0.667  1.000  0.667-  65 1.55  21 1.55 106 1.55  45 1.55
 129  0.667  0.333  0.000-  68 1.55 101 1.55  22 1.55  37 1.55
 130  0.668  0.335  0.334-  23 1.49  67 1.55  38 1.55  99 1.56
 131  0.663  0.334  0.666- 215 1.48  39 1.55 100 1.56  24 1.56
 132  0.667  0.666  1.000- 104 1.55  71 1.55  40 1.55  25 1.55
 133  0.666  0.666  0.334-  41 1.49  26 1.55 102 1.55  69 1.56
 134  0.668  0.666  0.665- 103 1.49  70 1.55  42 1.55  27 1.56
 135  0.167  0.167  0.000-   1 1.55  57 1.55  28 1.55  83 1.55
 136  0.167  0.167  0.333-  55 1.55  81 1.55   2 1.55  29 1.55
 137  0.166  0.167  0.667-   3 1.55  30 1.55  82 1.55  56 1.55
 138  0.167  0.500  1.000-   4 1.54  60 1.54  31 1.54  86 1.54
 139  0.167  0.500  0.334-  32 1.55  58 1.55   5 1.55  84 1.55
 140  0.167  0.500  0.667-  59 1.55  33 1.55  85 1.55   6 1.55
 141  0.167  0.833  1.000-   7 1.55  34 1.55  89 1.55  63 1.55
 142  0.167  0.833  0.333-  87 1.55  61 1.55   8 1.55  35 1.55
 143  0.167  0.833  0.667-  36 1.55   9 1.55  62 1.55  88 1.55
 144  0.500  0.167  0.000-  10 1.55  92 1.55  37 1.55  66 1.55
 145  0.500  0.168  0.334-  90 1.55  11 1.55  64 1.55  38 1.56
 146  0.499  0.166  0.667-  12 1.54  39 1.55  91 1.55  65 1.55
 147  0.500  0.500  0.000-  68 1.55  95 1.55  40 1.55  13 1.55
 148  0.501  0.501  0.334-  41 1.49  67 1.55  14 1.55  93 1.56
 149  0.501  0.496  0.666- 215 1.48  15 1.55  42 1.56  94 1.56
 150  0.500  0.833  1.000-  98 1.55  16 1.55  71 1.55  43 1.55
 151  0.500  0.834  0.333-  96 1.55  44 1.55  69 1.55  17 1.55
 152  0.501  0.832  0.666-  18 1.55  70 1.55  45 1.55  97 1.55
 153  0.833  0.167  1.000-  74 1.55  46 1.55  19 1.55 101 1.55
 154  0.833  0.167  0.333-  72 1.55  20 1.55  99 1.55  47 1.55
 155  0.832  0.168  0.666-  48 1.55  21 1.55  73 1.55 100 1.56
 156  0.833  0.500  1.000- 104 1.55  77 1.55  22 1.55  49 1.55
 157  0.833  0.499  0.334-  23 1.49 102 1.55  50 1.55  75 1.56
 158  0.832  0.501  0.665- 103 1.49  76 1.55  24 1.55  51 1.56
 159  0.833  0.833  1.000-  52 1.55  80 1.55  25 1.55 107 1.55
 160  0.833  0.833  0.334-  78 1.55  26 1.55 105 1.55  53 1.55
 161  0.833  0.834  0.667-  54 1.55 106 1.55  79 1.55  27 1.55
 162  0.167  0.000  0.167-  87 1.55  34 1.55   1 1.55  55 1.55
 163  0.167  0.000  0.500-  88 1.54  56 1.54  35 1.54   2 1.54
 164  0.167  1.000  0.833-  89 1.55  57 1.55  36 1.55   3 1.55
 165  0.167  0.333  0.167-  28 1.55  81 1.55  58 1.55   4 1.55
 166  0.167  0.333  0.500-  59 1.55  29 1.55   5 1.55  82 1.55
 167  0.166  0.333  0.833-  83 1.55  30 1.55   6 1.55  60 1.55
 168  0.167  0.667  0.167-   7 1.55  61 1.55  84 1.55  31 1.55
 169  0.167  0.666  0.500-  32 1.55  62 1.55  85 1.55   8 1.55
 170  0.167  0.667  0.833-  63 1.55   9 1.55  86 1.55  33 1.55
 171  0.500  0.000  0.167-  10 1.55  96 1.55  64 1.55  43 1.55
 172  0.500  1.000  0.500-  65 1.55  11 1.55  44 1.55  97 1.55
 173  0.500  1.000  0.833-  98 1.55  12 1.55  45 1.55  66 1.55
 174  0.501  0.334  0.168-  90 1.55  67 1.55  37 1.55  13 1.55
 175  0.501  0.334  0.504- 215 1.48  91 1.55  38 1.56  14 1.56
 176  0.499  0.333  0.834-  92 1.54  39 1.55  15 1.55  68 1.55
 177  0.500  0.667  0.166-  16 1.55  40 1.55  69 1.55  93 1.55
 178  0.501  0.666  0.499-  41 1.49  70 1.55  94 1.55  17 1.56
 179  0.500  0.666  0.832-  18 1.55  95 1.55  71 1.55  42 1.56
 180  0.833  0.000  0.167-  52 1.55  72 1.55 105 1.55  19 1.55
 181  0.833  0.000  0.500-  20 1.55  73 1.55 106 1.55  53 1.55
 182  0.833  0.000  0.833-  74 1.55  54 1.55 107 1.55  21 1.55
 183  0.833  0.333  0.166-  46 1.55  22 1.55  75 1.55  99 1.55
 184  0.832  0.335  0.499-  23 1.49  76 1.55 100 1.55  47 1.56
 185  0.832  0.334  0.832-  48 1.55 101 1.55  77 1.55  24 1.56
 186  0.833  0.666  0.167-  78 1.55 102 1.55  25 1.55  49 1.55
 187  0.833  0.666  0.501- 103 1.49  26 1.55  50 1.55  79 1.56
 188  0.833  0.667  0.833-  80 1.55 104 1.55  27 1.55  51 1.55
 189  1.000  0.167  0.167-   1 1.55  72 1.55  81 1.55  46 1.55
 190  0.000  0.166  0.500-  47 1.54   2 1.54  82 1.55  73 1.55
 191  0.999  0.167  0.833-  74 1.55   3 1.55  83 1.55  48 1.55
 192  0.001  0.500  0.166-  75 1.54   4 1.54  84 1.55  49 1.55
 193  0.999  0.500  0.500-  50 1.54  76 1.54   5 1.55  85 1.55
 194  0.000  0.500  0.834-  51 1.54  86 1.54   6 1.55  77 1.55
 195  1.000  0.833  0.167-   7 1.55  87 1.55  52 1.55  78 1.55
 196  0.001  0.834  0.500-  79 1.54  88 1.54   8 1.55  53 1.55
 197  1.000  0.833  0.833-  89 1.55  80 1.55   9 1.55  54 1.55
 198  0.334  0.167  0.167-  55 1.55  28 1.55  10 1.55  90 1.55
 199  0.333  0.166  0.500-  91 1.54  56 1.54  29 1.55  11 1.55
 200  0.333  0.166  0.834-  57 1.55  30 1.55  12 1.55  92 1.55
 201  0.333  0.500  0.166-  93 1.54  31 1.54  13 1.55  58 1.55
 202  0.334  0.500  0.500-  14 1.54  94 1.54  32 1.55  59 1.55
 203  0.333  0.500  0.834-  15 1.54  60 1.54  33 1.55  95 1.55
 204  0.333  0.833  0.167-  34 1.55  61 1.55  16 1.55  96 1.55
 205  0.333  0.834  0.500-  17 1.54  35 1.54  97 1.55  62 1.55
 206  0.334  0.833  0.833-  63 1.55  36 1.55  98 1.55  18 1.55
 207  0.667  0.166  0.166-  99 1.54  19 1.54  37 1.55  64 1.55
 208  0.667  0.167  0.500- 100 1.54  38 1.54  20 1.55  65 1.55
 209  0.666  0.166  0.834-  39 1.54  66 1.54  21 1.55 101 1.55
 210  0.667  0.500  0.167- 102 1.54  67 1.54  22 1.55  40 1.55
 211  0.667  0.500  0.833-  24 1.54  42 1.54 104 1.55  68 1.55
 212  0.667  0.834  0.166-  69 1.54  43 1.54  25 1.55 105 1.55
 213  0.667  0.833  0.500-  26 1.54  70 1.54 106 1.55  44 1.55
 214  0.667  0.834  0.834-  27 1.54 107 1.54  45 1.55  71 1.55
 215  0.577  0.410  0.590- 149 1.48 175 1.48 131 1.48
 
  LATTYP: Found a simple cubic cell.
 ALAT       =    10.7211360931
  
  Lattice vectors:
  
 A1 = (  10.7211360931,   0.0000000000,   0.0000000000)
 A2 = (   0.0000000000,  10.7211360931,   0.0000000000)
 A3 = (   0.0000000000,   0.0000000000,  10.7211360931)


Analysis of symmetry for initial positions (statically):
=====================================================================
 Subroutine PRICEL returns:
 Original cell was already a primitive cell.
 

 Routine SETGRP: Setting up the symmetry group for a 
 simple cubic supercell.


 Subroutine GETGRP returns: Found  6 space group operations
 (whereof  2 operations were pure point group operations)
 out of a pool of 48 trial point group operations.


The static configuration has the point symmetry C_1h.
 The point group associated with its full space group is C_3v.


Analysis of symmetry for dynamics (positions and initial velocities):
=====================================================================
 Subroutine PRICEL returns:
 Original cell was already a primitive cell.
 

 Routine SETGRP: Setting up the symmetry group for a 
 simple cubic supercell.


 Subroutine GETGRP returns: Found  6 space group operations
 (whereof  2 operations were pure point group operations)
 out of a pool of 48 trial point group operations.


The dynamic configuration has the point symmetry C_1h.
 The point group associated with its full space group is C_3v.


Analysis of structural, dynamic, and magnetic symmetry:
=====================================================================
 Subroutine PRICEL returns:
 Original cell was already a primitive cell.
 

 Routine SETGRP: Setting up the symmetry group for a 
 simple cubic supercell.


 Subroutine GETGRP returns: Found  6 space group operations
 (whereof  2 operations were pure point group operations)
 out of a pool of 48 trial point group operations.


The overall configuration has the point symmetry C_1h.
 The point group associated with its full space group is C_3v.


 Subroutine INISYM returns: Found  6 space group operations
 (whereof  2 operations are pure point group operations),
 and found     1 'primitive' translations


----------------------------------------------------------------------------------------

                                     Primitive cell                                     

  volume of cell :    1232.3170

  direct lattice vectors                    reciprocal lattice vectors
    10.721136093  0.000000000  0.000000000     0.093273697  0.000000000  0.000000000
     0.000000000 10.721136093  0.000000000     0.000000000  0.093273697  0.000000000
     0.000000000  0.000000000 10.721136093     0.000000000  0.000000000  0.093273697

  length of vectors
    10.721136093 10.721136093 10.721136093     0.093273697  0.093273697  0.093273697

  position of ions in fractional coordinates (direct lattice)
     0.083267974  0.083378122  0.083398692
     0.083624260  0.083235629  0.416774108
     0.082927675  0.083400977  0.749984767
     0.083670757  0.416761245  0.082995909
     0.083273005  0.416810609  0.416702183
     0.082983291  0.416685693  0.749887578
     0.083343955  0.749985386  0.083322711
     0.083472965  0.750055783  0.416631302
     0.083538325  0.749905893  0.749889801
     0.416681900  0.083400977  0.083738991
     0.416820100  0.083545227  0.417050463
     0.416280040  0.082709745  0.750386627
     0.416779089  0.416685693  0.083683375
     0.418307797  0.417625203  0.418211222
     0.415587291  0.415983486  0.751079376
     0.416776866  0.749905893  0.083128341
     0.415917295  0.750789774  0.416872497
     0.417199969  0.749208769  0.749466698
     0.749892559  0.083235629  0.083042406
     0.749962442  0.083580347  0.416704225
     0.749616204  0.083545227  0.749846567
     0.749964484  0.416810609  0.083393661
     0.757160010  0.410451474  0.409506657
     0.748455445  0.417625203  0.748358870
     0.750035365  0.750055783  0.083193701
     0.749805664  0.749434419  0.416861003
     0.749794170  0.750789774  0.750749372
     0.250067644  0.250015233  0.083738991
     0.250211894  0.250153433  0.417050463
     0.249376412  0.249613373  0.750386627
     0.249902296  0.583225892  0.083042406
     0.250247014  0.583295775  0.416704225
     0.250211894  0.582949537  0.749846567
     0.250044789  0.916601308  0.083398692
     0.249902296  0.916957594  0.416774108
     0.250067644  0.916261009  0.749984767
     0.583352359  0.250112422  0.083683375
     0.584291869  0.251641130  0.418211222
     0.582650152  0.248920624  0.751079376
     0.583477275  0.583297817  0.083393661
     0.577118140  0.590493343  0.409506657
     0.584291869  0.581788778  0.748358870
     0.583427911  0.917004091  0.082995909
     0.583477275  0.916606339  0.416702183
     0.583352359  0.916316625  0.749887578
     0.916572560  0.250110199  0.083128341
     0.917456441  0.249250628  0.416872497
     0.915875436  0.250533302  0.749466698
     0.916722450  0.583368698  0.083193701
     0.916101086  0.583138997  0.416861003
     0.917456441  0.583127503  0.750749372
     0.916652053  0.916677289  0.083322711
     0.916722450  0.916806299  0.416631302
     0.916572560  0.916871659  0.749889801
     0.250183352  0.083516685  0.250226898
     0.249750072  0.083083405  0.583548382
     0.249771678  0.083105011  0.916894989
     0.250491801  0.416868223  0.250492068
     0.249872761  0.416515514  0.583484486
     0.249750072  0.416451618  0.916916595
     0.250027582  0.750062177  0.249937823
     0.250491801  0.749507932  0.583131777
     0.250183352  0.749773102  0.916483315
     0.583534889  0.083825134  0.250492068
     0.583182180  0.083206094  0.583484486
     0.583118284  0.083083405  0.916916595
     0.584043639  0.417376973  0.251035464
     0.583182180  0.416515514  0.916793906
     0.583735398  0.751065695  0.248934305
     0.584043639  0.748964536  0.582623027
     0.583534889  0.749507932  0.916174866
     0.916728844  0.083360915  0.249937823
     0.916174599  0.083825134  0.583131777
     0.916439769  0.083516685  0.916483315
     0.917732362  0.417068732  0.248934305
     0.915631203  0.417376973  0.582623027
     0.916174599  0.416868223  0.916174866
     0.916542041  0.749875374  0.250124626
     0.917732362  0.751065695  0.582931268
     0.916728844  0.750062177  0.916639085
     0.083538325  0.250110199  0.250094107
     0.082983291  0.250112422  0.583314307
     0.082927675  0.250015233  0.916599023
     0.083472965  0.583368698  0.249944217
     0.083273005  0.583297817  0.583189391
     0.083624260  0.583225892  0.916764371
     0.083343955  0.916677289  0.250014614
     0.083670757  0.917004091  0.583238755
     0.083267974  0.916601308  0.916621878
     0.417199969  0.250533302  0.250791231
     0.415587291  0.248920624  0.584016514
     0.416280040  0.249613373  0.917290255
     0.415917295  0.583127503  0.249210226
     0.418307797  0.581788778  0.582374797
     0.416820100  0.582949537  0.916454773
     0.416776866  0.916871659  0.250094107
     0.416779089  0.916316625  0.583314307
     0.416681900  0.916261009  0.916599023
     0.749794170  0.249250628  0.249210226
     0.748455445  0.251641130  0.582374797
     0.749616204  0.250153433  0.916454773
     0.749805664  0.583138997  0.250565581
     0.757160010  0.590493343  0.589548526
     0.749962442  0.583295775  0.916419653
     0.750035365  0.916806299  0.249944217
     0.749964484  0.916606339  0.583189391
     0.749892559  0.916957594  0.916764371
     0.999913797  0.000069313  0.999930687
     0.000081583  0.000067501  0.333270969
     0.999712732  0.000292810  0.666633263
     0.999712732  0.333366737  0.999707190
     0.000185611  0.333426037  0.333236722
     0.999124228  0.333905939  0.666094061
     0.000081583  0.666729031  0.999932499
     0.999752138  0.666434596  0.333565404
     0.000185611  0.666763278  0.666573963
     0.333327450  0.999836803  0.000163197
     0.333498312  0.000232241  0.333462636
     0.333262092  0.999558730  0.666808007
     0.333262092  0.333191993  0.000441270
     0.334446892  0.333714730  0.334488397
     0.332565947  0.332791474  0.667208526
     0.333498312  0.666537364  0.999767759
     0.333336854  0.666764635  0.333235365
     0.334446892  0.665511603  0.666285270
     0.666644417  0.000110167  0.999889833
     0.666717080  0.000178322  0.333508812
     0.666560665  0.999869775  0.666564695
     0.666560665  0.333435305  0.000130225
     0.668122486  0.334676864  0.334377041
     0.663141162  0.333897883  0.666102117
     0.666717080  0.666491188  0.999821678
     0.665941206  0.666214072  0.333785928
     0.668122486  0.665622959  0.665323136
     0.166503470  0.166660784  0.000163197
     0.166898908  0.166831646  0.333462636
     0.166225397  0.166595426  0.666808007
     0.166776834  0.499977750  0.999889833
     0.166844989  0.500050413  0.333508812
     0.166536442  0.499893998  0.666564695
     0.166735980  0.833247130  0.999930687
     0.166734168  0.833414916  0.333270969
     0.166959477  0.833046065  0.666633263
     0.499858660  0.166595426  0.000441270
     0.500381397  0.167780226  0.334488397
     0.499458141  0.165899281  0.667208526
     0.500101972  0.499893998  0.000130225
     0.501343531  0.501455819  0.334377041
     0.500564550  0.496474495  0.666102117
     0.500033404  0.833046065  0.999707190
     0.500092704  0.833518944  0.333236722
     0.500572606  0.832457561  0.666094061
     0.833204030  0.166831646  0.999767759
     0.833431301  0.166670188  0.333235365
     0.832178269  0.167780226  0.666285270
     0.833157854  0.500050413  0.999821678
     0.832880738  0.499274539  0.333785928
     0.832289625  0.501455819  0.665323136
     0.833395697  0.833414916  0.999932499
     0.833101262  0.833085471  0.333565404
     0.833429944  0.833518944  0.666573963
     0.166735980  0.000069313  0.166752870
     0.166776834  0.000110167  0.500022250
     0.166503470  0.999836803  0.833339216
     0.166959477  0.333366737  0.166953935
     0.166536442  0.333435305  0.500106002
     0.166225397  0.333191993  0.833404574
     0.166734168  0.666729031  0.166585084
     0.166844989  0.666491188  0.499949587
     0.166898908  0.666537364  0.833168354
     0.500033404  0.000292810  0.166953935
     0.500101972  0.999869775  0.500106002
     0.499858660  0.999558730  0.833404574
     0.500572606  0.333905939  0.167542439
     0.500564550  0.333897883  0.503525505
     0.499458141  0.332791474  0.834100719
     0.500092704  0.666763278  0.166481056
     0.501343531  0.665622959  0.498544181
     0.500381397  0.665511603  0.832219774
     0.833395697  0.000067501  0.166585084
     0.833157854  0.000178322  0.499949587
     0.833204030  0.000232241  0.833168354
     0.833429944  0.333426037  0.166481056
     0.832289625  0.334676864  0.498544181
     0.832178269  0.333714730  0.832219774
     0.833101262  0.666434596  0.166914529
     0.832880738  0.666214072  0.500725461
     0.833431301  0.666764635  0.833329812
     0.999999167  0.166827849  0.166667500
     0.000290269  0.166383123  0.499819053
     0.999461294  0.166923460  0.833076540
     0.000644352  0.499973753  0.166022315
     0.999459929  0.500172903  0.499827097
     0.000290269  0.500180947  0.833616877
     0.999961397  0.833294730  0.166705270
     0.000644352  0.833977685  0.500026247
     0.999999167  0.833332500  0.833172151
     0.333590126  0.166923460  0.167205373
     0.332960814  0.166294148  0.500407798
     0.332981473  0.166314807  0.833685193
     0.333049789  0.500180947  0.166376398
     0.333836055  0.499856081  0.500143919
     0.332960814  0.499592202  0.833705852
     0.333494515  0.833332500  0.166667500
     0.333049789  0.833623602  0.499819053
     0.333590126  0.832794627  0.833076540
     0.666847614  0.166383123  0.166376398
     0.666522748  0.167169389  0.500143919
     0.666258869  0.166294148  0.833705852
     0.666839570  0.500172903  0.167206738
     0.666522748  0.499856081  0.832830611
     0.666640420  0.833977685  0.166022315
     0.666839570  0.832793262  0.499827097
     0.666847614  0.833623602  0.833616877
     0.576783125  0.410116459  0.589883541

  ion indices of the primitive-cell ions
   primitive index   ion index
                 1           1
                 2           2
                 3           3
                 4           4
                 5           5
                 6           6
                 7           7
                 8           8
                 9           9
                10          10
                11          11
                12          12
                13          13
                14          14
                15          15
                16          16
                17          17
                18          18
                19          19
                20          20
                21          21
                22          22
                23          23
                24          24
                25          25
                26          26
                27          27
                28          28
                29          29
                30          30
                31          31
                32          32
                33          33
                34          34
                35          35
                36          36
                37          37
                38          38
                39          39
                40          40
                41          41
                42          42
                43          43
                44          44
                45          45
                46          46
                47          47
                48          48
                49          49
                50          50
                51          51
                52          52
                53          53
                54          54
                55          55
                56          56
                57          57
                58          58
                59          59
                60          60
                61          61
                62          62
                63          63
                64          64
                65          65
                66          66
                67          67
                68          68
                69          69
                70          70
                71          71
                72          72
                73          73
                74          74
                75          75
                76          76
                77          77
                78          78
                79          79
                80          80
                81          81
                82          82
                83          83
                84          84
                85          85
                86          86
                87          87
                88          88
                89          89
                90          90
                91          91
                92          92
                93          93
                94          94
                95          95
                96          96
                97          97
                98          98
                99          99
               100         100
               101         101
               102         102
               103         103
               104         104
               105         105
               106         106
               107         107
               108         108
               109         109
               110         110
               111         111
               112         112
               113         113
               114         114
               115         115
               116         116
               117         117
               118         118
               119         119
               120         120
               121         121
               122         122
               123         123
               124         124
               125         125
               126         126
               127         127
               128         128
               129         129
               130         130
               131         131
               132         132
               133         133
               134         134
               135         135
               136         136
               137         137
               138         138
               139         139
               140         140
               141         141
               142         142
               143         143
               144         144
               145         145
               146         146
               147         147
               148         148
               149         149
               150         150
               151         151
               152         152
               153         153
               154         154
               155         155
               156         156
               157         157
               158         158
               159         159
               160         160
               161         161
               162         162
               163         163
               164         164
               165         165
               166         166
               167         167
               168         168
               169         169
               170         170
               171         171
               172         172
               173         173
               174         174
               175         175
               176         176
               177         177
               178         178
               179         179
               180         180
               181         181
               182         182
               183         183
               184         184
               185         185
               186         186
               187         187
               188         188
               189         189
               190         190
               191         191
               192         192
               193         193
               194         194
               195         195
               196         196
               197         197
               198         198
               199         199
               200         200
               201         201
               202         202
               203         203
               204         204
               205         205
               206         206
               207         207
               208         208
               209         209
               210         210
               211         211
               212         212
               213         213
               214         214
               215         215

----------------------------------------------------------------------------------------

 
 
 KPOINTS: Gamma-point                             

Automatic generation of k-mesh.
 Grid dimensions read from file:
 generate k-points for:    1    1    1

 Generating k-lattice:

  Cartesian coordinates                     Fractional coordinates (reciprocal lattice)
     0.093273697  0.000000000  0.000000000     1.000000000  0.000000000  0.000000000
     0.000000000  0.093273697  0.000000000     0.000000000  1.000000000  0.000000000
     0.000000000  0.000000000  0.093273697     0.000000000  0.000000000  1.000000000

  Length of vectors
     0.093273697  0.093273697  0.093273697

  Shift w.r.t. Gamma in fractional coordinates (k-lattice)
     0.000000000  0.000000000  0.000000000

 
 Subroutine IBZKPT returns following result:
 ===========================================
 
 Found      1 irreducible k-points:
 
 Following reciprocal coordinates:
            Coordinates               Weight
  0.000000  0.000000  0.000000      1.000000
 
 Following cartesian coordinates:
            Coordinates               Weight
  0.000000  0.000000  0.000000      1.000000
 


--------------------------------------------------------------------------------------------------------




 Dimension of arrays:
   k-points           NKPTS =      1   k-points in BZ     NKDIM =      1   number of bands    NBANDS=    540
   number of dos      NEDOS =    301   number of ions     NIONS =    215
   non local maximal  LDIM  =      4   non local SUM 2l+1 LMDIM =      8
   total plane-waves  NPLWV = 216000
   max r-space proj   IRMAX =   1560   max aug-charges    IRDMAX=   2356
   dimension x,y,z NGX =    60 NGY =   60 NGZ =   60
   dimension x,y,z NGXF=   120 NGYF=  120 NGZF=  120
   support grid    NGXF=   120 NGYF=  120 NGZF=  120
   ions per type =             214   1
   NGX,Y,Z   is equivalent  to a cutoff of   9.30,  9.30,  9.30 a.u.
   NGXF,Y,Z  is equivalent  to a cutoff of  18.61, 18.61, 18.61 a.u.

 SYSTEM =  unknown system                          
 POSCAR =  C  N                                    

 Startparameter for this run:
   NWRITE =      2    write-flag & timer
   PREC   = normal    normal or accurate (medium, high low for compatibility)
   ISTART =      0    job   : 0-new  1-cont  2-samecut
   ICHARG =      2    charge: 1-file 2-atom 10-const
   ISPIN  =      2    spin polarized calculation?
   LNONCOLLINEAR =      F non collinear calculations
   LSORBIT =      F    spin-orbit coupling
   INIWAV =      1    electr: 0-lowe 1-rand  2-diag
   LASPH  =      F    aspherical Exc in radial PAW
 Electronic Relaxation 1
   ENCUT  =  500.0 eV  36.75 Ry    6.06 a.u.  19.55 19.55 19.55*2*pi/ulx,y,z
   ENINI  =  500.0     initial cutoff
   ENAUG  =  644.9 eV  augmentation charge cutoff
   NELM   =    100;   NELMIN=  2; NELMDL= -5     # of ELM steps 
   EDIFF  = 0.1E-05   stopping-criterion for ELM
   LREAL  =      T    real-space projection
   NLSPLINE    = F    spline interpolate recip. space projectors
   LCOMPAT=      F    compatible to vasp.4.4
   GGA_COMPAT  = T    GGA compatible to vasp.4.4-vasp.4.6
   LMAXPAW     = -100 max onsite density
   LMAXMIX     =    2 max onsite mixed and CHGCAR
   VOSKOWN=      0    Vosko Wilk Nusair interpolation
   ROPT   =   -0.00050  -0.00050
 Ionic relaxation
   EDIFFG = -.1E-01   stopping-criterion for IOM
   NSW    =      0    number of steps for IOM
   NBLOCK =      1;   KBLOCK =      1    inner block; outer block 
   IBRION =     -1    ionic relax: 0-MD 1-quasi-New 2-CG
   NFREE  =      1    steps in history (QN), initial steepest desc. (CG)
   ISIF   =      2    stress and relaxation
   IWAVPR =     10    prediction:  0-non 1-charg 2-wave 3-comb
   ISYM   =      2    0-nonsym 1-usesym 2-fastsym
   LCORR  =      T    Harris-Foulkes like correction to forces

   POTIM  = 0.5000    time-step for ionic-motion
   TEIN   =    0.0    initial temperature
   TEBEG  =    0.0;   TEEND  =   0.0 temperature during run
   SMASS  =  -3.00    Nose mass-parameter (am)
   estimated Nose-frequenzy (Omega)   =  0.10E-29 period in steps = 0.13E+47 mass=  -0.263E-26a.u.
   SCALEE = 1.0000    scale energy and forces
   NPACO  =    256;   APACO  = 10.0  distance and # of slots for P.C.
   PSTRESS=    0.0 pullay stress

  Mass of Ions in am
   POMASS =  12.01 14.00
  Ionic Valenz
   ZVAL   =   4.00  5.00
  Atomic Wigner-Seitz radii
   RWIGS  =  -1.00 -1.00
  virtual crystal weights 
   VCA    =   1.00  1.00
   NELECT =     862.0000    total number of electrons
   NUPDOWN=       2.0000    fix difference up-down

 DOS related values:
   EMIN   =  10.00;   EMAX   =-10.00  energy-range for DOS
   EFERMI =   0.00;   METHOD = LEGACY      
   ISMEAR =    -2;   SIGMA  =   0.01  broadening in eV -4-tet -1-fermi 0-gaus
   EFERMI_NEDOS =   21; number of points for ismear=-14 and -15

 Electronic relaxation 2 (details)
   IALGO  =     38    algorithm
   LDIAG  =      T    sub-space diagonalisation (order eigenvalues)
   LSUBROT=      F    optimize rotation matrix (better conditioning)
   LROBUST=      F    robust break criterion during scf (extrapolated energy error)
   ISEARCH=      0    line search for conjugate gradient (0, 1=use gradient)
   TURBO    =      0    0=normal 1=particle mesh
   IRESTART =      0    0=no restart 2=restart with 2 vectors
   NREBOOT  =      0    no. of reboots
   NMIN     =      0    reboot dimension
   EREF     =   0.00    reference energy to select bands
   IMIX   =      4    mixing-type and parameters
     AMIX     =   0.40;   BMIX     =  1.00
     AMIX_MAG =   1.60;   BMIX_MAG =  1.00
     AMIN     =   0.10
     WC   =   100.;   INIMIX=   1;  MIXPRE=   1;  MAXMIX= -45

 Intra band minimization:
   WEIMIN = 0.0000     energy-eigenvalue tresh-hold
   EBREAK =  0.46E-09  absolut break condition
   DEPER  =   0.30     relativ break condition  

   TIME   =   0.40     timestep for ELM

  volume/ion in A,a.u.               =       5.73        38.68
  Fermi-wavevector in a.u.,A,eV,Ry     =   1.453237  2.746220 28.734113  2.111898
  Thomas-Fermi vector in A             =   2.570527
 
 Write flags
   LWAVE        =      F    write WAVECAR
   LDOWNSAMPLE  =      F    k-point downsampling of WAVECAR
   LCHARG       =      F    write CHGCAR
   LVTOT        =      F    write LOCPOT, total local potential
   LVHAR        =      F    write LOCPOT, Hartree potential only
   WRT_POTENTIAL= false  ! write potential to hdf5 file
   LELF         =      F    write electronic localiz. function (ELF)
   LORBIT       =     10    0 simple, 1 ext, 2 COOP (PROOUT), +10 PAW based schemes


 Python interface
   PLUGINS active      =      F    recompile with -DPLUGINS to activate
 
 Dipole corrections
   LMONO      =      F    monopole corrections only (constant potential shift)
   LDIPOL     =      F    correct potential (dipole corrections)
   IDIPOL     =      0    1-x, 2-y, 3-z, 4-all directions 
   EPSILON    =  1.0000000 bulk dielectric constant
   LVACPOTAV  =      F  vacuum potentials using an averaging scheme for the charge density
   VACPOTFLAT =  0.1000000 required flatness to determine vacuum potential
 
Coulomb truncation method
  LTRUNCATE          =      F  Coulomb kernel truncation to be used

 
 Exchange correlation treatment:
   GGA     = PE    functional components
   XC_C    = 1    coefficients multiplying the functional components
   LIBXC   =     F    Libxc                    
   VOSKOWN =     0    Vosko Wilk Nusair interpolation
   LHFCALC =     F    Hartree Fock is set to
   LHFONE  =     F    Hartree Fock one center treatment
   AEXX    =    0.0000 exact exchange contribution

 Parameters of functionals:
   PE:
     No parameter
 
 Van der Waals corrections
   IVDW    =     0    specifies the selected vdW correction

 Linear response parameters
   LEPSILON=     F    determine dielectric tensor
   LRPA    =     F    only Hartree local field effects (RPA)
   LNABLA  =     F    use nabla operator in PAW spheres
   LVEL    =     F    velocity operator in full k-point grid
   CSHIFT  =0.1000    complex shift for real part using Kramers Kronig
   OMEGAMAX=  -1.0    maximum frequency
   DEG_THRESHOLD= 0.2000000E-02 threshold for treating states as degnerate
   RTIME   =   -0.100 relaxation time in fs
  (WPLASMAI=    0.000 imaginary part of plasma frequency in eV, 0.658/RTIME)
   DFIELD  = 0.0000000 0.0000000 0.0000000 field for delta impulse in time
 
  Optional k-point grid parameters
   LKPOINTS_OPT  =     F    use optional k-point grid
   KPOINTS_OPT_MODE=     1    mode for optional k-point grid
 
 Orbital magnetization related:
   ORBITALMAG=     F  switch on orbital magnetization
   LCHIMAG   =     F  perturbation theory with respect to B field
   DQ        =  0.001000  dq finite difference perturbation B field
   LLRAUG    =     F  two centre corrections for induced B field
   LBONE     =     F  B-component reconstruction in AE one-centre
   LVGVCALC  =     T  calculate vGv susceptibility
   LVGVAPPL  =     F  apply vGv susceptibility instead of pGv for G=0

 Random number generation:
   RANDOM_GENERATOR = DEFAULT
   PCG_SEED         = not used


--------------------------------------------------------------------------------------------------------


 Static calculation
 charge density and potential will be updated during run
 spin polarized calculation
 Variant of blocked Davidson
 Davidson routine will perform the subspace rotation
 perform sub-space diagonalisation
    after iterative eigenvector-optimisation
 modified Broyden-mixing scheme, WC =      100.0
 initial mixing is a Kerker type mixing with AMIX =  0.4000 and BMIX =      1.0000
 Hartree-type preconditioning will be used
 using additional bands          109
 real space projection scheme for non local part
 use partial core corrections
 calculate Harris-corrections to forces 
   (improved forces if not selfconsistent)
 use gradient corrections 
 use of overlap-Matrix (Vanderbilt PP)
 partial occupancies read from INCAR or WAVECAR (fixed during run)


--------------------------------------------------------------------------------------------------------


  energy-cutoff  :      500.00
  volume of cell :     1232.32
      direct lattice vectors                 reciprocal lattice vectors
    10.721136093  0.000000000  0.000000000     0.093273697  0.000000000  0.000000000
     0.000000000 10.721136093  0.000000000     0.000000000  0.093273697  0.000000000
     0.000000000  0.000000000 10.721136093     0.000000000  0.000000000  0.093273697

  length of vectors
    10.721136093 10.721136093 10.721136093     0.093273697  0.093273697  0.093273697


 
 k-points in units of 2pi/SCALE and weight: Gamma-point                             
   0.00000000  0.00000000  0.00000000       1.000
 
 k-points in reciprocal lattice and weights: Gamma-point                             
   0.00000000  0.00000000  0.00000000       1.000
 
 position of ions in fractional coordinates (direct lattice) 
   0.08326797  0.08337812  0.08339869
   0.08362426  0.08323563  0.41677411
   0.08292768  0.08340098  0.74998477
   0.08367076  0.41676124  0.08299591
   0.08327301  0.41681061  0.41670218
   0.08298329  0.41668569  0.74988758
   0.08334395  0.74998539  0.08332271
   0.08347297  0.75005578  0.41663130
   0.08353832  0.74990589  0.74988980
   0.41668190  0.08340098  0.08373899
   0.41682010  0.08354523  0.41705046
   0.41628004  0.08270974  0.75038663
   0.41677909  0.41668569  0.08368338
   0.41830780  0.41762520  0.41821122
   0.41558729  0.41598349  0.75107938
   0.41677687  0.74990589  0.08312834
   0.41591730  0.75078977  0.41687250
   0.41719997  0.74920877  0.74946670
   0.74989256  0.08323563  0.08304241
   0.74996244  0.08358035  0.41670423
   0.74961620  0.08354523  0.74984657
   0.74996448  0.41681061  0.08339366
   0.75716001  0.41045147  0.40950666
   0.74845544  0.41762520  0.74835887
   0.75003537  0.75005578  0.08319370
   0.74980566  0.74943442  0.41686100
   0.74979417  0.75078977  0.75074937
   0.25006764  0.25001523  0.08373899
   0.25021189  0.25015343  0.41705046
   0.24937641  0.24961337  0.75038663
   0.24990230  0.58322589  0.08304241
   0.25024701  0.58329577  0.41670423
   0.25021189  0.58294954  0.74984657
   0.25004479  0.91660131  0.08339869
   0.24990230  0.91695759  0.41677411
   0.25006764  0.91626101  0.74998477
   0.58335236  0.25011242  0.08368338
   0.58429187  0.25164113  0.41821122
   0.58265015  0.24892062  0.75107938
   0.58347727  0.58329782  0.08339366
   0.57711814  0.59049334  0.40950666
   0.58429187  0.58178878  0.74835887
   0.58342791  0.91700409  0.08299591
   0.58347727  0.91660634  0.41670218
   0.58335236  0.91631662  0.74988758
   0.91657256  0.25011020  0.08312834
   0.91745644  0.24925063  0.41687250
   0.91587544  0.25053330  0.74946670
   0.91672245  0.58336870  0.08319370
   0.91610109  0.58313900  0.41686100
   0.91745644  0.58312750  0.75074937
   0.91665205  0.91667729  0.08332271
   0.91672245  0.91680630  0.41663130
   0.91657256  0.91687166  0.74988980
   0.25018335  0.08351669  0.25022690
   0.24975007  0.08308340  0.58354838
   0.24977168  0.08310501  0.91689499
   0.25049180  0.41686822  0.25049207
   0.24987276  0.41651551  0.58348449
   0.24975007  0.41645162  0.91691660
   0.25002758  0.75006218  0.24993782
   0.25049180  0.74950793  0.58313178
   0.25018335  0.74977310  0.91648331
   0.58353489  0.08382513  0.25049207
   0.58318218  0.08320609  0.58348449
   0.58311828  0.08308340  0.91691660
   0.58404364  0.41737697  0.25103546
   0.58318218  0.41651551  0.91679391
   0.58373540  0.75106570  0.24893430
   0.58404364  0.74896454  0.58262303
   0.58353489  0.74950793  0.91617487
   0.91672884  0.08336091  0.24993782
   0.91617460  0.08382513  0.58313178
   0.91643977  0.08351669  0.91648331
   0.91773236  0.41706873  0.24893430
   0.91563120  0.41737697  0.58262303
   0.91617460  0.41686822  0.91617487
   0.91654204  0.74987537  0.25012463
   0.91773236  0.75106570  0.58293127
   0.91672884  0.75006218  0.91663909
   0.08353832  0.25011020  0.25009411
   0.08298329  0.25011242  0.58331431
   0.08292768  0.25001523  0.91659902
   0.08347297  0.58336870  0.24994422
   0.08327301  0.58329782  0.58318939
   0.08362426  0.58322589  0.91676437
   0.08334395  0.91667729  0.25001461
   0.08367076  0.91700409  0.58323876
   0.08326797  0.91660131  0.91662188
   0.41719997  0.25053330  0.25079123
   0.41558729  0.24892062  0.58401651
   0.41628004  0.24961337  0.91729026
   0.41591730  0.58312750  0.24921023
   0.41830780  0.58178878  0.58237480
   0.41682010  0.58294954  0.91645477
   0.41677687  0.91687166  0.25009411
   0.41677909  0.91631662  0.58331431
   0.41668190  0.91626101  0.91659902
   0.74979417  0.24925063  0.24921023
   0.74845544  0.25164113  0.58237480
   0.74961620  0.25015343  0.91645477
   0.74980566  0.58313900  0.25056558
   0.75716001  0.59049334  0.58954853
   0.74996244  0.58329577  0.91641965
   0.75003537  0.91680630  0.24994422
   0.74996448  0.91660634  0.58318939
   0.74989256  0.91695759  0.91676437
   0.99991380  0.00006931  0.99993069
   0.00008158  0.00006750  0.33327097
   0.99971273  0.00029281  0.66663326
   0.99971273  0.33336674  0.99970719
   0.00018561  0.33342604  0.33323672
   0.99912423  0.33390594  0.66609406
   0.00008158  0.66672903  0.99993250
   0.99975214  0.66643460  0.33356540
   0.00018561  0.66676328  0.66657396
   0.33332745  0.99983680  0.00016320
   0.33349831  0.00023224  0.33346264
   0.33326209  0.99955873  0.66680801
   0.33326209  0.33319199  0.00044127
   0.33444689  0.33371473  0.33448840
   0.33256595  0.33279147  0.66720853
   0.33349831  0.66653736  0.99976776
   0.33333685  0.66676463  0.33323537
   0.33444689  0.66551160  0.66628527
   0.66664442  0.00011017  0.99988983
   0.66671708  0.00017832  0.33350881
   0.66656066  0.99986977  0.66656470
   0.66656066  0.33343530  0.00013023
   0.66812249  0.33467686  0.33437704
   0.66314116  0.33389788  0.66610212
   0.66671708  0.66649119  0.99982168
   0.66594121  0.66621407  0.33378593
   0.66812249  0.66562296  0.66532314
   0.16650347  0.16666078  0.00016320
   0.16689891  0.16683165  0.33346264
   0.16622540  0.16659543  0.66680801
   0.16677683  0.49997775  0.99988983
   0.16684499  0.50005041  0.33350881
   0.16653644  0.49989400  0.66656470
   0.16673598  0.83324713  0.99993069
   0.16673417  0.83341492  0.33327097
   0.16695948  0.83304606  0.66663326
   0.49985866  0.16659543  0.00044127
   0.50038140  0.16778023  0.33448840
   0.49945814  0.16589928  0.66720853
   0.50010197  0.49989400  0.00013023
   0.50134353  0.50145582  0.33437704
   0.50056455  0.49647449  0.66610212
   0.50003340  0.83304606  0.99970719
   0.50009270  0.83351894  0.33323672
   0.50057261  0.83245756  0.66609406
   0.83320403  0.16683165  0.99976776
   0.83343130  0.16667019  0.33323537
   0.83217827  0.16778023  0.66628527
   0.83315785  0.50005041  0.99982168
   0.83288074  0.49927454  0.33378593
   0.83228962  0.50145582  0.66532314
   0.83339570  0.83341492  0.99993250
   0.83310126  0.83308547  0.33356540
   0.83342994  0.83351894  0.66657396
   0.16673598  0.00006931  0.16675287
   0.16677683  0.00011017  0.50002225
   0.16650347  0.99983680  0.83333922
   0.16695948  0.33336674  0.16695394
   0.16653644  0.33343530  0.50010600
   0.16622540  0.33319199  0.83340457
   0.16673417  0.66672903  0.16658508
   0.16684499  0.66649119  0.49994959
   0.16689891  0.66653736  0.83316835
   0.50003340  0.00029281  0.16695394
   0.50010197  0.99986977  0.50010600
   0.49985866  0.99955873  0.83340457
   0.50057261  0.33390594  0.16754244
   0.50056455  0.33389788  0.50352551
   0.49945814  0.33279147  0.83410072
   0.50009270  0.66676328  0.16648106
   0.50134353  0.66562296  0.49854418
   0.50038140  0.66551160  0.83221977
   0.83339570  0.00006750  0.16658508
   0.83315785  0.00017832  0.49994959
   0.83320403  0.00023224  0.83316835
   0.83342994  0.33342604  0.16648106
   0.83228962  0.33467686  0.49854418
   0.83217827  0.33371473  0.83221977
   0.83310126  0.66643460  0.16691453
   0.83288074  0.66621407  0.50072546
   0.83343130  0.66676463  0.83332981
   0.99999917  0.16682785  0.16666750
   0.00029027  0.16638312  0.49981905
   0.99946129  0.16692346  0.83307654
   0.00064435  0.49997375  0.16602232
   0.99945993  0.50017290  0.49982710
   0.00029027  0.50018095  0.83361688
   0.99996140  0.83329473  0.16670527
   0.00064435  0.83397768  0.50002625
   0.99999917  0.83333250  0.83317215
   0.33359013  0.16692346  0.16720537
   0.33296081  0.16629415  0.50040780
   0.33298147  0.16631481  0.83368519
   0.33304979  0.50018095  0.16637640
   0.33383605  0.49985608  0.50014392
   0.33296081  0.49959220  0.83370585
   0.33349451  0.83333250  0.16666750
   0.33304979  0.83362360  0.49981905
   0.33359013  0.83279463  0.83307654
   0.66684761  0.16638312  0.16637640
   0.66652275  0.16716939  0.50014392
   0.66625887  0.16629415  0.83370585
   0.66683957  0.50017290  0.16720674
   0.66652275  0.49985608  0.83283061
   0.66664042  0.83397768  0.16602232
   0.66683957  0.83279326  0.49982710
   0.66684761  0.83362360  0.83361688
   0.57678312  0.41011646  0.58988354
 
 position of ions in cartesian coordinates  (Angst):
   0.89272728  0.89390819  0.89412873
   0.89654707  0.89238050  4.46829193
   0.88907889  0.89415323  8.04068875
   0.89704558  4.46815402  0.88981043
   0.89278122  4.46868326  4.46752081
   0.88967516  4.46734402  8.03964678
   0.89354188  8.04069539  0.89331413
   0.89492502  8.04145012  4.46676089
   0.89562575  8.03984314  8.03967061
   4.46730336  0.89415323  0.89777711
   4.46878502  0.89569975  4.47125477
   4.46299496  0.88674243  8.04499716
   4.46834533  4.46734402  0.89718085
   4.48473482  4.47741664  4.48369943
   4.45556791  4.45981556  8.05242421
   4.46832150  8.03984314  0.89123026
   4.45910593  8.04931935  4.46934677
   4.47285765  8.03236917  8.03513446
   8.03970018  0.89238050  0.89030894
   8.04044940  0.89607628  4.46754271
   8.03673734  0.89569975  8.03920710
   8.04047130  4.46868326  0.89407478
   8.11761551  4.40050611  4.39037660
   8.02429268  4.47741664  8.02325729
   8.04123122  8.04145012  0.89193099
   8.03876856  8.03478840  4.46922355
   8.03864534  8.04931935  8.04888619
   2.68100925  2.68044734  0.89777711
   2.68255577  2.68192900  4.47125477
   2.67359845  2.67613894  8.04499716
   2.67923652  6.25284416  0.89030894
   2.68293230  6.25359338  4.46754271
   2.68255577  6.24988133  8.03920710
   2.68076421  9.82700737  0.89412873
   2.67923652  9.83082715  4.46829193
   2.68100925  9.82335898  8.04068875
   6.25420003  2.68148931  0.89718085
   6.26427264  2.69787880  4.48369943
   6.24667157  2.66871189  8.05242421
   6.25553927  6.25361528  0.89407478
   6.18736212  6.33075949  4.39037660
   6.26427264  6.23743666  8.02325729
   6.25501003  9.83132566  0.88981043
   6.25553927  9.82706131  4.46752081
   6.25420003  9.82395524  8.03964678
   9.82669916  2.68146549  0.89123026
   9.83617537  2.67224991  4.46934677
   9.81922519  2.68600163  8.03513446
   9.82830614  6.25437520  0.89193099
   9.82164442  6.25191254  4.46922355
   9.83617537  6.25178932  8.04888619
   9.82755141  9.82782197  0.89331413
   9.82830614  9.82920510  4.46676089
   9.82669916  9.82990583  8.03967061
   2.68224977  0.89539375  2.68271662
   2.67760451  0.89074849  6.25630162
   2.67783615  0.89098013  9.83015596
   2.68555669  4.46930095  2.68555956
   2.67891987  4.46551951  6.25561658
   2.67760451  4.46483447  9.83038760
   2.68057973  8.04151868  2.67961742
   2.68555669  8.03557654  6.25183514
   2.68224977  8.03841947  9.82574235
   6.25615696  0.89870067  2.68555956
   6.25237552  0.89206386  6.25561658
   6.25169048  0.89074849  9.83038760
   6.26161134  4.47475533  2.69138537
   6.25237552  4.46551951  9.82907224
   6.25830665  8.05227753  2.66885856
   6.26161134  8.02975072  6.24638076
   6.25615696  8.03557654  9.82243542
   9.82837470  0.89372371  2.67961742
   9.82243256  0.89870067  6.25183514
   9.82527549  0.89539375  9.82574235
   9.83913355  4.47145064  2.66885856
   9.81660674  4.47475533  6.24638076
   9.82243256  4.46930095  9.82243542
   9.82637196  8.03951594  2.68162015
   9.83913355  8.05227753  6.24968546
   9.82837470  8.04151868  9.82741238
   0.89562575  2.68146549  2.68129296
   0.88967516  2.68148931  6.25379207
   0.88907889  2.68044734  9.82698286
   0.89492502  6.25437520  2.67968597
   0.89278122  6.25361528  6.25245283
   0.89654707  6.25284416  9.82875559
   0.89354188  9.82782197  2.68044070
   0.89704558  9.83132566  6.25298207
   0.89272728  9.82700737  9.82722790
   4.47285765  2.68600163  2.68876692
   4.45556791  2.66871189  6.26132053
   4.46299496  2.67613894  9.83439366
   4.45910593  6.25178932  2.67181675
   4.48473482  6.23743666  6.24371946
   4.46878502  6.24988133  9.82543634
   4.46832150  9.82990583  2.68129296
   4.46834533  9.82395524  6.25379207
   4.46730336  9.82335898  9.82698286
   8.03864534  2.67224991  2.67181675
   8.02429268  2.69787880  6.24371946
   8.03673734  2.68192900  9.82543634
   8.03876856  6.25191254  2.68634769
   8.11761551  6.33075949  6.32062998
   8.04044940  6.25359338  9.82505982
   8.04123122  9.82920510  2.67968597
   8.04047130  9.82706131  6.25245283
   8.03970018  9.83082715  9.82875559
  10.72021190  0.00074312 10.72039297
   0.00087466  0.00072368  3.57304341
  10.71805625  0.00313926  7.14706593
  10.71805625  3.57407016 10.71799684
   0.00198996  3.57470592  3.57267624
  10.71174682  3.57985102  7.14128508
   0.00087466  7.14809268 10.72041241
  10.71847873  7.14493601  3.57620009
   0.00198996  7.14845985  7.14643017
   3.57364895 10.71938644  0.00174965
   3.57548078  0.00248989  3.57509831
   3.57294825 10.71640518  7.14893939
   3.57294825  3.57219670  0.00473092
   3.58565065  3.57780104  3.58609562
   3.56548478  3.56790269  7.15323341
   3.57548078  7.14603779 10.71864620
   3.57374978  7.14847439  3.57266170
   3.58565065  7.13504047  7.14333505
   7.14718552  0.00118111 10.71995498
   7.14796455  0.00191182  3.57559336
   7.14628760 10.71973993  7.14633081
   7.14628760  3.57480528  0.00139616
   7.16303209  3.58811620  3.58490177
   7.10962664  3.57976465  7.14137144
   7.14796455  7.14554274 10.71922428
   7.13964630  7.14257173  3.57856436
   7.16303209  7.13623432  7.13301989
   1.78510637  1.78679294  0.00174965
   1.78934591  1.78862478  3.57509831
   1.78212510  1.78609224  7.14893939
   1.78803713  5.36032950 10.71995498
   1.78876784  5.36110853  3.57559336
   1.78545986  5.35943158  7.14633081
   1.78759914  8.93335588 10.72039297
   1.78757970  8.93515473  3.57304341
   1.78999528  8.93120023  7.14706593
   5.35905272  1.78609224  0.00473092
   5.36465706  1.79879464  3.58609562
   5.35475870  1.77862877  7.15323341
   5.36166130  5.35943158  0.00139616
   5.37497222  5.37617607  3.58490177
   5.36662067  5.32277063  7.14137144
   5.36092618  8.93120023 10.71799684
   5.36156194  8.93627004  3.57267624
   5.36670703  8.92489080  7.14128508
   8.93289379  1.78862478 10.71864620
   8.93533040  1.78689377  3.57266170
   8.92189648  1.79879464  7.14333505
   8.93239875  5.36110853 10.71922428
   8.92942774  5.35279028  3.57856436
   8.92309033  5.37617607  7.13301989
   8.93494869  8.93515473 10.72041241
   8.93179201  8.93162271  3.57620009
   8.93531586  8.93627004  7.14643017
   1.78759914  0.00074312  1.78778021
   1.78803713  0.00118111  5.36080659
   1.78510637 10.71938644  8.93434315
   1.78999528  3.57407016  1.78993586
   1.78545986  3.57480528  5.36170451
   1.78212510  3.57219670  8.93504386
   1.78757970  7.14809268  1.78598136
   1.78876784  7.14554274  5.36002756
   1.78934591  7.14603779  8.93251132
   5.36092618  0.00313926  1.78993586
   5.36166130 10.71973993  5.36170451
   5.35905272 10.71640518  8.93504386
   5.36670703  3.57985102  1.79624529
   5.36662067  3.57976465  5.39836547
   5.35475870  3.56790269  8.94250733
   5.36156194  7.14845985  1.78486606
   5.37497222  7.13623432  5.34496002
   5.36465706  7.13504047  8.92234145
   8.93494869  0.00072368  1.78598136
   8.93239875  0.00191182  5.36002756
   8.93289379  0.00248989  8.93251132
   8.93531586  3.57470592  1.78486606
   8.92309033  3.58811620  5.34496002
   8.92189648  3.57780104  8.92234145
   8.93179201  7.14493601  1.78951338
   8.92942774  7.14257173  5.36834581
   8.93533040  7.14847439  8.93424232
  10.72112716  1.78858407  1.78686495
   0.00311201  1.78381611  5.35862809
  10.71536055  1.78960913  8.93152697
   0.00690818  5.36028665  1.77994784
  10.71534591  5.36242176  5.35871433
   0.00311201  5.36250801  8.93731999
  10.72072222  8.93386620  1.78726989
   0.00690818  8.94118825  5.36084944
  10.72112716  8.93427114  8.93255202
   3.57646514  1.78960913  1.79263156
   3.56971820  1.78286219  5.36494011
   3.56993969  1.78308368  8.93805241
   3.57067211  5.36250801  1.78374401
   3.57910178  5.35902508  5.36211102
   3.56971820  5.35619598  8.93827391
   3.57544008  8.93427114  1.78686495
   3.57067211  8.93739209  5.35862809
   3.57646514  8.92850453  8.93152697
   7.14936403  1.78381611  1.78374401
   7.14588110  1.79224577  5.36211102
   7.14305200  1.78286219  8.93827391
   7.14927778  5.36242176  1.79264620
   7.14588110  5.35902508  8.92889032
   7.14714267  8.94118825  1.77994784
   7.14927778  8.92848989  5.35871433
   7.14936403  8.93739209  8.93731999
   6.18377037  4.39691437  6.32422173
 


--------------------------------------------------------------------------------------------------------


 k-point     1 :   0.0000 0.0000 0.0000  plane waves:   31439

 maximum and minimum number of plane-waves per node :      4492     4489

 maximum number of plane-waves:     31439
 maximum index in each direction: 
   IXMAX=   19   IYMAX=   19   IZMAX=   19
   IXMIN=  -19   IYMIN=  -19   IZMIN=  -19


 real space projection operators:
  total allocation   :       9959.06 KBytes
  max/ min on nodes  :       1504.44       1321.44


 parallel 3D FFT for wavefunctions:
    minimum data exchange during FFTs selected (reduces bandwidth)
 parallel 3D FFT for charge:
    minimum data exchange during FFTs selected (reduces bandwidth)


 total amount of memory used by VASP MPI-rank0    69851. kBytes
=======================================================================

   base                                    :      30000. kBytes
   nonlr-proj                              :       7364. kBytes
   fftplans                                :       3375. kBytes
   grid                                    :       8446. kBytes
   one-center                              :        190. kBytes
   wavefun                                 :      20476. kBytes
 
     INWAV:  cpu time      0.0000: real time      0.0002
 Broyden mixing: mesh for mixing (old mesh)
   NGX = 39   NGY = 39   NGZ = 39
  (NGX  =120   NGY  =120   NGZ  =120)
  gives a total of  59319 points

 initial charge density was supplied:
 charge density of overlapping atoms calculated
 number of electron     861.0000000 magnetization       2.0000000
 keeping initial charge density in first step


--------------------------------------------------------------------------------------------------------


 Maximum index for non-local projection operator          174
 Maximum index for augmentation-charges          193 (set IRDMAX)


--------------------------------------------------------------------------------------------------------


 First call to EWALD:  gamma=   0.165
 Maximum number of real-space cells   3x   3x   3
 Maximum number of reciprocal cells   3x   3x   3

    FEWALD:  cpu time      0.0488: real time      0.0490


--------------------------------------- Ionic step        1  -------------------------------------------




--------------------------------------- Iteration      1(   1)  ---------------------------------------


    POTLOK:  cpu time      0.0896: real time      0.0906
    SETDIJ:  cpu time      0.0186: real time      0.0187
     EDDAV:  cpu time      6.4269: real time      6.4852
       DOS:  cpu time      0.0002: real time      0.0002
    --------------------------------------------
      LOOP:  cpu time      6.5353: real time      6.5947

 eigenvalue-minimisations  :  2160
 total energy-change (2. order) : 0.2959445E+04  (-0.4541144E+05)
 number of electron     861.0000000 magnetization       2.0000000
 augmentation part      861.0000000 magnetization       2.0000000

 Free energy of the ion-electron system (eV)
  ---------------------------------------------------
  alpha Z        PSCENC =      3085.66645011
  Ewald energy   TEWEN  =    -37254.40520110
  -Hartree energ DENC   =     -2027.64508733
  -exchange      EXHF   =         0.00000000
  -V(xc)+E(xc)   XCENC  =      2947.30556213
  PAW double counting   =     23428.64811967   -23551.69179075
  entropy T*S    EENTRO =         0.00000000
  eigenvalues    EBANDS =      4577.27028140
  atomic energy  EATOM  =     31754.29708746
  Solvation  Ediel_sol  =         0.00000000
  ---------------------------------------------------
  free energy    TOTEN  =      2959.44542160 eV

  energy without entropy =     2959.44542160  energy(sigma->0) =     2959.44542160


--------------------------------------------------------------------------------------------------------




--------------------------------------- Iteration      1(   2)  ---------------------------------------


     EDDAV:  cpu time      7.4744: real time      7.5433
       DOS:  cpu time      0.0002: real time      0.0002
    --------------------------------------------
      LOOP:  cpu time      7.4746: real time      7.5435

 eigenvalue-minimisations  :  2624
 total energy-change (2. order) :-0.4703477E+04  (-0.4508182E+04)
 number of electron     861.0000000 magnetization       2.0000000
 augmentation part      861.0000000 magnetization       2.0000000

 Free energy of the ion-electron system (eV)
  ---------------------------------------------------
  alpha Z        PSCENC =      3085.66645011
  Ewald energy   TEWEN  =    -37254.40520110
  -Hartree energ DENC   =     -2027.64508733
  -exchange      EXHF   =         0.00000000
  -V(xc)+E(xc)   XCENC  =      2947.30556213
  PAW double counting   =     23428.64811967   -23551.69179075
  entropy T*S    EENTRO =         0.00000000
  eigenvalues    EBANDS =      -126.20707936
  atomic energy  EATOM  =     31754.29708746
  Solvation  Ediel_sol  =         0.00000000
  ---------------------------------------------------
  free energy    TOTEN  =     -1744.03193916 eV

  energy without entropy =    -1744.03193916  energy(sigma->0) =    -1744.03193916


--------------------------------------------------------------------------------------------------------




--------------------------------------- Iteration      1(   3)  ---------------------------------------


     EDDAV:  cpu time      7.4173: real time      7.4846
       DOS:  cpu time      0.0002: real time      0.0002
    --------------------------------------------
      LOOP:  cpu time      7.4175: real time      7.4848

 eigenvalue-minimisations  :  2592
 total energy-change (2. order) :-0.2513742E+03  (-0.2488927E+03)
 number of electron     861.0000000 magnetization       2.0000000
 augmentation part      861.0000000 magnetization       2.0000000

 Free energy of the ion-electron system (eV)
  ---------------------------------------------------
  alpha Z        PSCENC =      3085.66645011
  Ewald energy   TEWEN  =    -37254.40520110
  -Hartree energ DENC   =     -2027.64508733
  -exchange      EXHF   =         0.00000000
  -V(xc)+E(xc)   XCENC  =      2947.30556213
  PAW double counting   =     23428.64811967   -23551.69179075
  entropy T*S    EENTRO =         0.00000000
  eigenvalues    EBANDS =      -377.58128792
  atomic energy  EATOM  =     31754.29708746
  Solvation  Ediel_sol  =         0.00000000
  ---------------------------------------------------
  free energy    TOTEN  =     -1995.40614773 eV

  energy without entropy =    -1995.40614773  energy(sigma->0) =    -1995.40614773


--------------------------------------------------------------------------------------------------------




--------------------------------------- Iteration      1(   4)  ---------------------------------------


     EDDAV:  cpu time      7.5565: real time      7.6253
       DOS:  cpu time      0.0002: real time      0.0002
    --------------------------------------------
      LOOP:  cpu time      7.5567: real time      7.6255

 eigenvalue-minimisations  :  2656
 total energy-change (2. order) :-0.6599989E+01  (-0.6581496E+01)
 number of electron     861.0000000 magnetization       2.0000000
 augmentation part      861.0000000 magnetization       2.0000000

 Free energy of the ion-electron system (eV)
  ---------------------------------------------------
  alpha Z        PSCENC =      3085.66645011
  Ewald energy   TEWEN  =    -37254.40520110
  -Hartree energ DENC   =     -2027.64508733
  -exchange      EXHF   =         0.00000000
  -V(xc)+E(xc)   XCENC  =      2947.30556213
  PAW double counting   =     23428.64811967   -23551.69179075
  entropy T*S    EENTRO =         0.00000000
  eigenvalues    EBANDS =      -384.18127677
  atomic energy  EATOM  =     31754.29708746
  Solvation  Ediel_sol  =         0.00000000
  ---------------------------------------------------
  free energy    TOTEN  =     -2002.00613657 eV

  energy without entropy =    -2002.00613657  energy(sigma->0) =    -2002.00613657


--------------------------------------------------------------------------------------------------------




--------------------------------------- Iteration      1(   5)  ---------------------------------------


     EDDAV:  cpu time      7.4181: real time      7.4877
       DOS:  cpu time      0.0004: real time      0.0004
    CHARGE:  cpu time      0.1045: real time      0.1051
    MIXING:  cpu time      0.0046: real time      0.0053
    --------------------------------------------
      LOOP:  cpu time      7.5276: real time      7.5985

 eigenvalue-minimisations  :  2592
 total energy-change (2. order) :-0.1696160E+00  (-0.1692915E+00)
 number of electron     861.9998767 magnetization       1.9999997
 augmentation part       21.5692001 magnetization       0.1408055

 Broyden mixing:
  rms(total) = 0.57786E+01    rms(broyden)= 0.57777E+01
  rms(prec ) = 0.67867E+01
  weight for this iteration     100.00

 Free energy of the ion-electron system (eV)
  ---------------------------------------------------
  alpha Z        PSCENC =      3085.66645011
  Ewald energy   TEWEN  =    -37254.40520110
  -Hartree energ DENC   =     -2027.64508733
  -exchange      EXHF   =         0.00000000
  -V(xc)+E(xc)   XCENC  =      2947.30556213
  PAW double counting   =     23428.64811967   -23551.69179075
  entropy T*S    EENTRO =         0.00000000
  eigenvalues    EBANDS =      -384.35089275
  atomic energy  EATOM  =     31754.29708746
  Solvation  Ediel_sol  =         0.00000000
  ---------------------------------------------------
  free energy    TOTEN  =     -2002.17575255 eV

  energy without entropy =    -2002.17575255  energy(sigma->0) =    -2002.17575255


--------------------------------------------------------------------------------------------------------




--------------------------------------- Iteration      1(   6)  ---------------------------------------


    POTLOK:  cpu time      0.0879: real time      0.0889
    SETDIJ:  cpu time      0.0182: real time      0.0183
     EDDAV:  cpu time      7.1886: real time      7.2529
       DOS:  cpu time      0.0004: real time      0.0004
    CHARGE:  cpu time      0.1039: real time      0.1046
    MIXING:  cpu time      0.0037: real time      0.0037
    --------------------------------------------
      LOOP:  cpu time      7.4027: real time      7.4688

 eigenvalue-minimisations  :  2496
 total energy-change (2. order) : 0.5225149E+02  (-0.4154685E+01)
 number of electron     861.9998797 magnetization       1.9999994
 augmentation part       21.0337530 magnetization       0.1334601

 Broyden mixing:
  rms(total) = 0.34363E+01    rms(broyden)= 0.34363E+01
  rms(prec ) = 0.39306E+01
  weight for this iteration     100.00

 eigenvalues of (default mixing * dielectric matrix)
  average eigenvalue GAMMA=   2.1088
  2.1088

 Free energy of the ion-electron system (eV)
  ---------------------------------------------------
  alpha Z        PSCENC =      3085.66645011
  Ewald energy   TEWEN  =    -37254.40520110
  -Hartree energ DENC   =     -2436.34209814
  -exchange      EXHF   =         0.00000000
  -V(xc)+E(xc)   XCENC  =      2988.44335957
  PAW double counting   =     40686.98836743   -40822.90574051
  entropy T*S    EENTRO =         0.00000000
  eigenvalues    EBANDS =        48.33350892
  atomic energy  EATOM  =     31754.29708746
  Solvation  Ediel_sol  =         0.00000000
  ---------------------------------------------------
  free energy    TOTEN  =     -1949.92426626 eV

  energy without entropy =    -1949.92426626  energy(sigma->0) =    -1949.92426626


--------------------------------------------------------------------------------------------------------




--------------------------------------- Iteration      1(   7)  ---------------------------------------


    POTLOK:  cpu time      0.0844: real time      0.0854
    SETDIJ:  cpu time      0.0183: real time      0.0184
     EDDAV:  cpu time      7.1848: real time      7.2494
       DOS:  cpu time      0.0004: real time      0.0004
    CHARGE:  cpu time      0.1032: real time      0.1039
    MIXING:  cpu time      0.0038: real time      0.0038
    --------------------------------------------
      LOOP:  cpu time      7.3949: real time      7.4612

 eigenvalue-minimisations  :  2496
 total energy-change (2. order) : 0.1698360E+02  (-0.4976140E+01)
 number of electron     861.9998829 magnetization       1.9999994
 augmentation part       20.4722748 magnetization       0.1115440

 Broyden mixing:
  rms(total) = 0.83677E+00    rms(broyden)= 0.83660E+00
  rms(prec ) = 0.86464E+00
  weight for this iteration     100.00

 eigenvalues of (default mixing * dielectric matrix)
  average eigenvalue GAMMA=   1.6379
  0.8815  2.3943

 Free energy of the ion-electron system (eV)
  ---------------------------------------------------
  alpha Z        PSCENC =      3085.66645011
  Ewald energy   TEWEN  =    -37254.40520110
  -Hartree energ DENC   =     -2975.54679662
  -exchange      EXHF   =         0.00000000
  -V(xc)+E(xc)   XCENC  =      3037.79577022
  PAW double counting   =     73274.20787521   -73422.60867344
  entropy T*S    EENTRO =         0.00000000
  eigenvalues    EBANDS =       567.65282309
  atomic energy  EATOM  =     31754.29708746
  Solvation  Ediel_sol  =         0.00000000
  ---------------------------------------------------
  free energy    TOTEN  =     -1932.94066507 eV

  energy without entropy =    -1932.94066507  energy(sigma->0) =    -1932.94066507


--------------------------------------------------------------------------------------------------------




--------------------------------------- Iteration      1(   8)  ---------------------------------------


    POTLOK:  cpu time      0.0842: real time      0.0851
    SETDIJ:  cpu time      0.0182: real time      0.0183
     EDDAV:  cpu time      7.3853: real time      7.4512
       DOS:  cpu time      0.0003: real time      0.0003
    CHARGE:  cpu time      0.1036: real time      0.1043
    MIXING:  cpu time      0.0039: real time      0.0039
    --------------------------------------------
      LOOP:  cpu time      7.5956: real time      7.6631

 eigenvalue-minimisations  :  2584
 total energy-change (2. order) :-0.2654268E+00  (-0.1937059E+00)
 number of electron     861.9998827 magnetization       1.9999994
 augmentation part       20.4947137 magnetization       0.1257565

 Broyden mixing:
  rms(total) = 0.43021E+00    rms(broyden)= 0.43019E+00
  rms(prec ) = 0.44656E+00
  weight for this iteration     100.00

 eigenvalues of (default mixing * dielectric matrix)
  average eigenvalue GAMMA=   1.6678
  2.5365  1.6732  0.7936

 Free energy of the ion-electron system (eV)
  ---------------------------------------------------
  alpha Z        PSCENC =      3085.66645011
  Ewald energy   TEWEN  =    -37254.40520110
  -Hartree energ DENC   =     -2985.84320564
  -exchange      EXHF   =         0.00000000
  -V(xc)+E(xc)   XCENC  =      3039.01292724
  PAW double counting   =     78761.22301410   -78908.00074524
  entropy T*S    EENTRO =         0.00000000
  eigenvalues    EBANDS =       574.84358123
  atomic energy  EATOM  =     31754.29708746
  Solvation  Ediel_sol  =         0.00000000
  ---------------------------------------------------
  free energy    TOTEN  =     -1933.20609184 eV

  energy without entropy =    -1933.20609184  energy(sigma->0) =    -1933.20609184


--------------------------------------------------------------------------------------------------------




--------------------------------------- Iteration      1(   9)  ---------------------------------------


    POTLOK:  cpu time      0.0843: real time      0.0879
    SETDIJ:  cpu time      0.0182: real time      0.0183
     EDDAV:  cpu time      7.2731: real time      7.3382
       DOS:  cpu time      0.0005: real time      0.0005
    CHARGE:  cpu time      0.1014: real time      0.1021
    MIXING:  cpu time      0.0038: real time      0.0039
    --------------------------------------------
      LOOP:  cpu time      7.4814: real time      7.5509

 eigenvalue-minimisations  :  2536
 total energy-change (2. order) :-0.6056278E-02  (-0.3030879E-01)
 number of electron     861.9998827 magnetization       1.9999994
 augmentation part       20.5124743 magnetization       0.1232737

 Broyden mixing:
  rms(total) = 0.11379E+00    rms(broyden)= 0.11379E+00
  rms(prec ) = 0.12276E+00
  weight for this iteration     100.00

 eigenvalues of (default mixing * dielectric matrix)
  average eigenvalue GAMMA=   1.5364
  2.5684  1.9631  0.8709  0.7434

 Free energy of the ion-electron system (eV)
  ---------------------------------------------------
  alpha Z        PSCENC =      3085.66645011
  Ewald energy   TEWEN  =    -37254.40520110
  -Hartree energ DENC   =     -2976.39718472
  -exchange      EXHF   =         0.00000000
  -V(xc)+E(xc)   XCENC  =      3038.37341465
  PAW double counting   =     81998.49648498   -82143.75913576
  entropy T*S    EENTRO =         0.00000000
  eigenvalues    EBANDS =       564.51593627
  atomic energy  EATOM  =     31754.29708746
  Solvation  Ediel_sol  =         0.00000000
  ---------------------------------------------------
  free energy    TOTEN  =     -1933.21214812 eV

  energy without entropy =    -1933.21214812  energy(sigma->0) =    -1933.21214812


--------------------------------------------------------------------------------------------------------




--------------------------------------- Iteration      1(  10)  ---------------------------------------


    POTLOK:  cpu time      0.0841: real time      0.0851
    SETDIJ:  cpu time      0.0182: real time      0.0183
     EDDAV:  cpu time      7.3499: real time      7.4165
       DOS:  cpu time      0.0004: real time      0.0004
    CHARGE:  cpu time      0.1020: real time      0.1026
    MIXING:  cpu time      0.0052: real time      0.0053
    --------------------------------------------
      LOOP:  cpu time      7.5598: real time      7.6282

 eigenvalue-minimisations  :  2568
 total energy-change (2. order) :-0.5263367E-02  (-0.6573974E-02)
 number of electron     861.9998826 magnetization       1.9999994
 augmentation part       20.5156182 magnetization       0.1222253

 Broyden mixing:
  rms(total) = 0.43546E-01    rms(broyden)= 0.43539E-01
  rms(prec ) = 0.47300E-01
  weight for this iteration     100.00

 eigenvalues of (default mixing * dielectric matrix)
  average eigenvalue GAMMA=   1.4141
  2.5240  2.0175  0.9364  0.9364  0.6563

 Free energy of the ion-electron system (eV)
  ---------------------------------------------------
  alpha Z        PSCENC =      3085.66645011
  Ewald energy   TEWEN  =    -37254.40520110
  -Hartree energ DENC   =     -2971.53157522
  -exchange      EXHF   =         0.00000000
  -V(xc)+E(xc)   XCENC  =      3038.00080869
  PAW double counting   =     82399.71125741   -82544.58681676
  entropy T*S    EENTRO =         0.00000000
  eigenvalues    EBANDS =       559.63057793
  atomic energy  EATOM  =     31754.29708746
  Solvation  Ediel_sol  =         0.00000000
  ---------------------------------------------------
  free energy    TOTEN  =     -1933.21741148 eV

  energy without entropy =    -1933.21741148  energy(sigma->0) =    -1933.21741148


--------------------------------------------------------------------------------------------------------




--------------------------------------- Iteration      1(  11)  ---------------------------------------


    POTLOK:  cpu time      0.0842: real time      0.0851
    SETDIJ:  cpu time      0.0182: real time      0.0183
     EDDAV:  cpu time      7.3859: real time      7.4522
       DOS:  cpu time      0.0004: real time      0.0004
    CHARGE:  cpu time      0.1021: real time      0.1027
    MIXING:  cpu time      0.0050: real time      0.0050
    --------------------------------------------
      LOOP:  cpu time      7.5958: real time      7.6638

 eigenvalue-minimisations  :  2584
 total energy-change (2. order) :-0.7061495E-03  (-0.7665885E-03)
 number of electron     861.9998826 magnetization       1.9999994
 augmentation part       20.5156817 magnetization       0.1221903

 Broyden mixing:
  rms(total) = 0.16074E-01    rms(broyden)= 0.16072E-01
  rms(prec ) = 0.18018E-01
  weight for this iteration     100.00

 eigenvalues of (default mixing * dielectric matrix)
  average eigenvalue GAMMA=   1.3407
  2.4968  2.0683  1.0253  1.0253  0.7971  0.6316

 Free energy of the ion-electron system (eV)
  ---------------------------------------------------
  alpha Z        PSCENC =      3085.66645011
  Ewald energy   TEWEN  =    -37254.40520110
  -Hartree energ DENC   =     -2970.74114552
  -exchange      EXHF   =         0.00000000
  -V(xc)+E(xc)   XCENC  =      3037.93499500
  PAW double counting   =     82405.48016164   -82550.29579718
  entropy T*S    EENTRO =         0.00000000
  eigenvalues    EBANDS =       558.84533195
  atomic energy  EATOM  =     31754.29708746
  Solvation  Ediel_sol  =         0.00000000
  ---------------------------------------------------
  free energy    TOTEN  =     -1933.21811763 eV

  energy without entropy =    -1933.21811763  energy(sigma->0) =    -1933.21811763


--------------------------------------------------------------------------------------------------------




--------------------------------------- Iteration      1(  12)  ---------------------------------------


    POTLOK:  cpu time      0.0843: real time      0.0853
    SETDIJ:  cpu time      0.0182: real time      0.0183
     EDDAV:  cpu time      7.4421: real time      7.5088
       DOS:  cpu time      0.0005: real time      0.0005
    CHARGE:  cpu time      0.1022: real time      0.1028
    MIXING:  cpu time      0.0046: real time      0.0046
    --------------------------------------------
      LOOP:  cpu time      7.6518: real time      7.7203

 eigenvalue-minimisations  :  2608
 total energy-change (2. order) :-0.4826837E-03  (-0.1941230E-03)
 number of electron     861.9998826 magnetization       1.9999994
 augmentation part       20.5154774 magnetization       0.1223939

 Broyden mixing:
  rms(total) = 0.85121E-02    rms(broyden)= 0.85104E-02
  rms(prec ) = 0.96372E-02
  weight for this iteration     100.00

 eigenvalues of (default mixing * dielectric matrix)
  average eigenvalue GAMMA=   1.3056
  2.4736  2.0978  1.1655  1.1655  0.8930  0.7315  0.6121

 Free energy of the ion-electron system (eV)
  ---------------------------------------------------
  alpha Z        PSCENC =      3085.66645011
  Ewald energy   TEWEN  =    -37254.40520110
  -Hartree energ DENC   =     -2970.71607364
  -exchange      EXHF   =         0.00000000
  -V(xc)+E(xc)   XCENC  =      3037.93320956
  PAW double counting   =     82381.05706614   -82525.85105656
  entropy T*S    EENTRO =         0.00000000
  eigenvalues    EBANDS =       558.79991771
  atomic energy  EATOM  =     31754.29708746
  Solvation  Ediel_sol  =         0.00000000
  ---------------------------------------------------
  free energy    TOTEN  =     -1933.21860032 eV

  energy without entropy =    -1933.21860032  energy(sigma->0) =    -1933.21860032


--------------------------------------------------------------------------------------------------------




--------------------------------------- Iteration      1(  13)  ---------------------------------------


    POTLOK:  cpu time      0.0844: real time      0.0865
    SETDIJ:  cpu time      0.0183: real time      0.0183
     EDDAV:  cpu time      7.4625: real time      7.5297
       DOS:  cpu time      0.0005: real time      0.0005
    CHARGE:  cpu time      0.1033: real time      0.1041
    MIXING:  cpu time      0.0047: real time      0.0048
    --------------------------------------------
      LOOP:  cpu time      7.6736: real time      7.7439

 eigenvalue-minimisations  :  2616
 total energy-change (2. order) :-0.1895453E-03  (-0.3567603E-04)
 number of electron     861.9998826 magnetization       1.9999994
 augmentation part       20.5155118 magnetization       0.1223196

 Broyden mixing:
  rms(total) = 0.49490E-02    rms(broyden)= 0.49489E-02
  rms(prec ) = 0.55219E-02
  weight for this iteration     100.00

 eigenvalues of (default mixing * dielectric matrix)
  average eigenvalue GAMMA=   1.3006
  2.4397  2.1500  1.6019  1.0801  0.9094  0.9094  0.7096  0.6043

 Free energy of the ion-electron system (eV)
  ---------------------------------------------------
  alpha Z        PSCENC =      3085.66645011
  Ewald energy   TEWEN  =    -37254.40520110
  -Hartree energ DENC   =     -2970.89597703
  -exchange      EXHF   =         0.00000000
  -V(xc)+E(xc)   XCENC  =      3037.95063623
  PAW double counting   =     82355.43239012   -82500.22803086
  entropy T*S    EENTRO =         0.00000000
  eigenvalues    EBANDS =       558.96385521
  atomic energy  EATOM  =     31754.29708746
  Solvation  Ediel_sol  =         0.00000000
  ---------------------------------------------------
  free energy    TOTEN  =     -1933.21878986 eV

  energy without entropy =    -1933.21878986  energy(sigma->0) =    -1933.21878986


--------------------------------------------------------------------------------------------------------




--------------------------------------- Iteration      1(  14)  ---------------------------------------


    POTLOK:  cpu time      0.0841: real time      0.0849
    SETDIJ:  cpu time      0.0182: real time      0.0183
     EDDAV:  cpu time      7.3610: real time      7.4269
       DOS:  cpu time      0.0005: real time      0.0005
    CHARGE:  cpu time      0.1017: real time      0.1024
    MIXING:  cpu time      0.0049: real time      0.0050
    --------------------------------------------
      LOOP:  cpu time      7.5704: real time      7.6380

 eigenvalue-minimisations  :  2576
 total energy-change (2. order) :-0.1306979E-03  (-0.1076685E-04)
 number of electron     861.9998826 magnetization       1.9999994
 augmentation part       20.5156924 magnetization       0.1222707

 Broyden mixing:
  rms(total) = 0.22776E-02    rms(broyden)= 0.22773E-02
  rms(prec ) = 0.25791E-02
  weight for this iteration     100.00

 eigenvalues of (default mixing * dielectric matrix)
  average eigenvalue GAMMA=   1.3388
  2.4501  2.4501  1.9751  1.0045  1.0045  1.0427  0.8282  0.6108  0.6832

 Free energy of the ion-electron system (eV)
  ---------------------------------------------------
  alpha Z        PSCENC =      3085.66645011
  Ewald energy   TEWEN  =    -37254.40520110
  -Hartree energ DENC   =     -2971.10406427
  -exchange      EXHF   =         0.00000000
  -V(xc)+E(xc)   XCENC  =      3037.97096989
  PAW double counting   =     82342.40541404   -82487.19793837
  entropy T*S    EENTRO =         0.00000000
  eigenvalues    EBANDS =       559.14836168
  atomic energy  EATOM  =     31754.29708746
  Solvation  Ediel_sol  =         0.00000000
  ---------------------------------------------------
  free energy    TOTEN  =     -1933.21892056 eV

  energy without entropy =    -1933.21892056  energy(sigma->0) =    -1933.21892056


--------------------------------------------------------------------------------------------------------




--------------------------------------- Iteration      1(  15)  ---------------------------------------


    POTLOK:  cpu time      0.0840: real time      0.0849
    SETDIJ:  cpu time      0.0182: real time      0.0183
     EDDAV:  cpu time      7.3100: real time      7.3755
       DOS:  cpu time      0.0005: real time      0.0005
    CHARGE:  cpu time      0.1026: real time      0.1032
    MIXING:  cpu time      0.0058: real time      0.0059
    --------------------------------------------
      LOOP:  cpu time      7.5212: real time      7.5884

 eigenvalue-minimisations  :  2552
 total energy-change (2. order) :-0.2855857E-04  (-0.2903440E-05)
 number of electron     861.9998826 magnetization       1.9999994
 augmentation part       20.5156274 magnetization       0.1222790

 Broyden mixing:
  rms(total) = 0.98168E-03    rms(broyden)= 0.98164E-03
  rms(prec ) = 0.11005E-02
  weight for this iteration     100.00

 eigenvalues of (default mixing * dielectric matrix)
  average eigenvalue GAMMA=   1.3461
  2.5640  2.5640  2.0099  1.2068  1.2068  0.9333  0.9333  0.7594  0.6163  0.6668

 Free energy of the ion-electron system (eV)
  ---------------------------------------------------
  alpha Z        PSCENC =      3085.66645011
  Ewald energy   TEWEN  =    -37254.40520110
  -Hartree energ DENC   =     -2971.25035250
  -exchange      EXHF   =         0.00000000
  -V(xc)+E(xc)   XCENC  =      3037.98487097
  PAW double counting   =     82339.27331076   -82484.06411491
  entropy T*S    EENTRO =         0.00000000
  eigenvalues    EBANDS =       559.27900009
  atomic energy  EATOM  =     31754.29708746
  Solvation  Ediel_sol  =         0.00000000
  ---------------------------------------------------
  free energy    TOTEN  =     -1933.21894912 eV

  energy without entropy =    -1933.21894912  energy(sigma->0) =    -1933.21894912


--------------------------------------------------------------------------------------------------------




--------------------------------------- Iteration      1(  16)  ---------------------------------------


    POTLOK:  cpu time      0.0842: real time      0.0852
    SETDIJ:  cpu time      0.0182: real time      0.0183
     EDDAV:  cpu time      6.8808: real time      6.9431
       DOS:  cpu time      0.0004: real time      0.0004
    CHARGE:  cpu time      0.1019: real time      0.1025
    MIXING:  cpu time      0.0052: real time      0.0053
    --------------------------------------------
      LOOP:  cpu time      7.0908: real time      7.1549

 eigenvalue-minimisations  :  2360
 total energy-change (2. order) :-0.3440466E-05  (-0.5746461E-06)
 number of electron     861.9998826 magnetization       1.9999994
 augmentation part       20.5156065 magnetization       0.1222783

 Broyden mixing:
  rms(total) = 0.39165E-03    rms(broyden)= 0.39161E-03
  rms(prec ) = 0.44885E-03
  weight for this iteration     100.00

 eigenvalues of (default mixing * dielectric matrix)
  average eigenvalue GAMMA=   1.3406
  2.8058  2.4958  2.0500  1.3524  1.3524  0.9100  0.9100  0.8449  0.7426  0.6182
  0.6642

 Free energy of the ion-electron system (eV)
  ---------------------------------------------------
  alpha Z        PSCENC =      3085.66645011
  Ewald energy   TEWEN  =    -37254.40520110
  -Hartree energ DENC   =     -2971.31953647
  -exchange      EXHF   =         0.00000000
  -V(xc)+E(xc)   XCENC  =      3037.99144748
  PAW double counting   =     82336.65644027   -82481.44753563
  entropy T*S    EENTRO =         0.00000000
  eigenvalues    EBANDS =       559.34189532
  atomic energy  EATOM  =     31754.29708746
  Solvation  Ediel_sol  =         0.00000000
  ---------------------------------------------------
  free energy    TOTEN  =     -1933.21895256 eV

  energy without entropy =    -1933.21895256  energy(sigma->0) =    -1933.21895256


--------------------------------------------------------------------------------------------------------




--------------------------------------- Iteration      1(  17)  ---------------------------------------


    POTLOK:  cpu time      0.0842: real time      0.0872
    SETDIJ:  cpu time      0.0183: real time      0.0184
     EDDAV:  cpu time      5.1781: real time      5.2250
       DOS:  cpu time      0.0002: real time      0.0002
    --------------------------------------------
      LOOP:  cpu time      5.2808: real time      5.3308

 eigenvalue-minimisations  :  1608
 total energy-change (2. order) : 0.1437875E-06  (-0.7868259E-07)
 number of electron     861.9998826 magnetization       1.9999994
 augmentation part       20.5156065 magnetization       0.1222783

 Free energy of the ion-electron system (eV)
  ---------------------------------------------------
  alpha Z        PSCENC =      3085.66645011
  Ewald energy   TEWEN  =    -37254.40520110
  -Hartree energ DENC   =     -2971.33235741
  -exchange      EXHF   =         0.00000000
  -V(xc)+E(xc)   XCENC  =      3037.99270318
  PAW double counting   =     82336.79056956   -82481.58148366
  entropy T*S    EENTRO =         0.00000000
  eigenvalues    EBANDS =       559.35327945
  atomic energy  EATOM  =     31754.29708746
  Solvation  Ediel_sol  =         0.00000000
  ---------------------------------------------------
  free energy    TOTEN  =     -1933.21895241 eV

  energy without entropy =    -1933.21895241  energy(sigma->0) =    -1933.21895241


--------------------------------------------------------------------------------------------------------




 average (electrostatic) potential at core
  the test charge radii are     0.6991  0.7089
  (the norm of the test charge is              1.0000)
       1 -45.6953       2 -45.6161       3 -45.6896       4 -45.6270       5 -45.5121
       6 -45.6043       7 -45.6512       8 -45.5656       9 -45.6140      10 -45.6896
      11 -45.6519      12 -45.7035      13 -45.6043      14 -45.5162      15 -45.6758
      16 -45.6140      17 -45.3445      18 -45.6125      19 -45.6161      20 -45.5571
      21 -45.6519      22 -45.5121      23 -43.4288      24 -45.5162      25 -45.5656
      26 -45.1972      27 -45.3445      28 -45.6896      29 -45.6519      30 -45.7035
      31 -45.6161      32 -45.5571      33 -45.6519      34 -45.6953      35 -45.6161
      36 -45.6896      37 -45.6043      38 -45.5162      39 -45.6758      40 -45.5121
      41 -43.4288      42 -45.5162      43 -45.6270      44 -45.5121      45 -45.6043
      46 -45.6140      47 -45.3445      48 -45.6125      49 -45.5656      50 -45.1972
      51 -45.3445      52 -45.6512      53 -45.5656      54 -45.6140      55 -45.6776
      56 -45.6818      57 -45.7266      58 -45.6200      59 -45.6224      60 -45.6818
      61 -45.6032      62 -45.6200      63 -45.6776      64 -45.6200      65 -45.6224
      66 -45.6818      67 -45.2434      68 -45.6224      69 -45.3295      70 -45.2434
      71 -45.6200      72 -45.6032      73 -45.6200      74 -45.6776      75 -45.3295
      76 -45.2434      77 -45.6200      78 -45.5283      79 -45.3295      80 -45.6032
      81 -45.6140      82 -45.6043      83 -45.6896      84 -45.5656      85 -45.5121
      86 -45.6161      87 -45.6512      88 -45.6270      89 -45.6953      90 -45.6125
      91 -45.6758      92 -45.7035      93 -45.3445      94 -45.5162      95 -45.6519
      96 -45.6140      97 -45.6043      98 -45.6896      99 -45.3445     100 -45.5162
     101 -45.6519     102 -45.1972     103 -43.4288     104 -45.5571     105 -45.5656
     106 -45.5121     107 -45.6161     108 -45.6955     109 -45.6192     110 -45.6511
     111 -45.6511     112 -45.4735     113 -45.5305     114 -45.6192     115 -45.4780
     116 -45.4735     117 -45.7157     118 -45.6538     119 -45.6779     120 -45.6779
     121 -45.6377     122 -45.6959     123 -45.6538     124 -45.4820     125 -45.6377
     126 -45.6292     127 -45.5700     128 -45.6085     129 -45.6085     130 -45.0819
     131 -46.2546     132 -45.5700     133 -45.0278     134 -45.0819     135 -45.7157
     136 -45.6538     137 -45.6779     138 -45.6292     139 -45.5700     140 -45.6085
     141 -45.6955     142 -45.6192     143 -45.6511     144 -45.6779     145 -45.6377
     146 -45.6959     147 -45.6085     148 -45.0819     149 -46.2546     150 -45.6511
     151 -45.4735     152 -45.5305     153 -45.6538     154 -45.4820     155 -45.6377
     156 -45.5700     157 -45.0278     158 -45.0819     159 -45.6192     160 -45.4780
     161 -45.4735     162 -45.6955     163 -45.6292     164 -45.7157     165 -45.6511
     166 -45.6085     167 -45.6779     168 -45.6192     169 -45.5700     170 -45.6538
     171 -45.6511     172 -45.6085     173 -45.6779     174 -45.5305     175 -46.2546
     176 -45.6959     177 -45.4735     178 -45.0819     179 -45.6377     180 -45.6192
     181 -45.5700     182 -45.6538     183 -45.4735     184 -45.0819     185 -45.6377
     186 -45.4780     187 -45.0278     188 -45.4820     189 -45.6466     190 -45.5243
     191 -45.6819     192 -45.5165     193 -45.3825     194 -45.5243     195 -45.6325
     196 -45.5165     197 -45.6466     198 -45.6819     199 -45.6837     200 -45.7223
     201 -45.5243     202 -45.5522     203 -45.6837     204 -45.6466     205 -45.5243
     206 -45.6819     207 -45.5243     208 -45.5522     209 -45.6837     210 -45.3825
     211 -45.5522     212 -45.5165     213 -45.3825     214 -45.5243     215 -60.2719
 
 
 
 E-fermi :  11.0003     XC(G=0): -13.1979     alpha+bet :-17.4791

 val. band max:       11.6508221126   @ k =   0.0000   0.0000   0.0000
 cond. band min:      12.6315155662   @ k =   0.0000   0.0000   0.0000
 fundamental gap:      0.9806934536
 Fermi energy:        11.7624781043

 spin component 1

 k-point     1 :       0.0000    0.0000    0.0000
  band No.  band energies     occupation 
      1     -11.9057      1.00000
      2     -11.2140      1.00000
      3     -10.8767      1.00000
      4     -10.8767      1.00000
      5     -10.8228      1.00000
      6     -10.8228      1.00000
      7     -10.7534      1.00000
      8     -10.3179      1.00000
      9      -9.8852      1.00000
     10      -9.8852      1.00000
     11      -9.8663      1.00000
     12      -9.8663      1.00000
     13      -9.8460      1.00000
     14      -9.8251      1.00000
     15      -9.8190      1.00000
     16      -9.8190      1.00000
     17      -9.7629      1.00000
     18      -9.7629      1.00000
     19      -9.6049      1.00000
     20      -9.1520      1.00000
     21      -8.8509      1.00000
     22      -8.8506      1.00000
     23      -8.8506      1.00000
     24      -8.8165      1.00000
     25      -8.8156      1.00000
     26      -8.8156      1.00000
     27      -8.6558      1.00000
     28      -8.0965      1.00000
     29      -7.8643      1.00000
     30      -7.8643      1.00000
     31      -7.8384      1.00000
     32      -7.8384      1.00000
     33      -7.7852      1.00000
     34      -7.5140      1.00000
     35      -7.0017      1.00000
     36      -7.0017      1.00000
     37      -6.9714      1.00000
     38      -6.9714      1.00000
     39      -6.9635      1.00000
     40      -6.9522      1.00000
     41      -6.9522      1.00000
     42      -6.9483      1.00000
     43      -6.9454      1.00000
     44      -6.9414      1.00000
     45      -6.9414      1.00000
     46      -6.9189      1.00000
     47      -6.9157      1.00000
     48      -6.9157      1.00000
     49      -6.8881      1.00000
     50      -6.8881      1.00000
     51      -6.8753      1.00000
     52      -6.8743      1.00000
     53      -6.8743      1.00000
     54      -6.8662      1.00000
     55      -6.7870      1.00000
     56      -6.7870      1.00000
     57      -6.6266      1.00000
     58      -6.4467      1.00000
     59      -6.2323      1.00000
     60      -6.2323      1.00000
     61      -6.1811      1.00000
     62      -6.1732      1.00000
     63      -6.1732      1.00000
     64      -6.1644      1.00000
     65      -6.1592      1.00000
     66      -6.1592      1.00000
     67      -6.1586      1.00000
     68      -6.1356      1.00000
     69      -6.1356      1.00000
     70      -6.1196      1.00000
     71      -6.1196      1.00000
     72      -6.1125      1.00000
     73      -6.0936      1.00000
     74      -6.0936      1.00000
     75      -6.0604      1.00000
     76      -6.0506      1.00000
     77      -6.0506      1.00000
     78      -6.0071      1.00000
     79      -5.8914      1.00000
     80      -5.8914      1.00000
     81      -5.2469      1.00000
     82      -4.6795      1.00000
     83      -4.5150      1.00000
     84      -4.5150      1.00000
     85      -4.4642      1.00000
     86      -4.4642      1.00000
     87      -4.4534      1.00000
     88      -4.4483      1.00000
     89      -4.4483      1.00000
     90      -4.4426      1.00000
     91      -4.3888      1.00000
     92      -4.3888      1.00000
     93      -4.0469      1.00000
     94      -3.2631      1.00000
     95      -3.2063      1.00000
     96      -3.2063      1.00000
     97      -3.1801      1.00000
     98      -3.1801      1.00000
     99      -3.1384      1.00000
    100      -2.9444      1.00000
    101      -2.7936      1.00000
    102      -2.7936      1.00000
    103      -2.7030      1.00000
    104      -2.7022      1.00000
    105      -2.7022      1.00000
    106      -2.6964      1.00000
    107      -2.6964      1.00000
    108      -2.6876      1.00000
    109      -2.6860      1.00000
    110      -2.6860      1.00000
    111      -2.6767      1.00000
    112      -2.6467      1.00000
    113      -2.6467      1.00000
    114      -2.6272      1.00000
    115      -2.6058      1.00000
    116      -2.5776      1.00000
    117      -2.5776      1.00000
    118      -2.5608      1.00000
    119      -2.5608      1.00000
    120      -2.5515      1.00000
    121      -2.5305      1.00000
    122      -2.5305      1.00000
    123      -2.5131      1.00000
    124      -2.4857      1.00000
    125      -2.4857      1.00000
    126      -2.4856      1.00000
    127      -2.4621      1.00000
    128      -2.4552      1.00000
    129      -2.4552      1.00000
    130      -2.4532      1.00000
    131      -2.4455      1.00000
    132      -2.4454      1.00000
    133      -2.4454      1.00000
    134      -2.4171      1.00000
    135      -2.4171      1.00000
    136      -2.3946      1.00000
    137      -2.3946      1.00000
    138      -2.3880      1.00000
    139      -2.3821      1.00000
    140      -2.3821      1.00000
    141      -2.3804      1.00000
    142      -2.3804      1.00000
    143      -2.3649      1.00000
    144      -2.1639      1.00000
    145      -2.0267      1.00000
    146      -2.0267      1.00000
    147      -1.6529      1.00000
    148      -1.4116      1.00000
    149      -1.4116      1.00000
    150      -1.4065      1.00000
    151      -1.3538      1.00000
    152      -1.3538      1.00000
    153      -1.3485      1.00000
    154      -1.3484      1.00000
    155      -1.3179      1.00000
    156      -1.3179      1.00000
    157      -1.1767      1.00000
    158      -1.1767      1.00000
    159      -0.2355      1.00000
    160       0.0793      1.00000
    161       0.0793      1.00000
    162       0.1249      1.00000
    163       0.1878      1.00000
    164       0.1990      1.00000
    165       0.2022      1.00000
    166       0.2022      1.00000
    167       0.2040      1.00000
    168       0.2040      1.00000
    169       0.2175      1.00000
    170       0.2189      1.00000
    171       0.2318      1.00000
    172       0.2358      1.00000
    173       0.2358      1.00000
    174       0.2571      1.00000
    175       0.2571      1.00000
    176       0.3653      1.00000
    177       0.3653      1.00000
    178       0.3702      1.00000
    179       0.4132      1.00000
    180       0.7258      1.00000
    181       0.7258      1.00000
    182       0.7690      1.00000
    183       0.8435      1.00000
    184       0.8553      1.00000
    185       0.8553      1.00000
    186       0.8567      1.00000
    187       0.8595      1.00000
    188       0.8595      1.00000
    189       0.8679      1.00000
    190       0.8679      1.00000
    191       0.8844      1.00000
    192       0.8846      1.00000
    193       0.8911      1.00000
    194       0.8911      1.00000
    195       0.8922      1.00000
    196       0.8922      1.00000
    197       0.9066      1.00000
    198       0.9248      1.00000
    199       0.9248      1.00000
    200       0.9341      1.00000
    201       1.1464      1.00000
    202       1.1464      1.00000
    203       1.6010      1.00000
    204       1.6010      1.00000
    205       1.6527      1.00000
    206       1.7180      1.00000
    207       1.7180      1.00000
    208       1.7185      1.00000
    209       1.7229      1.00000
    210       1.7231      1.00000
    211       1.7231      1.00000
    212       1.7378      1.00000
    213       1.7423      1.00000
    214       1.7423      1.00000
    215       1.7654      1.00000
    216       1.7654      1.00000
    217       1.8163      1.00000
    218       1.8163      1.00000
    219       1.8200      1.00000
    220       1.8367      1.00000
    221       1.8467      1.00000
    222       1.8742      1.00000
    223       1.8742      1.00000
    224       1.9135      1.00000
    225       1.9454      1.00000
    226       1.9454      1.00000
    227       2.0141      1.00000
    228       2.1244      1.00000
    229       2.1244      1.00000
    230       2.2187      1.00000
    231       2.2385      1.00000
    232       2.2385      1.00000
    233       2.2553      1.00000
    234       2.2642      1.00000
    235       2.2642      1.00000
    236       2.2688      1.00000
    237       2.2694      1.00000
    238       2.2712      1.00000
    239       2.2712      1.00000
    240       2.2837      1.00000
    241       2.2837      1.00000
    242       2.2912      1.00000
    243       2.3022      1.00000
    244       2.3153      1.00000
    245       2.3153      1.00000
    246       2.3234      1.00000
    247       2.3438      1.00000
    248       2.3438      1.00000
    249       2.3486      1.00000
    250       2.3784      1.00000
    251       2.3784      1.00000
    252       2.4137      1.00000
    253       2.4137      1.00000
    254       2.6931      1.00000
    255       2.7530      1.00000
    256       2.7530      1.00000
    257       3.2368      1.00000
    258       3.2368      1.00000
    259       3.3097      1.00000
    260       3.3128      1.00000
    261       3.3449      1.00000
    262       3.3449      1.00000
    263       3.4529      1.00000
    264       3.7429      1.00000
    265       3.7429      1.00000
    266       3.8421      1.00000
    267       3.8514      1.00000
    268       3.8514      1.00000
    269       3.8725      1.00000
    270       3.8757      1.00000
    271       3.8757      1.00000
    272       3.9023      1.00000
    273       3.9570      1.00000
    274       3.9570      1.00000
    275       4.0871      1.00000
    276       4.0871      1.00000
    277       4.2131      1.00000
    278       4.2612      1.00000
    279       4.2641      1.00000
    280       4.2686      1.00000
    281       4.2686      1.00000
    282       4.2772      1.00000
    283       4.2772      1.00000
    284       4.3048      1.00000
    285       4.3285      1.00000
    286       4.3285      1.00000
    287       4.3397      1.00000
    288       4.4459      1.00000
    289       4.4459      1.00000
    290       4.4844      1.00000
    291       4.5080      1.00000
    292       4.5147      1.00000
    293       4.5147      1.00000
    294       4.5311      1.00000
    295       4.5349      1.00000
    296       4.5349      1.00000
    297       4.5361      1.00000
    298       4.5361      1.00000
    299       4.5433      1.00000
    300       4.5533      1.00000
    301       4.5533      1.00000
    302       4.5574      1.00000
    303       4.5835      1.00000
    304       4.5835      1.00000
    305       4.5929      1.00000
    306       4.6034      1.00000
    307       4.6034      1.00000
    308       4.6050      1.00000
    309       4.6050      1.00000
    310       4.6213      1.00000
    311       4.6660      1.00000
    312       4.6660      1.00000
    313       4.6934      1.00000
    314       4.7137      1.00000
    315       4.7203      1.00000
    316       4.7203      1.00000
    317       4.7236      1.00000
    318       4.7294      1.00000
    319       4.7350      1.00000
    320       4.7350      1.00000
    321       4.7389      1.00000
    322       4.7389      1.00000
    323       4.7508      1.00000
    324       4.7519      1.00000
    325       4.7532      1.00000
    326       4.7532      1.00000
    327       4.7576      1.00000
    328       4.7576      1.00000
    329       4.7640      1.00000
    330       4.7640      1.00000
    331       4.7652      1.00000
    332       4.7700      1.00000
    333       4.7816      1.00000
    334       4.7816      1.00000
    335       4.7871      1.00000
    336       4.7938      1.00000
    337       4.7946      1.00000
    338       4.7946      1.00000
    339       4.8051      1.00000
    340       4.8051      1.00000
    341       4.8318      1.00000
    342       4.8318      1.00000
    343       4.8398      1.00000
    344       4.8534      1.00000
    345       4.8534      1.00000
    346       4.8902      1.00000
    347       4.8902      1.00000
    348       4.8983      1.00000
    349       4.9080      1.00000
    350       4.9470      1.00000
    351       4.9526      1.00000
    352       4.9526      1.00000
    353       4.9552      1.00000
    354       5.0700      1.00000
    355       5.0700      1.00000
    356       5.3076      1.00000
    357       5.3226      1.00000
    358       5.3226      1.00000
    359       5.4813      1.00000
    360       5.4813      1.00000
    361       5.5505      1.00000
    362       5.5564      1.00000
    363       5.5564      1.00000
    364       5.5631      1.00000
    365       5.5942      1.00000
    366       5.5942      1.00000
    367       5.5970      1.00000
    368       5.6038      1.00000
    369       5.6203      1.00000
    370       5.6203      1.00000
    371       5.6254      1.00000
    372       5.6310      1.00000
    373       5.6310      1.00000
    374       5.6398      1.00000
    375       5.6398      1.00000
    376       5.6636      1.00000
    377       5.7214      1.00000
    378       5.7214      1.00000
    379       5.7824      1.00000
    380       6.3104      1.00000
    381       6.5405      1.00000
    382       6.5405      1.00000
    383       6.8614      1.00000
    384       6.8994      1.00000
    385       6.8994      1.00000
    386       6.9687      1.00000
    387       6.9687      1.00000
    388       6.9725      1.00000
    389       6.9969      1.00000
    390       7.0047      1.00000
    391       7.0047      1.00000
    392       7.0049      1.00000
    393       7.0645      1.00000
    394       7.0645      1.00000
    395       7.0845      1.00000
    396       7.1595      1.00000
    397       7.1595      1.00000
    398       7.2240      1.00000
    399       7.2311      1.00000
    400       7.2311      1.00000
    401       7.2344      1.00000
    402       7.2344      1.00000
    403       7.2396      1.00000
    404       7.2396      1.00000
    405       7.2506      1.00000
    406       7.2753      1.00000
    407       7.2753      1.00000
    408       7.3007      1.00000
    409       7.3025      1.00000
    410       7.3025      1.00000
    411       7.3031      1.00000
    412       7.3326      1.00000
    413       7.3326      1.00000
    414       7.8183      1.00000
    415       7.9193      1.00000
    416       7.9193      1.00000
    417       8.1045      1.00000
    418       8.1317      1.00000
    419       8.1317      1.00000
    420       8.1473      1.00000
    421       8.1772      1.00000
    422       8.1772      1.00000
    423       8.1784      1.00000
    424       8.2110      1.00000
    425       8.2540      1.00000
    426       8.2540      1.00000
    427       9.3325      1.00000
    428       9.4082      1.00000
    429       9.4082      1.00000
    430      10.1490      1.00000
    431      11.6508      1.00000
    432      11.6508      1.00000
    433      13.6697      0.00000
    434      13.6697      0.00000
    435      13.6779      0.00000
    436      13.7301      0.00000
    437      13.7301      0.00000
    438      13.7457      0.00000
    439      14.2157      0.00000
    440      14.3121      0.00000
    441      14.3121      0.00000
    442      14.3270      0.00000
    443      14.3270      0.00000
    444      14.3890      0.00000
    445      14.4549      0.00000
    446      14.4549      0.00000
    447      14.5069      0.00000
    448      14.5641      0.00000
    449      14.5641      0.00000
    450      14.5791      0.00000
    451      15.1859      0.00000
    452      15.1859      0.00000
    453      15.2061      0.00000
    454      15.7168      0.00000
    455      15.8386      0.00000
    456      15.8386      0.00000
    457      15.8577      0.00000
    458      15.8852      0.00000
    459      15.8852      0.00000
    460      15.9058      0.00000
    461      15.9076      0.00000
    462      15.9076      0.00000
    463      15.9189      0.00000
    464      15.9189      0.00000
    465      15.9590      0.00000
    466      16.3264      0.00000
    467      16.5423      0.00000
    468      16.5423      0.00000
    469      16.5832      0.00000
    470      16.5888      0.00000
    471      16.5888      0.00000
    472      16.5962      0.00000
    473      16.5971      0.00000
    474      16.5971      0.00000
    475      16.6031      0.00000
    476      16.6031      0.00000
    477      16.6191      0.00000
    478      16.6191      0.00000
    479      16.6264      0.00000
    480      16.6269      0.00000
    481      16.6542      0.00000
    482      16.6559      0.00000
    483      16.6559      0.00000
    484      16.6978      0.00000
    485      16.6978      0.00000
    486      16.7261      0.00000
    487      16.7386      0.00000
    488      16.7386      0.00000
    489      16.7406      0.00000
    490      16.9729      0.00000
    491      17.0091      0.00000
    492      17.0091      0.00000
    493      17.0782      0.00000
    494      17.0837      0.00000
    495      17.0916      0.00000
    496      17.0916      0.00000
    497      17.1014      0.00000
    498      17.1014      0.00000
    499      17.1131      0.00000
    500      17.1221      0.00000
    501      17.1221      0.00000
    502      17.1320      0.00000
    503      17.1528      0.00000
    504      17.1528      0.00000
    505      17.1813      0.00000
    506      17.1813      0.00000
    507      17.1858      0.00000
    508      17.1950      0.00000
    509      17.2006      0.00000
    510      17.2006      0.00000
    511      17.2099      0.00000
    512      17.2240      0.00000
    513      17.2240      0.00000
    514      17.2363      0.00000
    515      17.2380      0.00000
    516      17.2381      0.00000
    517      17.2431      0.00000
    518      17.2431      0.00000
    519      17.2541      0.00000
    520      17.2541      0.00000
    521      17.2696      0.00000
    522      17.2827      0.00000
    523      17.2830      0.00000
    524      17.3211      0.00000
    525      17.3249      0.00000
    526      17.3771      0.00000
    527      17.3879      0.00000
    528      17.3884      0.00000
    529      17.4516      0.00000
    530      17.4547      0.00000
    531      17.4646      0.00000
    532      17.5815      0.00000
    533      17.6715      0.00000
    534      17.6960      0.00000
    535      17.7166      0.00000
    536      17.7279      0.00000
    537      17.7399      0.00000
    538      17.7499      0.00000
    539      17.7658      0.00000
    540      17.7771      0.00000
 Fermi energy:        11.0002646455

 spin component 2

 k-point     1 :       0.0000    0.0000    0.0000
  band No.  band energies     occupation 
      1     -11.8945      1.00000
      2     -11.1724      1.00000
      3     -10.8739      1.00000
      4     -10.8739      1.00000
      5     -10.8169      1.00000
      6     -10.8169      1.00000
      7     -10.7411      1.00000
      8     -10.2903      1.00000
      9      -9.8822      1.00000
     10      -9.8822      1.00000
     11      -9.8639      1.00000
     12      -9.8639      1.00000
     13      -9.8425      1.00000
     14      -9.8207      1.00000
     15      -9.8134      1.00000
     16      -9.8134      1.00000
     17      -9.7490      1.00000
     18      -9.7490      1.00000
     19      -9.5831      1.00000
     20      -9.1341      1.00000
     21      -8.8462      1.00000
     22      -8.8439      1.00000
     23      -8.8439      1.00000
     24      -8.8094      1.00000
     25      -8.8028      1.00000
     26      -8.8028      1.00000
     27      -8.6337      1.00000
     28      -8.0710      1.00000
     29      -7.8585      1.00000
     30      -7.8585      1.00000
     31      -7.8302      1.00000
     32      -7.8302      1.00000
     33      -7.7777      1.00000
     34      -7.4891      1.00000
     35      -6.9945      1.00000
     36      -6.9945      1.00000
     37      -6.9687      1.00000
     38      -6.9687      1.00000
     39      -6.9625      1.00000
     40      -6.9484      1.00000
     41      -6.9484      1.00000
     42      -6.9458      1.00000
     43      -6.9430      1.00000
     44      -6.9387      1.00000
     45      -6.9387      1.00000
     46      -6.9173      1.00000
     47      -6.9118      1.00000
     48      -6.9118      1.00000
     49      -6.8786      1.00000
     50      -6.8786      1.00000
     51      -6.8660      1.00000
     52      -6.8637      1.00000
     53      -6.8637      1.00000
     54      -6.8614      1.00000
     55      -6.7667      1.00000
     56      -6.7667      1.00000
     57      -6.6148      1.00000
     58      -6.4377      1.00000
     59      -6.2277      1.00000
     60      -6.2277      1.00000
     61      -6.1776      1.00000
     62      -6.1688      1.00000
     63      -6.1688      1.00000
     64      -6.1568      1.00000
     65      -6.1564      1.00000
     66      -6.1546      1.00000
     67      -6.1546      1.00000
     68      -6.1306      1.00000
     69      -6.1306      1.00000
     70      -6.1139      1.00000
     71      -6.1139      1.00000
     72      -6.1038      1.00000
     73      -6.0887      1.00000
     74      -6.0887      1.00000
     75      -6.0505      1.00000
     76      -6.0394      1.00000
     77      -6.0394      1.00000
     78      -5.9959      1.00000
     79      -5.8384      1.00000
     80      -5.8384      1.00000
     81      -5.1929      1.00000
     82      -4.6658      1.00000
     83      -4.5096      1.00000
     84      -4.5096      1.00000
     85      -4.4546      1.00000
     86      -4.4546      1.00000
     87      -4.4483      1.00000
     88      -4.4418      1.00000
     89      -4.4418      1.00000
     90      -4.4377      1.00000
     91      -4.3627      1.00000
     92      -4.3627      1.00000
     93      -3.9939      1.00000
     94      -3.2471      1.00000
     95      -3.2014      1.00000
     96      -3.2014      1.00000
     97      -3.1736      1.00000
     98      -3.1736      1.00000
     99      -3.1325      1.00000
    100      -2.9194      1.00000
    101      -2.7849      1.00000
    102      -2.7849      1.00000
    103      -2.7026      1.00000
    104      -2.6997      1.00000
    105      -2.6997      1.00000
    106      -2.6941      1.00000
    107      -2.6941      1.00000
    108      -2.6845      1.00000
    109      -2.6806      1.00000
    110      -2.6806      1.00000
    111      -2.6748      1.00000
    112      -2.6437      1.00000
    113      -2.6437      1.00000
    114      -2.6202      1.00000
    115      -2.5959      1.00000
    116      -2.5685      1.00000
    117      -2.5685      1.00000
    118      -2.5500      1.00000
    119      -2.5500      1.00000
    120      -2.5466      1.00000
    121      -2.5179      1.00000
    122      -2.5179      1.00000
    123      -2.5089      1.00000
    124      -2.4806      1.00000
    125      -2.4806      1.00000
    126      -2.4760      1.00000
    127      -2.4582      1.00000
    128      -2.4511      1.00000
    129      -2.4504      1.00000
    130      -2.4504      1.00000
    131      -2.4397      1.00000
    132      -2.4397      1.00000
    133      -2.4361      1.00000
    134      -2.4133      1.00000
    135      -2.4133      1.00000
    136      -2.3888      1.00000
    137      -2.3888      1.00000
    138      -2.3823      1.00000
    139      -2.3769      1.00000
    140      -2.3769      1.00000
    141      -2.3618      1.00000
    142      -2.3618      1.00000
    143      -2.3351      1.00000
    144      -2.1440      1.00000
    145      -1.9861      1.00000
    146      -1.9861      1.00000
    147      -1.6334      1.00000
    148      -1.4038      1.00000
    149      -1.4038      1.00000
    150      -1.3867      1.00000
    151      -1.3499      1.00000
    152      -1.3499      1.00000
    153      -1.3447      1.00000
    154      -1.3406      1.00000
    155      -1.3119      1.00000
    156      -1.3119      1.00000
    157      -1.1260      1.00000
    158      -1.1260      1.00000
    159      -0.1693      1.00000
    160       0.0915      1.00000
    161       0.0915      1.00000
    162       0.1383      1.00000
    163       0.1955      1.00000
    164       0.2047      1.00000
    165       0.2059      1.00000
    166       0.2059      1.00000
    167       0.2075      1.00000
    168       0.2075      1.00000
    169       0.2216      1.00000
    170       0.2252      1.00000
    171       0.2378      1.00000
    172       0.2401      1.00000
    173       0.2401      1.00000
    174       0.2651      1.00000
    175       0.2651      1.00000
    176       0.3793      1.00000
    177       0.3793      1.00000
    178       0.3831      1.00000
    179       0.4309      1.00000
    180       0.7367      1.00000
    181       0.7367      1.00000
    182       0.7933      1.00000
    183       0.8463      1.00000
    184       0.8578      1.00000
    185       0.8580      1.00000
    186       0.8580      1.00000
    187       0.8645      1.00000
    188       0.8645      1.00000
    189       0.8736      1.00000
    190       0.8736      1.00000
    191       0.8869      1.00000
    192       0.8960      1.00000
    193       0.8960      1.00000
    194       0.9002      1.00000
    195       0.9002      1.00000
    196       0.9021      1.00000
    197       0.9181      1.00000
    198       0.9344      1.00000
    199       0.9344      1.00000
    200       0.9418      1.00000
    201       1.1955      1.00000
    202       1.1955      1.00000
    203       1.6137      1.00000
    204       1.6137      1.00000
    205       1.6694      1.00000
    206       1.7199      1.00000
    207       1.7199      1.00000
    208       1.7232      1.00000
    209       1.7246      1.00000
    210       1.7260      1.00000
    211       1.7260      1.00000
    212       1.7396      1.00000
    213       1.7461      1.00000
    214       1.7461      1.00000
    215       1.7691      1.00000
    216       1.7691      1.00000
    217       1.8226      1.00000
    218       1.8226      1.00000
    219       1.8275      1.00000
    220       1.8468      1.00000
    221       1.8524      1.00000
    222       1.8859      1.00000
    223       1.8859      1.00000
    224       1.9251      1.00000
    225       1.9542      1.00000
    226       1.9542      1.00000
    227       2.0468      1.00000
    228       2.1334      1.00000
    229       2.1334      1.00000
    230       2.2318      1.00000
    231       2.2414      1.00000
    232       2.2414      1.00000
    233       2.2592      1.00000
    234       2.2680      1.00000
    235       2.2680      1.00000
    236       2.2739      1.00000
    237       2.2774      1.00000
    238       2.2774      1.00000
    239       2.2783      1.00000
    240       2.2896      1.00000
    241       2.2896      1.00000
    242       2.2977      1.00000
    243       2.3143      1.00000
    244       2.3264      1.00000
    245       2.3264      1.00000
    246       2.3266      1.00000
    247       2.3533      1.00000
    248       2.3533      1.00000
    249       2.3668      1.00000
    250       2.3909      1.00000
    251       2.3909      1.00000
    252       2.4270      1.00000
    253       2.4270      1.00000
    254       2.7272      1.00000
    255       2.7900      1.00000
    256       2.7900      1.00000
    257       3.2463      1.00000
    258       3.2463      1.00000
    259       3.3167      1.00000
    260       3.3300      1.00000
    261       3.3594      1.00000
    262       3.3594      1.00000
    263       3.5216      1.00000
    264       3.7595      1.00000
    265       3.7595      1.00000
    266       3.8539      1.00000
    267       3.8545      1.00000
    268       3.8545      1.00000
    269       3.8762      1.00000
    270       3.8818      1.00000
    271       3.8818      1.00000
    272       3.9204      1.00000
    273       3.9702      1.00000
    274       3.9702      1.00000
    275       4.0970      1.00000
    276       4.0970      1.00000
    277       4.2373      1.00000
    278       4.2656      1.00000
    279       4.2736      1.00000
    280       4.2736      1.00000
    281       4.2835      1.00000
    282       4.2867      1.00000
    283       4.2867      1.00000
    284       4.3117      1.00000
    285       4.3374      1.00000
    286       4.3374      1.00000
    287       4.3546      1.00000
    288       4.4561      1.00000
    289       4.4561      1.00000
    290       4.4887      1.00000
    291       4.5110      1.00000
    292       4.5178      1.00000
    293       4.5178      1.00000
    294       4.5341      1.00000
    295       4.5372      1.00000
    296       4.5372      1.00000
    297       4.5399      1.00000
    298       4.5399      1.00000
    299       4.5457      1.00000
    300       4.5557      1.00000
    301       4.5557      1.00000
    302       4.5630      1.00000
    303       4.5892      1.00000
    304       4.5892      1.00000
    305       4.5973      1.00000
    306       4.6089      1.00000
    307       4.6089      1.00000
    308       4.6165      1.00000
    309       4.6165      1.00000
    310       4.6285      1.00000
    311       4.6717      1.00000
    312       4.6717      1.00000
    313       4.7011      1.00000
    314       4.7230      1.00000
    315       4.7230      1.00000
    316       4.7250      1.00000
    317       4.7292      1.00000
    318       4.7314      1.00000
    319       4.7376      1.00000
    320       4.7376      1.00000
    321       4.7419      1.00000
    322       4.7419      1.00000
    323       4.7543      1.00000
    324       4.7562      1.00000
    325       4.7562      1.00000
    326       4.7563      1.00000
    327       4.7651      1.00000
    328       4.7651      1.00000
    329       4.7671      1.00000
    330       4.7671      1.00000
    331       4.7690      1.00000
    332       4.7743      1.00000
    333       4.7872      1.00000
    334       4.7872      1.00000
    335       4.7976      1.00000
    336       4.8022      1.00000
    337       4.8022      1.00000
    338       4.8071      1.00000
    339       4.8185      1.00000
    340       4.8185      1.00000
    341       4.8382      1.00000
    342       4.8382      1.00000
    343       4.8475      1.00000
    344       4.8587      1.00000
    345       4.8587      1.00000
    346       4.9017      1.00000
    347       4.9017      1.00000
    348       4.9222      1.00000
    349       4.9276      1.00000
    350       4.9516      1.00000
    351       4.9646      1.00000
    352       4.9722      1.00000
    353       4.9722      1.00000
    354       5.1011      1.00000
    355       5.1011      1.00000
    356       5.3268      1.00000
    357       5.3383      1.00000
    358       5.3383      1.00000
    359       5.4878      1.00000
    360       5.4878      1.00000
    361       5.5531      1.00000
    362       5.5597      1.00000
    363       5.5597      1.00000
    364       5.5649      1.00000
    365       5.5990      1.00000
    366       5.5990      1.00000
    367       5.6012      1.00000
    368       5.6163      1.00000
    369       5.6301      1.00000
    370       5.6301      1.00000
    371       5.6322      1.00000
    372       5.6417      1.00000
    373       5.6417      1.00000
    374       5.6557      1.00000
    375       5.6557      1.00000
    376       5.6681      1.00000
    377       5.7499      1.00000
    378       5.7499      1.00000
    379       5.8104      1.00000
    380       6.3912      1.00000
    381       6.5949      1.00000
    382       6.5949      1.00000
    383       6.9143      1.00000
    384       6.9143      1.00000
    385       6.9719      1.00000
    386       6.9719      1.00000
    387       6.9764      1.00000
    388       6.9836      1.00000
    389       6.9993      1.00000
    390       7.0156      1.00000
    391       7.0156      1.00000
    392       7.0360      1.00000
    393       7.0692      1.00000
    394       7.0692      1.00000
    395       7.0930      1.00000
    396       7.1640      1.00000
    397       7.1640      1.00000
    398       7.2328      1.00000
    399       7.2362      1.00000
    400       7.2362      1.00000
    401       7.2410      1.00000
    402       7.2410      1.00000
    403       7.2505      1.00000
    404       7.2505      1.00000
    405       7.2550      1.00000
    406       7.2856      1.00000
    407       7.2856      1.00000
    408       7.3137      1.00000
    409       7.3145      1.00000
    410       7.3145      1.00000
    411       7.3184      1.00000
    412       7.3417      1.00000
    413       7.3417      1.00000
    414       7.8891      1.00000
    415       7.9430      1.00000
    416       7.9430      1.00000
    417       8.1395      1.00000
    418       8.1395      1.00000
    419       8.1494      1.00000
    420       8.1815      1.00000
    421       8.1839      1.00000
    422       8.1839      1.00000
    423       8.2208      1.00000
    424       8.2703      1.00000
    425       8.2703      1.00000
    426       8.4051      1.00000
    427       9.4372      1.00000
    428       9.4372      1.00000
    429       9.4497      1.00000
    430      10.8983      0.00000
    431      12.6315      1.00000
    432      12.6315      0.00000
    433      13.6737      0.00000
    434      13.6737      0.00000
    435      13.6930      0.00000
    436      13.7414      0.00000
    437      13.7414      0.00000
    438      13.7560      0.00000
    439      14.2267      0.00000
    440      14.3193      0.00000
    441      14.3193      0.00000
    442      14.3327      0.00000
    443      14.3327      0.00000
    444      14.3985      0.00000
    445      14.4600      0.00000
    446      14.4600      0.00000
    447      14.5367      0.00000
    448      14.5806      0.00000
    449      14.5806      0.00000
    450      14.5891      0.00000
    451      15.2033      0.00000
    452      15.2033      0.00000
    453      15.2182      0.00000
    454      15.7352      0.00000
    455      15.8418      0.00000
    456      15.8418      0.00000
    457      15.8601      0.00000
    458      15.8938      0.00000
    459      15.8938      0.00000
    460      15.9116      0.00000
    461      15.9126      0.00000
    462      15.9126      0.00000
    463      15.9236      0.00000
    464      15.9236      0.00000
    465      15.9667      0.00000
    466      16.3424      0.00000
    467      16.5463      0.00000
    468      16.5463      0.00000
    469      16.5858      0.00000
    470      16.5920      0.00000
    471      16.5920      0.00000
    472      16.5987      0.00000
    473      16.6013      0.00000
    474      16.6013      0.00000
    475      16.6094      0.00000
    476      16.6094      0.00000
    477      16.6255      0.00000
    478      16.6255      0.00000
    479      16.6313      0.00000
    480      16.6318      0.00000
    481      16.6597      0.00000
    482      16.6641      0.00000
    483      16.6641      0.00000
    484      16.7034      0.00000
    485      16.7034      0.00000
    486      16.7351      0.00000
    487      16.7466      0.00000
    488      16.7466      0.00000
    489      16.7493      0.00000
    490      16.9852      0.00000
    491      17.0189      0.00000
    492      17.0189      0.00000
    493      17.0800      0.00000
    494      17.0850      0.00000
    495      17.0944      0.00000
    496      17.0944      0.00000
    497      17.1046      0.00000
    498      17.1047      0.00000
    499      17.1153      0.00000
    500      17.1245      0.00000
    501      17.1245      0.00000
    502      17.1355      0.00000
    503      17.1569      0.00000
    504      17.1570      0.00000
    505      17.1854      0.00000
    506      17.1854      0.00000
    507      17.1892      0.00000
    508      17.2045      0.00000
    509      17.2045      0.00000
    510      17.2072      0.00000
    511      17.2132      0.00000
    512      17.2329      0.00000
    513      17.2329      0.00000
    514      17.2399      0.00000
    515      17.2477      0.00000
    516      17.2479      0.00000
    517      17.2543      0.00000
    518      17.2545      0.00000
    519      17.2622      0.00000
    520      17.2623      0.00000
    521      17.2750      0.00000
    522      17.2895      0.00000
    523      17.2897      0.00000
    524      17.3282      0.00000
    525      17.3327      0.00000
    526      17.3889      0.00000
    527      17.3942      0.00000
    528      17.3961      0.00000
    529      17.4617      0.00000
    530      17.4634      0.00000
    531      17.4721      0.00000
    532      17.5831      0.00000
    533      17.6928      0.00000
    534      17.7030      0.00000
    535      17.7132      0.00000
    536      17.7405      0.00000
    537      17.7458      0.00000
    538      17.7570      0.00000
    539      17.7692      0.00000
    540      17.7909      0.00000


--------------------------------------------------------------------------------------------------------


 soft charge-density along one line, spin component           1
         0         1         2         3         4         5         6         7         8         9
 total charge-density along one line
 
 soft charge-density along one line, spin component           2
         0         1         2         3         4         5         6         7         8         9
 total charge-density along one line
 
 pseudopotential strength for first ion, spin component:           1
  9.453  12.553  -0.000  -0.000   0.000   0.000   0.000  -0.000
 12.553  16.669  -0.000  -0.000   0.000   0.000   0.000  -0.000
 -0.000  -0.000  -3.678   0.000  -0.000   7.204  -0.000   0.000
 -0.000  -0.000   0.000  -3.678   0.000  -0.000   7.204  -0.000
  0.000   0.000  -0.000   0.000  -3.678   0.000  -0.000   7.204
  0.000   0.000   7.204  -0.000   0.000 -16.206   0.000  -0.000
  0.000   0.000  -0.000   7.204  -0.000   0.000 -16.207   0.000
 -0.000  -0.000   0.000  -0.000   7.204  -0.000   0.000 -16.207
 pseudopotential strength for first ion, spin component:           2
  9.452  12.553  -0.000  -0.000   0.000   0.000   0.000  -0.000
 12.553  16.668  -0.000  -0.000   0.000   0.000   0.000  -0.000
 -0.000  -0.000  -3.678   0.000  -0.000   7.204  -0.000   0.000
 -0.000  -0.000   0.000  -3.678  -0.000  -0.000   7.204   0.000
  0.000   0.000  -0.000  -0.000  -3.678   0.000   0.000   7.204
  0.000   0.000   7.204  -0.000   0.000 -16.207   0.000  -0.000
  0.000   0.000  -0.000   7.204   0.000   0.000 -16.206  -0.000
 -0.000  -0.000   0.000   0.000   7.204  -0.000  -0.000 -16.206
 total augmentation occupancy for first ion, spin component:           1
  7.484  -3.309   0.004  -0.003   0.003   0.001  -0.000   0.000
 -3.309   1.546  -0.002   0.002  -0.002  -0.000   0.000  -0.000
  0.004  -0.002   1.561   0.001  -0.001   0.128  -0.000   0.000
 -0.003   0.002   0.001   1.561  -0.002  -0.000   0.128  -0.000
  0.003  -0.002  -0.001  -0.002   1.561   0.000  -0.000   0.128
  0.001  -0.000   0.128  -0.000   0.000   0.012  -0.000   0.000
 -0.000   0.000  -0.000   0.128  -0.000  -0.000   0.012  -0.000
  0.000  -0.000   0.000  -0.000   0.128   0.000  -0.000   0.012
 total augmentation occupancy for first ion, spin component:           2
 -0.000   0.000  -0.000  -0.000   0.000   0.000  -0.000   0.000
  0.000   0.000   0.000   0.000  -0.000  -0.000   0.000  -0.000
 -0.000   0.000   0.000   0.000  -0.000  -0.000  -0.000   0.000
 -0.000   0.000   0.000   0.001  -0.000  -0.000  -0.000   0.000
  0.000  -0.000  -0.000  -0.000   0.001   0.000   0.000  -0.000
  0.000  -0.000  -0.000  -0.000   0.000  -0.000  -0.000   0.000
 -0.000   0.000  -0.000  -0.000   0.000  -0.000  -0.000   0.000
  0.000  -0.000   0.000   0.000  -0.000   0.000   0.000  -0.000


------------------------ aborting loop because EDIFF is reached ----------------------------------------





 total charge

# of ion       s       p       d       tot
------------------------------------------
    1        0.829   1.745   0.000   2.574
    2        0.829   1.746   0.000   2.576
    3        0.829   1.745   0.000   2.574
    4        0.829   1.744   0.000   2.574
    5        0.829   1.744   0.000   2.573
    6        0.829   1.743   0.000   2.571
    7        0.829   1.745   0.000   2.574
    8        0.829   1.742   0.000   2.571
    9        0.829   1.745   0.000   2.574
   10        0.829   1.745   0.000   2.574
   11        0.829   1.743   0.000   2.572
   12        0.830   1.746   0.000   2.576
   13        0.829   1.743   0.000   2.571
   14        0.829   1.737   0.000   2.566
   15        0.831   1.748   0.000   2.580
   16        0.829   1.745   0.000   2.574
   17        0.832   1.737   0.000   2.569
   18        0.829   1.744   0.000   2.573
   19        0.829   1.746   0.000   2.576
   20        0.829   1.744   0.000   2.573
   21        0.829   1.743   0.000   2.572
   22        0.829   1.744   0.000   2.573
   23        0.841   1.758   0.000   2.599
   24        0.829   1.737   0.000   2.566
   25        0.829   1.742   0.000   2.571
   26        0.829   1.743   0.000   2.572
   27        0.832   1.737   0.000   2.569
   28        0.829   1.745   0.000   2.574
   29        0.829   1.743   0.000   2.572
   30        0.830   1.746   0.000   2.576
   31        0.829   1.746   0.000   2.576
   32        0.829   1.744   0.000   2.573
   33        0.829   1.743   0.000   2.572
   34        0.829   1.745   0.000   2.574
   35        0.829   1.746   0.000   2.576
   36        0.829   1.745   0.000   2.574
   37        0.829   1.743   0.000   2.571
   38        0.829   1.737   0.000   2.566
   39        0.831   1.748   0.000   2.580
   40        0.829   1.744   0.000   2.573
   41        0.841   1.758   0.000   2.599
   42        0.829   1.737   0.000   2.566
   43        0.829   1.744   0.000   2.574
   44        0.829   1.744   0.000   2.573
   45        0.829   1.743   0.000   2.571
   46        0.829   1.745   0.000   2.574
   47        0.832   1.737   0.000   2.569
   48        0.829   1.744   0.000   2.573
   49        0.829   1.742   0.000   2.571
   50        0.829   1.743   0.000   2.572
   51        0.832   1.737   0.000   2.569
   52        0.829   1.745   0.000   2.574
   53        0.829   1.742   0.000   2.571
   54        0.829   1.745   0.000   2.574
   55        0.829   1.745   0.000   2.574
   56        0.829   1.746   0.000   2.575
   57        0.829   1.745   0.000   2.574
   58        0.828   1.740   0.000   2.568
   59        0.829   1.744   0.000   2.573
   60        0.829   1.746   0.000   2.575
   61        0.829   1.745   0.000   2.574
   62        0.828   1.740   0.000   2.568
   63        0.829   1.745   0.000   2.574
   64        0.828   1.740   0.000   2.568
   65        0.829   1.744   0.000   2.573
   66        0.829   1.746   0.000   2.575
   67        0.829   1.742   0.000   2.571
   68        0.829   1.744   0.000   2.573
   69        0.832   1.738   0.000   2.570
   70        0.829   1.742   0.000   2.571
   71        0.828   1.740   0.000   2.568
   72        0.829   1.745   0.000   2.574
   73        0.828   1.740   0.000   2.568
   74        0.829   1.745   0.000   2.574
   75        0.832   1.738   0.000   2.570
   76        0.829   1.742   0.000   2.571
   77        0.828   1.740   0.000   2.568
   78        0.829   1.743   0.000   2.571
   79        0.832   1.738   0.000   2.570
   80        0.829   1.745   0.000   2.574
   81        0.829   1.745   0.000   2.574
   82        0.829   1.743   0.000   2.571
   83        0.829   1.745   0.000   2.574
   84        0.829   1.742   0.000   2.571
   85        0.829   1.744   0.000   2.573
   86        0.829   1.746   0.000   2.576
   87        0.829   1.745   0.000   2.574
   88        0.829   1.744   0.000   2.574
   89        0.829   1.745   0.000   2.574
   90        0.829   1.744   0.000   2.573
   91        0.831   1.748   0.000   2.580
   92        0.830   1.746   0.000   2.576
   93        0.832   1.737   0.000   2.569
   94        0.829   1.737   0.000   2.566
   95        0.829   1.743   0.000   2.572
   96        0.829   1.745   0.000   2.574
   97        0.829   1.743   0.000   2.571
   98        0.829   1.745   0.000   2.574
   99        0.832   1.737   0.000   2.569
  100        0.829   1.737   0.000   2.566
  101        0.829   1.743   0.000   2.572
  102        0.829   1.743   0.000   2.572
  103        0.841   1.758   0.000   2.599
  104        0.829   1.744   0.000   2.573
  105        0.829   1.742   0.000   2.571
  106        0.829   1.744   0.000   2.573
  107        0.829   1.746   0.000   2.576
  108        0.829   1.743   0.000   2.571
  109        0.829   1.744   0.000   2.573
  110        0.829   1.743   0.000   2.571
  111        0.829   1.743   0.000   2.571
  112        0.829   1.742   0.000   2.571
  113        0.828   1.741   0.000   2.569
  114        0.829   1.744   0.000   2.573
  115        0.828   1.741   0.000   2.570
  116        0.829   1.742   0.000   2.571
  117        0.829   1.742   0.000   2.571
  118        0.829   1.744   0.000   2.573
  119        0.829   1.745   0.000   2.574
  120        0.829   1.745   0.000   2.574
  121        0.828   1.737   0.000   2.564
  122        0.829   1.746   0.000   2.575
  123        0.829   1.744   0.000   2.573
  124        0.829   1.743   0.000   2.572
  125        0.828   1.737   0.000   2.564
  126        0.830   1.750   0.000   2.580
  127        0.829   1.745   0.000   2.573
  128        0.829   1.745   0.000   2.574
  129        0.829   1.745   0.000   2.574
  130        0.829   1.746   0.000   2.575
  131        0.824   1.704   0.000   2.528
  132        0.829   1.745   0.000   2.573
  133        0.830   1.746   0.000   2.576
  134        0.829   1.746   0.000   2.575
  135        0.829   1.742   0.000   2.571
  136        0.829   1.744   0.000   2.573
  137        0.829   1.745   0.000   2.574
  138        0.830   1.750   0.000   2.580
  139        0.829   1.745   0.000   2.573
  140        0.829   1.745   0.000   2.574
  141        0.829   1.743   0.000   2.571
  142        0.829   1.744   0.000   2.573
  143        0.829   1.743   0.000   2.571
  144        0.829   1.745   0.000   2.574
  145        0.828   1.737   0.000   2.564
  146        0.829   1.746   0.000   2.575
  147        0.829   1.745   0.000   2.574
  148        0.829   1.746   0.000   2.575
  149        0.824   1.704   0.000   2.528
  150        0.829   1.743   0.000   2.571
  151        0.829   1.742   0.000   2.571
  152        0.828   1.741   0.000   2.569
  153        0.829   1.744   0.000   2.573
  154        0.829   1.743   0.000   2.572
  155        0.828   1.737   0.000   2.564
  156        0.829   1.745   0.000   2.573
  157        0.830   1.746   0.000   2.576
  158        0.829   1.746   0.000   2.575
  159        0.829   1.744   0.000   2.573
  160        0.828   1.741   0.000   2.570
  161        0.829   1.742   0.000   2.571
  162        0.829   1.743   0.000   2.571
  163        0.830   1.750   0.000   2.580
  164        0.829   1.742   0.000   2.571
  165        0.829   1.743   0.000   2.571
  166        0.829   1.745   0.000   2.574
  167        0.829   1.745   0.000   2.574
  168        0.829   1.744   0.000   2.573
  169        0.829   1.745   0.000   2.573
  170        0.829   1.744   0.000   2.573
  171        0.829   1.743   0.000   2.571
  172        0.829   1.745   0.000   2.574
  173        0.829   1.745   0.000   2.574
  174        0.828   1.741   0.000   2.569
  175        0.824   1.704   0.000   2.528
  176        0.829   1.746   0.000   2.575
  177        0.829   1.742   0.000   2.571
  178        0.829   1.746   0.000   2.575
  179        0.828   1.737   0.000   2.564
  180        0.829   1.744   0.000   2.573
  181        0.829   1.745   0.000   2.573
  182        0.829   1.744   0.000   2.573
  183        0.829   1.742   0.000   2.571
  184        0.829   1.746   0.000   2.575
  185        0.828   1.737   0.000   2.564
  186        0.828   1.741   0.000   2.570
  187        0.830   1.746   0.000   2.576
  188        0.829   1.743   0.000   2.572
  189        0.829   1.743   0.000   2.572
  190        0.830   1.750   0.000   2.580
  191        0.829   1.743   0.000   2.571
  192        0.830   1.748   0.000   2.578
  193        0.829   1.745   0.000   2.574
  194        0.830   1.750   0.000   2.580
  195        0.829   1.743   0.000   2.572
  196        0.830   1.748   0.000   2.578
  197        0.829   1.743   0.000   2.572
  198        0.829   1.743   0.000   2.571
  199        0.830   1.748   0.000   2.578
  200        0.829   1.744   0.000   2.573
  201        0.830   1.750   0.000   2.580
  202        0.830   1.748   0.000   2.578
  203        0.830   1.748   0.000   2.578
  204        0.829   1.743   0.000   2.572
  205        0.830   1.750   0.000   2.580
  206        0.829   1.743   0.000   2.571
  207        0.830   1.750   0.000   2.580
  208        0.830   1.748   0.000   2.578
  209        0.830   1.748   0.000   2.578
  210        0.829   1.745   0.000   2.574
  211        0.830   1.748   0.000   2.578
  212        0.830   1.748   0.000   2.578
  213        0.829   1.745   0.000   2.574
  214        0.830   1.750   0.000   2.580
  215        1.211   2.642   0.000   3.853
--------------------------------------------------
tot        178.679 375.708   0.000 554.387



 magnetization (x)

# of ion       s       p       d       tot
------------------------------------------
    1        0.000   0.001   0.000   0.001
    2        0.000   0.001   0.000   0.002
    3        0.000   0.000   0.000   0.000
    4        0.000   0.002   0.000   0.002
    5        0.000   0.001   0.000   0.001
    6        0.000   0.000   0.000   0.000
    7        0.000   0.000   0.000   0.000
    8       -0.000   0.000   0.000   0.000
    9        0.000   0.001   0.000   0.001
   10        0.000   0.000   0.000   0.000
   11       -0.000   0.000   0.000   0.000
   12        0.000   0.001   0.000   0.001
   13        0.000   0.000   0.000   0.000
   14        0.001   0.005   0.000   0.005
   15        0.001   0.009   0.000   0.010
   16        0.000   0.001   0.000   0.001
   17        0.003   0.017   0.000   0.020
   18        0.000   0.000   0.000   0.000
   19        0.000   0.001   0.000   0.002
   20        0.000   0.002   0.000   0.002
   21       -0.000   0.000   0.000   0.000
   22        0.000   0.001   0.000   0.001
   23        0.025   0.233   0.000   0.258
   24        0.001   0.005   0.000   0.005
   25       -0.000   0.000   0.000   0.000
   26        0.001   0.005   0.000   0.006
   27        0.003   0.017   0.000   0.020
   28        0.000   0.000   0.000   0.000
   29       -0.000   0.000   0.000   0.000
   30        0.000   0.001   0.000   0.001
   31        0.000   0.001   0.000   0.002
   32        0.000   0.002   0.000   0.002
   33       -0.000   0.000   0.000   0.000
   34        0.000   0.001   0.000   0.001
   35        0.000   0.001   0.000   0.002
   36        0.000   0.000   0.000   0.000
   37        0.000   0.000   0.000   0.000
   38        0.001   0.005   0.000   0.005
   39        0.001   0.009   0.000   0.010
   40        0.000   0.001   0.000   0.001
   41        0.025   0.233   0.000   0.258
   42        0.001   0.005   0.000   0.005
   43        0.000   0.002   0.000   0.002
   44        0.000   0.001   0.000   0.001
   45        0.000   0.000   0.000   0.000
   46        0.000   0.001   0.000   0.001
   47        0.003   0.017   0.000   0.020
   48        0.000   0.000   0.000   0.000
   49       -0.000   0.000   0.000   0.000
   50        0.001   0.005   0.000   0.006
   51        0.003   0.017   0.000   0.020
   52        0.000   0.000   0.000   0.000
   53       -0.000   0.000   0.000   0.000
   54        0.000   0.001   0.000   0.001
   55        0.000   0.000   0.000   0.000
   56        0.000   0.001   0.000   0.001
   57        0.000   0.001   0.000   0.001
   58       -0.000   0.000   0.000   0.000
   59        0.000   0.001   0.000   0.001
   60        0.000   0.001   0.000   0.001
   61        0.000   0.001   0.000   0.002
   62       -0.000   0.000   0.000   0.000
   63        0.000   0.000   0.000   0.000
   64       -0.000   0.000   0.000   0.000
   65        0.000   0.001   0.000   0.001
   66        0.000   0.001   0.000   0.001
   67        0.002   0.005   0.000   0.007
   68        0.000   0.001   0.000   0.001
   69        0.003   0.017   0.000   0.020
   70        0.002   0.005   0.000   0.007
   71       -0.000   0.000   0.000   0.000
   72        0.000   0.001   0.000   0.002
   73       -0.000   0.000   0.000   0.000
   74        0.000   0.000   0.000   0.000
   75        0.003   0.017   0.000   0.020
   76        0.002   0.005   0.000   0.007
   77       -0.000   0.000   0.000   0.000
   78        0.000   0.001   0.000   0.001
   79        0.003   0.017   0.000   0.020
   80        0.000   0.001   0.000   0.002
   81        0.000   0.001   0.000   0.001
   82        0.000   0.000   0.000   0.000
   83        0.000   0.000   0.000   0.000
   84       -0.000   0.000   0.000   0.000
   85        0.000   0.001   0.000   0.001
   86        0.000   0.001   0.000   0.002
   87        0.000   0.000   0.000   0.000
   88        0.000   0.002   0.000   0.002
   89        0.000   0.001   0.000   0.001
   90        0.000   0.000   0.000   0.000
   91        0.001   0.009   0.000   0.010
   92        0.000   0.001   0.000   0.001
   93        0.003   0.017   0.000   0.020
   94        0.001   0.005   0.000   0.005
   95       -0.000   0.000   0.000   0.000
   96        0.000   0.001   0.000   0.001
   97        0.000   0.000   0.000   0.000
   98        0.000   0.000   0.000   0.000
   99        0.003   0.017   0.000   0.020
  100        0.001   0.005   0.000   0.005
  101       -0.000   0.000   0.000   0.000
  102        0.001   0.005   0.000   0.006
  103        0.025   0.233   0.000   0.258
  104        0.000   0.002   0.000   0.002
  105       -0.000   0.000   0.000   0.000
  106        0.000   0.001   0.000   0.001
  107        0.000   0.001   0.000   0.002
  108        0.000   0.000   0.000   0.000
  109       -0.000   0.000   0.000  -0.000
  110       -0.000   0.000   0.000  -0.000
  111       -0.000   0.000   0.000  -0.000
  112       -0.000  -0.001   0.000  -0.001
  113       -0.000  -0.000   0.000  -0.000
  114       -0.000   0.000   0.000  -0.000
  115       -0.000  -0.000   0.000  -0.000
  116       -0.000  -0.001   0.000  -0.001
  117       -0.000   0.000   0.000   0.000
  118       -0.000  -0.000   0.000  -0.000
  119       -0.000   0.000   0.000   0.000
  120       -0.000   0.000   0.000   0.000
  121       -0.000  -0.000   0.000  -0.000
  122       -0.000  -0.000   0.000  -0.000
  123       -0.000  -0.000   0.000  -0.000
  124       -0.000  -0.001   0.000  -0.001
  125       -0.000  -0.000   0.000  -0.000
  126        0.000   0.002   0.000   0.002
  127       -0.000  -0.000   0.000  -0.000
  128       -0.000  -0.000   0.000  -0.000
  129       -0.000  -0.000   0.000  -0.000
  130       -0.001  -0.004   0.000  -0.006
  131       -0.000  -0.000   0.000  -0.000
  132       -0.000  -0.000   0.000  -0.000
  133       -0.001   0.001   0.000  -0.000
  134       -0.001  -0.004   0.000  -0.006
  135       -0.000   0.000   0.000   0.000
  136       -0.000  -0.000   0.000  -0.000
  137       -0.000   0.000   0.000   0.000
  138        0.000   0.002   0.000   0.002
  139       -0.000  -0.000   0.000  -0.000
  140       -0.000  -0.000   0.000  -0.000
  141        0.000   0.000   0.000   0.000
  142       -0.000   0.000   0.000  -0.000
  143       -0.000   0.000   0.000  -0.000
  144       -0.000   0.000   0.000   0.000
  145       -0.000  -0.000   0.000  -0.000
  146       -0.000  -0.000   0.000  -0.000
  147       -0.000  -0.000   0.000  -0.000
  148       -0.001  -0.004   0.000  -0.006
  149       -0.000  -0.000   0.000  -0.000
  150       -0.000   0.000   0.000  -0.000
  151       -0.000  -0.001   0.000  -0.001
  152       -0.000  -0.000   0.000  -0.000
  153       -0.000  -0.000   0.000  -0.000
  154       -0.000  -0.001   0.000  -0.001
  155       -0.000  -0.000   0.000  -0.000
  156       -0.000  -0.000   0.000  -0.000
  157       -0.001   0.001   0.000  -0.000
  158       -0.001  -0.004   0.000  -0.006
  159       -0.000   0.000   0.000  -0.000
  160       -0.000  -0.000   0.000  -0.000
  161       -0.000  -0.001   0.000  -0.001
  162        0.000   0.000   0.000   0.000
  163        0.000   0.002   0.000   0.002
  164       -0.000   0.000   0.000   0.000
  165       -0.000   0.000   0.000  -0.000
  166       -0.000  -0.000   0.000  -0.000
  167       -0.000   0.000   0.000   0.000
  168       -0.000   0.000   0.000  -0.000
  169       -0.000  -0.000   0.000  -0.000
  170       -0.000  -0.000   0.000  -0.000
  171       -0.000   0.000   0.000  -0.000
  172       -0.000  -0.000   0.000  -0.000
  173       -0.000   0.000   0.000   0.000
  174       -0.000  -0.000   0.000  -0.000
  175       -0.000  -0.000   0.000  -0.000
  176       -0.000  -0.000   0.000  -0.000
  177       -0.000  -0.001   0.000  -0.001
  178       -0.001  -0.004   0.000  -0.006
  179       -0.000  -0.000   0.000  -0.000
  180       -0.000   0.000   0.000  -0.000
  181       -0.000  -0.000   0.000  -0.000
  182       -0.000  -0.000   0.000  -0.000
  183       -0.000  -0.001   0.000  -0.001
  184       -0.001  -0.004   0.000  -0.006
  185       -0.000  -0.000   0.000  -0.000
  186       -0.000  -0.000   0.000  -0.000
  187       -0.001   0.001   0.000  -0.000
  188       -0.000  -0.001   0.000  -0.001
  189       -0.000   0.000   0.000  -0.000
  190        0.000   0.002   0.000   0.002
  191       -0.000   0.000   0.000   0.000
  192        0.001   0.004   0.000   0.005
  193       -0.000  -0.001   0.000  -0.001
  194        0.000   0.002   0.000   0.002
  195        0.000   0.001   0.000   0.001
  196        0.001   0.004   0.000   0.005
  197       -0.000   0.000   0.000  -0.000
  198       -0.000   0.000   0.000   0.000
  199        0.000   0.001   0.000   0.001
  200       -0.000   0.000   0.000   0.000
  201        0.000   0.002   0.000   0.002
  202       -0.000  -0.001   0.000  -0.001
  203        0.000   0.001   0.000   0.001
  204       -0.000   0.000   0.000  -0.000
  205        0.000   0.002   0.000   0.002
  206       -0.000   0.000   0.000   0.000
  207        0.000   0.002   0.000   0.002
  208       -0.000  -0.001   0.000  -0.001
  209        0.000   0.001   0.000   0.001
  210       -0.000  -0.001   0.000  -0.001
  211       -0.000  -0.001   0.000  -0.001
  212        0.001   0.004   0.000   0.005
  213       -0.000  -0.001   0.000  -0.001
  214        0.000   0.002   0.000   0.002
  215        0.019   0.130   0.000   0.149
--------------------------------------------------
tot          0.132   1.122   0.000   1.254
 
    CHARGE:  cpu time      0.1015: real time      0.1022
    FORLOC:  cpu time      0.0370: real time      0.0371
    FORNL :  cpu time      0.8377: real time      0.8465
    STRESS:  cpu time      2.5150: real time      2.5420
    FORCOR:  cpu time      0.1119: real time      0.1128
    FORHAR:  cpu time      0.0438: real time      0.0440
    MIXING:  cpu time      0.0055: real time      0.0056
    OFIELD:  cpu time      0.0001: real time      0.0001

  FORCE on cell =-STRESS in cart. coord.  units (eV):
  Direction    XX          YY          ZZ          XY          YZ          ZX
  --------------------------------------------------------------------------------------
  Alpha Z  3085.66645  3085.66645  3085.66645
  Ewald  -12418.30068-12418.30067-12418.30067   -11.92271    11.92271    11.92271
  Hartree   990.44557   990.44557   990.44557    -7.35378     7.35378     7.35378
  E(xc)   -3277.95914 -3277.95914 -3277.95914    -0.01049     0.01049     0.01049
  Local   -1268.22440 -1268.22440 -1268.22440    17.05314   -17.05314   -17.05314
  n-local  -778.90108  -778.30950  -778.30953     0.10468     1.61990    -0.10520
  augment   -76.25028   -76.25028   -76.25028     0.18917    -0.18917    -0.18917
  Kinetic 13768.45150 13764.20923 13764.20946    -0.42387    -8.71148     0.42438
  Fock        0.00000     0.00000     0.00000     0.00000     0.00000     0.00000
  -------------------------------------------------------------------------------------
  Total      22.49421    22.49421    22.49421     0.10639    -0.10639    -0.10639
  in kB      29.24549    29.24549    29.24549     0.13832    -0.13832    -0.13832
  external pressure =       29.25 kB  Pullay stress =        0.00 kB


 VOLUME and BASIS-vectors are now :
 -----------------------------------------------------------------------------
  energy-cutoff  :      500.00
  volume of cell :     1232.32
      direct lattice vectors                 reciprocal lattice vectors
    10.721136093  0.000000000  0.000000000     0.093273697  0.000000000  0.000000000
     0.000000000 10.721136093  0.000000000     0.000000000  0.093273697  0.000000000
     0.000000000  0.000000000 10.721136093     0.000000000  0.000000000  0.093273697

  length of vectors
    10.721136093 10.721136093 10.721136093     0.093273697  0.093273697  0.093273697


 FORCES acting on ions
    electron-ion (+dipol)            ewald-force                    non-local-force                 convergence-correction
 -----------------------------------------------------------------------------------------------
   0.682E+00 -.818E-02 -.682E+00   -.752E+00 0.262E-01 0.752E+00   0.658E-01 -.221E-01 -.658E-01   0.330E-04 -.530E-04 -.330E-04
   0.141E+01 -.767E+00 0.648E+00   -.153E+01 0.819E+00 -.530E+00   0.122E+00 -.591E-01 -.103E+00   0.585E-04 -.192E-04 -.931E-05
   0.144E+01 -.304E+00 0.105E+00   -.151E+01 0.295E+00 -.163E+00   0.701E-01 0.654E-02 0.597E-01   0.377E-04 0.469E-05 0.418E-04
   0.123E+01 0.118E+01 -.123E+01   -.134E+01 -.103E+01 0.134E+01   0.109E+00 -.156E+00 -.109E+00   0.760E-04 -.293E-04 -.760E-04
   0.421E+01 -.217E+01 -.145E+01   -.455E+01 0.234E+01 0.155E+01   0.335E+00 -.163E+00 -.104E+00   0.163E-03 -.519E-04 -.161E-04
   0.367E+01 -.258E+00 0.309E+01   -.391E+01 0.291E+00 -.320E+01   0.228E+00 -.308E-01 0.108E+00   0.963E-04 -.276E-04 0.101E-03
   0.125E+01 0.628E+00 -.125E+01   -.132E+01 -.709E+00 0.132E+01   0.610E-01 0.787E-01 -.610E-01   0.517E-04 0.827E-04 -.517E-04
   0.320E+01 0.337E+01 -.369E+00   -.341E+01 -.350E+01 0.364E+00   0.210E+00 0.131E+00 0.754E-02   0.147E-03 0.791E-04 -.120E-04
   0.112E+01 0.118E+01 0.131E+01   -.131E+01 -.135E+01 -.150E+01   0.187E+00 0.165E+00 0.186E+00   0.922E-04 0.468E-04 0.828E-04
   -.105E+00 -.304E+00 -.144E+01   0.163E+00 0.295E+00 0.151E+01   -.597E-01 0.654E-02 -.701E-01   -.418E-04 0.469E-05 -.377E-04
   -.292E+01 -.151E+01 0.136E+01   0.307E+01 0.147E+01 -.140E+01   -.144E+00 0.271E-01 0.397E-01   -.488E-04 0.441E-04 0.143E-04
   -.329E+00 0.128E+01 0.329E+00   0.339E+00 -.135E+01 -.339E+00   -.209E-01 0.725E-01 0.209E-01   -.304E-04 0.634E-04 0.304E-04
   -.309E+01 -.258E+00 -.367E+01   0.320E+01 0.291E+00 0.391E+01   -.108E+00 -.308E-01 -.228E+00   -.101E-03 -.276E-04 -.963E-04
   -.177E+02 -.445E+01 0.193E+01   0.184E+02 0.522E+01 -.260E+01   -.742E+00 -.768E+00 0.644E+00   -.402E-04 0.123E-03 -.219E-04
   0.608E+00 -.549E+01 -.608E+00   -.528E+00 0.573E+01 0.528E+00   -.713E-01 -.351E+00 0.713E-01   -.110E-03 -.843E-04 0.110E-03
   -.131E+01 0.118E+01 -.112E+01   0.150E+01 -.135E+01 0.131E+01   -.186E+00 0.165E+00 -.187E+00   -.828E-04 0.468E-04 -.921E-04
   -.601E+01 0.526E+01 -.307E+01   0.669E+01 -.593E+01 0.398E+01   -.746E+00 0.696E+00 -.868E+00   -.527E-04 -.637E-04 0.515E-04
   -.332E+01 0.232E+01 0.332E+01   0.349E+01 -.228E+01 -.349E+01   -.162E+00 -.314E-01 0.162E+00   -.767E-04 -.251E-04 0.767E-04
   -.648E+00 -.767E+00 -.141E+01   0.530E+00 0.819E+00 0.153E+01   0.103E+00 -.591E-01 -.122E+00   0.931E-05 -.192E-04 -.585E-04
   0.135E+01 -.312E+01 -.135E+01   -.128E+01 0.322E+01 0.128E+01   -.598E-01 -.974E-01 0.598E-01   -.371E-04 0.513E-04 0.371E-04
   -.136E+01 -.151E+01 0.292E+01   0.140E+01 0.147E+01 -.307E+01   -.397E-01 0.271E-01 0.144E+00   -.143E-04 0.441E-04 0.488E-04
   0.145E+01 -.217E+01 -.421E+01   -.155E+01 0.234E+01 0.455E+01   0.104E+00 -.163E+00 -.335E+00   0.161E-04 -.519E-04 -.163E-03
   0.497E+02 -.554E+02 -.497E+02   -.550E+02 0.606E+02 0.550E+02   0.538E+01 -.590E+01 -.538E+01   -.690E-04 -.124E-03 0.690E-04
   -.193E+01 -.445E+01 0.177E+02   0.260E+01 0.522E+01 -.184E+02   -.644E+00 -.768E+00 0.742E+00   0.218E-04 0.123E-03 0.402E-04
   0.369E+00 0.337E+01 -.320E+01   -.364E+00 -.350E+01 0.341E+01   -.754E-02 0.131E+00 -.210E+00   0.120E-04 0.791E-04 -.147E-03
   0.480E+01 0.203E+02 -.480E+01   -.491E+01 -.214E+02 0.491E+01   0.964E-01 0.112E+01 -.964E-01   -.803E-04 -.107E-03 0.803E-04
   0.307E+01 0.526E+01 0.601E+01   -.398E+01 -.593E+01 -.669E+01   0.868E+00 0.696E+00 0.746E+00   -.515E-04 -.637E-04 0.527E-04
   -.304E+00 -.105E+00 -.144E+01   0.295E+00 0.163E+00 0.151E+01   0.654E-02 -.597E-01 -.701E-01   0.470E-05 -.418E-04 -.377E-04
   -.151E+01 -.292E+01 0.136E+01   0.147E+01 0.307E+01 -.140E+01   0.271E-01 -.144E+00 0.397E-01   0.441E-04 -.488E-04 0.143E-04
   0.128E+01 -.329E+00 0.329E+00   -.135E+01 0.339E+00 -.339E+00   0.725E-01 -.209E-01 0.209E-01   0.634E-04 -.304E-04 0.304E-04
   -.767E+00 -.648E+00 -.141E+01   0.819E+00 0.530E+00 0.153E+01   -.591E-01 0.103E+00 -.122E+00   -.192E-04 0.931E-05 -.585E-04
   -.312E+01 0.135E+01 -.135E+01   0.322E+01 -.128E+01 0.128E+01   -.974E-01 -.598E-01 0.598E-01   0.513E-04 -.371E-04 0.371E-04
   -.151E+01 -.136E+01 0.292E+01   0.147E+01 0.140E+01 -.307E+01   0.271E-01 -.397E-01 0.144E+00   0.441E-04 -.143E-04 0.488E-04
   -.818E-02 0.682E+00 -.682E+00   0.262E-01 -.752E+00 0.752E+00   -.221E-01 0.658E-01 -.658E-01   -.530E-04 0.330E-04 -.330E-04
   -.767E+00 0.141E+01 0.648E+00   0.819E+00 -.153E+01 -.530E+00   -.591E-01 0.122E+00 -.103E+00   -.192E-04 0.585E-04 -.931E-05
   -.304E+00 0.144E+01 0.105E+00   0.295E+00 -.151E+01 -.163E+00   0.654E-02 0.701E-01 0.597E-01   0.470E-05 0.377E-04 0.418E-04
   -.258E+00 -.309E+01 -.367E+01   0.291E+00 0.320E+01 0.391E+01   -.308E-01 -.108E+00 -.228E+00   -.276E-04 -.101E-03 -.963E-04
   -.445E+01 -.177E+02 0.193E+01   0.522E+01 0.184E+02 -.260E+01   -.768E+00 -.742E+00 0.644E+00   0.123E-03 -.402E-04 -.219E-04
   -.549E+01 0.608E+00 -.608E+00   0.573E+01 -.528E+00 0.528E+00   -.351E+00 -.713E-01 0.713E-01   -.843E-04 -.110E-03 0.110E-03
   -.217E+01 0.145E+01 -.421E+01   0.234E+01 -.155E+01 0.455E+01   -.163E+00 0.104E+00 -.335E+00   -.519E-04 0.161E-04 -.163E-03
   -.554E+02 0.497E+02 -.497E+02   0.606E+02 -.550E+02 0.550E+02   -.590E+01 0.538E+01 -.538E+01   -.124E-03 -.690E-04 0.690E-04
   -.445E+01 -.193E+01 0.177E+02   0.522E+01 0.260E+01 -.184E+02   -.768E+00 -.644E+00 0.742E+00   0.123E-03 0.219E-04 0.402E-04
   0.118E+01 0.123E+01 -.123E+01   -.103E+01 -.134E+01 0.134E+01   -.156E+00 0.109E+00 -.109E+00   -.293E-04 0.760E-04 -.760E-04
   -.217E+01 0.421E+01 -.145E+01   0.234E+01 -.455E+01 0.155E+01   -.163E+00 0.335E+00 -.104E+00   -.519E-04 0.163E-03 -.161E-04
   -.258E+00 0.367E+01 0.309E+01   0.291E+00 -.391E+01 -.320E+01   -.308E-01 0.228E+00 0.108E+00   -.276E-04 0.963E-04 0.101E-03
   0.118E+01 -.131E+01 -.112E+01   -.135E+01 0.150E+01 0.131E+01   0.165E+00 -.186E+00 -.187E+00   0.468E-04 -.828E-04 -.922E-04
   0.526E+01 -.601E+01 -.307E+01   -.593E+01 0.669E+01 0.398E+01   0.696E+00 -.746E+00 -.868E+00   -.637E-04 -.527E-04 0.515E-04
   0.232E+01 -.332E+01 0.332E+01   -.228E+01 0.349E+01 -.349E+01   -.314E-01 -.162E+00 0.162E+00   -.251E-04 -.767E-04 0.767E-04
   0.337E+01 0.369E+00 -.320E+01   -.350E+01 -.364E+00 0.341E+01   0.131E+00 -.754E-02 -.210E+00   0.791E-04 0.120E-04 -.147E-03
   0.203E+02 0.480E+01 -.480E+01   -.214E+02 -.491E+01 0.491E+01   0.112E+01 0.964E-01 -.964E-01   -.107E-03 -.803E-04 0.803E-04
   0.526E+01 0.307E+01 0.601E+01   -.593E+01 -.398E+01 -.669E+01   0.696E+00 0.868E+00 0.746E+00   -.637E-04 -.515E-04 0.527E-04
   0.628E+00 0.125E+01 -.125E+01   -.709E+00 -.132E+01 0.132E+01   0.787E-01 0.610E-01 -.610E-01   0.827E-04 0.517E-04 -.517E-04
   0.337E+01 0.320E+01 -.369E+00   -.350E+01 -.341E+01 0.364E+00   0.131E+00 0.210E+00 0.754E-02   0.791E-04 0.147E-03 -.120E-04
   0.118E+01 0.112E+01 0.131E+01   -.135E+01 -.131E+01 -.150E+01   0.165E+00 0.187E+00 0.186E+00   0.468E-04 0.922E-04 0.828E-04
   -.548E+00 -.548E+00 -.244E+00   0.556E+00 0.556E+00 0.306E+00   -.112E-01 -.112E-01 -.598E-01   -.884E-05 -.884E-05 -.290E-04
   -.397E-01 -.397E-01 -.228E+00   -.274E-01 -.274E-01 0.212E+00   0.728E-01 0.728E-01 0.420E-01   0.395E-04 0.395E-04 0.229E-04
   0.528E+00 0.528E+00 -.528E+00   -.552E+00 -.552E+00 0.552E+00   0.175E-01 0.175E-01 -.175E-01   0.481E-05 0.480E-05 -.480E-05
   -.283E+01 0.573E+00 -.311E+01   0.290E+01 -.422E+00 0.315E+01   -.740E-01 -.139E+00 -.384E-01   0.215E-04 -.241E-04 0.592E-05
   -.651E+00 -.279E+01 0.279E+01   0.638E+00 0.296E+01 -.296E+01   0.519E-03 -.164E+00 0.164E+00   0.499E-04 -.225E-04 0.225E-04
   -.397E-01 0.228E+00 0.397E-01   -.274E-01 -.212E+00 0.274E-01   0.728E-01 -.420E-01 -.728E-01   0.395E-04 -.229E-04 -.395E-04
   -.655E+00 0.138E+01 -.138E+01   0.765E+00 -.153E+01 0.153E+01   -.117E+00 0.150E+00 -.150E+00   -.457E-04 0.526E-04 -.526E-04
   -.283E+01 0.311E+01 -.573E+00   0.290E+01 -.315E+01 0.422E+00   -.740E-01 0.384E-01 0.139E+00   0.215E-04 -.592E-05 0.241E-04
   -.548E+00 0.244E+00 0.548E+00   0.556E+00 -.306E+00 -.556E+00   -.112E-01 0.598E-01 0.112E-01   -.884E-05 0.290E-04 0.884E-05
   0.573E+00 -.283E+01 -.311E+01   -.422E+00 0.290E+01 0.315E+01   -.139E+00 -.740E-01 -.384E-01   -.241E-04 0.215E-04 0.592E-05
   -.279E+01 -.651E+00 0.279E+01   0.296E+01 0.638E+00 -.296E+01   -.164E+00 0.519E-03 0.164E+00   -.225E-04 0.499E-04 0.225E-04
   0.228E+00 -.397E-01 0.397E-01   -.212E+00 -.274E-01 0.274E-01   -.420E-01 0.728E-01 -.728E-01   -.229E-04 0.395E-04 -.395E-04
   -.542E+01 -.542E+01 -.188E+02   0.553E+01 0.553E+01 0.197E+02   -.102E+00 -.102E+00 -.971E+00   -.458E-05 -.457E-05 0.186E-03
   -.279E+01 -.279E+01 0.651E+00   0.296E+01 0.296E+01 -.638E+00   -.164E+00 -.164E+00 -.519E-03   -.225E-04 -.225E-04 -.499E-04
   -.345E+01 0.559E+01 -.559E+01   0.437E+01 -.629E+01 0.629E+01   -.987E+00 0.697E+00 -.697E+00   -.646E-04 0.839E-05 -.839E-05
   -.542E+01 0.188E+02 0.542E+01   0.553E+01 -.197E+02 -.553E+01   -.102E+00 0.971E+00 0.102E+00   -.458E-05 -.186E-03 0.457E-05
   0.573E+00 0.311E+01 0.283E+01   -.422E+00 -.315E+01 -.290E+01   -.139E+00 0.384E-01 0.740E-01   -.241E-04 -.592E-05 -.215E-04
   0.138E+01 -.655E+00 -.138E+01   -.153E+01 0.765E+00 0.153E+01   0.150E+00 -.117E+00 -.150E+00   0.526E-04 -.458E-04 -.526E-04
   0.311E+01 -.283E+01 -.573E+00   -.315E+01 0.290E+01 0.422E+00   0.384E-01 -.740E-01 0.139E+00   -.592E-05 0.215E-04 0.241E-04
   0.244E+00 -.548E+00 0.548E+00   -.306E+00 0.556E+00 -.556E+00   0.598E-01 -.112E-01 0.112E-01   0.290E-04 -.884E-05 0.884E-05
   0.559E+01 -.345E+01 -.559E+01   -.629E+01 0.437E+01 0.629E+01   0.697E+00 -.987E+00 -.697E+00   0.839E-05 -.646E-04 -.840E-05
   0.188E+02 -.542E+01 0.542E+01   -.197E+02 0.553E+01 -.553E+01   0.971E+00 -.102E+00 0.102E+00   -.186E-03 -.457E-05 0.457E-05
   0.311E+01 0.573E+00 0.283E+01   -.315E+01 -.422E+00 -.290E+01   0.384E-01 -.139E+00 0.740E-01   -.592E-05 -.241E-04 -.215E-04
   0.397E+01 0.397E+01 -.397E+01   -.413E+01 -.413E+01 0.413E+01   0.143E+00 0.143E+00 -.143E+00   0.126E-03 0.126E-03 -.126E-03
   0.559E+01 0.559E+01 0.345E+01   -.629E+01 -.629E+01 -.437E+01   0.697E+00 0.697E+00 0.987E+00   0.839E-05 0.840E-05 0.646E-04
   0.138E+01 0.138E+01 0.655E+00   -.153E+01 -.153E+01 -.765E+00   0.150E+00 0.150E+00 0.117E+00   0.526E-04 0.526E-04 0.458E-04
   0.112E+01 -.131E+01 -.118E+01   -.131E+01 0.150E+01 0.135E+01   0.187E+00 -.186E+00 -.165E+00   0.922E-04 -.828E-04 -.468E-04
   0.367E+01 -.309E+01 0.258E+00   -.391E+01 0.320E+01 -.291E+00   0.228E+00 -.108E+00 0.308E-01   0.963E-04 -.101E-03 0.276E-04
   0.144E+01 -.105E+00 0.304E+00   -.151E+01 0.163E+00 -.295E+00   0.701E-01 -.597E-01 -.654E-02   0.377E-04 -.418E-04 -.469E-05
   0.320E+01 0.369E+00 -.337E+01   -.341E+01 -.364E+00 0.350E+01   0.210E+00 -.754E-02 -.131E+00   0.147E-03 0.120E-04 -.791E-04
   0.421E+01 0.145E+01 0.217E+01   -.455E+01 -.155E+01 -.234E+01   0.335E+00 0.104E+00 0.163E+00   0.163E-03 0.161E-04 0.519E-04
   0.141E+01 -.648E+00 0.767E+00   -.153E+01 0.530E+00 -.819E+00   0.122E+00 0.103E+00 0.591E-01   0.585E-04 0.931E-05 0.192E-04
   0.125E+01 0.125E+01 -.628E+00   -.132E+01 -.132E+01 0.709E+00   0.610E-01 0.610E-01 -.787E-01   0.517E-04 0.517E-04 -.827E-04
   0.123E+01 0.123E+01 -.118E+01   -.134E+01 -.134E+01 0.103E+01   0.109E+00 0.109E+00 0.156E+00   0.760E-04 0.760E-04 0.293E-04
   0.682E+00 0.682E+00 0.818E-02   -.752E+00 -.752E+00 -.262E-01   0.658E-01 0.658E-01 0.221E-01   0.330E-04 0.330E-04 0.530E-04
   -.332E+01 -.332E+01 -.232E+01   0.349E+01 0.349E+01 0.228E+01   -.162E+00 -.162E+00 0.314E-01   -.767E-04 -.767E-04 0.251E-04
   0.608E+00 0.608E+00 0.549E+01   -.528E+00 -.528E+00 -.573E+01   -.713E-01 -.713E-01 0.351E+00   -.110E-03 -.110E-03 0.843E-04
   -.329E+00 -.329E+00 -.128E+01   0.339E+00 0.339E+00 0.135E+01   -.209E-01 -.209E-01 -.725E-01   -.304E-04 -.304E-04 -.634E-04
   -.601E+01 0.307E+01 -.526E+01   0.669E+01 -.398E+01 0.593E+01   -.746E+00 0.868E+00 -.696E+00   -.527E-04 -.515E-04 0.637E-04
   -.177E+02 -.193E+01 0.445E+01   0.184E+02 0.260E+01 -.522E+01   -.742E+00 -.644E+00 0.768E+00   -.402E-04 0.219E-04 -.123E-03
   -.292E+01 -.136E+01 0.151E+01   0.307E+01 0.140E+01 -.147E+01   -.144E+00 -.397E-01 -.271E-01   -.488E-04 -.143E-04 -.441E-04
   -.131E+01 0.112E+01 -.118E+01   0.150E+01 -.131E+01 0.135E+01   -.186E+00 0.187E+00 -.165E+00   -.828E-04 0.921E-04 -.468E-04
   -.309E+01 0.367E+01 0.258E+00   0.320E+01 -.391E+01 -.291E+00   -.108E+00 0.228E+00 0.308E-01   -.101E-03 0.963E-04 0.276E-04
   -.105E+00 0.144E+01 0.304E+00   0.163E+00 -.151E+01 -.295E+00   -.597E-01 0.701E-01 -.654E-02   -.418E-04 0.377E-04 -.469E-05
   0.307E+01 -.601E+01 -.526E+01   -.398E+01 0.669E+01 0.593E+01   0.868E+00 -.746E+00 -.696E+00   -.515E-04 -.527E-04 0.637E-04
   -.193E+01 -.177E+02 0.445E+01   0.260E+01 0.184E+02 -.522E+01   -.644E+00 -.742E+00 0.768E+00   0.218E-04 -.402E-04 -.123E-03
   -.136E+01 -.292E+01 0.151E+01   0.140E+01 0.307E+01 -.147E+01   -.397E-01 -.144E+00 -.271E-01   -.143E-04 -.488E-04 -.441E-04
   0.480E+01 0.480E+01 -.203E+02   -.491E+01 -.491E+01 0.214E+02   0.964E-01 0.964E-01 -.112E+01   -.803E-04 -.803E-04 0.107E-03
   0.497E+02 0.497E+02 0.554E+02   -.550E+02 -.550E+02 -.606E+02   0.538E+01 0.538E+01 0.590E+01   -.690E-04 -.690E-04 0.124E-03
   0.135E+01 0.135E+01 0.312E+01   -.128E+01 -.128E+01 -.322E+01   -.598E-01 -.598E-01 0.974E-01   -.371E-04 -.371E-04 -.513E-04
   0.369E+00 0.320E+01 -.337E+01   -.364E+00 -.341E+01 0.350E+01   -.754E-02 0.210E+00 -.131E+00   0.120E-04 0.147E-03 -.791E-04
   0.145E+01 0.421E+01 0.217E+01   -.155E+01 -.455E+01 -.234E+01   0.104E+00 0.335E+00 0.163E+00   0.161E-04 0.163E-03 0.519E-04
   -.648E+00 0.141E+01 0.767E+00   0.530E+00 -.153E+01 -.819E+00   0.103E+00 0.122E+00 0.591E-01   0.931E-05 0.585E-04 0.192E-04
   0.676E+00 -.666E-01 0.666E-01   -.736E+00 0.449E-01 -.449E-01   0.633E-01 0.237E-01 -.237E-01   0.457E-04 -.266E-05 0.266E-05
   0.184E+01 0.445E+00 -.710E+00   -.197E+01 -.455E+00 0.778E+00   0.127E+00 0.154E-01 -.713E-01   0.755E-04 0.131E-04 -.512E-04
   0.209E+01 0.242E-02 0.170E+01   -.220E+01 -.638E-01 -.177E+01   0.107E+00 0.647E-01 0.745E-01   0.408E-04 0.759E-04 0.479E-04
   0.209E+01 -.170E+01 -.242E-02   -.220E+01 0.177E+01 0.638E-01   0.107E+00 -.745E-01 -.647E-01   0.408E-04 -.479E-04 -.759E-04
   0.483E+01 -.350E+01 -.310E+01   -.538E+01 0.366E+01 0.322E+01   0.537E+00 -.149E+00 -.111E+00   0.685E-04 -.889E-04 -.521E-05
   0.615E+01 -.349E+01 0.349E+01   -.654E+01 0.389E+01 -.389E+01   0.388E+00 -.398E+00 0.398E+00   0.297E-04 -.111E-03 0.111E-03
   0.184E+01 0.710E+00 -.445E+00   -.197E+01 -.778E+00 0.455E+00   0.127E+00 0.713E-01 -.154E-01   0.755E-04 0.512E-04 -.131E-04
   0.614E+01 0.321E+01 -.321E+01   -.656E+01 -.357E+01 0.357E+01   0.436E+00 0.355E+00 -.355E+00   0.145E-03 0.863E-04 -.863E-04
   0.483E+01 0.310E+01 0.350E+01   -.538E+01 -.322E+01 -.366E+01   0.537E+00 0.111E+00 0.149E+00   0.685E-04 0.521E-05 0.889E-04
   -.107E+01 0.317E+00 -.317E+00   0.114E+01 -.343E+00 0.343E+00   -.560E-01 0.293E-01 -.293E-01   -.430E-04 0.177E-04 -.177E-04
   -.196E+01 0.496E-01 -.464E+00   0.201E+01 -.147E+00 0.479E+00   -.505E-01 0.975E-01 -.130E-01   -.483E-04 0.734E-04 -.174E-04
   -.108E+01 0.172E+01 0.133E+01   0.116E+01 -.183E+01 -.146E+01   -.713E-01 0.113E+00 0.124E+00   -.267E-04 0.812E-04 0.497E-04
   -.108E+01 -.133E+01 -.172E+01   0.116E+01 0.146E+01 0.183E+01   -.713E-01 -.124E+00 -.113E+00   -.267E-04 -.497E-04 -.812E-04
   -.529E+01 -.462E+01 -.215E+01   0.544E+01 0.474E+01 0.222E+01   -.144E+00 -.127E+00 -.582E-01   -.303E-04 -.394E-04 0.344E-05
   0.173E+01 -.235E+01 0.235E+01   -.180E+01 0.244E+01 -.244E+01   0.613E-01 -.802E-01 0.802E-01   -.317E-04 -.792E-04 0.792E-04
   -.196E+01 0.464E+00 -.496E-01   0.201E+01 -.479E+00 0.147E+00   -.505E-01 0.130E-01 -.975E-01   -.483E-04 0.174E-04 -.734E-04
   -.417E+01 0.282E+01 -.282E+01   0.472E+01 -.290E+01 0.290E+01   -.532E+00 0.788E-01 -.788E-01   -.610E-04 -.522E-04 0.522E-04
   -.529E+01 0.215E+01 0.462E+01   0.544E+01 -.222E+01 -.474E+01   -.144E+00 0.582E-01 0.127E+00   -.303E-04 -.344E-05 0.394E-04
   -.219E+00 0.475E+00 -.475E+00   0.310E+00 -.511E+00 0.511E+00   -.658E-01 0.398E-01 -.398E-01   -.121E-04 0.469E-04 -.469E-04
   -.232E+00 0.893E+00 -.171E+01   0.236E+00 -.991E+00 0.182E+01   -.890E-02 0.997E-01 -.102E+00   -.129E-04 0.143E-03 -.390E-05
   -.101E+01 0.172E+01 0.229E+01   0.108E+01 -.189E+01 -.241E+01   -.737E-01 0.169E+00 0.119E+00   -.786E-05 0.120E-03 0.536E-04
   -.101E+01 -.229E+01 -.172E+01   0.108E+01 0.241E+01 0.189E+01   -.737E-01 -.119E+00 -.169E+00   -.786E-05 -.536E-04 -.120E-03
   0.976E+01 -.193E+02 -.169E+02   -.876E+01 0.207E+02 0.178E+02   -.848E+00 -.136E+01 -.836E+00   0.213E-03 0.129E-03 0.329E-03
   -.278E+02 -.911E+01 0.911E+01   0.305E+02 0.728E+01 -.728E+01   -.254E+01 0.183E+01 -.183E+01   -.335E-03 0.325E-03 -.325E-03
   -.232E+00 0.171E+01 -.893E+00   0.236E+00 -.182E+01 0.991E+00   -.890E-02 0.102E+00 -.997E-01   -.129E-04 0.390E-05 -.143E-03
   -.110E+02 0.198E+02 -.198E+02   0.106E+02 -.209E+02 0.209E+02   0.511E+00 0.100E+01 -.100E+01   -.329E-03 -.273E-03 0.273E-03
   0.976E+01 0.169E+02 0.193E+02   -.876E+01 -.178E+02 -.207E+02   -.848E+00 0.836E+00 0.136E+01   0.213E-03 -.329E-03 -.129E-03
   0.317E+00 -.107E+01 -.317E+00   -.343E+00 0.114E+01 0.343E+00   0.293E-01 -.560E-01 -.293E-01   0.177E-04 -.430E-04 -.177E-04
   0.496E-01 -.196E+01 -.464E+00   -.147E+00 0.201E+01 0.479E+00   0.975E-01 -.505E-01 -.130E-01   0.734E-04 -.483E-04 -.174E-04
   0.172E+01 -.108E+01 0.133E+01   -.183E+01 0.116E+01 -.146E+01   0.113E+00 -.713E-01 0.124E+00   0.812E-04 -.267E-04 0.497E-04
   0.475E+00 -.219E+00 -.475E+00   -.511E+00 0.310E+00 0.511E+00   0.398E-01 -.658E-01 -.398E-01   0.469E-04 -.121E-04 -.469E-04
   0.893E+00 -.232E+00 -.171E+01   -.991E+00 0.236E+00 0.182E+01   0.997E-01 -.890E-02 -.102E+00   0.143E-03 -.129E-04 -.390E-05
   0.172E+01 -.101E+01 0.229E+01   -.189E+01 0.108E+01 -.241E+01   0.169E+00 -.737E-01 0.119E+00   0.120E-03 -.785E-05 0.536E-04
   -.666E-01 0.676E+00 0.666E-01   0.449E-01 -.736E+00 -.449E-01   0.237E-01 0.633E-01 -.237E-01   -.266E-05 0.457E-04 0.266E-05
   0.445E+00 0.184E+01 -.710E+00   -.455E+00 -.197E+01 0.778E+00   0.154E-01 0.127E+00 -.713E-01   0.132E-04 0.755E-04 -.512E-04
   0.242E-02 0.209E+01 0.170E+01   -.638E-01 -.220E+01 -.177E+01   0.647E-01 0.107E+00 0.745E-01   0.759E-04 0.408E-04 0.479E-04
   -.133E+01 -.108E+01 -.172E+01   0.146E+01 0.116E+01 0.183E+01   -.124E+00 -.713E-01 -.113E+00   -.497E-04 -.267E-04 -.812E-04
   -.462E+01 -.529E+01 -.215E+01   0.474E+01 0.544E+01 0.222E+01   -.127E+00 -.144E+00 -.582E-01   -.394E-04 -.303E-04 0.344E-05
   -.235E+01 0.173E+01 0.235E+01   0.244E+01 -.180E+01 -.244E+01   -.802E-01 0.613E-01 0.802E-01   -.792E-04 -.317E-04 0.792E-04
   -.229E+01 -.101E+01 -.172E+01   0.241E+01 0.108E+01 0.189E+01   -.119E+00 -.737E-01 -.169E+00   -.536E-04 -.785E-05 -.120E-03
   -.193E+02 0.976E+01 -.169E+02   0.207E+02 -.876E+01 0.178E+02   -.136E+01 -.848E+00 -.836E+00   0.129E-03 0.213E-03 0.329E-03
   -.911E+01 -.278E+02 0.911E+01   0.728E+01 0.305E+02 -.728E+01   0.183E+01 -.254E+01 -.183E+01   0.325E-03 -.335E-03 -.325E-03
   -.170E+01 0.209E+01 -.242E-02   0.177E+01 -.220E+01 0.638E-01   -.745E-01 0.107E+00 -.647E-01   -.479E-04 0.408E-04 -.759E-04
   -.350E+01 0.483E+01 -.310E+01   0.366E+01 -.538E+01 0.322E+01   -.149E+00 0.537E+00 -.111E+00   -.889E-04 0.685E-04 -.520E-05
   -.349E+01 0.615E+01 0.349E+01   0.389E+01 -.654E+01 -.389E+01   -.398E+00 0.388E+00 0.398E+00   -.111E-03 0.297E-04 0.111E-03
   0.464E+00 -.196E+01 -.496E-01   -.479E+00 0.201E+01 0.147E+00   0.130E-01 -.505E-01 -.975E-01   0.174E-04 -.483E-04 -.734E-04
   0.282E+01 -.417E+01 -.282E+01   -.290E+01 0.472E+01 0.290E+01   0.788E-01 -.532E+00 -.788E-01   -.522E-04 -.610E-04 0.522E-04
   0.215E+01 -.529E+01 0.462E+01   -.222E+01 0.544E+01 -.474E+01   0.582E-01 -.144E+00 0.127E+00   -.344E-05 -.303E-04 0.394E-04
   0.171E+01 -.232E+00 -.893E+00   -.182E+01 0.236E+00 0.991E+00   0.102E+00 -.890E-02 -.997E-01   0.390E-05 -.129E-04 -.143E-03
   0.198E+02 -.110E+02 -.198E+02   -.209E+02 0.106E+02 0.209E+02   0.100E+01 0.511E+00 -.100E+01   -.273E-03 -.329E-03 0.273E-03
   0.169E+02 0.976E+01 0.193E+02   -.178E+02 -.876E+01 -.207E+02   0.836E+00 -.848E+00 0.136E+01   -.329E-03 0.213E-03 -.129E-03
   0.710E+00 0.184E+01 -.445E+00   -.778E+00 -.197E+01 0.455E+00   0.713E-01 0.127E+00 -.154E-01   0.512E-04 0.755E-04 -.131E-04
   0.321E+01 0.614E+01 -.321E+01   -.357E+01 -.656E+01 0.357E+01   0.355E+00 0.436E+00 -.355E+00   0.863E-04 0.145E-03 -.863E-04
   0.310E+01 0.483E+01 0.350E+01   -.322E+01 -.538E+01 -.366E+01   0.111E+00 0.537E+00 0.149E+00   0.520E-05 0.685E-04 0.889E-04
   -.666E-01 -.666E-01 -.676E+00   0.449E-01 0.449E-01 0.736E+00   0.237E-01 0.237E-01 -.633E-01   -.266E-05 -.266E-05 -.457E-04
   0.475E+00 0.475E+00 0.219E+00   -.511E+00 -.511E+00 -.310E+00   0.398E-01 0.398E-01 0.658E-01   0.469E-04 0.469E-04 0.121E-04
   0.317E+00 0.317E+00 0.107E+01   -.343E+00 -.343E+00 -.114E+01   0.293E-01 0.293E-01 0.560E-01   0.177E-04 0.177E-04 0.430E-04
   0.242E-02 -.170E+01 -.209E+01   -.638E-01 0.177E+01 0.220E+01   0.647E-01 -.745E-01 -.107E+00   0.759E-04 -.479E-04 -.408E-04
   0.172E+01 -.229E+01 0.101E+01   -.189E+01 0.241E+01 -.108E+01   0.169E+00 -.119E+00 0.737E-01   0.120E-03 -.536E-04 0.785E-05
   0.172E+01 -.133E+01 0.108E+01   -.183E+01 0.146E+01 -.116E+01   0.113E+00 -.124E+00 0.713E-01   0.812E-04 -.497E-04 0.267E-04
   0.445E+00 0.710E+00 -.184E+01   -.455E+00 -.778E+00 0.197E+01   0.154E-01 0.713E-01 -.127E+00   0.132E-04 0.512E-04 -.755E-04
   0.893E+00 0.171E+01 0.232E+00   -.991E+00 -.182E+01 -.236E+00   0.997E-01 0.102E+00 0.890E-02   0.143E-03 0.390E-05 0.129E-04
   0.496E-01 0.464E+00 0.196E+01   -.147E+00 -.479E+00 -.201E+01   0.975E-01 0.130E-01 0.505E-01   0.734E-04 0.174E-04 0.483E-04
   -.170E+01 0.242E-02 -.209E+01   0.177E+01 -.638E-01 0.220E+01   -.745E-01 0.647E-01 -.107E+00   -.479E-04 0.759E-04 -.408E-04
   -.229E+01 0.172E+01 0.101E+01   0.241E+01 -.189E+01 -.108E+01   -.119E+00 0.169E+00 0.737E-01   -.536E-04 0.120E-03 0.785E-05
   -.133E+01 0.172E+01 0.108E+01   0.146E+01 -.183E+01 -.116E+01   -.124E+00 0.113E+00 0.713E-01   -.497E-04 0.812E-04 0.267E-04
   -.349E+01 -.349E+01 -.615E+01   0.389E+01 0.389E+01 0.654E+01   -.398E+00 -.398E+00 -.388E+00   -.111E-03 -.111E-03 -.297E-04
   -.911E+01 -.911E+01 0.278E+02   0.728E+01 0.728E+01 -.305E+02   0.183E+01 0.183E+01 0.254E+01   0.325E-03 0.325E-03 0.335E-03
   -.235E+01 -.235E+01 -.173E+01   0.244E+01 0.244E+01 0.180E+01   -.802E-01 -.802E-01 -.613E-01   -.792E-04 -.792E-04 0.317E-04
   -.350E+01 0.310E+01 -.483E+01   0.366E+01 -.322E+01 0.538E+01   -.149E+00 0.111E+00 -.537E+00   -.889E-04 0.520E-05 -.685E-04
   -.193E+02 0.169E+02 -.976E+01   0.207E+02 -.178E+02 0.876E+01   -.136E+01 0.836E+00 0.848E+00   0.129E-03 -.329E-03 -.213E-03
   -.462E+01 0.215E+01 0.529E+01   0.474E+01 -.222E+01 -.544E+01   -.127E+00 0.582E-01 0.144E+00   -.394E-04 -.344E-05 0.303E-04
   0.710E+00 0.445E+00 -.184E+01   -.778E+00 -.455E+00 0.197E+01   0.713E-01 0.154E-01 -.127E+00   0.512E-04 0.131E-04 -.755E-04
   0.171E+01 0.893E+00 0.232E+00   -.182E+01 -.991E+00 -.236E+00   0.102E+00 0.997E-01 0.890E-02   0.390E-05 0.143E-03 0.129E-04
   0.464E+00 0.496E-01 0.196E+01   -.479E+00 -.147E+00 -.201E+01   0.130E-01 0.975E-01 0.505E-01   0.174E-04 0.734E-04 0.483E-04
   0.310E+01 -.350E+01 -.483E+01   -.322E+01 0.366E+01 0.538E+01   0.111E+00 -.149E+00 -.537E+00   0.520E-05 -.889E-04 -.685E-04
   0.169E+02 -.193E+02 -.976E+01   -.178E+02 0.207E+02 0.876E+01   0.836E+00 -.136E+01 0.848E+00   -.329E-03 0.129E-03 -.213E-03
   0.215E+01 -.462E+01 0.529E+01   -.222E+01 0.474E+01 -.544E+01   0.582E-01 -.127E+00 0.144E+00   -.344E-05 -.394E-04 0.303E-04
   0.321E+01 0.321E+01 -.614E+01   -.357E+01 -.357E+01 0.656E+01   0.355E+00 0.355E+00 -.436E+00   0.863E-04 0.863E-04 -.145E-03
   0.198E+02 0.198E+02 0.110E+02   -.209E+02 -.209E+02 -.106E+02   0.100E+01 0.100E+01 -.511E+00   -.273E-03 -.273E-03 0.329E-03
   0.282E+01 0.282E+01 0.417E+01   -.290E+01 -.290E+01 -.472E+01   0.788E-01 0.788E-01 0.532E+00   -.522E-04 -.522E-04 0.610E-04
   0.121E+01 -.160E+01 -.121E+01   -.131E+01 0.169E+01 0.131E+01   0.984E-01 -.898E-01 -.984E-01   0.721E-04 -.913E-04 -.721E-04
   0.303E+01 -.250E+01 -.157E+01   -.329E+01 0.278E+01 0.125E+01   0.280E+00 -.295E+00 0.305E+00   0.106E-04 -.700E-04 0.307E-04
   0.210E+01 -.208E+01 0.208E+01   -.220E+01 0.216E+01 -.216E+01   0.104E+00 -.840E-01 0.840E-01   0.161E-04 -.326E-04 0.326E-04
   0.312E+01 -.198E+01 -.312E+01   -.338E+01 0.178E+01 0.338E+01   0.263E+00 0.224E+00 -.263E+00   0.108E-03 -.337E-05 -.108E-03
   0.108E+02 -.309E+00 0.309E+00   -.114E+02 0.361E+00 -.361E+00   0.534E+00 -.568E-01 0.568E-01   0.503E-04 -.357E-04 0.357E-04
   0.303E+01 0.157E+01 0.250E+01   -.329E+01 -.125E+01 -.278E+01   0.280E+00 -.305E+00 0.295E+00   0.106E-04 -.307E-04 0.700E-04
   0.188E+01 0.188E+01 -.188E+01   -.202E+01 -.202E+01 0.202E+01   0.137E+00 0.137E+00 -.137E+00   0.951E-04 0.951E-04 -.951E-04
   0.312E+01 0.312E+01 0.198E+01   -.338E+01 -.338E+01 -.178E+01   0.263E+00 0.263E+00 -.224E+00   0.108E-03 0.108E-03 0.337E-05
   0.121E+01 0.121E+01 0.160E+01   -.131E+01 -.131E+01 -.169E+01   0.984E-01 0.984E-01 0.898E-01   0.721E-04 0.721E-04 0.913E-04
   -.208E+01 -.208E+01 -.210E+01   0.216E+01 0.216E+01 0.220E+01   -.840E-01 -.840E-01 -.104E+00   -.326E-04 -.326E-04 -.160E-04
   -.135E+01 -.135E+01 0.295E+01   0.128E+01 0.128E+01 -.312E+01   0.860E-01 0.860E-01 0.121E+00   -.147E-04 -.147E-04 0.350E-04
   -.209E+00 -.209E+00 0.209E+00   0.243E+00 0.243E+00 -.243E+00   -.282E-01 -.282E-01 0.282E-01   0.157E-04 0.157E-04 -.157E-04
   -.250E+01 0.157E+01 -.303E+01   0.278E+01 -.125E+01 0.329E+01   -.295E+00 -.305E+00 -.280E+00   -.700E-04 -.307E-04 -.106E-04
   -.507E+01 -.249E+01 0.249E+01   0.513E+01 0.260E+01 -.260E+01   -.474E-01 -.109E+00 0.109E+00   -.631E-05 0.277E-04 -.277E-04
   -.135E+01 -.295E+01 0.135E+01   0.128E+01 0.312E+01 -.128E+01   0.860E-01 -.121E+00 -.860E-01   -.147E-04 -.350E-04 0.147E-04
   -.160E+01 0.121E+01 -.121E+01   0.169E+01 -.131E+01 0.131E+01   -.898E-01 0.984E-01 -.984E-01   -.913E-04 0.721E-04 -.721E-04
   -.250E+01 0.303E+01 -.157E+01   0.278E+01 -.329E+01 0.125E+01   -.295E+00 0.280E+00 0.305E+00   -.700E-04 0.106E-04 0.307E-04
   -.208E+01 0.210E+01 0.208E+01   0.216E+01 -.220E+01 -.216E+01   -.840E-01 0.104E+00 0.840E-01   -.326E-04 0.160E-04 0.326E-04
   0.157E+01 -.250E+01 -.303E+01   -.125E+01 0.278E+01 0.329E+01   -.305E+00 -.295E+00 -.280E+00   -.307E-04 -.700E-04 -.106E-04
   -.249E+01 -.507E+01 0.249E+01   0.260E+01 0.513E+01 -.260E+01   -.109E+00 -.474E-01 0.109E+00   0.277E-04 -.631E-05 -.277E-04
   -.295E+01 -.135E+01 0.135E+01   0.312E+01 0.128E+01 -.128E+01   -.121E+00 0.860E-01 -.860E-01   -.350E-04 -.147E-04 0.147E-04
   -.309E+00 -.309E+00 -.108E+02   0.361E+00 0.361E+00 0.114E+02   -.568E-01 -.568E-01 -.534E+00   -.357E-04 -.357E-04 -.503E-04
   -.249E+01 -.249E+01 0.507E+01   0.260E+01 0.260E+01 -.513E+01   -.109E+00 -.109E+00 0.474E-01   0.277E-04 0.277E-04 0.631E-05
   -.198E+01 0.312E+01 -.312E+01   0.178E+01 -.338E+01 0.338E+01   0.224E+00 0.263E+00 -.263E+00   -.337E-05 0.108E-03 -.108E-03
   -.309E+00 0.108E+02 0.309E+00   0.361E+00 -.114E+02 -.361E+00   -.568E-01 0.534E+00 0.568E-01   -.357E-04 0.503E-04 0.357E-04
   0.157E+01 0.303E+01 0.250E+01   -.125E+01 -.329E+01 -.278E+01   -.305E+00 0.280E+00 0.295E+00   -.307E-04 0.106E-04 0.700E-04
   -.672E+02 -.672E+02 0.672E+02   0.795E+02 0.795E+02 -.795E+02   -.121E+02 -.121E+02 0.121E+02   0.439E-03 0.439E-03 -.439E-03
 -----------------------------------------------------------------------------------------------
   0.310E+01 0.310E+01 -.310E+01   -.142E-13 -.284E-13 -.142E-13   -.321E+01 -.321E+01 0.321E+01   0.621E-03 0.621E-03 -.621E-03
 
 
 POSITION                                       TOTAL-FORCE (eV/Angst)
 -----------------------------------------------------------------------------------
      0.89273      0.89391      0.89413        -0.003255     -0.003611      0.003255
      0.89655      0.89238      4.46829         0.001044     -0.006743      0.014739
      0.88908      0.89415      8.04069        -0.000149     -0.002072      0.001285
      0.89705      4.46815      0.88981         0.000912     -0.008651     -0.000912
      0.89278      4.46868      4.46752         0.003437      0.002708     -0.008796
      0.88968      4.46734      8.03965        -0.004814      0.002745     -0.001634
      0.89354      8.04070      0.89331        -0.004709     -0.002179      0.004709
      0.89493      8.04145      4.46676        -0.001015      0.001925      0.002476
      0.89563      8.03984      8.03967        -0.003934     -0.001692      0.001790
      4.46730      0.89415      0.89778        -0.001285     -0.002072      0.000149
      4.46879      0.89570      4.47125         0.002354     -0.008167     -0.001933
      4.46299      0.88674      8.04500        -0.011053     -0.003544      0.011053
      4.46835      4.46734      0.89718         0.001634      0.002745      0.004814
      4.48473      4.47742      4.48370        -0.037807      0.003285     -0.019202
      4.45557      4.45982      8.05242         0.009376     -0.115426     -0.009376
      4.46832      8.03984      0.89123        -0.001790     -0.001692      0.003934
      4.45911      8.04932      4.46935        -0.062430      0.024994      0.038861
      4.47286      8.03237      8.03513         0.003896      0.007433     -0.003896
      8.03970      0.89238      0.89031        -0.014739     -0.006743     -0.001044
      8.04045      0.89608      4.46754         0.003996      0.004568     -0.003996
      8.03674      0.89570      8.03921         0.001933     -0.008167     -0.002354
      8.04047      4.46868      0.89407         0.008796      0.002708     -0.003437
      8.11762      4.40051      4.39038         0.102343     -0.717588     -0.102343
      8.02429      4.47742      8.02326         0.019202      0.003285      0.037807
      8.04123      8.04145      0.89193        -0.002476      0.001925      0.001015
      8.03877      8.03479      4.46922        -0.006832      0.030873      0.006832
      8.03865      8.04932      8.04889        -0.038861      0.024994      0.062430
      2.68101      2.68045      0.89778        -0.002072     -0.001285      0.000149
      2.68256      2.68193      4.47125        -0.008167      0.002354     -0.001933
      2.67360      2.67614      8.04500        -0.003544     -0.011053      0.011053
      2.67924      6.25284      0.89031        -0.006743     -0.014739     -0.001044
      2.68293      6.25359      4.46754         0.004568      0.003996     -0.003996
      2.68256      6.24988      8.03921        -0.008167      0.001933     -0.002354
      2.68076      9.82701      0.89413        -0.003611     -0.003255      0.003255
      2.67924      9.83083      4.46829        -0.006743      0.001044      0.014739
      2.68101      9.82336      8.04069        -0.002072     -0.000149      0.001285
      6.25420      2.68149      0.89718         0.002745      0.001634      0.004814
      6.26427      2.69788      4.48370         0.003285     -0.037807     -0.019202
      6.24667      2.66871      8.05242        -0.115426      0.009376     -0.009376
      6.25554      6.25362      0.89407         0.002708      0.008796     -0.003437
      6.18736      6.33076      4.39038        -0.717588      0.102343     -0.102343
      6.26427      6.23744      8.02326         0.003285      0.019202      0.037807
      6.25501      9.83133      0.88981        -0.008651      0.000912     -0.000912
      6.25554      9.82706      4.46752         0.002708      0.003437     -0.008796
      6.25420      9.82396      8.03965         0.002745     -0.004814     -0.001634
      9.82670      2.68147      0.89123        -0.001692     -0.001790      0.003934
      9.83618      2.67225      4.46935         0.024994     -0.062430      0.038861
      9.81923      2.68600      8.03513         0.007433      0.003896     -0.003896
      9.82831      6.25438      0.89193         0.001925     -0.002476      0.001015
      9.82164      6.25191      4.46922         0.030873     -0.006832      0.006832
      9.83618      6.25179      8.04889         0.024994     -0.038861      0.062430
      9.82755      9.82782      0.89331        -0.002179     -0.004709      0.004709
      9.82831      9.82921      4.46676         0.001925     -0.001015      0.002476
      9.82670      9.82991      8.03967        -0.001692     -0.003934      0.001790
      2.68225      0.89539      2.68272        -0.003062     -0.003062      0.002517
      2.67760      0.89075      6.25630         0.006284      0.006284      0.025612
      2.67784      0.89098      9.83016        -0.006287     -0.006287      0.006287
      2.68556      4.46930      2.68556        -0.000749      0.012205     -0.004397
      2.67892      4.46552      6.25562        -0.011332      0.005721     -0.005721
      2.67760      4.46483      9.83039         0.006284     -0.025612     -0.006284
      2.68058      8.04152      2.67962        -0.006258     -0.004121      0.004121
      2.68556      8.03558      6.25184        -0.000749      0.004397     -0.012205
      2.68225      8.03842      9.82574        -0.003062     -0.002517      0.003062
      6.25616      0.89870      2.68556         0.012205     -0.000749     -0.004397
      6.25238      0.89206      6.25562         0.005721     -0.011332     -0.005721
      6.25169      0.89075      9.83039        -0.025612      0.006284     -0.006284
      6.26161      4.47476      2.69139         0.008559      0.008559      0.006895
      6.25238      4.46552      9.82907         0.005721      0.005721      0.011332
      6.25831      8.05228      2.66886        -0.057688     -0.001441      0.001441
      6.26161      8.02975      6.24638         0.008559     -0.006895     -0.008559
      6.25616      8.03558      9.82244         0.012205      0.004397      0.000749
      9.82837      0.89372      2.67962        -0.004121     -0.006258      0.004121
      9.82243      0.89870      6.25184         0.004397     -0.000749     -0.012205
      9.82528      0.89539      9.82574        -0.002517     -0.003062      0.003062
      9.83913      4.47145      2.66886        -0.001441     -0.057688      0.001441
      9.81661      4.47476      6.24638        -0.006895      0.008559     -0.008559
      9.82243      4.46930      9.82244         0.004397      0.012205      0.000749
      9.82637      8.03952      2.68162        -0.010770     -0.010770      0.010770
      9.83913      8.05228      6.24969        -0.001441     -0.001441      0.057688
      9.82837      8.04152      9.82741        -0.004121     -0.004121      0.006258
      0.89563      2.68147      2.68129        -0.003934     -0.001790      0.001692
      0.88968      2.68149      6.25379        -0.004814      0.001634     -0.002745
      0.88908      2.68045      9.82698        -0.000149     -0.001285      0.002072
      0.89493      6.25438      2.67969        -0.001015     -0.002476     -0.001925
      0.89278      6.25362      6.25245         0.003437      0.008796     -0.002708
      0.89655      6.25284      9.82876         0.001044     -0.014739      0.006743
      0.89354      9.82782      2.68044        -0.004709     -0.004709      0.002179
      0.89705      9.83133      6.25298         0.000912      0.000912      0.008651
      0.89273      9.82701      9.82723        -0.003255     -0.003255      0.003611
      4.47286      2.68600      2.68877         0.003896      0.003896     -0.007433
      4.45557      2.66871      6.26132         0.009376      0.009376      0.115426
      4.46299      2.67614      9.83439        -0.011053     -0.011053      0.003544
      4.45911      6.25179      2.67182        -0.062430     -0.038861     -0.024994
      4.48473      6.23744      6.24372        -0.037807      0.019202     -0.003285
      4.46879      6.24988      9.82544         0.002354      0.001933      0.008167
      4.46832      9.82991      2.68129        -0.001790     -0.003934      0.001692
      4.46835      9.82396      6.25379         0.001634     -0.004814     -0.002745
      4.46730      9.82336      9.82698        -0.001285     -0.000149      0.002072
      8.03865      2.67225      2.67182        -0.038861     -0.062430     -0.024994
      8.02429      2.69788      6.24372         0.019202     -0.037807     -0.003285
      8.03674      2.68193      9.82544         0.001933      0.002354      0.008167
      8.03877      6.25191      2.68635        -0.006832     -0.006832     -0.030873
      8.11762      6.33076      6.32063         0.102343      0.102343      0.717588
      8.04045      6.25359      9.82506         0.003996      0.003996     -0.004568
      8.04123      9.82921      2.67969        -0.002476     -0.001015     -0.001925
      8.04047      9.82706      6.25245         0.008796      0.003437     -0.002708
      8.03970      9.83083      9.82876        -0.014739      0.001044      0.006743
     10.72021      0.00074     10.72039         0.004009      0.002482     -0.002482
      0.00087      0.00072      3.57304         0.005404      0.005929     -0.003390
     10.71806      0.00314      7.14707        -0.003000      0.003905     -0.001071
     10.71806      3.57407     10.71800        -0.003000      0.001071     -0.003905
      0.00199      3.57471      3.57268        -0.006141      0.008235      0.006984
     10.71175      3.57985      7.14129        -0.002189      0.002570     -0.002570
      0.00087      7.14809     10.72041         0.005404      0.003390     -0.005929
     10.71848      7.14494      3.57620         0.019240     -0.000758      0.000758
      0.00199      7.14846      7.14643        -0.006141     -0.006984     -0.008235
      3.57365     10.71939      0.00175         0.006477      0.002913     -0.002913
      3.57548      0.00249      3.57510        -0.001386      0.000425      0.001773
      3.57295     10.71641      7.14894         0.005356      0.001902     -0.008561
      3.57295      3.57220      0.00473         0.005356      0.008561     -0.001902
      3.58565      3.57780      3.58610         0.005527     -0.013100      0.008848
      3.56548      3.56790      7.15323        -0.009386      0.005806     -0.005806
      3.57548      7.14604     10.71865        -0.001386     -0.001773     -0.000425
      3.57375      7.14847      3.57266         0.020024     -0.002424      0.002424
      3.58565      7.13504      7.14334         0.005527     -0.008848      0.013100
      7.14719      0.00118     10.71995         0.025680      0.004385     -0.004385
      7.14796      0.00191      3.57559        -0.004127      0.002228      0.005682
      7.14629     10.71974      7.14633        -0.000047      0.000618      0.003669
      7.14629      3.57481      0.00140        -0.000047     -0.003669     -0.000618
      7.16303      3.58812      3.58490         0.157489      0.052661      0.031575
      7.10963      3.57976      7.14137         0.194721      0.009587     -0.009587
      7.14796      7.14554     10.71922        -0.004127     -0.005682     -0.002228
      7.13965      7.14257      3.57856         0.140639     -0.112995      0.112995
      7.16303      7.13623      7.13302         0.157489     -0.031575     -0.052661
      1.78511      1.78679      0.00175         0.002913      0.006477     -0.002913
      1.78935      1.78862      3.57510         0.000425     -0.001386      0.001773
      1.78213      1.78609      7.14894         0.001902      0.005356     -0.008561
      1.78804      5.36033     10.71995         0.004385      0.025680     -0.004385
      1.78877      5.36111      3.57559         0.002228     -0.004127      0.005682
      1.78546      5.35943      7.14633         0.000618     -0.000047      0.003669
      1.78760      8.93336     10.72039         0.002482      0.004009     -0.002482
      1.78758      8.93515      3.57304         0.005929      0.005404     -0.003390
      1.79000      8.93120      7.14707         0.003905     -0.003000     -0.001071
      5.35905      1.78609      0.00473         0.008561      0.005356     -0.001902
      5.36466      1.79879      3.58610        -0.013100      0.005527      0.008848
      5.35476      1.77863      7.15323         0.005806     -0.009386     -0.005806
      5.36166      5.35943      0.00140        -0.003669     -0.000047     -0.000618
      5.37497      5.37618      3.58490         0.052661      0.157489      0.031575
      5.36662      5.32277      7.14137         0.009587      0.194721     -0.009587
      5.36093      8.93120     10.71800         0.001071     -0.003000     -0.003905
      5.36156      8.93627      3.57268         0.008235     -0.006141      0.006984
      5.36671      8.92489      7.14129         0.002570     -0.002189     -0.002570
      8.93289      1.78862     10.71865        -0.001773     -0.001386     -0.000425
      8.93533      1.78689      3.57266        -0.002424      0.020024      0.002424
      8.92190      1.79879      7.14334        -0.008848      0.005527      0.013100
      8.93240      5.36111     10.71922        -0.005682     -0.004127     -0.002228
      8.92943      5.35279      3.57856        -0.112995      0.140639      0.112995
      8.92309      5.37618      7.13302        -0.031575      0.157489     -0.052661
      8.93495      8.93515     10.72041         0.003390      0.005404     -0.005929
      8.93179      8.93162      3.57620        -0.000758      0.019240      0.000758
      8.93532      8.93627      7.14643        -0.006984     -0.006141     -0.008235
      1.78760      0.00074      1.78778         0.002482      0.002482     -0.004009
      1.78804      0.00118      5.36081         0.004385      0.004385     -0.025680
      1.78511     10.71939      8.93434         0.002913      0.002913     -0.006477
      1.79000      3.57407      1.78994         0.003905      0.001071      0.003000
      1.78546      3.57481      5.36170         0.000618     -0.003669      0.000047
      1.78213      3.57220      8.93504         0.001902      0.008561     -0.005356
      1.78758      7.14809      1.78598         0.005929      0.003390     -0.005404
      1.78877      7.14554      5.36003         0.002228     -0.005682      0.004127
      1.78935      7.14604      8.93251         0.000425     -0.001773      0.001386
      5.36093      0.00314      1.78994         0.001071      0.003905      0.003000
      5.36166     10.71974      5.36170        -0.003669      0.000618      0.000047
      5.35905     10.71641      8.93504         0.008561      0.001902     -0.005356
      5.36671      3.57985      1.79625         0.002570      0.002570      0.002189
      5.36662      3.57976      5.39837         0.009587      0.009587     -0.194721
      5.35476      3.56790      8.94251         0.005806      0.005806      0.009386
      5.36156      7.14846      1.78487         0.008235     -0.006984      0.006141
      5.37497      7.13623      5.34496         0.052661     -0.031575     -0.157489
      5.36466      7.13504      8.92234        -0.013100     -0.008848     -0.005527
      8.93495      0.00072      1.78598         0.003390      0.005929     -0.005404
      8.93240      0.00191      5.36003        -0.005682      0.002228      0.004127
      8.93289      0.00249      8.93251        -0.001773      0.000425      0.001386
      8.93532      3.57471      1.78487        -0.006984      0.008235      0.006141
      8.92309      3.58812      5.34496        -0.031575      0.052661     -0.157489
      8.92190      3.57780      8.92234        -0.008848     -0.013100     -0.005527
      8.93179      7.14494      1.78951        -0.000758     -0.000758     -0.019240
      8.92943      7.14257      5.36835        -0.112995     -0.112995     -0.140639
      8.93533      7.14847      8.93424        -0.002424     -0.002424     -0.020024
     10.72113      1.78858      1.78686         0.000033     -0.000013     -0.000033
      0.00311      1.78382      5.35863         0.016852     -0.014629     -0.019568
     10.71536      1.78961      8.93153         0.000819      0.001208     -0.001208
      0.00691      5.36029      1.77995         0.006534      0.022557     -0.006534
     10.71535      5.36242      5.35871        -0.016519     -0.003571      0.003571
      0.00311      5.36251      8.93732         0.016852      0.019568      0.014629
     10.72072      8.93387      1.78727         0.002351      0.002351     -0.002351
      0.00691      8.94119      5.36085         0.006534      0.006534     -0.022557
     10.72113      8.93427      8.93255         0.000033      0.000033      0.000013
      3.57647      1.78961      1.79263         0.001208      0.001208     -0.000819
      3.56972      1.78286      5.36494         0.022541      0.022541     -0.048510
      3.56994      1.78308      8.93805         0.006138      0.006138     -0.006138
      3.57067      5.36251      1.78374        -0.014629      0.019568     -0.016852
      3.57910      5.35903      5.36211         0.005850      0.000507     -0.000507
      3.56972      5.35620      8.93827         0.022541      0.048510     -0.022541
      3.57544      8.93427      1.78686        -0.000013      0.000033     -0.000033
      3.57067      8.93739      5.35863        -0.014629      0.016852     -0.019568
      3.57647      8.92850      8.93153         0.001208      0.000819     -0.001208
      7.14936      1.78382      1.78374         0.019568     -0.014629     -0.016852
      7.14588      1.79225      5.36211         0.000507      0.005850     -0.000507
      7.14305      1.78286      8.93827         0.048510      0.022541     -0.022541
      7.14928      5.36242      1.79265        -0.003571     -0.003571      0.016519
      7.14588      5.35903      8.92889         0.000507      0.000507     -0.005850
      7.14714      8.94119      1.77995         0.022557      0.006534     -0.006534
      7.14928      8.92849      5.35871        -0.003571     -0.016519      0.003571
      7.14936      8.93739      8.93732         0.019568      0.016852      0.014629
      6.18377      4.39691      6.32422         0.175538      0.175538     -0.175538
 -----------------------------------------------------------------------------------
    total drift:                               -0.106011     -0.105631      0.105631


--------------------------------------------------------------------------------------------------------



  FREE ENERGIE OF THE ION-ELECTRON SYSTEM (eV)
  ---------------------------------------------------
  free  energy   TOTEN  =     -1933.21895241 eV

  energy  without entropy=    -1933.21895241  energy(sigma->0) =    -1933.21895241
 


--------------------------------------------------------------------------------------------------------


    POTLOK:  cpu time      0.1049: real time      0.1057


--------------------------------------------------------------------------------------------------------


     LOOP+:  cpu time    128.1218: real time    129.2936
    4ORBIT:  cpu time      0.0000: real time      0.0000



 total charge

# of ion       s       p       d       tot
------------------------------------------
    1        0.829   1.745   0.000   2.574
    2        0.829   1.746   0.000   2.576
    3        0.829   1.745   0.000   2.574
    4        0.829   1.744   0.000   2.574
    5        0.829   1.744   0.000   2.573
    6        0.829   1.743   0.000   2.571
    7        0.829   1.745   0.000   2.574
    8        0.829   1.742   0.000   2.571
    9        0.829   1.745   0.000   2.574
   10        0.829   1.745   0.000   2.574
   11        0.829   1.743   0.000   2.572
   12        0.830   1.746   0.000   2.576
   13        0.829   1.743   0.000   2.571
   14        0.829   1.737   0.000   2.566
   15        0.831   1.748   0.000   2.580
   16        0.829   1.745   0.000   2.574
   17        0.832   1.737   0.000   2.569
   18        0.829   1.744   0.000   2.573
   19        0.829   1.746   0.000   2.576
   20        0.829   1.744   0.000   2.573
   21        0.829   1.743   0.000   2.572
   22        0.829   1.744   0.000   2.573
   23        0.841   1.758   0.000   2.599
   24        0.829   1.737   0.000   2.566
   25        0.829   1.742   0.000   2.571
   26        0.829   1.743   0.000   2.572
   27        0.832   1.737   0.000   2.569
   28        0.829   1.745   0.000   2.574
   29        0.829   1.743   0.000   2.572
   30        0.830   1.746   0.000   2.576
   31        0.829   1.746   0.000   2.576
   32        0.829   1.744   0.000   2.573
   33        0.829   1.743   0.000   2.572
   34        0.829   1.745   0.000   2.574
   35        0.829   1.746   0.000   2.576
   36        0.829   1.745   0.000   2.574
   37        0.829   1.743   0.000   2.571
   38        0.829   1.737   0.000   2.566
   39        0.831   1.748   0.000   2.580
   40        0.829   1.744   0.000   2.573
   41        0.841   1.758   0.000   2.599
   42        0.829   1.737   0.000   2.566
   43        0.829   1.744   0.000   2.574
   44        0.829   1.744   0.000   2.573
   45        0.829   1.743   0.000   2.571
   46        0.829   1.745   0.000   2.574
   47        0.832   1.737   0.000   2.569
   48        0.829   1.744   0.000   2.573
   49        0.829   1.742   0.000   2.571
   50        0.829   1.743   0.000   2.572
   51        0.832   1.737   0.000   2.569
   52        0.829   1.745   0.000   2.574
   53        0.829   1.742   0.000   2.571
   54        0.829   1.745   0.000   2.574
   55        0.829   1.745   0.000   2.574
   56        0.829   1.746   0.000   2.575
   57        0.829   1.745   0.000   2.574
   58        0.828   1.740   0.000   2.568
   59        0.829   1.744   0.000   2.573
   60        0.829   1.746   0.000   2.575
   61        0.829   1.745   0.000   2.574
   62        0.828   1.740   0.000   2.568
   63        0.829   1.745   0.000   2.574
   64        0.828   1.740   0.000   2.568
   65        0.829   1.744   0.000   2.573
   66        0.829   1.746   0.000   2.575
   67        0.829   1.742   0.000   2.571
   68        0.829   1.744   0.000   2.573
   69        0.832   1.738   0.000   2.570
   70        0.829   1.742   0.000   2.571
   71        0.828   1.740   0.000   2.568
   72        0.829   1.745   0.000   2.574
   73        0.828   1.740   0.000   2.568
   74        0.829   1.745   0.000   2.574
   75        0.832   1.738   0.000   2.570
   76        0.829   1.742   0.000   2.571
   77        0.828   1.740   0.000   2.568
   78        0.829   1.743   0.000   2.571
   79        0.832   1.738   0.000   2.570
   80        0.829   1.745   0.000   2.574
   81        0.829   1.745   0.000   2.574
   82        0.829   1.743   0.000   2.571
   83        0.829   1.745   0.000   2.574
   84        0.829   1.742   0.000   2.571
   85        0.829   1.744   0.000   2.573
   86        0.829   1.746   0.000   2.576
   87        0.829   1.745   0.000   2.574
   88        0.829   1.744   0.000   2.574
   89        0.829   1.745   0.000   2.574
   90        0.829   1.744   0.000   2.573
   91        0.831   1.748   0.000   2.580
   92        0.830   1.746   0.000   2.576
   93        0.832   1.737   0.000   2.569
   94        0.829   1.737   0.000   2.566
   95        0.829   1.743   0.000   2.572
   96        0.829   1.745   0.000   2.574
   97        0.829   1.743   0.000   2.571
   98        0.829   1.745   0.000   2.574
   99        0.832   1.737   0.000   2.569
  100        0.829   1.737   0.000   2.566
  101        0.829   1.743   0.000   2.572
  102        0.829   1.743   0.000   2.572
  103        0.841   1.758   0.000   2.599
  104        0.829   1.744   0.000   2.573
  105        0.829   1.742   0.000   2.571
  106        0.829   1.744   0.000   2.573
  107        0.829   1.746   0.000   2.576
  108        0.829   1.743   0.000   2.571
  109        0.829   1.744   0.000   2.573
  110        0.829   1.743   0.000   2.571
  111        0.829   1.743   0.000   2.571
  112        0.829   1.742   0.000   2.571
  113        0.828   1.741   0.000   2.569
  114        0.829   1.744   0.000   2.573
  115        0.828   1.741   0.000   2.570
  116        0.829   1.742   0.000   2.571
  117        0.829   1.742   0.000   2.571
  118        0.829   1.744   0.000   2.573
  119        0.829   1.745   0.000   2.574
  120        0.829   1.745   0.000   2.574
  121        0.828   1.737   0.000   2.564
  122        0.829   1.746   0.000   2.575
  123        0.829   1.744   0.000   2.573
  124        0.829   1.743   0.000   2.572
  125        0.828   1.737   0.000   2.564
  126        0.830   1.750   0.000   2.580
  127        0.829   1.745   0.000   2.573
  128        0.829   1.745   0.000   2.574
  129        0.829   1.745   0.000   2.574
  130        0.829   1.746   0.000   2.575
  131        0.824   1.704   0.000   2.528
  132        0.829   1.745   0.000   2.573
  133        0.830   1.746   0.000   2.576
  134        0.829   1.746   0.000   2.575
  135        0.829   1.742   0.000   2.571
  136        0.829   1.744   0.000   2.573
  137        0.829   1.745   0.000   2.574
  138        0.830   1.750   0.000   2.580
  139        0.829   1.745   0.000   2.573
  140        0.829   1.745   0.000   2.574
  141        0.829   1.743   0.000   2.571
  142        0.829   1.744   0.000   2.573
  143        0.829   1.743   0.000   2.571
  144        0.829   1.745   0.000   2.574
  145        0.828   1.737   0.000   2.564
  146        0.829   1.746   0.000   2.575
  147        0.829   1.745   0.000   2.574
  148        0.829   1.746   0.000   2.575
  149        0.824   1.704   0.000   2.528
  150        0.829   1.743   0.000   2.571
  151        0.829   1.742   0.000   2.571
  152        0.828   1.741   0.000   2.569
  153        0.829   1.744   0.000   2.573
  154        0.829   1.743   0.000   2.572
  155        0.828   1.737   0.000   2.564
  156        0.829   1.745   0.000   2.573
  157        0.830   1.746   0.000   2.576
  158        0.829   1.746   0.000   2.575
  159        0.829   1.744   0.000   2.573
  160        0.828   1.741   0.000   2.570
  161        0.829   1.742   0.000   2.571
  162        0.829   1.743   0.000   2.571
  163        0.830   1.750   0.000   2.580
  164        0.829   1.742   0.000   2.571
  165        0.829   1.743   0.000   2.571
  166        0.829   1.745   0.000   2.574
  167        0.829   1.745   0.000   2.574
  168        0.829   1.744   0.000   2.573
  169        0.829   1.745   0.000   2.573
  170        0.829   1.744   0.000   2.573
  171        0.829   1.743   0.000   2.571
  172        0.829   1.745   0.000   2.574
  173        0.829   1.745   0.000   2.574
  174        0.828   1.741   0.000   2.569
  175        0.824   1.704   0.000   2.528
  176        0.829   1.746   0.000   2.575
  177        0.829   1.742   0.000   2.571
  178        0.829   1.746   0.000   2.575
  179        0.828   1.737   0.000   2.564
  180        0.829   1.744   0.000   2.573
  181        0.829   1.745   0.000   2.573
  182        0.829   1.744   0.000   2.573
  183        0.829   1.742   0.000   2.571
  184        0.829   1.746   0.000   2.575
  185        0.828   1.737   0.000   2.564
  186        0.828   1.741   0.000   2.570
  187        0.830   1.746   0.000   2.576
  188        0.829   1.743   0.000   2.572
  189        0.829   1.743   0.000   2.572
  190        0.830   1.750   0.000   2.580
  191        0.829   1.743   0.000   2.571
  192        0.830   1.748   0.000   2.578
  193        0.829   1.745   0.000   2.574
  194        0.830   1.750   0.000   2.580
  195        0.829   1.743   0.000   2.572
  196        0.830   1.748   0.000   2.578
  197        0.829   1.743   0.000   2.572
  198        0.829   1.743   0.000   2.571
  199        0.830   1.748   0.000   2.578
  200        0.829   1.744   0.000   2.573
  201        0.830   1.750   0.000   2.580
  202        0.830   1.748   0.000   2.578
  203        0.830   1.748   0.000   2.578
  204        0.829   1.743   0.000   2.572
  205        0.830   1.750   0.000   2.580
  206        0.829   1.743   0.000   2.571
  207        0.830   1.750   0.000   2.580
  208        0.830   1.748   0.000   2.578
  209        0.830   1.748   0.000   2.578
  210        0.829   1.745   0.000   2.574
  211        0.830   1.748   0.000   2.578
  212        0.830   1.748   0.000   2.578
  213        0.829   1.745   0.000   2.574
  214        0.830   1.750   0.000   2.580
  215        1.211   2.642   0.000   3.853
--------------------------------------------------
tot        178.679 375.708   0.000 554.387



 magnetization (x)

# of ion       s       p       d       tot
------------------------------------------
    1        0.000   0.001   0.000   0.001
    2        0.000   0.001   0.000   0.002
    3        0.000   0.000   0.000   0.000
    4        0.000   0.002   0.000   0.002
    5        0.000   0.001   0.000   0.001
    6        0.000   0.000   0.000   0.000
    7        0.000   0.000   0.000   0.000
    8       -0.000   0.000   0.000   0.000
    9        0.000   0.001   0.000   0.001
   10        0.000   0.000   0.000   0.000
   11       -0.000   0.000   0.000   0.000
   12        0.000   0.001   0.000   0.001
   13        0.000   0.000   0.000   0.000
   14        0.001   0.005   0.000   0.005
   15        0.001   0.009   0.000   0.010
   16        0.000   0.001   0.000   0.001
   17        0.003   0.017   0.000   0.020
   18        0.000   0.000   0.000   0.000
   19        0.000   0.001   0.000   0.002
   20        0.000   0.002   0.000   0.002
   21       -0.000   0.000   0.000   0.000
   22        0.000   0.001   0.000   0.001
   23        0.025   0.233   0.000   0.258
   24        0.001   0.005   0.000   0.005
   25       -0.000   0.000   0.000   0.000
   26        0.001   0.005   0.000   0.006
   27        0.003   0.017   0.000   0.020
   28        0.000   0.000   0.000   0.000
   29       -0.000   0.000   0.000   0.000
   30        0.000   0.001   0.000   0.001
   31        0.000   0.001   0.000   0.002
   32        0.000   0.002   0.000   0.002
   33       -0.000   0.000   0.000   0.000
   34        0.000   0.001   0.000   0.001
   35        0.000   0.001   0.000   0.002
   36        0.000   0.000   0.000   0.000
   37        0.000   0.000   0.000   0.000
   38        0.001   0.005   0.000   0.005
   39        0.001   0.009   0.000   0.010
   40        0.000   0.001   0.000   0.001
   41        0.025   0.233   0.000   0.258
   42        0.001   0.005   0.000   0.005
   43        0.000   0.002   0.000   0.002
   44        0.000   0.001   0.000   0.001
   45        0.000   0.000   0.000   0.000
   46        0.000   0.001   0.000   0.001
   47        0.003   0.017   0.000   0.020
   48        0.000   0.000   0.000   0.000
   49       -0.000   0.000   0.000   0.000
   50        0.001   0.005   0.000   0.006
   51        0.003   0.017   0.000   0.020
   52        0.000   0.000   0.000   0.000
   53       -0.000   0.000   0.000   0.000
   54        0.000   0.001   0.000   0.001
   55        0.000   0.000   0.000   0.000
   56        0.000   0.001   0.000   0.001
   57        0.000   0.001   0.000   0.001
   58       -0.000   0.000   0.000   0.000
   59        0.000   0.001   0.000   0.001
   60        0.000   0.001   0.000   0.001
   61        0.000   0.001   0.000   0.002
   62       -0.000   0.000   0.000   0.000
   63        0.000   0.000   0.000   0.000
   64       -0.000   0.000   0.000   0.000
   65        0.000   0.001   0.000   0.001
   66        0.000   0.001   0.000   0.001
   67        0.002   0.005   0.000   0.007
   68        0.000   0.001   0.000   0.001
   69        0.003   0.017   0.000   0.020
   70        0.002   0.005   0.000   0.007
   71       -0.000   0.000   0.000   0.000
   72        0.000   0.001   0.000   0.002
   73       -0.000   0.000   0.000   0.000
   74        0.000   0.000   0.000   0.000
   75        0.003   0.017   0.000   0.020
   76        0.002   0.005   0.000   0.007
   77       -0.000   0.000   0.000   0.000
   78        0.000   0.001   0.000   0.001
   79        0.003   0.017   0.000   0.020
   80        0.000   0.001   0.000   0.002
   81        0.000   0.001   0.000   0.001
   82        0.000   0.000   0.000   0.000
   83        0.000   0.000   0.000   0.000
   84       -0.000   0.000   0.000   0.000
   85        0.000   0.001   0.000   0.001
   86        0.000   0.001   0.000   0.002
   87        0.000   0.000   0.000   0.000
   88        0.000   0.002   0.000   0.002
   89        0.000   0.001   0.000   0.001
   90        0.000   0.000   0.000   0.000
   91        0.001   0.009   0.000   0.010
   92        0.000   0.001   0.000   0.001
   93        0.003   0.017   0.000   0.020
   94        0.001   0.005   0.000   0.005
   95       -0.000   0.000   0.000   0.000
   96        0.000   0.001   0.000   0.001
   97        0.000   0.000   0.000   0.000
   98        0.000   0.000   0.000   0.000
   99        0.003   0.017   0.000   0.020
  100        0.001   0.005   0.000   0.005
  101       -0.000   0.000   0.000   0.000
  102        0.001   0.005   0.000   0.006
  103        0.025   0.233   0.000   0.258
  104        0.000   0.002   0.000   0.002
  105       -0.000   0.000   0.000   0.000
  106        0.000   0.001   0.000   0.001
  107        0.000   0.001   0.000   0.002
  108        0.000   0.000   0.000   0.000
  109       -0.000   0.000   0.000  -0.000
  110       -0.000   0.000   0.000  -0.000
  111       -0.000   0.000   0.000  -0.000
  112       -0.000  -0.001   0.000  -0.001
  113       -0.000  -0.000   0.000  -0.000
  114       -0.000   0.000   0.000  -0.000
  115       -0.000  -0.000   0.000  -0.000
  116       -0.000  -0.001   0.000  -0.001
  117       -0.000   0.000   0.000   0.000
  118       -0.000  -0.000   0.000  -0.000
  119       -0.000   0.000   0.000   0.000
  120       -0.000   0.000   0.000   0.000
  121       -0.000  -0.000   0.000  -0.000
  122       -0.000  -0.000   0.000  -0.000
  123       -0.000  -0.000   0.000  -0.000
  124       -0.000  -0.001   0.000  -0.001
  125       -0.000  -0.000   0.000  -0.000
  126        0.000   0.002   0.000   0.002
  127       -0.000  -0.000   0.000  -0.000
  128       -0.000  -0.000   0.000  -0.000
  129       -0.000  -0.000   0.000  -0.000
  130       -0.001  -0.004   0.000  -0.006
  131       -0.000  -0.000   0.000  -0.000
  132       -0.000  -0.000   0.000  -0.000
  133       -0.001   0.001   0.000  -0.000
  134       -0.001  -0.004   0.000  -0.006
  135       -0.000   0.000   0.000   0.000
  136       -0.000  -0.000   0.000  -0.000
  137       -0.000   0.000   0.000   0.000
  138        0.000   0.002   0.000   0.002
  139       -0.000  -0.000   0.000  -0.000
  140       -0.000  -0.000   0.000  -0.000
  141        0.000   0.000   0.000   0.000
  142       -0.000   0.000   0.000  -0.000
  143       -0.000   0.000   0.000  -0.000
  144       -0.000   0.000   0.000   0.000
  145       -0.000  -0.000   0.000  -0.000
  146       -0.000  -0.000   0.000  -0.000
  147       -0.000  -0.000   0.000  -0.000
  148       -0.001  -0.004   0.000  -0.006
  149       -0.000  -0.000   0.000  -0.000
  150       -0.000   0.000   0.000  -0.000
  151       -0.000  -0.001   0.000  -0.001
  152       -0.000  -0.000   0.000  -0.000
  153       -0.000  -0.000   0.000  -0.000
  154       -0.000  -0.001   0.000  -0.001
  155       -0.000  -0.000   0.000  -0.000
  156       -0.000  -0.000   0.000  -0.000
  157       -0.001   0.001   0.000  -0.000
  158       -0.001  -0.004   0.000  -0.006
  159       -0.000   0.000   0.000  -0.000
  160       -0.000  -0.000   0.000  -0.000
  161       -0.000  -0.001   0.000  -0.001
  162        0.000   0.000   0.000   0.000
  163        0.000   0.002   0.000   0.002
  164       -0.000   0.000   0.000   0.000
  165       -0.000   0.000   0.000  -0.000
  166       -0.000  -0.000   0.000  -0.000
  167       -0.000   0.000   0.000   0.000
  168       -0.000   0.000   0.000  -0.000
  169       -0.000  -0.000   0.000  -0.000
  170       -0.000  -0.000   0.000  -0.000
  171       -0.000   0.000   0.000  -0.000
  172       -0.000  -0.000   0.000  -0.000
  173       -0.000   0.000   0.000   0.000
  174       -0.000  -0.000   0.000  -0.000
  175       -0.000  -0.000   0.000  -0.000
  176       -0.000  -0.000   0.000  -0.000
  177       -0.000  -0.001   0.000  -0.001
  178       -0.001  -0.004   0.000  -0.006
  179       -0.000  -0.000   0.000  -0.000
  180       -0.000   0.000   0.000  -0.000
  181       -0.000  -0.000   0.000  -0.000
  182       -0.000  -0.000   0.000  -0.000
  183       -0.000  -0.001   0.000  -0.001
  184       -0.001  -0.004   0.000  -0.006
  185       -0.000  -0.000   0.000  -0.000
  186       -0.000  -0.000   0.000  -0.000
  187       -0.001   0.001   0.000  -0.000
  188       -0.000  -0.001   0.000  -0.001
  189       -0.000   0.000   0.000  -0.000
  190        0.000   0.002   0.000   0.002
  191       -0.000   0.000   0.000   0.000
  192        0.001   0.004   0.000   0.005
  193       -0.000  -0.001   0.000  -0.001
  194        0.000   0.002   0.000   0.002
  195        0.000   0.001   0.000   0.001
  196        0.001   0.004   0.000   0.005
  197       -0.000   0.000   0.000  -0.000
  198       -0.000   0.000   0.000   0.000
  199        0.000   0.001   0.000   0.001
  200       -0.000   0.000   0.000   0.000
  201        0.000   0.002   0.000   0.002
  202       -0.000  -0.001   0.000  -0.001
  203        0.000   0.001   0.000   0.001
  204       -0.000   0.000   0.000  -0.000
  205        0.000   0.002   0.000   0.002
  206       -0.000   0.000   0.000   0.000
  207        0.000   0.002   0.000   0.002
  208       -0.000  -0.001   0.000  -0.001
  209        0.000   0.001   0.000   0.001
  210       -0.000  -0.001   0.000  -0.001
  211       -0.000  -0.001   0.000  -0.001
  212        0.001   0.004   0.000   0.005
  213       -0.000  -0.001   0.000  -0.001
  214        0.000   0.002   0.000   0.002
  215        0.019   0.130   0.000   0.149
--------------------------------------------------
tot          0.132   1.122   0.000   1.254
 

 total amount of memory used by VASP MPI-rank0    69851. kBytes
=======================================================================

   base                                    :      30000. kBytes
   nonlr-proj                              :       7364. kBytes
   fftplans                                :       3375. kBytes
   grid                                    :       8446. kBytes
   one-center                              :        190. kBytes
   wavefun                                 :      20476. kBytes
 
  
  
 General timing and accounting informations for this job:
 ========================================================
  
                  Total CPU time used (sec):      132.317
                            User time (sec):      131.149
                          System time (sec):        1.168
                         Elapsed time (sec):      134.067
  
                   Maximum memory used (kb):      273304.
                   Average memory used (kb):          N/A
  
                          Minor page faults:        34561
                          Major page faults:           54
                 Voluntary context switches:         1005
