
     Program PWSCF v.7.4.1 starts on 14Aug2026 at  5: 1:43 

     This program is part of the open-source Quantum ESPRESSO suite
     for quantum simulation of materials; please cite
         "P. Giannozzi et al., J. Phys.:Condens. Matter 21 395502 (2009);
         "P. Giannozzi et al., J. Phys.:Condens. Matter 29 465901 (2017);
         "P. Giannozzi et al., J. Chem. Phys. 152 154105 (2020);
          URL http://www.quantum-espresso.org", 
     in publications or presentations arising from this work. More details at
     http://www.quantum-espresso.org/quote

     Parallel version (MPI), running on     4 processors

     MPI processes distributed on     1 nodes
     2281 MiB available memory on the printing compute node when the environment starts

     Reading input from diamond_scf.in

     Current dimensions of program PWSCF are:
     Max number of different atomic species (ntypx) = 10
     Max number of k-points (npk) =  40000
     Max angular momentum in pseudopotentials (lmaxx) =  4
     file C.pbe-n-kjpaw_psl.1.0.0.UPF: wavefunction(s)  2S 2P renormalized

     IMPORTANT: XC functional enforced from input :
     Exchange-correlation= HSE
                           (   1   4  12   4   0   0   0)
     EXX-fraction              =        0.25
     Any further DFT definition will be discarded
     Please, verify this is what you really want

     EXX fraction changed:   0.25
     EXX Screening parameter changed:    0.2000000
     Message from routine setup :
     BEWARE: nonlinear core correction is not consistent with hybrid XC
     Message from routine setup:
     using ibrav=0 with symmetry is DISCOURAGED, use correct ibrav instead

     R & G space division:  proc/nbgrp/npool/nimage =       4
     Subspace diagonalization in iterative solution of the eigenvalue problem:
     a serial algorithm will be used

     EXX: q-point mesh:     1    1    1
     EXX: setup a grid of 65 q-points centered on each k-point
     (k+q)-points:
   0.0000000   0.0000000   0.0000000         1    1
  -0.0883883   0.0883883  -0.0883883         2    1
  -0.1767767   0.1767767  -0.1767767         3    1
  -0.2651650   0.2651650  -0.2651650         4    1
   0.3535534  -0.3535534   0.3535534         5    1
   0.0000000   0.1767767   0.0000000         6    1
  -0.0883883   0.2651650  -0.0883883         7    1
  -0.1767767   0.3535534  -0.1767767         8    1
   0.4419417  -0.2651650   0.4419417         9    1
   0.3535534  -0.1767767   0.3535534        10    1
   0.2651650  -0.0883883   0.2651650        11    1
   0.1767767   0.0000000   0.1767767        12    1
   0.0000000   0.3535534   0.0000000        13    1
  -0.0883883   0.4419417  -0.0883883        14    1
   0.5303301  -0.1767767   0.5303301        15    1
   0.4419417  -0.0883883   0.4419417        16    1
   0.3535534   0.0000000   0.3535534        17    1
   0.0000000   0.5303301   0.0000000        18    1
   0.6187184  -0.0883883   0.6187184        19    1
   0.5303301   0.0000000   0.5303301        20    1
   0.0000000  -0.7071068   0.0000000        21    1
  -0.1767767   0.3535534   0.0000000        22    1
   0.4419417  -0.2651650   0.6187184        23    1
   0.3535534  -0.1767767   0.5303301        24    1
   0.5303301  -0.1767767   0.7071068        25    1
   0.4419417  -0.0883883   0.6187184        26    1
   0.3535534   0.0000000   0.5303301        27    1
  -0.1767767  -0.7071068   0.0000000        28    1
  -0.3535534  -0.7071068   0.0000000        29    1
  -0.0883883   0.0883883   0.0883883        30    1
  -0.1767767   0.1767767   0.1767767        31    1
  -0.2651650   0.2651650   0.2651650        32    1
   0.3535534  -0.3535534  -0.3535534        33    1
  -0.2651650  -0.0883883  -0.0883883        34    1
  -0.0883883   0.2651650   0.0883883        35    1
  -0.3535534  -0.1767767  -0.1767767        36    1
  -0.1767767   0.3535534   0.1767767        37    1
   0.2651650   0.4419417   0.4419417        38    1
   0.4419417  -0.2651650  -0.4419417        39    1
   0.1767767   0.3535534   0.3535534        40    1
   0.3535534  -0.1767767  -0.3535534        41    1
   0.0883883   0.2651650   0.2651650        42    1
   0.2651650  -0.0883883  -0.2651650        43    1
  -0.0000000   0.1767767   0.1767767        44    1
  -0.4419417  -0.0883883  -0.0883883        45    1
  -0.0883883   0.4419417   0.0883883        46    1
   0.1767767   0.5303301   0.5303301        47    1
   0.5303301  -0.1767767  -0.5303301        48    1
   0.0883883   0.4419417   0.4419417        49    1
   0.4419417  -0.0883883  -0.4419417        50    1
  -0.0000000   0.3535534   0.3535534        51    1
   0.0883883   0.6187184   0.6187184        52    1
   0.6187184  -0.0883883  -0.6187184        53    1
   0.0000000   0.5303301   0.5303301        54    1
   0.3535534   0.1767767   0.0000000        55    1
  -0.2651650  -0.4419417   0.6187184        56    1
   0.2651650   0.4419417   0.6187184        57    1
   0.6187184  -0.2651650  -0.4419417        58    1
  -0.1767767  -0.3535534   0.5303301        59    1
   0.5303301  -0.1767767  -0.3535534        60    1
  -0.1767767  -0.5303301   0.7071068        61    1
  -0.0883883  -0.4419417   0.6187184        62    1
   0.0883883   0.4419417   0.6187184        63    1
   0.6187184  -0.0883883  -0.4419417        64    1
  -0.0000000   0.3535534   0.5303301        65    1

     Parallelization info
     --------------------
     sticks:   dense  smooth     PW     G-vecs:    dense   smooth      PW
     Min          70      70     22                  767      767     152
     Max          71      71     23                  768      768     153
     Sum         283     283     91                 3071     3071     609

     Using Slab Decomposition



     bravais-lattice index     =            0
     lattice parameter (alat)  =       4.7256  a.u.
     unit-cell volume          =      74.6194 (a.u.)^3
     number of atoms/cell      =            2
     number of atomic types    =            1
     number of electrons       =         8.00
     number of Kohn-Sham states=            8
     kinetic-energy cutoff     =      45.0000  Ry
     charge density cutoff     =     180.0000  Ry
     cutoff for Fock operator  =     180.0000  Ry
     scf convergence threshold =      1.0E-08
     mixing beta               =       0.7000
     number of iterations used =            8  plain     mixing
     Exchange-correlation= HSE
                           (   1   4  12   4   0   0   0)
     EXX-fraction              =        0.25

     celldm(1)=   4.725584  celldm(2)=   0.000000  celldm(3)=   0.000000
     celldm(4)=   0.000000  celldm(5)=   0.000000  celldm(6)=   0.000000

     crystal axes: (cart. coord. in units of alat)
               a(1) = (  -0.707107   0.000000   0.707107 )  
               a(2) = (  -0.000000   0.707107   0.707107 )  
               a(3) = (  -0.707107   0.707107   0.000000 )  

     reciprocal axes: (cart. coord. in units 2 pi/alat)
               b(1) = ( -0.707107 -0.707107  0.707107 )  
               b(2) = (  0.707107  0.707107  0.707107 )  
               b(3) = ( -0.707107  0.707107 -0.707107 )  


     PseudoPot. # 1 for C  read from file:
     ../../pseudos/C.pbe-n-kjpaw_psl.1.0.0.UPF
     MD5 check sum: 5f16ad9a65e90284d1d834d4ab3b0f7d
     Pseudo is Projector augmented-wave + core cor, Zval =  4.0
     Generated using &quot;atomic&quot; code by A. Dal Corso  v.6.3
     Shape of augmentation charge: PSQ
     Using radial grid of 1073 points,  4 beta functions with: 
                l(1) =   0
                l(2) =   0
                l(3) =   1
                l(4) =   1
     Q(r) pseudized with 0 coefficients 


     atomic species   valence    mass     pseudopotential
     C                 4.00    12.01070     C ( 1.00)

      6 Sym. Ops. (no inversion) found


                                    s                        frac. trans.

      isym =  1     identity                                     

 cryst.   s( 1) = (     1          0          0      )
                  (     0          1          0      )
                  (     0          0          1      )

 cart.    s( 1) = (  1.0000000  0.0000000  0.0000000 )
                  (  0.0000000  1.0000000  0.0000000 )
                  (  0.0000000  0.0000000  1.0000000 )


      isym =  2     120 deg rotation - cart. axis [-1,1,1]       

 cryst.   s( 2) = (     0          1          0      )
                  (     0          0          1      )
                  (     1          0          0      )

 cart.    s( 2) = (  0.0000000 -1.0000000  0.0000000 )
                  (  0.0000000  0.0000000  1.0000000 )
                  ( -1.0000000  0.0000000  0.0000000 )


      isym =  3     120 deg rotation - cart. axis [1,-1,-1]      

 cryst.   s( 3) = (     0          0          1      )
                  (     1          0          0      )
                  (     0          1          0      )

 cart.    s( 3) = (  0.0000000  0.0000000 -1.0000000 )
                  ( -1.0000000  0.0000000  0.0000000 )
                  (  0.0000000  1.0000000  0.0000000 )


      isym =  4     inv. 180 deg rotation - cart. axis [1,1,0]   

 cryst.   s( 4) = (     0          1          0      )
                  (     1          0          0      )
                  (     0          0          1      )

 cart.    s( 4) = (  0.0000000 -1.0000000  0.0000000 )
                  ( -1.0000000  0.0000000  0.0000000 )
                  (  0.0000000  0.0000000  1.0000000 )


      isym =  5     inv. 180 deg rotation - cart. axis [1,0,1]   

 cryst.   s( 5) = (     1          0          0      )
                  (     0          0          1      )
                  (     0          1          0      )

 cart.    s( 5) = (  0.0000000  0.0000000 -1.0000000 )
                  (  0.0000000  1.0000000  0.0000000 )
                  ( -1.0000000  0.0000000  0.0000000 )


      isym =  6     inv. 180 deg rotation - cart. axis [0,1,-1]  

 cryst.   s( 6) = (     0          0          1      )
                  (     0          1          0      )
                  (     1          0          0      )

 cart.    s( 6) = (  1.0000000  0.0000000  0.0000000 )
                  (  0.0000000  0.0000000  1.0000000 )
                  (  0.0000000  1.0000000  0.0000000 )


   Cartesian axes

     site n.     atom                  positions (alat units)
         1        C      tau(   1) = (   0.0000000  -0.0000000  -0.0000000  )
         2        C      tau(   2) = (  -0.3541036   0.3541036   0.3541036  )

   Crystallographic axes

     site n.     atom                  positions (cryst. coord.)
         1        C      tau(   1) = (  0.0000000  0.0000000  0.0000000  )
         2        C      tau(   2) = (  0.2503890  0.2503890  0.2503890  )

     number of k points=    65
                       cart. coord. in units 2pi/alat
        k(    1) = (   0.0000000   0.0000000   0.0000000), wk =   0.0039062
        k(    2) = (  -0.0883883   0.0883883  -0.0883883), wk =   0.0234375
        k(    3) = (  -0.1767767   0.1767767  -0.1767767), wk =   0.0234375
        k(    4) = (  -0.2651650   0.2651650  -0.2651650), wk =   0.0234375
        k(    5) = (   0.3535534  -0.3535534   0.3535534), wk =   0.0117188
        k(    6) = (   0.0000000   0.1767767   0.0000000), wk =   0.0234375
        k(    7) = (  -0.0883883   0.2651650  -0.0883883), wk =   0.0468750
        k(    8) = (  -0.1767767   0.3535534  -0.1767767), wk =   0.0468750
        k(    9) = (   0.4419417  -0.2651650   0.4419417), wk =   0.0468750
        k(   10) = (   0.3535534  -0.1767767   0.3535534), wk =   0.0468750
        k(   11) = (   0.2651650  -0.0883883   0.2651650), wk =   0.0468750
        k(   12) = (   0.1767767   0.0000000   0.1767767), wk =   0.0234375
        k(   13) = (   0.0000000   0.3535534   0.0000000), wk =   0.0234375
        k(   14) = (  -0.0883883   0.4419417  -0.0883883), wk =   0.0468750
        k(   15) = (   0.5303301  -0.1767767   0.5303301), wk =   0.0468750
        k(   16) = (   0.4419417  -0.0883883   0.4419417), wk =   0.0468750
        k(   17) = (   0.3535534   0.0000000   0.3535534), wk =   0.0234375
        k(   18) = (   0.0000000   0.5303301   0.0000000), wk =   0.0234375
        k(   19) = (   0.6187184  -0.0883883   0.6187184), wk =   0.0468750
        k(   20) = (   0.5303301   0.0000000   0.5303301), wk =   0.0234375
        k(   21) = (   0.0000000  -0.7071068   0.0000000), wk =   0.0117188
        k(   22) = (  -0.1767767   0.3535534   0.0000000), wk =   0.0468750
        k(   23) = (   0.4419417  -0.2651650   0.6187184), wk =   0.0468750
        k(   24) = (   0.3535534  -0.1767767   0.5303301), wk =   0.0468750
        k(   25) = (   0.5303301  -0.1767767   0.7071068), wk =   0.0468750
        k(   26) = (   0.4419417  -0.0883883   0.6187184), wk =   0.0468750
        k(   27) = (   0.3535534   0.0000000   0.5303301), wk =   0.0468750
        k(   28) = (  -0.1767767  -0.7071068   0.0000000), wk =   0.0468750
        k(   29) = (  -0.3535534  -0.7071068   0.0000000), wk =   0.0234375
        k(   30) = (  -0.0883883   0.0883883   0.0883883), wk =   0.0078125
        k(   31) = (  -0.1767767   0.1767767   0.1767767), wk =   0.0078125
        k(   32) = (  -0.2651650   0.2651650   0.2651650), wk =   0.0078125
        k(   33) = (   0.3535534  -0.3535534  -0.3535534), wk =   0.0039062
        k(   34) = (  -0.2651650  -0.0883883  -0.0883883), wk =   0.0234375
        k(   35) = (  -0.0883883   0.2651650   0.0883883), wk =   0.0234375
        k(   36) = (  -0.3535534  -0.1767767  -0.1767767), wk =   0.0234375
        k(   37) = (  -0.1767767   0.3535534   0.1767767), wk =   0.0234375
        k(   38) = (   0.2651650   0.4419417   0.4419417), wk =   0.0234375
        k(   39) = (   0.4419417  -0.2651650  -0.4419417), wk =   0.0234375
        k(   40) = (   0.1767767   0.3535534   0.3535534), wk =   0.0234375
        k(   41) = (   0.3535534  -0.1767767  -0.3535534), wk =   0.0234375
        k(   42) = (   0.0883883   0.2651650   0.2651650), wk =   0.0234375
        k(   43) = (   0.2651650  -0.0883883  -0.2651650), wk =   0.0234375
        k(   44) = (   0.0000000   0.1767767   0.1767767), wk =   0.0234375
        k(   45) = (  -0.4419417  -0.0883883  -0.0883883), wk =   0.0234375
        k(   46) = (  -0.0883883   0.4419417   0.0883883), wk =   0.0234375
        k(   47) = (   0.1767767   0.5303301   0.5303301), wk =   0.0234375
        k(   48) = (   0.5303301  -0.1767767  -0.5303301), wk =   0.0234375
        k(   49) = (   0.0883883   0.4419417   0.4419417), wk =   0.0234375
        k(   50) = (   0.4419417  -0.0883883  -0.4419417), wk =   0.0234375
        k(   51) = (   0.0000000   0.3535534   0.3535534), wk =   0.0234375
        k(   52) = (   0.0883883   0.6187184   0.6187184), wk =   0.0234375
        k(   53) = (   0.6187184  -0.0883883  -0.6187184), wk =   0.0234375
        k(   54) = (   0.0000000   0.5303301   0.5303301), wk =   0.0234375
        k(   55) = (   0.3535534   0.1767767   0.0000000), wk =   0.0468750
        k(   56) = (  -0.2651650  -0.4419417   0.6187184), wk =   0.0468750
        k(   57) = (   0.2651650   0.4419417   0.6187184), wk =   0.0468750
        k(   58) = (   0.6187184  -0.2651650  -0.4419417), wk =   0.0468750
        k(   59) = (  -0.1767767  -0.3535534   0.5303301), wk =   0.0234375
        k(   60) = (   0.5303301  -0.1767767  -0.3535534), wk =   0.0234375
        k(   61) = (  -0.1767767  -0.5303301   0.7071068), wk =   0.0468750
        k(   62) = (  -0.0883883  -0.4419417   0.6187184), wk =   0.0468750
        k(   63) = (   0.0883883   0.4419417   0.6187184), wk =   0.0468750
        k(   64) = (   0.6187184  -0.0883883  -0.4419417), wk =   0.0468750
        k(   65) = (  -0.0000000   0.3535534   0.5303301), wk =   0.0468750

                       cryst. coord.
        k(    1) = (   0.0000000   0.0000000   0.0000000), wk =   0.0039062
        k(    2) = (   0.0000000   0.0000000   0.1250000), wk =   0.0234375
        k(    3) = (   0.0000000   0.0000000   0.2500000), wk =   0.0234375
        k(    4) = (   0.0000000   0.0000000   0.3750000), wk =   0.0234375
        k(    5) = (   0.0000000   0.0000000  -0.5000000), wk =   0.0117188
        k(    6) = (   0.0000000   0.1250000   0.1250000), wk =   0.0234375
        k(    7) = (   0.0000000   0.1250000   0.2500000), wk =   0.0468750
        k(    8) = (   0.0000000   0.1250000   0.3750000), wk =   0.0468750
        k(    9) = (   0.0000000   0.1250000  -0.5000000), wk =   0.0468750
        k(   10) = (   0.0000000   0.1250000  -0.3750000), wk =   0.0468750
        k(   11) = (   0.0000000   0.1250000  -0.2500000), wk =   0.0468750
        k(   12) = (   0.0000000   0.1250000  -0.1250000), wk =   0.0234375
        k(   13) = (   0.0000000   0.2500000   0.2500000), wk =   0.0234375
        k(   14) = (   0.0000000   0.2500000   0.3750000), wk =   0.0468750
        k(   15) = (   0.0000000   0.2500000  -0.5000000), wk =   0.0468750
        k(   16) = (   0.0000000   0.2500000  -0.3750000), wk =   0.0468750
        k(   17) = (   0.0000000   0.2500000  -0.2500000), wk =   0.0234375
        k(   18) = (   0.0000000   0.3750000   0.3750000), wk =   0.0234375
        k(   19) = (   0.0000000   0.3750000  -0.5000000), wk =   0.0468750
        k(   20) = (   0.0000000   0.3750000  -0.3750000), wk =   0.0234375
        k(   21) = (   0.0000000  -0.5000000  -0.5000000), wk =   0.0117188
        k(   22) = (   0.1250000   0.2500000   0.3750000), wk =   0.0468750
        k(   23) = (   0.1250000   0.2500000  -0.5000000), wk =   0.0468750
        k(   24) = (   0.1250000   0.2500000  -0.3750000), wk =   0.0468750
        k(   25) = (   0.1250000   0.3750000  -0.5000000), wk =   0.0468750
        k(   26) = (   0.1250000   0.3750000  -0.3750000), wk =   0.0468750
        k(   27) = (   0.1250000   0.3750000  -0.2500000), wk =   0.0468750
        k(   28) = (   0.1250000  -0.5000000  -0.3750000), wk =   0.0468750
        k(   29) = (   0.2500000  -0.5000000  -0.2500000), wk =   0.0234375
        k(   30) = (   0.1250000   0.1250000   0.1250000), wk =   0.0078125
        k(   31) = (   0.2500000   0.2500000   0.2500000), wk =   0.0078125
        k(   32) = (   0.3750000   0.3750000   0.3750000), wk =   0.0078125
        k(   33) = (  -0.5000000  -0.5000000  -0.5000000), wk =   0.0039062
        k(   34) = (   0.1250000  -0.1250000   0.1250000), wk =   0.0234375
        k(   35) = (   0.1250000   0.2500000   0.2500000), wk =   0.0234375
        k(   36) = (   0.1250000  -0.2500000   0.1250000), wk =   0.0234375
        k(   37) = (   0.2500000   0.3750000   0.3750000), wk =   0.0234375
        k(   38) = (   0.1250000   0.6250000   0.1250000), wk =   0.0234375
        k(   39) = (  -0.6250000  -0.5000000  -0.5000000), wk =   0.0234375
        k(   40) = (   0.1250000   0.5000000   0.1250000), wk =   0.0234375
        k(   41) = (  -0.5000000  -0.3750000  -0.3750000), wk =   0.0234375
        k(   42) = (   0.1250000   0.3750000   0.1250000), wk =   0.0234375
        k(   43) = (  -0.3750000  -0.2500000  -0.2500000), wk =   0.0234375
        k(   44) = (   0.1250000   0.2500000   0.1250000), wk =   0.0234375
        k(   45) = (   0.2500000  -0.1250000   0.2500000), wk =   0.0234375
        k(   46) = (   0.1250000   0.3750000   0.3750000), wk =   0.0234375
        k(   47) = (   0.2500000   0.7500000   0.2500000), wk =   0.0234375
        k(   48) = (  -0.7500000  -0.5000000  -0.5000000), wk =   0.0234375
        k(   49) = (   0.2500000   0.6250000   0.2500000), wk =   0.0234375
        k(   50) = (  -0.6250000  -0.3750000  -0.3750000), wk =   0.0234375
        k(   51) = (   0.2500000   0.5000000   0.2500000), wk =   0.0234375
        k(   52) = (   0.3750000   0.8750000   0.3750000), wk =   0.0234375
        k(   53) = (  -0.8750000  -0.5000000  -0.5000000), wk =   0.0234375
        k(   54) = (   0.3750000   0.7500000   0.3750000), wk =   0.0234375
        k(   55) = (  -0.2500000   0.1250000  -0.1250000), wk =   0.0468750
        k(   56) = (   0.6250000   0.1250000  -0.1250000), wk =   0.0468750
        k(   57) = (   0.2500000   0.7500000   0.1250000), wk =   0.0468750
        k(   58) = (  -0.7500000  -0.5000000  -0.6250000), wk =   0.0468750
        k(   59) = (   0.5000000   0.1250000  -0.1250000), wk =   0.0234375
        k(   60) = (  -0.6250000  -0.3750000  -0.5000000), wk =   0.0234375
        k(   61) = (   0.6250000   0.1250000  -0.2500000), wk =   0.0468750
        k(   62) = (   0.5000000   0.1250000  -0.2500000), wk =   0.0468750
        k(   63) = (   0.3750000   0.7500000   0.2500000), wk =   0.0468750
        k(   64) = (  -0.7500000  -0.3750000  -0.5000000), wk =   0.0468750
        k(   65) = (   0.3750000   0.6250000   0.2500000), wk =   0.0468750

     Dense  grid:     3071 G-vectors     FFT dimensions: (  24,  24,  24)

     Dynamical RAM for                 wfc:       0.01 MB

     Dynamical RAM for     wfc (w. buffer):       0.77 MB

     Dynamical RAM for                 EXX:      13.05 MB

     Dynamical RAM for           str. fact:       0.01 MB

     Dynamical RAM for           local pot:       0.00 MB

     Dynamical RAM for          nlocal pot:       0.02 MB

     Dynamical RAM for                qrad:       0.36 MB

     Dynamical RAM for          rho,v,vnew:       0.11 MB

     Dynamical RAM for               rhoin:       0.04 MB

     Dynamical RAM for            rho*nmix:       0.19 MB

     Dynamical RAM for           G-vectors:       0.05 MB

     Dynamical RAM for          h,s,v(r/c):       0.01 MB

     Dynamical RAM for          <psi|beta>:       0.00 MB

     Dynamical RAM for                 psi:       0.02 MB

     Dynamical RAM for                hpsi:       0.02 MB

     Dynamical RAM for                spsi:       0.02 MB

     Dynamical RAM for      wfcinit/wfcrot:       0.02 MB

     Dynamical RAM for           addusdens:       0.53 MB

     Dynamical RAM for          addusforce:       0.56 MB

     Dynamical RAM for         addusstress:       0.59 MB

     Estimated static dynamical RAM per process >      14.57 MB

     Estimated max dynamical RAM per process >      15.34 MB

     Estimated total dynamical RAM >      61.37 MB
     EXX: ACE will be initialized later

     Check: negative core charge=   -0.000080

     Initial potential from superposition of free atoms

     starting charge       7.9999, renormalised to       8.0000
     Starting wfcs are random

     total cpu time spent up to now is        0.3 secs

     Self-consistent Calculation

     iteration #  1     ecut=    45.00 Ry     beta= 0.70
     Davidson diagonalization with overlap

---- Real-time Memory Report at c_bands before calling an iterative solver
            37 MiB given to the printing process from OS
             0 MiB allocation reported by mallinfo(arena+hblkhd)
          2236 MiB available memory on the node where the printing process lives
------------------
     ethr =  1.00E-02,  avg # of iterations =  7.3

     total cpu time spent up to now is        0.7 secs

     total energy              =     -36.85686566 Ry
     estimated scf accuracy    <       0.12377307 Ry

     iteration #  2     ecut=    45.00 Ry     beta= 0.70
     Davidson diagonalization with overlap

---- Real-time Memory Report at c_bands before calling an iterative solver
            41 MiB given to the printing process from OS
             0 MiB allocation reported by mallinfo(arena+hblkhd)
          2232 MiB available memory on the node where the printing process lives
------------------
     ethr =  1.55E-03,  avg # of iterations =  1.0

     total cpu time spent up to now is        0.9 secs

     total energy              =     -36.86559450 Ry
     estimated scf accuracy    <       0.00254316 Ry

     iteration #  3     ecut=    45.00 Ry     beta= 0.70
     Davidson diagonalization with overlap

---- Real-time Memory Report at c_bands before calling an iterative solver
            41 MiB given to the printing process from OS
             0 MiB allocation reported by mallinfo(arena+hblkhd)
          2230 MiB available memory on the node where the printing process lives
------------------
     ethr =  3.18E-05,  avg # of iterations =  2.3

     total cpu time spent up to now is        1.1 secs

     total energy              =     -36.86604080 Ry
     estimated scf accuracy    <       0.00006711 Ry

     iteration #  4     ecut=    45.00 Ry     beta= 0.70
     Davidson diagonalization with overlap

---- Real-time Memory Report at c_bands before calling an iterative solver
            41 MiB given to the printing process from OS
             0 MiB allocation reported by mallinfo(arena+hblkhd)
          2216 MiB available memory on the node where the printing process lives
------------------
     ethr =  8.39E-07,  avg # of iterations =  2.4

     total cpu time spent up to now is        1.3 secs

     total energy              =     -36.86604683 Ry
     estimated scf accuracy    <       0.00000962 Ry

     iteration #  5     ecut=    45.00 Ry     beta= 0.70
     Davidson diagonalization with overlap

---- Real-time Memory Report at c_bands before calling an iterative solver
            41 MiB given to the printing process from OS
             0 MiB allocation reported by mallinfo(arena+hblkhd)
          2216 MiB available memory on the node where the printing process lives
------------------
     ethr =  1.20E-07,  avg # of iterations =  1.0

     total cpu time spent up to now is        1.5 secs

     total energy              =     -36.86604880 Ry
     estimated scf accuracy    <       0.00000017 Ry

     iteration #  6     ecut=    45.00 Ry     beta= 0.70
     Davidson diagonalization with overlap

---- Real-time Memory Report at c_bands before calling an iterative solver
            41 MiB given to the printing process from OS
             0 MiB allocation reported by mallinfo(arena+hblkhd)
          2212 MiB available memory on the node where the printing process lives
------------------
     ethr =  2.15E-09,  avg # of iterations =  2.0

     total cpu time spent up to now is        1.7 secs

     End of self-consistent calculation

          k = 0.0000 0.0000 0.0000 (   339 PWs)   bands (ev):

    -8.0058  13.7991  13.7991  13.8641  19.4567  19.5140  19.5140  27.7433

     occupation numbers 
     1.0000   1.0000   1.0000   1.0000   0.0000   0.0000   0.0000   0.0000

          k =-0.0884 0.0884-0.0884 (   368 PWs)   bands (ev):

    -7.5663  11.3486  13.1291  13.1805  20.3466  20.3981  20.8476  28.0671

     occupation numbers 
     1.0000   1.0000   1.0000   1.0000   0.0000   0.0000   0.0000   0.0000

          k =-0.1768 0.1768-0.1768 (   374 PWs)   bands (ev):

    -6.2604   7.0994  12.0086  12.0552  21.7126  21.7755  22.2214  28.8822

     occupation numbers 
     1.0000   1.0000   1.0000   1.0000   0.0000   0.0000   0.0000   0.0000

          k =-0.2652 0.2652-0.2652 (   374 PWs)   bands (ev):

    -4.1522   2.9403  11.2080  11.2537  22.3027  22.3777  22.8545  29.5807

     occupation numbers 
     1.0000   1.0000   1.0000   1.0000   0.0000   0.0000   0.0000   0.0000

          k = 0.3536-0.3536 0.3536 (   392 PWs)   bands (ev):

    -2.0806   0.1505  10.9294  10.9750  22.3683  22.4467  23.0326  29.7648

     occupation numbers 
     1.0000   1.0000   1.0000   1.0000   0.0000   0.0000   0.0000   0.0000

          k = 0.0000 0.1768 0.0000 (   371 PWs)   bands (ev):

    -7.4200  12.0314  12.0568  12.4960  19.0834  21.7626  21.7854  27.6280

     occupation numbers 
     1.0000   1.0000   1.0000   1.0000   0.0000   0.0000   0.0000   0.0000

          k =-0.0884 0.2652-0.0884 (   372 PWs)   bands (ev):

    -6.4031   8.6330  10.8770  11.7527  19.7631  23.3911  23.4191  27.0098

     occupation numbers 
     1.0000   1.0000   1.0000   1.0000   0.0000   0.0000   0.0000   0.0000

          k =-0.1768 0.3536-0.1768 (   380 PWs)   bands (ev):

    -4.5566   4.5333  10.2144  10.5570  20.9560  24.0852  24.2048  27.5591

     occupation numbers 
     1.0000   1.0000   1.0000   1.0000   0.0000   0.0000   0.0000   0.0000

          k = 0.4419-0.2652 0.4419 (   381 PWs)   bands (ev):

    -2.1568   1.0065   9.5786  10.2173  21.5717  23.7881  24.4519  29.2811

     occupation numbers 
     1.0000   1.0000   1.0000   1.0000   0.0000   0.0000   0.0000   0.0000

          k = 0.3536-0.1768 0.3536 (   382 PWs)   bands (ev):

    -2.9558   2.0433   9.1350  10.8510  22.1807  23.1250  24.3391  29.5237

     occupation numbers 
     1.0000   1.0000   1.0000   1.0000   0.0000   0.0000   0.0000   0.0000

          k = 0.2652-0.0884 0.2652 (   378 PWs)   bands (ev):

    -5.2600   5.9075   9.3529  11.9510  22.0619  22.6623  23.6889  28.3407

     occupation numbers 
     1.0000   1.0000   1.0000   1.0000   0.0000   0.0000   0.0000   0.0000

          k = 0.1768 0.0000 0.1768 (   367 PWs)   bands (ev):

    -6.8379   9.7567  10.4846  13.0646  20.6605  22.0678  22.1768  28.0726

     occupation numbers 
     1.0000   1.0000   1.0000   1.0000   0.0000   0.0000   0.0000   0.0000

          k = 0.0000 0.3536 0.0000 (   375 PWs)   bands (ev):

    -5.6813   9.2721   9.5792   9.5982  18.3423  24.2568  25.6435  25.6613

     occupation numbers 
     1.0000   1.0000   1.0000   1.0000   0.0000   0.0000   0.0000   0.0000

          k =-0.0884 0.4419-0.0884 (   378 PWs)   bands (ev):

    -4.1227   6.1890   8.4817   8.8500  19.0891  23.3028  26.9683  27.0514

     occupation numbers 
     1.0000   1.0000   1.0000   1.0000   0.0000   0.0000   0.0000   0.0000

          k = 0.5303-0.1768 0.5303 (   382 PWs)   bands (ev):

    -1.8642   2.8406   6.9360   8.8259  20.0029  25.4576  26.8744  27.5073

     occupation numbers 
     1.0000   1.0000   1.0000   1.0000   0.0000   0.0000   0.0000   0.0000

          k = 0.4419-0.0884 0.4419 (   386 PWs)   bands (ev):

    -1.1378   2.0051   5.9113   9.5185  20.7857  25.8097  27.4738  28.9382

     occupation numbers 
     1.0000   1.0000   1.0000   1.0000   0.0000   0.0000   0.0000   0.0000

          k = 0.3536 0.0000 0.3536 (   379 PWs)   bands (ev):

    -3.4541   4.9789   6.0321  10.7435  21.9048  24.0014  26.4792  28.1186

     occupation numbers 
     1.0000   1.0000   1.0000   1.0000   0.0000   0.0000   0.0000   0.0000

          k = 0.0000 0.5303 0.0000 (   383 PWs)   bands (ev):

    -2.8608   5.1330   7.9252   7.9398  18.0259  20.6410  29.2713  29.2936

     occupation numbers 
     1.0000   1.0000   1.0000   1.0000   0.0000   0.0000   0.0000   0.0000

          k = 0.6187-0.0884 0.6187 (   381 PWs)   bands (ev):

    -0.8581   3.0109   6.2801   7.7535  18.8787  20.9326  29.8121  30.1294

     occupation numbers 
     1.0000   1.0000   1.0000   1.0000   0.0000   0.0000   0.0000   0.0000

          k = 0.5303 0.0000 0.5303 (   377 PWs)   bands (ev):

     0.6929   1.9086   4.2467   8.3264  19.5898  24.7633  28.4830  29.8583

     occupation numbers 
     1.0000   1.0000   1.0000   1.0000   0.0000   0.0000   0.0000   0.0000

          k = 0.0000-0.7071 0.0000 (   388 PWs)   bands (ev):

     0.8641   0.8747   7.3535   7.3673  18.6444  18.6572  31.0078  31.0352

     occupation numbers 
     1.0000   1.0000   1.0000   1.0000   0.0000   0.0000   0.0000   0.0000

          k =-0.1768 0.3536 0.0000 (   378 PWs)   bands (ev):

    -5.1144   7.2245   8.1815  10.8545  20.5208  24.0562  25.6381  25.8473

     occupation numbers 
     1.0000   1.0000   1.0000   1.0000   0.0000   0.0000   0.0000   0.0000

          k = 0.4419-0.2652 0.6187 (   383 PWs)   bands (ev):

    -3.0471   3.7965   7.4255   9.6228  21.9272  23.6457  26.5490  27.4324

     occupation numbers 
     1.0000   1.0000   1.0000   1.0000   0.0000   0.0000   0.0000   0.0000

          k = 0.3536-0.1768 0.5303 (   384 PWs)   bands (ev):

    -1.0550   1.1925   7.3973   9.0010  22.2040  23.5290  27.2237  29.0205

     occupation numbers 
     1.0000   1.0000   1.0000   1.0000   0.0000   0.0000   0.0000   0.0000

          k = 0.5303-0.1768 0.7071 (   391 PWs)   bands (ev):

    -2.3398   4.7083   6.6541   7.7123  20.2633  22.5357  27.1299  29.2870

     occupation numbers 
     1.0000   1.0000   1.0000   1.0000   0.0000   0.0000   0.0000   0.0000

          k = 0.4419-0.0884 0.6187 (   382 PWs)   bands (ev):

    -0.0852   2.4795   5.2093   7.3058  21.4765  24.8841  26.6829  29.1055

     occupation numbers 
     1.0000   1.0000   1.0000   1.0000   0.0000   0.0000   0.0000   0.0000

          k = 0.3536 0.0000 0.5303 (   385 PWs)   bands (ev):

    -0.8967   3.2600   4.7305   8.2143  22.3252  24.7881  27.2264  28.7209

     occupation numbers 
     1.0000   1.0000   1.0000   1.0000   0.0000   0.0000   0.0000   0.0000

          k =-0.1768-0.7071 0.0000 (   380 PWs)   bands (ev):

     1.2160   1.2285   6.3096   6.3243  20.7969  20.8133  29.7409  29.7600

     occupation numbers 
     1.0000   1.0000   1.0000   1.0000   0.0000   0.0000   0.0000   0.0000

          k =-0.3536-0.7071 0.0000 (   380 PWs)   bands (ev):

     1.6944   1.7110   5.2619   5.2797  24.5534  24.5953  26.4744  26.4910

     occupation numbers 
     1.0000   1.0000   1.0000   1.0000   0.0000   0.0000   0.0000   0.0000

          k =-0.0884 0.0884 0.0884 (   368 PWs)   bands (ev):

    -7.5663  11.3823  13.1339  13.1339  20.3875  20.3875  20.8205  28.0625

     occupation numbers 
     1.0000   1.0000   1.0000   1.0000   0.0000   0.0000   0.0000   0.0000

          k =-0.1768 0.1768 0.1768 (   374 PWs)   bands (ev):

    -6.2603   7.1188  12.0195  12.0195  21.7441  21.7441  22.2094  28.8655

     occupation numbers 
     1.0000   1.0000   1.0000   1.0000   0.0000   0.0000   0.0000   0.0000

          k =-0.2652 0.2652 0.2652 (   374 PWs)   bands (ev):

    -4.1530   2.9552  11.2227  11.2227  22.3310  22.3310  22.8488  29.5515

     occupation numbers 
     1.0000   1.0000   1.0000   1.0000   0.0000   0.0000   0.0000   0.0000

          k = 0.3536-0.3536-0.3536 (   392 PWs)   bands (ev):

    -2.0901   0.1725  10.9453  10.9453  22.3959  22.3959  23.0286  29.7320

     occupation numbers 
     1.0000   1.0000   1.0000   1.0000   0.0000   0.0000   0.0000   0.0000

          k =-0.2652-0.0884-0.0884 (   372 PWs)   bands (ev):

    -6.4031   8.6285  10.8526  11.7872  19.7509  23.3701  23.4499  27.0155

     occupation numbers 
     1.0000   1.0000   1.0000   1.0000   0.0000   0.0000   0.0000   0.0000

          k =-0.0884 0.2652 0.0884 (   372 PWs)   bands (ev):

    -6.4030   8.6560  10.8579  11.7449  19.7634  23.3755  23.4296  27.0063

     occupation numbers 
     1.0000   1.0000   1.0000   1.0000   0.0000   0.0000   0.0000   0.0000

          k =-0.3536-0.1768-0.1768 (   380 PWs)   bands (ev):

    -4.5566   4.5310  10.1897  10.5874  20.9325  24.1292  24.1838  27.5739

     occupation numbers 
     1.0000   1.0000   1.0000   1.0000   0.0000   0.0000   0.0000   0.0000

          k =-0.1768 0.3536 0.1768 (   380 PWs)   bands (ev):

    -4.5569   4.5490  10.1987  10.5551  20.9445  24.0913  24.1920  27.5547

     occupation numbers 
     1.0000   1.0000   1.0000   1.0000   0.0000   0.0000   0.0000   0.0000

          k = 0.2652 0.4419 0.4419 (   381 PWs)   bands (ev):

    -2.1566   1.0057   9.6068  10.1890  21.5446  23.8392  24.4317  29.2939

     occupation numbers 
     1.0000   1.0000   1.0000   1.0000   0.0000   0.0000   0.0000   0.0000

          k = 0.4419-0.2652-0.4419 (   381 PWs)   bands (ev):

    -2.1624   1.0252   9.5806  10.1999  21.5541  23.7954  24.4408  29.2592

     occupation numbers 
     1.0000   1.0000   1.0000   1.0000   0.0000   0.0000   0.0000   0.0000

          k = 0.1768 0.3536 0.3536 (   382 PWs)   bands (ev):

    -2.9560   2.0441   9.1598  10.8201  22.1587  23.1772  24.3136  29.5248

     occupation numbers 
     1.0000   1.0000   1.0000   1.0000   0.0000   0.0000   0.0000   0.0000

          k = 0.3536-0.1768-0.3536 (   382 PWs)   bands (ev):

    -2.9582   2.0596   9.1367  10.8309  22.1643  23.1374  24.3239  29.4943

     occupation numbers 
     1.0000   1.0000   1.0000   1.0000   0.0000   0.0000   0.0000   0.0000

          k = 0.0884 0.2652 0.2652 (   378 PWs)   bands (ev):

    -5.2600   5.9108   9.3741  11.9166  22.1122  22.6494  23.6512  28.3420

     occupation numbers 
     1.0000   1.0000   1.0000   1.0000   0.0000   0.0000   0.0000   0.0000

          k = 0.2652-0.0884-0.2652 (   378 PWs)   bands (ev):

    -5.2601   5.9269   9.3517  11.9241  22.0888  22.6505  23.6606  28.3299

     occupation numbers 
     1.0000   1.0000   1.0000   1.0000   0.0000   0.0000   0.0000   0.0000

          k = 0.0000 0.1768 0.1768 (   367 PWs)   bands (ev):

    -6.8378   9.7843  10.4822  13.0270  20.6989  22.0303  22.1790  28.0672

     occupation numbers 
     1.0000   1.0000   1.0000   1.0000   0.0000   0.0000   0.0000   0.0000

          k =-0.4419-0.0884-0.0884 (   378 PWs)   bands (ev):

    -4.1227   6.1783   8.5131   8.8315  19.0783  23.3124  27.0000  27.0307

     occupation numbers 
     1.0000   1.0000   1.0000   1.0000   0.0000   0.0000   0.0000   0.0000

          k =-0.0884 0.4419 0.0884 (   378 PWs)   bands (ev):

    -4.1229   6.2066   8.4775   8.8346  19.0862  23.3047  26.9789  27.0371

     occupation numbers 
     1.0000   1.0000   1.0000   1.0000   0.0000   0.0000   0.0000   0.0000

          k = 0.1768 0.5303 0.5303 (   382 PWs)   bands (ev):

    -1.8638   2.8355   6.9597   8.8064  19.9846  25.4745  26.9160  27.4915

     occupation numbers 
     1.0000   1.0000   1.0000   1.0000   0.0000   0.0000   0.0000   0.0000

          k = 0.5303-0.1768-0.5303 (   382 PWs)   bands (ev):

    -1.8669   2.8577   6.9341   8.8108  19.9905  25.4633  26.8865  27.4967

     occupation numbers 
     1.0000   1.0000   1.0000   1.0000   0.0000   0.0000   0.0000   0.0000

          k = 0.0884 0.4419 0.4419 (   386 PWs)   bands (ev):

    -1.1391   2.0065   5.9285   9.4968  20.7684  25.8532  27.4437  28.9657

     occupation numbers 
     1.0000   1.0000   1.0000   1.0000   0.0000   0.0000   0.0000   0.0000

          k = 0.4419-0.0884-0.4419 (   386 PWs)   bands (ev):

    -1.1442   2.0266   5.9098   9.5005  20.7707  25.8311  27.4657  28.9119

     occupation numbers 
     1.0000   1.0000   1.0000   1.0000   0.0000   0.0000   0.0000   0.0000

          k = 0.0000 0.3536 0.3536 (   379 PWs)   bands (ev):

    -3.4546   4.9972   6.0313  10.7190  21.8903  24.0367  26.4404  28.1251

     occupation numbers 
     1.0000   1.0000   1.0000   1.0000   0.0000   0.0000   0.0000   0.0000

          k = 0.0884 0.6187 0.6187 (   381 PWs)   bands (ev):

    -0.8576   3.0059   6.2996   7.7384  18.8652  20.9462  29.8446  30.1084

     occupation numbers 
     1.0000   1.0000   1.0000   1.0000   0.0000   0.0000   0.0000   0.0000

          k = 0.6187-0.0884-0.6187 (   381 PWs)   bands (ev):

    -0.8594   3.0162   6.2889   7.7394  18.8698  20.9414  29.8337  30.1118

     occupation numbers 
     1.0000   1.0000   1.0000   1.0000   0.0000   0.0000   0.0000   0.0000

          k = 0.0000 0.5303 0.5303 (   377 PWs)   bands (ev):

     0.6826   1.9212   4.2580   8.3102  19.5756  24.7752  28.5146  29.8519

     occupation numbers 
     1.0000   1.0000   1.0000   1.0000   0.0000   0.0000   0.0000   0.0000

          k = 0.3536 0.1768 0.0000 (   378 PWs)   bands (ev):

    -5.1144   7.2016   8.1834  10.8830  20.5074  24.0719  25.6505  25.8407

     occupation numbers 
     1.0000   1.0000   1.0000   1.0000   0.0000   0.0000   0.0000   0.0000

          k =-0.2652-0.4419 0.6187 (   383 PWs)   bands (ev):

    -3.0468   3.7945   7.4024   9.6528  21.9333  23.6327  26.5589  27.4300

     occupation numbers 
     1.0000   1.0000   1.0000   1.0000   0.0000   0.0000   0.0000   0.0000

          k = 0.2652 0.4419 0.6187 (   383 PWs)   bands (ev):

    -3.0467   3.7917   7.4140   9.6435  21.9004  23.6744  26.5279  27.4680

     occupation numbers 
     1.0000   1.0000   1.0000   1.0000   0.0000   0.0000   0.0000   0.0000

          k = 0.6187-0.2652-0.4419 (   383 PWs)   bands (ev):

    -3.0479   3.8117   7.4064   9.6276  21.9202  23.6370  26.5646  27.4185

     occupation numbers 
     1.0000   1.0000   1.0000   1.0000   0.0000   0.0000   0.0000   0.0000

          k =-0.1768-0.3536 0.5303 (   384 PWs)   bands (ev):

    -1.0549   1.1932   7.3718   9.0283  22.2566  23.4645  27.2394  29.0040

     occupation numbers 
     1.0000   1.0000   1.0000   1.0000   0.0000   0.0000   0.0000   0.0000

          k = 0.5303-0.1768-0.3536 (   384 PWs)   bands (ev):

    -1.0652   1.2172   7.3816   9.0006  22.2143  23.4985  27.2387  28.9823

     occupation numbers 
     1.0000   1.0000   1.0000   1.0000   0.0000   0.0000   0.0000   0.0000

          k =-0.1768-0.5303 0.7071 (   391 PWs)   bands (ev):

    -2.3391   4.6922   6.6546   7.7300  20.2544  22.5468  27.1289  29.2975

     occupation numbers 
     1.0000   1.0000   1.0000   1.0000   0.0000   0.0000   0.0000   0.0000

          k =-0.0884-0.4419 0.6187 (   382 PWs)   bands (ev):

    -0.0838   2.4776   5.1987   7.3181  21.4793  24.8807  26.6779  29.1214

     occupation numbers 
     1.0000   1.0000   1.0000   1.0000   0.0000   0.0000   0.0000   0.0000

          k = 0.0884 0.4419 0.6187 (   382 PWs)   bands (ev):

    -0.0840   2.4724   5.2245   7.2963  21.4583  24.9135  26.6766  29.1207

     occupation numbers 
     1.0000   1.0000   1.0000   1.0000   0.0000   0.0000   0.0000   0.0000

          k = 0.6187-0.0884-0.4419 (   382 PWs)   bands (ev):

    -0.0914   2.4983   5.2042   7.2968  21.4645  24.8898  26.6873  29.1167

     occupation numbers 
     1.0000   1.0000   1.0000   1.0000   0.0000   0.0000   0.0000   0.0000

          k =-0.0000 0.3536 0.5303 (   385 PWs)   bands (ev):

    -0.8998   3.2757   4.7333   8.1956  22.3057  24.8081  27.2320  28.7064

     occupation numbers 
     1.0000   1.0000   1.0000   1.0000   0.0000   0.0000   0.0000   0.0000

     highest occupied, lowest unoccupied level (ev):  13.864071 18.025933

!    total energy              =     -36.86604884 Ry
     estimated scf accuracy    <          7.8E-09 Ry

     convergence has been achieved in   6 iterations

     Using ACE for calculation of exact exchange

     EXX grid:     3071 G-vectors     FFT dimensions: (  24,  24,  24)
     ACE projected onto     8 (nbndproj) and applied to     8 (nbnd) bands

     EXX: now go back to refine exchange calculation

     total cpu time spent up to now is        5.5 secs

     Self-consistent Calculation

     iteration #  1     ecut=    45.00 Ry     beta= 0.70
     Davidson diagonalization with overlap

---- Real-time Memory Report at c_bands before calling an iterative solver
            72 MiB given to the printing process from OS
             0 MiB allocation reported by mallinfo(arena+hblkhd)
          2098 MiB available memory on the node where the printing process lives
------------------
     ethr =  2.15E-09,  avg # of iterations =  6.1

     total cpu time spent up to now is        5.9 secs

     total energy              =     -33.64947560 Ry
     estimated scf accuracy    <       0.00049315 Ry

     iteration #  2     ecut=    45.00 Ry     beta= 0.70
     Davidson diagonalization with overlap

---- Real-time Memory Report at c_bands before calling an iterative solver
            72 MiB given to the printing process from OS
             0 MiB allocation reported by mallinfo(arena+hblkhd)
          2094 MiB available memory on the node where the printing process lives
------------------
     ethr =  6.16E-06,  avg # of iterations =  3.1

     total cpu time spent up to now is        6.2 secs

     total energy              =     -33.53596481 Ry
     estimated scf accuracy    <       0.00052182 Ry

     iteration #  3     ecut=    45.00 Ry     beta= 0.70
     Davidson diagonalization with overlap

---- Real-time Memory Report at c_bands before calling an iterative solver
            72 MiB given to the printing process from OS
             0 MiB allocation reported by mallinfo(arena+hblkhd)
          2094 MiB available memory on the node where the printing process lives
------------------
     ethr =  6.16E-06,  avg # of iterations =  1.3

     total cpu time spent up to now is        6.4 secs

     total energy              =     -33.53500143 Ry
     estimated scf accuracy    <       0.00160409 Ry

     iteration #  4     ecut=    45.00 Ry     beta= 0.70
     Davidson diagonalization with overlap

---- Real-time Memory Report at c_bands before calling an iterative solver
            72 MiB given to the printing process from OS
             0 MiB allocation reported by mallinfo(arena+hblkhd)
          2094 MiB available memory on the node where the printing process lives
------------------
     ethr =  6.16E-06,  avg # of iterations =  2.0

     total cpu time spent up to now is        6.6 secs

     total energy              =     -33.53513067 Ry
     estimated scf accuracy    <       0.00003180 Ry

     iteration #  5     ecut=    45.00 Ry     beta= 0.70
     Davidson diagonalization with overlap

---- Real-time Memory Report at c_bands before calling an iterative solver
            72 MiB given to the printing process from OS
             0 MiB allocation reported by mallinfo(arena+hblkhd)
          2094 MiB available memory on the node where the printing process lives
------------------
     ethr =  3.97E-07,  avg # of iterations =  2.0

     total cpu time spent up to now is        6.8 secs

     total energy              =     -33.53513679 Ry
     estimated scf accuracy    <       0.00000011 Ry

     iteration #  6     ecut=    45.00 Ry     beta= 0.70
     Davidson diagonalization with overlap

---- Real-time Memory Report at c_bands before calling an iterative solver
            72 MiB given to the printing process from OS
             0 MiB allocation reported by mallinfo(arena+hblkhd)
          2094 MiB available memory on the node where the printing process lives
------------------
     ethr =  1.36E-09,  avg # of iterations =  1.8

     total cpu time spent up to now is        7.0 secs

     End of self-consistent calculation

          k = 0.0000 0.0000 0.0000 (   339 PWs)   bands (ev):

    -9.4008  12.5871  12.5871  12.6535  20.7174  20.7752  20.7752  29.5987

     occupation numbers 
     1.0000   1.0000   1.0000   1.0000   0.0000   0.0000   0.0000   0.0000

          k =-0.0884 0.0884-0.0884 (   368 PWs)   bands (ev):

    -8.9449  10.1839  11.9002  11.9538  21.6123  21.6641  22.2215  29.9644

     occupation numbers 
     1.0000   1.0000   1.0000   1.0000   0.0000   0.0000   0.0000   0.0000

          k =-0.1768 0.1768-0.1768 (   374 PWs)   bands (ev):

    -7.6190   5.8990  10.7601  10.8087  22.9637  23.0268  23.7093  30.6966

     occupation numbers 
     1.0000   1.0000   1.0000   1.0000   0.0000   0.0000   0.0000   0.0000

          k =-0.2652 0.2652-0.2652 (   374 PWs)   bands (ev):

    -5.4866   1.6932   9.9362   9.9835  23.5094  23.5843  24.4140  31.1578

     occupation numbers 
     1.0000   1.0000   1.0000   1.0000   0.0000   0.0000   0.0000   0.0000

          k = 0.3536-0.3536 0.3536 (   392 PWs)   bands (ev):

    -3.3944  -1.1261   9.6474   9.6946  23.5517  23.6298  24.6178  31.2161

     occupation numbers 
     1.0000   1.0000   1.0000   1.0000   0.0000   0.0000   0.0000   0.0000

          k = 0.0000 0.1768 0.0000 (   371 PWs)   bands (ev):

    -8.7973  10.8124  10.8403  11.2867  20.2975  23.1279  23.1507  29.3702

     occupation numbers 
     1.0000   1.0000   1.0000   1.0000   0.0000   0.0000   0.0000   0.0000

          k =-0.0884 0.2652-0.0884 (   372 PWs)   bands (ev):

    -7.7635   7.4313   9.6417  10.4827  20.9798  24.7880  24.8555  28.4445

     occupation numbers 
     1.0000   1.0000   1.0000   1.0000   0.0000   0.0000   0.0000   0.0000

          k =-0.1768 0.3536-0.1768 (   380 PWs)   bands (ev):

    -5.8920   3.2955   8.9513   9.2874  22.1677  25.3719  25.7457  28.9147

     occupation numbers 
     1.0000   1.0000   1.0000   1.0000   0.0000   0.0000   0.0000   0.0000

          k = 0.4419-0.2652 0.4419 (   381 PWs)   bands (ev):

    -3.4642  -0.2668   8.3222   8.9255  22.7643  24.9978  26.0298  30.7447

     occupation numbers 
     1.0000   1.0000   1.0000   1.0000   0.0000   0.0000   0.0000   0.0000

          k = 0.3536-0.1768 0.3536 (   382 PWs)   bands (ev):

    -4.2717   0.7827   7.8990   9.5389  23.4175  24.3141  25.8875  31.1089

     occupation numbers 
     1.0000   1.0000   1.0000   1.0000   0.0000   0.0000   0.0000   0.0000

          k = 0.2652-0.0884 0.2652 (   378 PWs)   bands (ev):

    -6.6025   4.6909   8.1382  10.6297  23.2616  24.0230  25.1494  29.9707

     occupation numbers 
     1.0000   1.0000   1.0000   1.0000   0.0000   0.0000   0.0000   0.0000

          k = 0.1768 0.0000 0.1768 (   367 PWs)   bands (ev):

    -8.2028   8.5983   9.2713  11.7513  21.8722  23.4551  23.5941  29.8230

     occupation numbers 
     1.0000   1.0000   1.0000   1.0000   0.0000   0.0000   0.0000   0.0000

          k = 0.0000 0.3536 0.0000 (   375 PWs)   bands (ev):

    -7.0351   8.0489   8.3023   8.3235  19.5092  25.4386  27.1191  27.1365

     occupation numbers 
     1.0000   1.0000   1.0000   1.0000   0.0000   0.0000   0.0000   0.0000

          k =-0.0884 0.4419-0.0884 (   378 PWs)   bands (ev):

    -5.4512   4.9585   7.2037   7.5560  20.2578  24.4015  28.4078  28.6390

     occupation numbers 
     1.0000   1.0000   1.0000   1.0000   0.0000   0.0000   0.0000   0.0000

          k = 0.5303-0.1768 0.5303 (   382 PWs)   bands (ev):

    -3.1610   1.5824   5.6807   7.5139  21.1517  26.6531  28.2064  29.1850

     occupation numbers 
     1.0000   1.0000   1.0000   1.0000   0.0000   0.0000   0.0000   0.0000

          k = 0.4419-0.0884 0.4419 (   386 PWs)   bands (ev):

    -2.4257   0.7404   4.6683   8.1939  21.9505  27.0766  29.1612  30.4628

     occupation numbers 
     1.0000   1.0000   1.0000   1.0000   0.0000   0.0000   0.0000   0.0000

          k = 0.3536 0.0000 0.3536 (   379 PWs)   bands (ev):

    -4.7704   3.7576   4.7876   9.4131  23.1557  25.2248  27.9897  29.8331

     occupation numbers 
     1.0000   1.0000   1.0000   1.0000   0.0000   0.0000   0.0000   0.0000

          k = 0.0000 0.5303 0.0000 (   383 PWs)   bands (ev):

    -4.1763   3.8912   6.6105   6.6267  19.1443  21.7053  30.8585  30.8805

     occupation numbers 
     1.0000   1.0000   1.0000   1.0000   0.0000   0.0000   0.0000   0.0000

          k = 0.6187-0.0884 0.6187 (   381 PWs)   bands (ev):

    -2.1443   1.7629   4.9905   6.4304  19.9833  22.0115  31.3496  31.8610

     occupation numbers 
     1.0000   1.0000   1.0000   1.0000   0.0000   0.0000   0.0000   0.0000

          k = 0.5303 0.0000 0.5303 (   377 PWs)   bands (ev):

    -0.5633   0.6419   2.9738   6.9981  20.7038  25.9659  29.8902  31.6958

     occupation numbers 
     1.0000   1.0000   1.0000   1.0000   0.0000   0.0000   0.0000   0.0000

          k = 0.0000-0.7071 0.0000 (   388 PWs)   bands (ev):

    -0.4100  -0.3982   6.0285   6.0436  19.7194  19.7318  32.6750  32.7025

     occupation numbers 
     1.0000   1.0000   1.0000   1.0000   0.0000   0.0000   0.0000   0.0000

          k =-0.1768 0.3536 0.0000 (   378 PWs)   bands (ev):

    -6.4536   6.0298   6.9216   9.5563  21.7276  25.3975  27.1168  27.1915

     occupation numbers 
     1.0000   1.0000   1.0000   1.0000   0.0000   0.0000   0.0000   0.0000

          k = 0.4419-0.2652 0.6187 (   383 PWs)   bands (ev):

    -4.3571   2.5523   6.1794   8.3293  23.1042  24.9147  28.0809  28.8795

     occupation numbers 
     1.0000   1.0000   1.0000   1.0000   0.0000   0.0000   0.0000   0.0000

          k = 0.3536-0.1768 0.5303 (   384 PWs)   bands (ev):

    -2.3393  -0.0812   6.1506   7.7097  23.3154  24.8557  28.8616  30.5586

     occupation numbers 
     1.0000   1.0000   1.0000   1.0000   0.0000   0.0000   0.0000   0.0000

          k = 0.5303-0.1768 0.7071 (   391 PWs)   bands (ev):

    -3.6396   3.4843   5.3652   6.4246  21.4222  23.5973  28.6473  30.9326

     occupation numbers 
     1.0000   1.0000   1.0000   1.0000   0.0000   0.0000   0.0000   0.0000

          k = 0.4419-0.0884 0.6187 (   382 PWs)   bands (ev):

    -1.3520   1.2291   3.9402   6.0143  22.5990  26.0285  28.1964  30.7608

     occupation numbers 
     1.0000   1.0000   1.0000   1.0000   0.0000   0.0000   0.0000   0.0000

          k = 0.3536 0.0000 0.5303 (   385 PWs)   bands (ev):

    -2.1750   2.0222   3.4612   6.9226  23.4610  26.0382  28.7757  30.3572

     occupation numbers 
     1.0000   1.0000   1.0000   1.0000   0.0000   0.0000   0.0000   0.0000

          k =-0.1768-0.7071 0.0000 (   380 PWs)   bands (ev):

    -0.0422  -0.0288   5.0171   5.0329  21.8942  21.9108  31.3705  31.3897

     occupation numbers 
     1.0000   1.0000   1.0000   1.0000   0.0000   0.0000   0.0000   0.0000

          k =-0.3536-0.7071 0.0000 (   380 PWs)   bands (ev):

     0.4537   0.4711   3.9742   3.9930  25.6360  25.6769  28.0243  28.0406

     occupation numbers 
     1.0000   1.0000   1.0000   1.0000   0.0000   0.0000   0.0000   0.0000

          k =-0.0884 0.0884 0.0884 (   368 PWs)   bands (ev):

    -8.9450  10.2206  11.9042  11.9042  21.6535  21.6535  22.1953  29.9601

     occupation numbers 
     1.0000   1.0000   1.0000   1.0000   0.0000   0.0000   0.0000   0.0000

          k =-0.1768 0.1768 0.1768 (   374 PWs)   bands (ev):

    -7.6192   5.9201  10.7706  10.7706  22.9949  22.9949  23.6985  30.6804

     occupation numbers 
     1.0000   1.0000   1.0000   1.0000   0.0000   0.0000   0.0000   0.0000

          k =-0.2652 0.2652 0.2652 (   374 PWs)   bands (ev):

    -5.4878   1.7093   9.9506   9.9506  23.5372  23.5372  24.4094  31.1309

     occupation numbers 
     1.0000   1.0000   1.0000   1.0000   0.0000   0.0000   0.0000   0.0000

          k = 0.3536-0.3536-0.3536 (   392 PWs)   bands (ev):

    -3.4053  -1.1020   9.6631   9.6631  23.5788  23.5788  24.6149  31.1869

     occupation numbers 
     1.0000   1.0000   1.0000   1.0000   0.0000   0.0000   0.0000   0.0000

          k =-0.2652-0.0884-0.0884 (   372 PWs)   bands (ev):

    -7.7634   7.4272   9.6155  10.5182  20.9671  24.8199  24.8345  28.4494

     occupation numbers 
     1.0000   1.0000   1.0000   1.0000   0.0000   0.0000   0.0000   0.0000

          k =-0.0884 0.2652 0.0884 (   372 PWs)   bands (ev):

    -7.7636   7.4563   9.6205  10.4743  20.9804  24.7987  24.8394  28.4428

     occupation numbers 
     1.0000   1.0000   1.0000   1.0000   0.0000   0.0000   0.0000   0.0000

          k =-0.3536-0.1768-0.1768 (   380 PWs)   bands (ev):

    -5.8919   3.2933   8.9251   9.3189  22.1429  25.4160  25.7281  28.9273

     occupation numbers 
     1.0000   1.0000   1.0000   1.0000   0.0000   0.0000   0.0000   0.0000

          k =-0.1768 0.3536 0.1768 (   380 PWs)   bands (ev):

    -5.8926   3.3125   8.9340   9.2849  22.1560  25.3774  25.7334  28.9141

     occupation numbers 
     1.0000   1.0000   1.0000   1.0000   0.0000   0.0000   0.0000   0.0000

          k = 0.2652 0.4419 0.4419 (   381 PWs)   bands (ev):

    -3.4639  -0.2677   8.3517   8.8956  22.7356  25.0488  26.0131  30.7563

     occupation numbers 
     1.0000   1.0000   1.0000   1.0000   0.0000   0.0000   0.0000   0.0000

          k = 0.4419-0.2652-0.4419 (   381 PWs)   bands (ev):

    -3.4706  -0.2467   8.3240   8.9066  22.7462  25.0048  26.0201  30.7267

     occupation numbers 
     1.0000   1.0000   1.0000   1.0000   0.0000   0.0000   0.0000   0.0000

          k = 0.1768 0.3536 0.3536 (   382 PWs)   bands (ev):

    -4.2721   0.7837   7.9252   9.5064  23.3930  24.3664  25.8656  31.1109

     occupation numbers 
     1.0000   1.0000   1.0000   1.0000   0.0000   0.0000   0.0000   0.0000

          k = 0.3536-0.1768-0.3536 (   382 PWs)   bands (ev):

    -4.2747   0.8004   7.9004   9.5172  23.4001  24.3263  25.8741  31.0824

     occupation numbers 
     1.0000   1.0000   1.0000   1.0000   0.0000   0.0000   0.0000   0.0000

          k = 0.0884 0.2652 0.2652 (   378 PWs)   bands (ev):

    -6.6027   4.6940   8.1612  10.5936  23.3117  24.0063  25.1160  29.9745

     occupation numbers 
     1.0000   1.0000   1.0000   1.0000   0.0000   0.0000   0.0000   0.0000

          k = 0.2652-0.0884-0.2652 (   378 PWs)   bands (ev):

    -6.6029   4.7116   8.1368  10.6010  23.2881  24.0098  25.1230  29.9633

     occupation numbers 
     1.0000   1.0000   1.0000   1.0000   0.0000   0.0000   0.0000   0.0000

          k = 0.0000 0.1768 0.1768 (   367 PWs)   bands (ev):

    -8.2030   8.6269   9.2695  11.7121  21.9108  23.4181  23.5961  29.8189

     occupation numbers 
     1.0000   1.0000   1.0000   1.0000   0.0000   0.0000   0.0000   0.0000

          k =-0.4419-0.0884-0.0884 (   378 PWs)   bands (ev):

    -5.4510   4.9478   7.2364   7.5358  20.2468  24.4123  28.4396  28.6166

     occupation numbers 
     1.0000   1.0000   1.0000   1.0000   0.0000   0.0000   0.0000   0.0000

          k =-0.0884 0.4419 0.0884 (   378 PWs)   bands (ev):

    -5.4515   4.9773   7.1995   7.5388  20.2552  24.4029  28.4177  28.6268

     occupation numbers 
     1.0000   1.0000   1.0000   1.0000   0.0000   0.0000   0.0000   0.0000

          k = 0.1768 0.5303 0.5303 (   382 PWs)   bands (ev):

    -3.1605   1.5772   5.7056   7.4929  21.1335  26.6747  28.2483  29.1638

     occupation numbers 
     1.0000   1.0000   1.0000   1.0000   0.0000   0.0000   0.0000   0.0000

          k = 0.5303-0.1768-0.5303 (   382 PWs)   bands (ev):

    -3.1639   1.6006   5.6788   7.4974  21.1396  26.6588  28.2181  29.1776

     occupation numbers 
     1.0000   1.0000   1.0000   1.0000   0.0000   0.0000   0.0000   0.0000

          k = 0.0884 0.4419 0.4419 (   386 PWs)   bands (ev):

    -2.4271   0.7420   4.6865   8.1707  21.9333  27.1207  29.1357  30.4907

     occupation numbers 
     1.0000   1.0000   1.0000   1.0000   0.0000   0.0000   0.0000   0.0000

          k = 0.4419-0.0884-0.4419 (   386 PWs)   bands (ev):

    -2.4326   0.7632   4.6667   8.1745  21.9357  27.0981  29.1522  30.4432

     occupation numbers 
     1.0000   1.0000   1.0000   1.0000   0.0000   0.0000   0.0000   0.0000

          k = 0.0000 0.3536 0.3536 (   379 PWs)   bands (ev):

    -4.7712   3.7768   4.7870   9.3869  23.1408  25.2604  27.9524  29.8427

     occupation numbers 
     1.0000   1.0000   1.0000   1.0000   0.0000   0.0000   0.0000   0.0000

          k = 0.0884 0.6187 0.6187 (   381 PWs)   bands (ev):

    -2.1437   1.7576   5.0114   6.4140  19.9700  22.0254  31.3826  31.8393

     occupation numbers 
     1.0000   1.0000   1.0000   1.0000   0.0000   0.0000   0.0000   0.0000

          k = 0.6187-0.0884-0.6187 (   381 PWs)   bands (ev):

    -2.1457   1.7683   5.0003   6.4149  19.9748  22.0202  31.3711  31.8444

     occupation numbers 
     1.0000   1.0000   1.0000   1.0000   0.0000   0.0000   0.0000   0.0000

          k = 0.0000 0.5303 0.5303 (   377 PWs)   bands (ev):

    -0.5743   0.6554   2.9859   6.9806  20.6901  25.9789  29.9223  31.6905

     occupation numbers 
     1.0000   1.0000   1.0000   1.0000   0.0000   0.0000   0.0000   0.0000

          k = 0.3536 0.1768 0.0000 (   378 PWs)   bands (ev):

    -6.4533   6.0060   6.9232   9.5864  21.7134  25.4177  27.1246  27.1836

     occupation numbers 
     1.0000   1.0000   1.0000   1.0000   0.0000   0.0000   0.0000   0.0000

          k =-0.2652-0.4419 0.6187 (   383 PWs)   bands (ev):

    -4.3566   2.5504   6.1551   8.3607  23.1120  24.8985  28.0875  28.8801

     occupation numbers 
     1.0000   1.0000   1.0000   1.0000   0.0000   0.0000   0.0000   0.0000

          k = 0.2652 0.4419 0.6187 (   383 PWs)   bands (ev):

    -4.3565   2.5475   6.1667   8.3512  23.0770  24.9457  28.0554  28.9161

     occupation numbers 
     1.0000   1.0000   1.0000   1.0000   0.0000   0.0000   0.0000   0.0000

          k = 0.6187-0.2652-0.4419 (   383 PWs)   bands (ev):

    -4.3580   2.5686   6.1589   8.3340  23.0974  24.9058  28.0949  28.8692

     occupation numbers 
     1.0000   1.0000   1.0000   1.0000   0.0000   0.0000   0.0000   0.0000

          k =-0.1768-0.3536 0.5303 (   384 PWs)   bands (ev):

    -2.3390  -0.0805   6.1244   7.7380  23.3664  24.7888  28.8798  30.5426

     occupation numbers 
     1.0000   1.0000   1.0000   1.0000   0.0000   0.0000   0.0000   0.0000

          k = 0.5303-0.1768-0.3536 (   384 PWs)   bands (ev):

    -2.3503  -0.0549   6.1341   7.7088  23.3248  24.8249  28.8768  30.5237

     occupation numbers 
     1.0000   1.0000   1.0000   1.0000   0.0000   0.0000   0.0000   0.0000

          k =-0.1768-0.5303 0.7071 (   391 PWs)   bands (ev):

    -3.6387   3.4676   5.3655   6.4433  21.4129  23.6093  28.6446  30.9431

     occupation numbers 
     1.0000   1.0000   1.0000   1.0000   0.0000   0.0000   0.0000   0.0000

          k =-0.0884-0.4419 0.6187 (   382 PWs)   bands (ev):

    -1.3504   1.2272   3.9293   6.0270  22.6025  26.0241  28.1899  30.7797

     occupation numbers 
     1.0000   1.0000   1.0000   1.0000   0.0000   0.0000   0.0000   0.0000

          k = 0.0884 0.4419 0.6187 (   382 PWs)   bands (ev):

    -1.3507   1.2218   3.9561   6.0041  22.5811  26.0584  28.1898  30.7770

     occupation numbers 
     1.0000   1.0000   1.0000   1.0000   0.0000   0.0000   0.0000   0.0000

          k = 0.6187-0.0884-0.4419 (   382 PWs)   bands (ev):

    -1.3585   1.2490   3.9350   6.0045  22.5872  26.0348  28.2007  30.7747

     occupation numbers 
     1.0000   1.0000   1.0000   1.0000   0.0000   0.0000   0.0000   0.0000

          k =-0.0000 0.3536 0.5303 (   385 PWs)   bands (ev):

    -2.1784   2.0387   3.4643   6.9027  23.4412  26.0593  28.7828  30.3429

     occupation numbers 
     1.0000   1.0000   1.0000   1.0000   0.0000   0.0000   0.0000   0.0000

     highest occupied, lowest unoccupied level (ev):  12.653459 19.144339

!    total energy              =     -33.53513680 Ry
     estimated scf accuracy    <          5.5E-09 Ry

     convergence has been achieved in   6 iterations

     Using ACE for calculation of exact exchange
     ACE projected onto     8 (nbndproj) and applied to     8 (nbnd) bands

     total energy              =     -33.53543814 Ry
     Harris-Foulkes estimate   =     -33.53543814 Ry
     est. exchange err (dexx)  =       0.00030134 Ry
     - averaged Fock potential =       2.48444769 Ry
     + Fock energy (ACE)       =      -1.24131392 Ry

     EXX: now go back to refine exchange calculation

     total cpu time spent up to now is       11.9 secs

     Self-consistent Calculation

     iteration #  1     ecut=    45.00 Ry     beta= 0.70
     Davidson diagonalization with overlap

---- Real-time Memory Report at c_bands before calling an iterative solver
            72 MiB given to the printing process from OS
             0 MiB allocation reported by mallinfo(arena+hblkhd)
          2059 MiB available memory on the node where the printing process lives
------------------
     ethr =  1.36E-09,  avg # of iterations =  4.0

     total cpu time spent up to now is       12.4 secs

     total energy              =     -33.53545939 Ry
     estimated scf accuracy    <       0.00001053 Ry

     iteration #  2     ecut=    45.00 Ry     beta= 0.70
     Davidson diagonalization with overlap

---- Real-time Memory Report at c_bands before calling an iterative solver
            72 MiB given to the printing process from OS
             0 MiB allocation reported by mallinfo(arena+hblkhd)
          2064 MiB available memory on the node where the printing process lives
------------------
     ethr =  1.32E-07,  avg # of iterations =  1.2

     total cpu time spent up to now is       12.7 secs

     total energy              =     -33.53546046 Ry
     estimated scf accuracy    <       0.00000009 Ry

     iteration #  3     ecut=    45.00 Ry     beta= 0.70
     Davidson diagonalization with overlap

---- Real-time Memory Report at c_bands before calling an iterative solver
            72 MiB given to the printing process from OS
             0 MiB allocation reported by mallinfo(arena+hblkhd)
          2063 MiB available memory on the node where the printing process lives
------------------
     ethr =  1.08E-09,  avg # of iterations =  2.0

     total cpu time spent up to now is       12.9 secs

     End of self-consistent calculation

          k = 0.0000 0.0000 0.0000 (   339 PWs)   bands (ev):

    -9.4163  12.5661  12.5661  12.6326  20.7204  20.7781  20.7781  29.6068

     occupation numbers 
     1.0000   1.0000   1.0000   1.0000   0.0000   0.0000   0.0000   0.0000

          k =-0.0884 0.0884-0.0884 (   368 PWs)   bands (ev):

    -8.9576  10.1758  11.8810  11.9346  21.6123  21.6640  22.2258  29.9712

     occupation numbers 
     1.0000   1.0000   1.0000   1.0000   0.0000   0.0000   0.0000   0.0000

          k =-0.1768 0.1768-0.1768 (   374 PWs)   bands (ev):

    -7.6290   5.8942  10.7442  10.7929  22.9628  23.0258  23.7162  30.7005

     occupation numbers 
     1.0000   1.0000   1.0000   1.0000   0.0000   0.0000   0.0000   0.0000

          k =-0.2652 0.2652-0.2652 (   374 PWs)   bands (ev):

    -5.4951   1.6884   9.9221   9.9695  23.5085  23.5833  24.4217  31.1575

     occupation numbers 
     1.0000   1.0000   1.0000   1.0000   0.0000   0.0000   0.0000   0.0000

          k = 0.3536-0.3536 0.3536 (   392 PWs)   bands (ev):

    -3.4036  -1.1300   9.6339   9.6812  23.5507  23.6287  24.6257  31.2149

     occupation numbers 
     1.0000   1.0000   1.0000   1.0000   0.0000   0.0000   0.0000   0.0000

          k = 0.0000 0.1768 0.0000 (   371 PWs)   bands (ev):

    -8.8096  10.7971  10.8251  11.2745  20.3004  23.1267  23.1495  29.3719

     occupation numbers 
     1.0000   1.0000   1.0000   1.0000   0.0000   0.0000   0.0000   0.0000

          k =-0.0884 0.2652-0.0884 (   372 PWs)   bands (ev):

    -7.7733   7.4257   9.6289  10.4695  20.9813  24.7859  24.8575  28.4384

     occupation numbers 
     1.0000   1.0000   1.0000   1.0000   0.0000   0.0000   0.0000   0.0000

          k =-0.1768 0.3536-0.1768 (   380 PWs)   bands (ev):

    -5.8998   3.2917   8.9397   9.2769  22.1686  25.3691  25.7500  28.9088

     occupation numbers 
     1.0000   1.0000   1.0000   1.0000   0.0000   0.0000   0.0000   0.0000

          k = 0.4419-0.2652 0.4419 (   381 PWs)   bands (ev):

    -3.4713  -0.2703   8.3137   8.9138  22.7643  24.9947  26.0344  30.7419

     occupation numbers 
     1.0000   1.0000   1.0000   1.0000   0.0000   0.0000   0.0000   0.0000

          k = 0.3536-0.1768 0.3536 (   382 PWs)   bands (ev):

    -4.2789   0.7791   7.8914   9.5258  23.4177  24.3117  25.8916  31.1084

     occupation numbers 
     1.0000   1.0000   1.0000   1.0000   0.0000   0.0000   0.0000   0.0000

          k = 0.2652-0.0884 0.2652 (   378 PWs)   bands (ev):

    -6.6109   4.6874   8.1302  10.6139  23.2600  24.0253  25.1521  29.9703

     occupation numbers 
     1.0000   1.0000   1.0000   1.0000   0.0000   0.0000   0.0000   0.0000

          k = 0.1768 0.0000 0.1768 (   367 PWs)   bands (ev):

    -8.2133   8.5935   9.2605  11.7322  21.8717  23.4560  23.5979  29.8244

     occupation numbers 
     1.0000   1.0000   1.0000   1.0000   0.0000   0.0000   0.0000   0.0000

          k = 0.0000 0.3536 0.0000 (   375 PWs)   bands (ev):

    -7.0441   8.0423   8.2904   8.3118  19.5109  25.4348  27.1177  27.1350

     occupation numbers 
     1.0000   1.0000   1.0000   1.0000   0.0000   0.0000   0.0000   0.0000

          k =-0.0884 0.4419-0.0884 (   378 PWs)   bands (ev):

    -5.4581   4.9551   7.1953   7.5456  20.2590  24.3958  28.4059  28.6409

     occupation numbers 
     1.0000   1.0000   1.0000   1.0000   0.0000   0.0000   0.0000   0.0000

          k = 0.5303-0.1768 0.5303 (   382 PWs)   bands (ev):

    -3.1658   1.5801   5.6756   7.5039  21.1517  26.6477  28.2032  29.1891

     occupation numbers 
     1.0000   1.0000   1.0000   1.0000   0.0000   0.0000   0.0000   0.0000

          k = 0.4419-0.0884 0.4419 (   386 PWs)   bands (ev):

    -2.4304   0.7384   4.6642   8.1830  21.9501  27.0735  29.1631  30.4546

     occupation numbers 
     1.0000   1.0000   1.0000   1.0000   0.0000   0.0000   0.0000   0.0000

          k = 0.3536 0.0000 0.3536 (   379 PWs)   bands (ev):

    -4.7766   3.7577   4.7808   9.4001  23.1567  25.2221  27.9906  29.8360

     occupation numbers 
     1.0000   1.0000   1.0000   1.0000   0.0000   0.0000   0.0000   0.0000

          k = 0.0000 0.5303 0.0000 (   383 PWs)   bands (ev):

    -4.1826   3.8871   6.6005   6.6168  19.1448  21.7029  30.8591  30.8811

     occupation numbers 
     1.0000   1.0000   1.0000   1.0000   0.0000   0.0000   0.0000   0.0000

          k = 0.6187-0.0884 0.6187 (   381 PWs)   bands (ev):

    -2.1485   1.7604   4.9841   6.4211  19.9828  22.0076  31.3497  31.8653

     occupation numbers 
     1.0000   1.0000   1.0000   1.0000   0.0000   0.0000   0.0000   0.0000

          k = 0.5303 0.0000 0.5303 (   377 PWs)   bands (ev):

    -0.5665   0.6412   2.9688   6.9885  20.7029  25.9610  29.8886  31.7025

     occupation numbers 
     1.0000   1.0000   1.0000   1.0000   0.0000   0.0000   0.0000   0.0000

          k = 0.0000-0.7071 0.0000 (   388 PWs)   bands (ev):

    -0.4143  -0.4025   6.0193   6.0345  19.7184  19.7308  32.6774  32.7049

     occupation numbers 
     1.0000   1.0000   1.0000   1.0000   0.0000   0.0000   0.0000   0.0000

          k =-0.1768 0.3536 0.0000 (   378 PWs)   bands (ev):

    -6.4614   6.0279   6.9126   9.5444  21.7277  25.3964  27.1174  27.1867

     occupation numbers 
     1.0000   1.0000   1.0000   1.0000   0.0000   0.0000   0.0000   0.0000

          k = 0.4419-0.2652 0.6187 (   383 PWs)   bands (ev):

    -4.3627   2.5500   6.1737   8.3199  23.1023  24.9133  28.0804  28.8781

     occupation numbers 
     1.0000   1.0000   1.0000   1.0000   0.0000   0.0000   0.0000   0.0000

          k = 0.3536-0.1768 0.5303 (   384 PWs)   bands (ev):

    -2.3442  -0.0836   6.1457   7.7011  23.3116  24.8557  28.8648  30.5573

     occupation numbers 
     1.0000   1.0000   1.0000   1.0000   0.0000   0.0000   0.0000   0.0000

          k = 0.5303-0.1768 0.7071 (   391 PWs)   bands (ev):

    -3.6443   3.4835   5.3579   6.4175  21.4214  23.5913  28.6475  30.9357

     occupation numbers 
     1.0000   1.0000   1.0000   1.0000   0.0000   0.0000   0.0000   0.0000

          k = 0.4419-0.0884 0.6187 (   382 PWs)   bands (ev):

    -1.3544   1.2283   3.9356   6.0077  22.5959  26.0236  28.1965  30.7637

     occupation numbers 
     1.0000   1.0000   1.0000   1.0000   0.0000   0.0000   0.0000   0.0000

          k = 0.3536 0.0000 0.5303 (   385 PWs)   bands (ev):

    -2.1782   2.0227   3.4557   6.9153  23.4577  26.0359  28.7749  30.3579

     occupation numbers 
     1.0000   1.0000   1.0000   1.0000   0.0000   0.0000   0.0000   0.0000

          k =-0.1768-0.7071 0.0000 (   380 PWs)   bands (ev):

    -0.0442  -0.0308   5.0111   5.0269  21.8908  21.9074  31.3728  31.3919

     occupation numbers 
     1.0000   1.0000   1.0000   1.0000   0.0000   0.0000   0.0000   0.0000

          k =-0.3536-0.7071 0.0000 (   380 PWs)   bands (ev):

     0.4538   0.4712   3.9688   3.9877  25.6309  25.6718  28.0250  28.0412

     occupation numbers 
     1.0000   1.0000   1.0000   1.0000   0.0000   0.0000   0.0000   0.0000

          k =-0.0884 0.0884 0.0884 (   368 PWs)   bands (ev):

    -8.9578  10.2125  11.8849  11.8849  21.6535  21.6535  22.1996  29.9669

     occupation numbers 
     1.0000   1.0000   1.0000   1.0000   0.0000   0.0000   0.0000   0.0000

          k =-0.1768 0.1768 0.1768 (   374 PWs)   bands (ev):

    -7.6292   5.9153  10.7547  10.7547  22.9940  22.9940  23.7055  30.6843

     occupation numbers 
     1.0000   1.0000   1.0000   1.0000   0.0000   0.0000   0.0000   0.0000

          k =-0.2652 0.2652 0.2652 (   374 PWs)   bands (ev):

    -5.4964   1.7045   9.9366   9.9366  23.5363  23.5363  24.4172  31.1306

     occupation numbers 
     1.0000   1.0000   1.0000   1.0000   0.0000   0.0000   0.0000   0.0000

          k = 0.3536-0.3536-0.3536 (   392 PWs)   bands (ev):

    -3.4146  -1.1059   9.6497   9.6497  23.5778  23.5778  24.6228  31.1858

     occupation numbers 
     1.0000   1.0000   1.0000   1.0000   0.0000   0.0000   0.0000   0.0000

          k =-0.2652-0.0884-0.0884 (   372 PWs)   bands (ev):

    -7.7732   7.4217   9.6026  10.5050  20.9687  24.8178  24.8366  28.4433

     occupation numbers 
     1.0000   1.0000   1.0000   1.0000   0.0000   0.0000   0.0000   0.0000

          k =-0.0884 0.2652 0.0884 (   372 PWs)   bands (ev):

    -7.7734   7.4508   9.6076  10.4610  20.9819  24.7966  24.8415  28.4367

     occupation numbers 
     1.0000   1.0000   1.0000   1.0000   0.0000   0.0000   0.0000   0.0000

          k =-0.3536-0.1768-0.1768 (   380 PWs)   bands (ev):

    -5.8996   3.2895   8.9135   9.3084  22.1437  25.4131  25.7325  28.9212

     occupation numbers 
     1.0000   1.0000   1.0000   1.0000   0.0000   0.0000   0.0000   0.0000

          k =-0.1768 0.3536 0.1768 (   380 PWs)   bands (ev):

    -5.9003   3.3087   8.9224   9.2744  22.1569  25.3746  25.7377  28.9081

     occupation numbers 
     1.0000   1.0000   1.0000   1.0000   0.0000   0.0000   0.0000   0.0000

          k = 0.2652 0.4419 0.4419 (   381 PWs)   bands (ev):

    -3.4710  -0.2712   8.3433   8.8839  22.7356  25.0457  26.0178  30.7534

     occupation numbers 
     1.0000   1.0000   1.0000   1.0000   0.0000   0.0000   0.0000   0.0000

          k = 0.4419-0.2652-0.4419 (   381 PWs)   bands (ev):

    -3.4777  -0.2502   8.3155   8.8948  22.7461  25.0017  26.0247  30.7240

     occupation numbers 
     1.0000   1.0000   1.0000   1.0000   0.0000   0.0000   0.0000   0.0000

          k = 0.1768 0.3536 0.3536 (   382 PWs)   bands (ev):

    -4.2792   0.7800   7.9176   9.4933  23.3931  24.3639  25.8698  31.1104

     occupation numbers 
     1.0000   1.0000   1.0000   1.0000   0.0000   0.0000   0.0000   0.0000

          k = 0.3536-0.1768-0.3536 (   382 PWs)   bands (ev):

    -4.2818   0.7967   7.8927   9.5041  23.4003  24.3238  25.8783  31.0821

     occupation numbers 
     1.0000   1.0000   1.0000   1.0000   0.0000   0.0000   0.0000   0.0000

          k = 0.0884 0.2652 0.2652 (   378 PWs)   bands (ev):

    -6.6111   4.6904   8.1532  10.5779  23.3101  24.0086  25.1189  29.9741

     occupation numbers 
     1.0000   1.0000   1.0000   1.0000   0.0000   0.0000   0.0000   0.0000

          k = 0.2652-0.0884-0.2652 (   378 PWs)   bands (ev):

    -6.6113   4.7081   8.1287  10.5852  23.2864  24.0121  25.1258  29.9630

     occupation numbers 
     1.0000   1.0000   1.0000   1.0000   0.0000   0.0000   0.0000   0.0000

          k = 0.0000 0.1768 0.1768 (   367 PWs)   bands (ev):

    -8.2135   8.6221   9.2587  11.6929  21.9103  23.4191  23.6000  29.8203

     occupation numbers 
     1.0000   1.0000   1.0000   1.0000   0.0000   0.0000   0.0000   0.0000

          k =-0.4419-0.0884-0.0884 (   378 PWs)   bands (ev):

    -5.4579   4.9445   7.2280   7.5254  20.2480  24.4067  28.4377  28.6186

     occupation numbers 
     1.0000   1.0000   1.0000   1.0000   0.0000   0.0000   0.0000   0.0000

          k =-0.0884 0.4419 0.0884 (   378 PWs)   bands (ev):

    -5.4584   4.9740   7.1911   7.5284  20.2564  24.3973  28.4157  28.6288

     occupation numbers 
     1.0000   1.0000   1.0000   1.0000   0.0000   0.0000   0.0000   0.0000

          k = 0.1768 0.5303 0.5303 (   382 PWs)   bands (ev):

    -3.1654   1.5749   5.7005   7.4829  21.1335  26.6693  28.2451  29.1679

     occupation numbers 
     1.0000   1.0000   1.0000   1.0000   0.0000   0.0000   0.0000   0.0000

          k = 0.5303-0.1768-0.5303 (   382 PWs)   bands (ev):

    -3.1688   1.5982   5.6736   7.4873  21.1396  26.6534  28.2148  29.1817

     occupation numbers 
     1.0000   1.0000   1.0000   1.0000   0.0000   0.0000   0.0000   0.0000

          k = 0.0884 0.4419 0.4419 (   386 PWs)   bands (ev):

    -2.4319   0.7400   4.6824   8.1597  21.9329  27.1175  29.1378  30.4818

     occupation numbers 
     1.0000   1.0000   1.0000   1.0000   0.0000   0.0000   0.0000   0.0000

          k = 0.4419-0.0884-0.4419 (   386 PWs)   bands (ev):

    -2.4374   0.7612   4.6626   8.1635  21.9354  27.0949  29.1540  30.4352

     occupation numbers 
     1.0000   1.0000   1.0000   1.0000   0.0000   0.0000   0.0000   0.0000

          k = 0.0000 0.3536 0.3536 (   379 PWs)   bands (ev):

    -4.7774   3.7769   4.7802   9.3738  23.1417  25.2578  27.9535  29.8458

     occupation numbers 
     1.0000   1.0000   1.0000   1.0000   0.0000   0.0000   0.0000   0.0000

          k = 0.0884 0.6187 0.6187 (   381 PWs)   bands (ev):

    -2.1479   1.7551   5.0050   6.4047  19.9694  22.0215  31.3826  31.8436

     occupation numbers 
     1.0000   1.0000   1.0000   1.0000   0.0000   0.0000   0.0000   0.0000

          k = 0.6187-0.0884-0.6187 (   381 PWs)   bands (ev):

    -2.1499   1.7658   4.9940   6.4056  19.9743  22.0162  31.3711  31.8487

     occupation numbers 
     1.0000   1.0000   1.0000   1.0000   0.0000   0.0000   0.0000   0.0000

          k = 0.0000 0.5303 0.5303 (   377 PWs)   bands (ev):

    -0.5776   0.6547   2.9809   6.9710  20.6893  25.9741  29.9208  31.6973

     occupation numbers 
     1.0000   1.0000   1.0000   1.0000   0.0000   0.0000   0.0000   0.0000

          k = 0.3536 0.1768 0.0000 (   378 PWs)   bands (ev):

    -6.4611   6.0041   6.9141   9.5745  21.7136  25.4167  27.1245  27.1794

     occupation numbers 
     1.0000   1.0000   1.0000   1.0000   0.0000   0.0000   0.0000   0.0000

          k =-0.2652-0.4419 0.6187 (   383 PWs)   bands (ev):

    -4.3622   2.5481   6.1495   8.3514  23.1101  24.8970  28.0870  28.8789

     occupation numbers 
     1.0000   1.0000   1.0000   1.0000   0.0000   0.0000   0.0000   0.0000

          k = 0.2652 0.4419 0.6187 (   383 PWs)   bands (ev):

    -4.3621   2.5453   6.1610   8.3419  23.0751  24.9443  28.0549  28.9145

     occupation numbers 
     1.0000   1.0000   1.0000   1.0000   0.0000   0.0000   0.0000   0.0000

          k = 0.6187-0.2652-0.4419 (   383 PWs)   bands (ev):

    -4.3637   2.5663   6.1532   8.3247  23.0954  24.9044  28.0944  28.8679

     occupation numbers 
     1.0000   1.0000   1.0000   1.0000   0.0000   0.0000   0.0000   0.0000

          k =-0.1768-0.3536 0.5303 (   384 PWs)   bands (ev):

    -2.3439  -0.0829   6.1194   7.7295  23.3625  24.7888  28.8830  30.5412

     occupation numbers 
     1.0000   1.0000   1.0000   1.0000   0.0000   0.0000   0.0000   0.0000

          k = 0.5303-0.1768-0.3536 (   384 PWs)   bands (ev):

    -2.3552  -0.0573   6.1292   7.7002  23.3209  24.8249  28.8799  30.5225

     occupation numbers 
     1.0000   1.0000   1.0000   1.0000   0.0000   0.0000   0.0000   0.0000

          k =-0.1768-0.5303 0.7071 (   391 PWs)   bands (ev):

    -3.6434   3.4668   5.3582   6.4361  21.4120  23.6033  28.6449  30.9462

     occupation numbers 
     1.0000   1.0000   1.0000   1.0000   0.0000   0.0000   0.0000   0.0000

          k =-0.0884-0.4419 0.6187 (   382 PWs)   bands (ev):

    -1.3528   1.2265   3.9247   6.0204  22.5994  26.0192  28.1899  30.7825

     occupation numbers 
     1.0000   1.0000   1.0000   1.0000   0.0000   0.0000   0.0000   0.0000

          k = 0.0884 0.4419 0.6187 (   382 PWs)   bands (ev):

    -1.3531   1.2211   3.9516   5.9974  22.5780  26.0535  28.1898  30.7799

     occupation numbers 
     1.0000   1.0000   1.0000   1.0000   0.0000   0.0000   0.0000   0.0000

          k = 0.6187-0.0884-0.4419 (   382 PWs)   bands (ev):

    -1.3609   1.2483   3.9304   5.9978  22.5842  26.0299  28.2007  30.7776

     occupation numbers 
     1.0000   1.0000   1.0000   1.0000   0.0000   0.0000   0.0000   0.0000

          k =-0.0000 0.3536 0.5303 (   385 PWs)   bands (ev):

    -2.1817   2.0391   3.4588   6.8953  23.4379  26.0569  28.7821  30.3438

     occupation numbers 
     1.0000   1.0000   1.0000   1.0000   0.0000   0.0000   0.0000   0.0000

     highest occupied, lowest unoccupied level (ev):  12.632589 19.144840

!    total energy              =     -33.53546051 Ry
     estimated scf accuracy    <          1.6E-09 Ry

     convergence has been achieved in   3 iterations

     Using ACE for calculation of exact exchange
     ACE projected onto     8 (nbndproj) and applied to     8 (nbnd) bands

     total energy              =     -33.53546242 Ry
     Harris-Foulkes estimate   =     -33.53546242 Ry
     est. exchange err (dexx)  =       0.00000191 Ry
     - averaged Fock potential =       2.48237074 Ry
     + Fock energy (ACE)       =      -1.24105874 Ry

     EXX: now go back to refine exchange calculation

     total cpu time spent up to now is       18.0 secs

     Self-consistent Calculation

     iteration #  1     ecut=    45.00 Ry     beta= 0.70
     Davidson diagonalization with overlap

---- Real-time Memory Report at c_bands before calling an iterative solver
            72 MiB given to the printing process from OS
             0 MiB allocation reported by mallinfo(arena+hblkhd)
          2050 MiB available memory on the node where the printing process lives
------------------
     ethr =  1.08E-09,  avg # of iterations =  2.5

     total cpu time spent up to now is       18.3 secs

     total energy              =     -33.53546260 Ry
     estimated scf accuracy    <       0.00000008 Ry

     iteration #  2     ecut=    45.00 Ry     beta= 0.70
     Davidson diagonalization with overlap

---- Real-time Memory Report at c_bands before calling an iterative solver
            72 MiB given to the printing process from OS
             0 MiB allocation reported by mallinfo(arena+hblkhd)
          2041 MiB available memory on the node where the printing process lives
------------------
     ethr =  1.01E-09,  avg # of iterations =  1.0

     total cpu time spent up to now is       18.5 secs

     End of self-consistent calculation

          k = 0.0000 0.0000 0.0000 (   339 PWs)   bands (ev):

    -9.4176  12.5643  12.5643  12.6308  20.7207  20.7785  20.7785  29.6074

     occupation numbers 
     1.0000   1.0000   1.0000   1.0000   0.0000   0.0000   0.0000   0.0000

          k =-0.0884 0.0884-0.0884 (   368 PWs)   bands (ev):

    -8.9586  10.1755  11.8790  11.9327  21.6123  21.6640  22.2263  29.9717

     occupation numbers 
     1.0000   1.0000   1.0000   1.0000   0.0000   0.0000   0.0000   0.0000

          k =-0.1768 0.1768-0.1768 (   374 PWs)   bands (ev):

    -7.6297   5.8942  10.7427  10.7914  22.9626  23.0256  23.7168  30.7008

     occupation numbers 
     1.0000   1.0000   1.0000   1.0000   0.0000   0.0000   0.0000   0.0000

          k =-0.2652 0.2652-0.2652 (   374 PWs)   bands (ev):

    -5.4957   1.6883   9.9210   9.9683  23.5083  23.5831  24.4222  31.1576

     occupation numbers 
     1.0000   1.0000   1.0000   1.0000   0.0000   0.0000   0.0000   0.0000

          k = 0.3536-0.3536 0.3536 (   392 PWs)   bands (ev):

    -3.4045  -1.1298   9.6329   9.6801  23.5506  23.6286  24.6262  31.2149

     occupation numbers 
     1.0000   1.0000   1.0000   1.0000   0.0000   0.0000   0.0000   0.0000

          k = 0.0000 0.1768 0.0000 (   371 PWs)   bands (ev):

    -8.8105  10.7957  10.8237  11.2735  20.3007  23.1265  23.1493  29.3721

     occupation numbers 
     1.0000   1.0000   1.0000   1.0000   0.0000   0.0000   0.0000   0.0000

          k =-0.0884 0.2652-0.0884 (   372 PWs)   bands (ev):

    -7.7740   7.4256   9.6277  10.4684  20.9814  24.7856  24.8578  28.4382

     occupation numbers 
     1.0000   1.0000   1.0000   1.0000   0.0000   0.0000   0.0000   0.0000

          k =-0.1768 0.3536-0.1768 (   380 PWs)   bands (ev):

    -5.9002   3.2918   8.9388   9.2761  22.1686  25.3688  25.7503  28.9084

     occupation numbers 
     1.0000   1.0000   1.0000   1.0000   0.0000   0.0000   0.0000   0.0000

          k = 0.4419-0.2652 0.4419 (   381 PWs)   bands (ev):

    -3.4718  -0.2701   8.3131   8.9129  22.7641  24.9944  26.0347  30.7417

     occupation numbers 
     1.0000   1.0000   1.0000   1.0000   0.0000   0.0000   0.0000   0.0000

          k = 0.3536-0.1768 0.3536 (   382 PWs)   bands (ev):

    -4.2793   0.7792   7.8909   9.5248  23.4176  24.3114  25.8919  31.1084

     occupation numbers 
     1.0000   1.0000   1.0000   1.0000   0.0000   0.0000   0.0000   0.0000

          k = 0.2652-0.0884 0.2652 (   378 PWs)   bands (ev):

    -6.6114   4.6874   8.1296  10.6126  23.2598  24.0254  25.1524  29.9702

     occupation numbers 
     1.0000   1.0000   1.0000   1.0000   0.0000   0.0000   0.0000   0.0000

          k = 0.1768 0.0000 0.1768 (   367 PWs)   bands (ev):

    -8.2141   8.5934   9.2597  11.7305  21.8716  23.4561  23.5983  29.8245

     occupation numbers 
     1.0000   1.0000   1.0000   1.0000   0.0000   0.0000   0.0000   0.0000

          k = 0.0000 0.3536 0.0000 (   375 PWs)   bands (ev):

    -7.0447   8.0419   8.2895   8.3109  19.5110  25.4347  27.1174  27.1348

     occupation numbers 
     1.0000   1.0000   1.0000   1.0000   0.0000   0.0000   0.0000   0.0000

          k =-0.0884 0.4419-0.0884 (   378 PWs)   bands (ev):

    -5.4584   4.9552   7.1947   7.5448  20.2591  24.3953  28.4057  28.6410

     occupation numbers 
     1.0000   1.0000   1.0000   1.0000   0.0000   0.0000   0.0000   0.0000

          k = 0.5303-0.1768 0.5303 (   382 PWs)   bands (ev):

    -3.1660   1.5803   5.6755   7.5032  21.1516  26.6473  28.2029  29.1894

     occupation numbers 
     1.0000   1.0000   1.0000   1.0000   0.0000   0.0000   0.0000   0.0000

          k = 0.4419-0.0884 0.4419 (   386 PWs)   bands (ev):

    -2.4306   0.7388   4.6642   8.1822  21.9499  27.0732  29.1633  30.4538

     occupation numbers 
     1.0000   1.0000   1.0000   1.0000   0.0000   0.0000   0.0000   0.0000

          k = 0.3536 0.0000 0.3536 (   379 PWs)   bands (ev):

    -4.7768   3.7582   4.7804   9.3991  23.1566  25.2219  27.9908  29.8362

     occupation numbers 
     1.0000   1.0000   1.0000   1.0000   0.0000   0.0000   0.0000   0.0000

          k = 0.0000 0.5303 0.0000 (   383 PWs)   bands (ev):

    -4.1829   3.8869   6.5999   6.6161  19.1448  21.7026  30.8590  30.8810

     occupation numbers 
     1.0000   1.0000   1.0000   1.0000   0.0000   0.0000   0.0000   0.0000

          k = 0.6187-0.0884 0.6187 (   381 PWs)   bands (ev):

    -2.1485   1.7605   4.9839   6.4206  19.9826  22.0072  31.3496  31.8656

     occupation numbers 
     1.0000   1.0000   1.0000   1.0000   0.0000   0.0000   0.0000   0.0000

          k = 0.5303 0.0000 0.5303 (   377 PWs)   bands (ev):

    -0.5666   0.6417   2.9688   6.9880  20.7027  25.9607  29.8884  31.7029

     occupation numbers 
     1.0000   1.0000   1.0000   1.0000   0.0000   0.0000   0.0000   0.0000

          k = 0.0000-0.7071 0.0000 (   388 PWs)   bands (ev):

    -0.4144  -0.4026   6.0188   6.0340  19.7182  19.7306  32.6774  32.7049

     occupation numbers 
     1.0000   1.0000   1.0000   1.0000   0.0000   0.0000   0.0000   0.0000

          k =-0.1768 0.3536 0.0000 (   378 PWs)   bands (ev):

    -6.4618   6.0281   6.9120   9.5435  21.7277  25.3963  27.1174  27.1863

     occupation numbers 
     1.0000   1.0000   1.0000   1.0000   0.0000   0.0000   0.0000   0.0000

          k = 0.4419-0.2652 0.6187 (   383 PWs)   bands (ev):

    -4.3630   2.5502   6.1735   8.3193  23.1021  24.9131  28.0804  28.8781

     occupation numbers 
     1.0000   1.0000   1.0000   1.0000   0.0000   0.0000   0.0000   0.0000

          k = 0.3536-0.1768 0.5303 (   384 PWs)   bands (ev):

    -2.3444  -0.0833   6.1455   7.7007  23.3112  24.8556  28.8651  30.5571

     occupation numbers 
     1.0000   1.0000   1.0000   1.0000   0.0000   0.0000   0.0000   0.0000

          k = 0.5303-0.1768 0.7071 (   391 PWs)   bands (ev):

    -3.6444   3.4838   5.3575   6.4172  21.4212  23.5907  28.6474  30.9359

     occupation numbers 
     1.0000   1.0000   1.0000   1.0000   0.0000   0.0000   0.0000   0.0000

          k = 0.4419-0.0884 0.6187 (   382 PWs)   bands (ev):

    -1.3542   1.2287   3.9355   6.0074  22.5955  26.0233  28.1963  30.7639

     occupation numbers 
     1.0000   1.0000   1.0000   1.0000   0.0000   0.0000   0.0000   0.0000

          k = 0.3536 0.0000 0.5303 (   385 PWs)   bands (ev):

    -2.1782   2.0233   3.4556   6.9149  23.4573  26.0357  28.7748  30.3579

     occupation numbers 
     1.0000   1.0000   1.0000   1.0000   0.0000   0.0000   0.0000   0.0000

          k =-0.1768-0.7071 0.0000 (   380 PWs)   bands (ev):

    -0.0440  -0.0306   5.0109   5.0267  21.8905  21.9070  31.3729  31.3920

     occupation numbers 
     1.0000   1.0000   1.0000   1.0000   0.0000   0.0000   0.0000   0.0000

          k =-0.3536-0.7071 0.0000 (   380 PWs)   bands (ev):

     0.4543   0.4717   3.9687   3.9876  25.6306  25.6714  28.0249  28.0411

     occupation numbers 
     1.0000   1.0000   1.0000   1.0000   0.0000   0.0000   0.0000   0.0000

          k =-0.0884 0.0884 0.0884 (   368 PWs)   bands (ev):

    -8.9588  10.2122  11.8829  11.8829  21.6534  21.6534  22.2002  29.9674

     occupation numbers 
     1.0000   1.0000   1.0000   1.0000   0.0000   0.0000   0.0000   0.0000

          k =-0.1768 0.1768 0.1768 (   374 PWs)   bands (ev):

    -7.6299   5.9153  10.7532  10.7532  22.9938  22.9938  23.7061  30.6846

     occupation numbers 
     1.0000   1.0000   1.0000   1.0000   0.0000   0.0000   0.0000   0.0000

          k =-0.2652 0.2652 0.2652 (   374 PWs)   bands (ev):

    -5.4970   1.7044   9.9354   9.9354  23.5362  23.5362  24.4177  31.1307

     occupation numbers 
     1.0000   1.0000   1.0000   1.0000   0.0000   0.0000   0.0000   0.0000

          k = 0.3536-0.3536-0.3536 (   392 PWs)   bands (ev):

    -3.4154  -1.1057   9.6486   9.6486  23.5777  23.5777  24.6233  31.1858

     occupation numbers 
     1.0000   1.0000   1.0000   1.0000   0.0000   0.0000   0.0000   0.0000

          k =-0.2652-0.0884-0.0884 (   372 PWs)   bands (ev):

    -7.7739   7.4216   9.6014  10.5038  20.9688  24.8175  24.8368  28.4430

     occupation numbers 
     1.0000   1.0000   1.0000   1.0000   0.0000   0.0000   0.0000   0.0000

          k =-0.0884 0.2652 0.0884 (   372 PWs)   bands (ev):

    -7.7741   7.4507   9.6064  10.4599  20.9821  24.7963  24.8417  28.4364

     occupation numbers 
     1.0000   1.0000   1.0000   1.0000   0.0000   0.0000   0.0000   0.0000

          k =-0.3536-0.1768-0.1768 (   380 PWs)   bands (ev):

    -5.9001   3.2896   8.9126   9.3076  22.1437  25.4128  25.7328  28.9209

     occupation numbers 
     1.0000   1.0000   1.0000   1.0000   0.0000   0.0000   0.0000   0.0000

          k =-0.1768 0.3536 0.1768 (   380 PWs)   bands (ev):

    -5.9008   3.3088   8.9214   9.2735  22.1568  25.3743  25.7380  28.9078

     occupation numbers 
     1.0000   1.0000   1.0000   1.0000   0.0000   0.0000   0.0000   0.0000

          k = 0.2652 0.4419 0.4419 (   381 PWs)   bands (ev):

    -3.4715  -0.2710   8.3427   8.8830  22.7354  25.0454  26.0181  30.7532

     occupation numbers 
     1.0000   1.0000   1.0000   1.0000   0.0000   0.0000   0.0000   0.0000

          k = 0.4419-0.2652-0.4419 (   381 PWs)   bands (ev):

    -3.4782  -0.2500   8.3149   8.8940  22.7460  25.0014  26.0251  30.7238

     occupation numbers 
     1.0000   1.0000   1.0000   1.0000   0.0000   0.0000   0.0000   0.0000

          k = 0.1768 0.3536 0.3536 (   382 PWs)   bands (ev):

    -4.2797   0.7801   7.9171   9.4923  23.3930  24.3636  25.8701  31.1104

     occupation numbers 
     1.0000   1.0000   1.0000   1.0000   0.0000   0.0000   0.0000   0.0000

          k = 0.3536-0.1768-0.3536 (   382 PWs)   bands (ev):

    -4.2822   0.7968   7.8923   9.5031  23.4002  24.3235  25.8786  31.0820

     occupation numbers 
     1.0000   1.0000   1.0000   1.0000   0.0000   0.0000   0.0000   0.0000

          k = 0.0884 0.2652 0.2652 (   378 PWs)   bands (ev):

    -6.6116   4.6905   8.1526  10.5766  23.3099  24.0087  25.1192  29.9741

     occupation numbers 
     1.0000   1.0000   1.0000   1.0000   0.0000   0.0000   0.0000   0.0000

          k = 0.2652-0.0884-0.2652 (   378 PWs)   bands (ev):

    -6.6118   4.7082   8.1282  10.5839  23.2863  24.0122  25.1261  29.9629

     occupation numbers 
     1.0000   1.0000   1.0000   1.0000   0.0000   0.0000   0.0000   0.0000

          k = 0.0000 0.1768 0.1768 (   367 PWs)   bands (ev):

    -8.2142   8.6220   9.2579  11.6912  21.9102  23.4192  23.6003  29.8204

     occupation numbers 
     1.0000   1.0000   1.0000   1.0000   0.0000   0.0000   0.0000   0.0000

          k =-0.4419-0.0884-0.0884 (   378 PWs)   bands (ev):

    -5.4582   4.9446   7.2274   7.5246  20.2481  24.4062  28.4374  28.6187

     occupation numbers 
     1.0000   1.0000   1.0000   1.0000   0.0000   0.0000   0.0000   0.0000

          k =-0.0884 0.4419 0.0884 (   378 PWs)   bands (ev):

    -5.4587   4.9741   7.1905   7.5276  20.2565  24.3968  28.4154  28.6290

     occupation numbers 
     1.0000   1.0000   1.0000   1.0000   0.0000   0.0000   0.0000   0.0000

          k = 0.1768 0.5303 0.5303 (   382 PWs)   bands (ev):

    -3.1655   1.5751   5.7003   7.4822  21.1333  26.6689  28.2447  29.1683

     occupation numbers 
     1.0000   1.0000   1.0000   1.0000   0.0000   0.0000   0.0000   0.0000

          k = 0.5303-0.1768-0.5303 (   382 PWs)   bands (ev):

    -3.1689   1.5985   5.6735   7.4866  21.1395  26.6530  28.2145  29.1820

     occupation numbers 
     1.0000   1.0000   1.0000   1.0000   0.0000   0.0000   0.0000   0.0000

          k = 0.0884 0.4419 0.4419 (   386 PWs)   bands (ev):

    -2.4321   0.7403   4.6824   8.1590  21.9327  27.1172  29.1380  30.4809

     occupation numbers 
     1.0000   1.0000   1.0000   1.0000   0.0000   0.0000   0.0000   0.0000

          k = 0.4419-0.0884-0.4419 (   386 PWs)   bands (ev):

    -2.4376   0.7616   4.6626   8.1628  21.9351  27.0946  29.1542  30.4345

     occupation numbers 
     1.0000   1.0000   1.0000   1.0000   0.0000   0.0000   0.0000   0.0000

          k = 0.0000 0.3536 0.3536 (   379 PWs)   bands (ev):

    -4.7777   3.7774   4.7798   9.3728  23.1417  25.2575  27.9537  29.8459

     occupation numbers 
     1.0000   1.0000   1.0000   1.0000   0.0000   0.0000   0.0000   0.0000

          k = 0.0884 0.6187 0.6187 (   381 PWs)   bands (ev):

    -2.1480   1.7553   5.0048   6.4041  19.9693  22.0211  31.3825  31.8439

     occupation numbers 
     1.0000   1.0000   1.0000   1.0000   0.0000   0.0000   0.0000   0.0000

          k = 0.6187-0.0884-0.6187 (   381 PWs)   bands (ev):

    -2.1500   1.7660   4.9938   6.4051  19.9741  22.0158  31.3710  31.8490

     occupation numbers 
     1.0000   1.0000   1.0000   1.0000   0.0000   0.0000   0.0000   0.0000

          k = 0.0000 0.5303 0.5303 (   377 PWs)   bands (ev):

    -0.5777   0.6552   2.9808   6.9705  20.6890  25.9738  29.9206  31.6978

     occupation numbers 
     1.0000   1.0000   1.0000   1.0000   0.0000   0.0000   0.0000   0.0000

          k = 0.3536 0.1768 0.0000 (   378 PWs)   bands (ev):

    -6.4615   6.0043   6.9135   9.5736  21.7136  25.4166  27.1245  27.1790

     occupation numbers 
     1.0000   1.0000   1.0000   1.0000   0.0000   0.0000   0.0000   0.0000

          k =-0.2652-0.4419 0.6187 (   383 PWs)   bands (ev):

    -4.3624   2.5483   6.1492   8.3508  23.1099  24.8968  28.0869  28.8788

     occupation numbers 
     1.0000   1.0000   1.0000   1.0000   0.0000   0.0000   0.0000   0.0000

          k = 0.2652 0.4419 0.6187 (   383 PWs)   bands (ev):

    -4.3624   2.5455   6.1607   8.3413  23.0748  24.9441  28.0549  28.9145

     occupation numbers 
     1.0000   1.0000   1.0000   1.0000   0.0000   0.0000   0.0000   0.0000

          k = 0.6187-0.2652-0.4419 (   383 PWs)   bands (ev):

    -4.3639   2.5665   6.1530   8.3241  23.0952  24.9042  28.0943  28.8679

     occupation numbers 
     1.0000   1.0000   1.0000   1.0000   0.0000   0.0000   0.0000   0.0000

          k =-0.1768-0.3536 0.5303 (   384 PWs)   bands (ev):

    -2.3442  -0.0826   6.1193   7.7290  23.3621  24.7887  28.8832  30.5410

     occupation numbers 
     1.0000   1.0000   1.0000   1.0000   0.0000   0.0000   0.0000   0.0000

          k = 0.5303-0.1768-0.3536 (   384 PWs)   bands (ev):

    -2.3555  -0.0570   6.1290   7.6998  23.3205  24.8249  28.8802  30.5223

     occupation numbers 
     1.0000   1.0000   1.0000   1.0000   0.0000   0.0000   0.0000   0.0000

          k =-0.1768-0.5303 0.7071 (   391 PWs)   bands (ev):

    -3.6434   3.4671   5.3578   6.4358  21.4119  23.6027  28.6448  30.9465

     occupation numbers 
     1.0000   1.0000   1.0000   1.0000   0.0000   0.0000   0.0000   0.0000

          k =-0.0884-0.4419 0.6187 (   382 PWs)   bands (ev):

    -1.3527   1.2269   3.9247   6.0201  22.5991  26.0189  28.1898  30.7827

     occupation numbers 
     1.0000   1.0000   1.0000   1.0000   0.0000   0.0000   0.0000   0.0000

          k = 0.0884 0.4419 0.6187 (   382 PWs)   bands (ev):

    -1.3529   1.2215   3.9515   5.9972  22.5776  26.0532  28.1897  30.7801

     occupation numbers 
     1.0000   1.0000   1.0000   1.0000   0.0000   0.0000   0.0000   0.0000

          k = 0.6187-0.0884-0.4419 (   382 PWs)   bands (ev):

    -1.3607   1.2487   3.9304   5.9975  22.5838  26.0296  28.2006  30.7778

     occupation numbers 
     1.0000   1.0000   1.0000   1.0000   0.0000   0.0000   0.0000   0.0000

          k =-0.0000 0.3536 0.5303 (   385 PWs)   bands (ev):

    -2.1816   2.0397   3.4586   6.8950  23.4375  26.0567  28.7820  30.3438

     occupation numbers 
     1.0000   1.0000   1.0000   1.0000   0.0000   0.0000   0.0000   0.0000

     highest occupied, lowest unoccupied level (ev):  12.630758 19.144778

!    total energy              =     -33.53546261 Ry
     estimated scf accuracy    <          8.1E-10 Ry

     convergence has been achieved in   2 iterations

     Using ACE for calculation of exact exchange
     ACE projected onto     8 (nbndproj) and applied to     8 (nbnd) bands

     total energy              =     -33.53546263 Ry
     Harris-Foulkes estimate   =     -33.53546263 Ry
     est. exchange err (dexx)  =       0.00000002 Ry
     - averaged Fock potential =       2.48208485 Ry
     + Fock energy (ACE)       =      -1.24102613 Ry

     EXX: now go back to refine exchange calculation

     total cpu time spent up to now is       23.9 secs

     Self-consistent Calculation

     iteration #  1     ecut=    45.00 Ry     beta= 0.70
     Davidson diagonalization with overlap

---- Real-time Memory Report at c_bands before calling an iterative solver
            72 MiB given to the printing process from OS
             0 MiB allocation reported by mallinfo(arena+hblkhd)
          2029 MiB available memory on the node where the printing process lives
------------------
     ethr =  1.01E-09,  avg # of iterations =  1.0

     Threshold (ethr) on eigenvalues was too large:
     Diagonalizing with lowered threshold

     Davidson diagonalization with overlap

---- Real-time Memory Report at c_bands before calling an iterative solver
            72 MiB given to the printing process from OS
             0 MiB allocation reported by mallinfo(arena+hblkhd)
          2029 MiB available memory on the node where the printing process lives
------------------
     ethr =  5.33E-12,  avg # of iterations =  1.8

     total cpu time spent up to now is       24.3 secs

     End of self-consistent calculation

          k = 0.0000 0.0000 0.0000 (   339 PWs)   bands (ev):

    -9.4178  12.5641  12.5641  12.6305  20.7207  20.7785  20.7785  29.6074

     occupation numbers 
     1.0000   1.0000   1.0000   1.0000   0.0000   0.0000   0.0000   0.0000

          k =-0.0884 0.0884-0.0884 (   368 PWs)   bands (ev):

    -8.9588  10.1755  11.8787  11.9324  21.6122  21.6639  22.2263  29.9716

     occupation numbers 
     1.0000   1.0000   1.0000   1.0000   0.0000   0.0000   0.0000   0.0000

          k =-0.1768 0.1768-0.1768 (   374 PWs)   bands (ev):

    -7.6298   5.8942  10.7425  10.7912  22.9625  23.0256  23.7168  30.7008

     occupation numbers 
     1.0000   1.0000   1.0000   1.0000   0.0000   0.0000   0.0000   0.0000

          k =-0.2652 0.2652-0.2652 (   374 PWs)   bands (ev):

    -5.4958   1.6883   9.9208   9.9682  23.5083  23.5831  24.4222  31.1575

     occupation numbers 
     1.0000   1.0000   1.0000   1.0000   0.0000   0.0000   0.0000   0.0000

          k = 0.3536-0.3536 0.3536 (   392 PWs)   bands (ev):

    -3.4046  -1.1297   9.6327   9.6799  23.5505  23.6285  24.6261  31.2149

     occupation numbers 
     1.0000   1.0000   1.0000   1.0000   0.0000   0.0000   0.0000   0.0000

          k = 0.0000 0.1768 0.0000 (   371 PWs)   bands (ev):

    -8.8106  10.7955  10.8235  11.2733  20.3007  23.1264  23.1492  29.3721

     occupation numbers 
     1.0000   1.0000   1.0000   1.0000   0.0000   0.0000   0.0000   0.0000

          k =-0.0884 0.2652-0.0884 (   372 PWs)   bands (ev):

    -7.7741   7.4256   9.6275  10.4682  20.9814  24.7855  24.8577  28.4381

     occupation numbers 
     1.0000   1.0000   1.0000   1.0000   0.0000   0.0000   0.0000   0.0000

          k =-0.1768 0.3536-0.1768 (   380 PWs)   bands (ev):

    -5.9003   3.2918   8.9386   9.2759  22.1685  25.3686  25.7502  28.9083

     occupation numbers 
     1.0000   1.0000   1.0000   1.0000   0.0000   0.0000   0.0000   0.0000

          k = 0.4419-0.2652 0.4419 (   381 PWs)   bands (ev):

    -3.4719  -0.2701   8.3130   8.9128  22.7641  24.9943  26.0347  30.7416

     occupation numbers 
     1.0000   1.0000   1.0000   1.0000   0.0000   0.0000   0.0000   0.0000

          k = 0.3536-0.1768 0.3536 (   382 PWs)   bands (ev):

    -4.2794   0.7792   7.8908   9.5247  23.4176  24.3113  25.8918  31.1083

     occupation numbers 
     1.0000   1.0000   1.0000   1.0000   0.0000   0.0000   0.0000   0.0000

          k = 0.2652-0.0884 0.2652 (   378 PWs)   bands (ev):

    -6.6115   4.6874   8.1295  10.6124  23.2597  24.0254  25.1524  29.9701

     occupation numbers 
     1.0000   1.0000   1.0000   1.0000   0.0000   0.0000   0.0000   0.0000

          k = 0.1768 0.0000 0.1768 (   367 PWs)   bands (ev):

    -8.2142   8.5933   9.2596  11.7303  21.8716  23.4561  23.5982  29.8244

     occupation numbers 
     1.0000   1.0000   1.0000   1.0000   0.0000   0.0000   0.0000   0.0000

          k = 0.0000 0.3536 0.0000 (   375 PWs)   bands (ev):

    -7.0447   8.0417   8.2893   8.3107  19.5109  25.4346  27.1173  27.1346

     occupation numbers 
     1.0000   1.0000   1.0000   1.0000   0.0000   0.0000   0.0000   0.0000

          k =-0.0884 0.4419-0.0884 (   378 PWs)   bands (ev):

    -5.4585   4.9552   7.1946   7.5447  20.2591  24.3952  28.4055  28.6409

     occupation numbers 
     1.0000   1.0000   1.0000   1.0000   0.0000   0.0000   0.0000   0.0000

          k = 0.5303-0.1768 0.5303 (   382 PWs)   bands (ev):

    -3.1660   1.5803   5.6754   7.5031  21.1515  26.6472  28.2028  29.1894

     occupation numbers 
     1.0000   1.0000   1.0000   1.0000   0.0000   0.0000   0.0000   0.0000

          k = 0.4419-0.0884 0.4419 (   386 PWs)   bands (ev):

    -2.4307   0.7388   4.6641   8.1821  21.9498  27.0731  29.1632  30.4536

     occupation numbers 
     1.0000   1.0000   1.0000   1.0000   0.0000   0.0000   0.0000   0.0000

          k = 0.3536 0.0000 0.3536 (   379 PWs)   bands (ev):

    -4.7769   3.7582   4.7804   9.3990  23.1565  25.2218  27.9908  29.8361

     occupation numbers 
     1.0000   1.0000   1.0000   1.0000   0.0000   0.0000   0.0000   0.0000

          k = 0.0000 0.5303 0.0000 (   383 PWs)   bands (ev):

    -4.1829   3.8869   6.5998   6.6160  19.1447  21.7026  30.8589  30.8809

     occupation numbers 
     1.0000   1.0000   1.0000   1.0000   0.0000   0.0000   0.0000   0.0000

          k = 0.6187-0.0884 0.6187 (   381 PWs)   bands (ev):

    -2.1486   1.7605   4.9839   6.4205  19.9826  22.0071  31.3494  31.8655

     occupation numbers 
     1.0000   1.0000   1.0000   1.0000   0.0000   0.0000   0.0000   0.0000

          k = 0.5303 0.0000 0.5303 (   377 PWs)   bands (ev):

    -0.5667   0.6418   2.9688   6.9879  20.7026  25.9607  29.8883  31.7029

     occupation numbers 
     1.0000   1.0000   1.0000   1.0000   0.0000   0.0000   0.0000   0.0000

          k = 0.0000-0.7071 0.0000 (   388 PWs)   bands (ev):

    -0.4144  -0.4026   6.0187   6.0339  19.7182  19.7305  32.6773  32.7048

     occupation numbers 
     1.0000   1.0000   1.0000   1.0000   0.0000   0.0000   0.0000   0.0000

          k =-0.1768 0.3536 0.0000 (   378 PWs)   bands (ev):

    -6.4619   6.0281   6.9119   9.5433  21.7277  25.3963  27.1174  27.1862

     occupation numbers 
     1.0000   1.0000   1.0000   1.0000   0.0000   0.0000   0.0000   0.0000

          k = 0.4419-0.2652 0.6187 (   383 PWs)   bands (ev):

    -4.3630   2.5502   6.1735   8.3192  23.1020  24.9131  28.0803  28.8780

     occupation numbers 
     1.0000   1.0000   1.0000   1.0000   0.0000   0.0000   0.0000   0.0000

          k = 0.3536-0.1768 0.5303 (   384 PWs)   bands (ev):

    -2.3445  -0.0833   6.1455   7.7006  23.3111  24.8555  28.8650  30.5570

     occupation numbers 
     1.0000   1.0000   1.0000   1.0000   0.0000   0.0000   0.0000   0.0000

          k = 0.5303-0.1768 0.7071 (   391 PWs)   bands (ev):

    -3.6444   3.4838   5.3575   6.4171  21.4212  23.5906  28.6474  30.9359

     occupation numbers 
     1.0000   1.0000   1.0000   1.0000   0.0000   0.0000   0.0000   0.0000

          k = 0.4419-0.0884 0.6187 (   382 PWs)   bands (ev):

    -1.3542   1.2288   3.9355   6.0074  22.5955  26.0232  28.1962  30.7638

     occupation numbers 
     1.0000   1.0000   1.0000   1.0000   0.0000   0.0000   0.0000   0.0000

          k = 0.3536 0.0000 0.5303 (   385 PWs)   bands (ev):

    -2.1782   2.0234   3.4555   6.9149  23.4572  26.0356  28.7747  30.3578

     occupation numbers 
     1.0000   1.0000   1.0000   1.0000   0.0000   0.0000   0.0000   0.0000

          k =-0.1768-0.7071 0.0000 (   380 PWs)   bands (ev):

    -0.0440  -0.0306   5.0109   5.0267  21.8904  21.9070  31.3728  31.3920

     occupation numbers 
     1.0000   1.0000   1.0000   1.0000   0.0000   0.0000   0.0000   0.0000

          k =-0.3536-0.7071 0.0000 (   380 PWs)   bands (ev):

     0.4544   0.4717   3.9687   3.9875  25.6305  25.6714  28.0248  28.0411

     occupation numbers 
     1.0000   1.0000   1.0000   1.0000   0.0000   0.0000   0.0000   0.0000

          k =-0.0884 0.0884 0.0884 (   368 PWs)   bands (ev):

    -8.9589  10.2122  11.8826  11.8826  21.6534  21.6534  22.2002  29.9673

     occupation numbers 
     1.0000   1.0000   1.0000   1.0000   0.0000   0.0000   0.0000   0.0000

          k =-0.1768 0.1768 0.1768 (   374 PWs)   bands (ev):

    -7.6300   5.9153  10.7530  10.7530  22.9937  22.9937  23.7061  30.6845

     occupation numbers 
     1.0000   1.0000   1.0000   1.0000   0.0000   0.0000   0.0000   0.0000

          k =-0.2652 0.2652 0.2652 (   374 PWs)   bands (ev):

    -5.4971   1.7044   9.9352   9.9352  23.5361  23.5361  24.4177  31.1306

     occupation numbers 
     1.0000   1.0000   1.0000   1.0000   0.0000   0.0000   0.0000   0.0000

          k = 0.3536-0.3536-0.3536 (   392 PWs)   bands (ev):

    -3.4156  -1.1056   9.6484   9.6484  23.5776  23.5776  24.6233  31.1857

     occupation numbers 
     1.0000   1.0000   1.0000   1.0000   0.0000   0.0000   0.0000   0.0000

          k =-0.2652-0.0884-0.0884 (   372 PWs)   bands (ev):

    -7.7740   7.4216   9.6012  10.5036  20.9688  24.8173  24.8368  28.4429

     occupation numbers 
     1.0000   1.0000   1.0000   1.0000   0.0000   0.0000   0.0000   0.0000

          k =-0.0884 0.2652 0.0884 (   372 PWs)   bands (ev):

    -7.7742   7.4507   9.6062  10.4597  20.9820  24.7962  24.8417  28.4363

     occupation numbers 
     1.0000   1.0000   1.0000   1.0000   0.0000   0.0000   0.0000   0.0000

          k =-0.3536-0.1768-0.1768 (   380 PWs)   bands (ev):

    -5.9001   3.2896   8.9124   9.3075  22.1437  25.4127  25.7328  28.9208

     occupation numbers 
     1.0000   1.0000   1.0000   1.0000   0.0000   0.0000   0.0000   0.0000

          k =-0.1768 0.3536 0.1768 (   380 PWs)   bands (ev):

    -5.9009   3.3088   8.9213   9.2734  22.1568  25.3742  25.7380  28.9077

     occupation numbers 
     1.0000   1.0000   1.0000   1.0000   0.0000   0.0000   0.0000   0.0000

          k = 0.2652 0.4419 0.4419 (   381 PWs)   bands (ev):

    -3.4716  -0.2710   8.3426   8.8828  22.7354  25.0453  26.0181  30.7531

     occupation numbers 
     1.0000   1.0000   1.0000   1.0000   0.0000   0.0000   0.0000   0.0000

          k = 0.4419-0.2652-0.4419 (   381 PWs)   bands (ev):

    -3.4783  -0.2500   8.3148   8.8938  22.7459  25.0013  26.0250  30.7237

     occupation numbers 
     1.0000   1.0000   1.0000   1.0000   0.0000   0.0000   0.0000   0.0000

          k = 0.1768 0.3536 0.3536 (   382 PWs)   bands (ev):

    -4.2798   0.7801   7.9170   9.4921  23.3930  24.3635  25.8701  31.1103

     occupation numbers 
     1.0000   1.0000   1.0000   1.0000   0.0000   0.0000   0.0000   0.0000

          k = 0.3536-0.1768-0.3536 (   382 PWs)   bands (ev):

    -4.2823   0.7968   7.8922   9.5029  23.4001  24.3234  25.8785  31.0819

     occupation numbers 
     1.0000   1.0000   1.0000   1.0000   0.0000   0.0000   0.0000   0.0000

          k = 0.0884 0.2652 0.2652 (   378 PWs)   bands (ev):

    -6.6117   4.6905   8.1525  10.5764  23.3098  24.0086  25.1191  29.9740

     occupation numbers 
     1.0000   1.0000   1.0000   1.0000   0.0000   0.0000   0.0000   0.0000

          k = 0.2652-0.0884-0.2652 (   378 PWs)   bands (ev):

    -6.6119   4.7082   8.1281  10.5837  23.2862  24.0122  25.1261  29.9629

     occupation numbers 
     1.0000   1.0000   1.0000   1.0000   0.0000   0.0000   0.0000   0.0000

          k = 0.0000 0.1768 0.1768 (   367 PWs)   bands (ev):

    -8.2143   8.6219   9.2577  11.6910  21.9102  23.4192  23.6003  29.8203

     occupation numbers 
     1.0000   1.0000   1.0000   1.0000   0.0000   0.0000   0.0000   0.0000

          k =-0.4419-0.0884-0.0884 (   378 PWs)   bands (ev):

    -5.4583   4.9445   7.2273   7.5245  20.2481  24.4061  28.4373  28.6186

     occupation numbers 
     1.0000   1.0000   1.0000   1.0000   0.0000   0.0000   0.0000   0.0000

          k =-0.0884 0.4419 0.0884 (   378 PWs)   bands (ev):

    -5.4588   4.9741   7.1904   7.5275  20.2565  24.3967  28.4153  28.6289

     occupation numbers 
     1.0000   1.0000   1.0000   1.0000   0.0000   0.0000   0.0000   0.0000

          k = 0.1768 0.5303 0.5303 (   382 PWs)   bands (ev):

    -3.1655   1.5751   5.7003   7.4821  21.1333  26.6689  28.2446  29.1682

     occupation numbers 
     1.0000   1.0000   1.0000   1.0000   0.0000   0.0000   0.0000   0.0000

          k = 0.5303-0.1768-0.5303 (   382 PWs)   bands (ev):

    -3.1690   1.5985   5.6735   7.4865  21.1394  26.6529  28.2144  29.1820

     occupation numbers 
     1.0000   1.0000   1.0000   1.0000   0.0000   0.0000   0.0000   0.0000

          k = 0.0884 0.4419 0.4419 (   386 PWs)   bands (ev):

    -2.4322   0.7404   4.6824   8.1589  21.9326  27.1171  29.1379  30.4807

     occupation numbers 
     1.0000   1.0000   1.0000   1.0000   0.0000   0.0000   0.0000   0.0000

          k = 0.4419-0.0884-0.4419 (   386 PWs)   bands (ev):

    -2.4376   0.7616   4.6625   8.1627  21.9351  27.0945  29.1541  30.4343

     occupation numbers 
     1.0000   1.0000   1.0000   1.0000   0.0000   0.0000   0.0000   0.0000

          k = 0.0000 0.3536 0.3536 (   379 PWs)   bands (ev):

    -4.7777   3.7774   4.7798   9.3727  23.1416  25.2574  27.9536  29.8459

     occupation numbers 
     1.0000   1.0000   1.0000   1.0000   0.0000   0.0000   0.0000   0.0000

          k = 0.0884 0.6187 0.6187 (   381 PWs)   bands (ev):

    -2.1480   1.7552   5.0048   6.4041  19.9692  22.0210  31.3824  31.8438

     occupation numbers 
     1.0000   1.0000   1.0000   1.0000   0.0000   0.0000   0.0000   0.0000

          k = 0.6187-0.0884-0.6187 (   381 PWs)   bands (ev):

    -2.1500   1.7659   4.9938   6.4050  19.9741  22.0158  31.3709  31.8490

     occupation numbers 
     1.0000   1.0000   1.0000   1.0000   0.0000   0.0000   0.0000   0.0000

          k = 0.0000 0.5303 0.5303 (   377 PWs)   bands (ev):

    -0.5777   0.6553   2.9808   6.9704  20.6889  25.9737  29.9205  31.6977

     occupation numbers 
     1.0000   1.0000   1.0000   1.0000   0.0000   0.0000   0.0000   0.0000

          k = 0.3536 0.1768 0.0000 (   378 PWs)   bands (ev):

    -6.4616   6.0043   6.9134   9.5734  21.7136  25.4165  27.1245  27.1789

     occupation numbers 
     1.0000   1.0000   1.0000   1.0000   0.0000   0.0000   0.0000   0.0000

          k =-0.2652-0.4419 0.6187 (   383 PWs)   bands (ev):

    -4.3625   2.5483   6.1492   8.3507  23.1098  24.8967  28.0868  28.8788

     occupation numbers 
     1.0000   1.0000   1.0000   1.0000   0.0000   0.0000   0.0000   0.0000

          k = 0.2652 0.4419 0.6187 (   383 PWs)   bands (ev):

    -4.3624   2.5455   6.1607   8.3412  23.0748  24.9441  28.0548  28.9144

     occupation numbers 
     1.0000   1.0000   1.0000   1.0000   0.0000   0.0000   0.0000   0.0000

          k = 0.6187-0.2652-0.4419 (   383 PWs)   bands (ev):

    -4.3639   2.5665   6.1529   8.3240  23.0951  24.9042  28.0942  28.8678

     occupation numbers 
     1.0000   1.0000   1.0000   1.0000   0.0000   0.0000   0.0000   0.0000

          k =-0.1768-0.3536 0.5303 (   384 PWs)   bands (ev):

    -2.3442  -0.0825   6.1192   7.7290  23.3620  24.7886  28.8832  30.5409

     occupation numbers 
     1.0000   1.0000   1.0000   1.0000   0.0000   0.0000   0.0000   0.0000

          k = 0.5303-0.1768-0.3536 (   384 PWs)   bands (ev):

    -2.3555  -0.0570   6.1290   7.6997  23.3204  24.8248  28.8801  30.5222

     occupation numbers 
     1.0000   1.0000   1.0000   1.0000   0.0000   0.0000   0.0000   0.0000

          k =-0.1768-0.5303 0.7071 (   391 PWs)   bands (ev):

    -3.6435   3.4671   5.3578   6.4357  21.4118  23.6026  28.6447  30.9464

     occupation numbers 
     1.0000   1.0000   1.0000   1.0000   0.0000   0.0000   0.0000   0.0000

          k =-0.0884-0.4419 0.6187 (   382 PWs)   bands (ev):

    -1.3527   1.2269   3.9247   6.0201  22.5990  26.0188  28.1897  30.7827

     occupation numbers 
     1.0000   1.0000   1.0000   1.0000   0.0000   0.0000   0.0000   0.0000

          k = 0.0884 0.4419 0.6187 (   382 PWs)   bands (ev):

    -1.3529   1.2215   3.9515   5.9972  22.5776  26.0531  28.1896  30.7801

     occupation numbers 
     1.0000   1.0000   1.0000   1.0000   0.0000   0.0000   0.0000   0.0000

          k = 0.6187-0.0884-0.4419 (   382 PWs)   bands (ev):

    -1.3607   1.2487   3.9303   5.9975  22.5837  26.0295  28.2005  30.7778

     occupation numbers 
     1.0000   1.0000   1.0000   1.0000   0.0000   0.0000   0.0000   0.0000

          k =-0.0000 0.3536 0.5303 (   385 PWs)   bands (ev):

    -2.1816   2.0398   3.4586   6.8949  23.4374  26.0567  28.7819  30.3437

     occupation numbers 
     1.0000   1.0000   1.0000   1.0000   0.0000   0.0000   0.0000   0.0000

     highest occupied, lowest unoccupied level (ev):  12.630514 19.144727

!    total energy              =     -33.53546263 Ry
     estimated scf accuracy    <          4.3E-10 Ry

     convergence has been achieved in   1 iterations

     Using ACE for calculation of exact exchange
     ACE projected onto     8 (nbndproj) and applied to     8 (nbnd) bands

!!   total energy              =     -33.53546263 Ry
     Harris-Foulkes estimate   =     -33.53546263 Ry
     est. exchange err (dexx)  =          3.3E-10 Ry
     - averaged Fock potential =       2.48204873 Ry
     + Fock energy (ACE)       =      -1.24102260 Ry

     EXX self-consistency reached

     Forces acting on atoms (cartesian axes, Ry/au):

     atom    1 type  1   force =    -0.00211738    0.00211738    0.00211738
     atom    2 type  1   force =     0.00211738   -0.00211738   -0.00211738
     The non-local contrib.  to forces
     atom    1 type  1   force =    -0.00183572    0.00183572    0.00183572
     atom    2 type  1   force =     0.00183883   -0.00183883   -0.00183883
     The ionic contribution  to forces
     atom    1 type  1   force =    -0.00463717    0.00463717    0.00463717
     atom    2 type  1   force =     0.00463717   -0.00463717   -0.00463717
     The local contribution  to forces
     atom    1 type  1   force =     0.00432083   -0.00432083   -0.00432083
     atom    2 type  1   force =    -0.00432387    0.00432387    0.00432387
     The core correction contribution to forces
     atom    1 type  1   force =     0.00003407   -0.00003407   -0.00003407
     atom    2 type  1   force =    -0.00003535    0.00003535    0.00003535
     The Hubbard contrib.    to forces
     atom    1 type  1   force =     0.00000000    0.00000000    0.00000000
     atom    2 type  1   force =     0.00000000    0.00000000    0.00000000
     The SCF correction term to forces
     atom    1 type  1   force =     0.00000000   -0.00000000   -0.00000000
     atom    2 type  1   force =     0.00000000   -0.00000000   -0.00000000

     Total force =     0.005186     Total SCF correction =     0.000000


     Computing stress (Cartesian axis) and pressure

     Message from routine exx_stress:
     USPP stress not tested
          total   stress  (Ry/bohr**3)                   (kbar)     P=       99.26
   0.00067476   0.00000753   0.00000753           99.26        1.11        1.11
   0.00000753   0.00067476  -0.00000753            1.11       99.26       -1.11
   0.00000753  -0.00000753   0.00067476            1.11       -1.11       99.26

     kinetic stress (kbar)  19511.10     -5.25     -5.25
                               -5.25  19511.10      5.25
                               -5.25      5.25  19511.10

     local   stress (kbar)  -3276.97    -37.29    -37.29
                              -37.29  -3276.97     37.29
                              -37.29     37.29  -3276.97

     nonloc. stress (kbar)   4399.72      1.42      1.42
                                1.42   4399.72     -1.42
                                1.42     -1.42   4399.72

     hartree stress (kbar)   1204.47      5.40      5.40
                                5.40   1204.47     -5.40
                                5.40     -5.40   1204.47

     exc-cor stress (kbar)   -251.79      0.09      0.09
                                0.09   -251.79     -0.09
                                0.09     -0.09   -251.79

     corecor stress (kbar)  -3481.23     -0.13     -0.13
                               -0.13  -3481.23      0.13
                               -0.13      0.13  -3481.23

     ewald   stress (kbar) -16949.81     36.90     36.90
                               36.90 -16949.81    -36.90
                               36.90    -36.90 -16949.81

     hubbard stress (kbar)      0.00      0.00      0.00
                                0.00      0.00      0.00
                                0.00      0.00      0.00

     DFT-D   stress (kbar)      0.00      0.00      0.00
                                0.00      0.00      0.00
                                0.00      0.00      0.00

     XDM     stress (kbar)      0.00      0.00      0.00
                                0.00      0.00      0.00
                                0.00      0.00      0.00

     dft-nl  stress (kbar)      0.00      0.00      0.00
                                0.00      0.00      0.00
                                0.00      0.00      0.00

     TS-vdW  stress (kbar)      0.00      0.00      0.00
                                0.00      0.00      0.00
                                0.00      0.00      0.00

     MDB     stress (kbar)      0.00      0.00      0.00
                                0.00      0.00      0.00
                                0.00      0.00      0.00

     3D-RISM stress (kbar)      0.00      0.00      0.00
                                0.00      0.00      0.00
                                0.00      0.00      0.00

     EXX     stress (kbar)  -1056.23     -0.05     -0.05
                               -0.05  -1056.23      0.05
                               -0.05      0.05  -1056.23



     Writing all to output data dir ./tmp/diamond-HSE06.save/ :
     XML data file, charge density
     init_run     :      0.22s CPU      0.23s WALL (       1 calls)
     electrons    :      4.60s CPU      4.89s WALL (       5 calls)
     forces       :      0.02s CPU      0.02s WALL (       1 calls)
     stress       :      0.33s CPU      0.35s WALL (       1 calls)

     Called by init_run:
     aceinit0     :      0.00s CPU      0.00s WALL (       1 calls)
     wfcinit      :      0.05s CPU      0.05s WALL (       1 calls)
     wfcinit:wfcr :      0.04s CPU      0.05s WALL (      65 calls)
     potinit      :      0.02s CPU      0.03s WALL (       1 calls)
     hinit0       :      0.15s CPU      0.15s WALL (       1 calls)

     Called by electrons:
     c_bands      :      3.43s CPU      3.60s WALL (      19 calls)
     sum_band     :      0.49s CPU      0.53s WALL (      19 calls)
     v_of_rho     :      0.05s CPU      0.05s WALL (      20 calls)
     v_h          :      0.00s CPU      0.00s WALL (      20 calls)
     v_xc         :      0.06s CPU      0.06s WALL (      22 calls)
     newd         :      0.01s CPU      0.01s WALL (      19 calls)
     PAW_pot      :      0.69s CPU      0.76s WALL (      20 calls)
     mix_rho      :      0.00s CPU      0.00s WALL (      19 calls)

     Called by c_bands:
     init_us_2    :      0.14s CPU      0.14s WALL (    5590 calls)
     cegterg      :      3.34s CPU      3.51s WALL (    1235 calls)

     Called by sum_band:
     sum_band:wei :      0.00s CPU      0.00s WALL (      19 calls)
     sum_band:loo :      0.48s CPU      0.51s WALL (      19 calls)
     sum_band:buf :      0.00s CPU      0.00s WALL (    1235 calls)
     sum_band:ini :      0.02s CPU      0.03s WALL (    1235 calls)
     sum_band:cal :      0.02s CPU      0.02s WALL (    1235 calls)
     sum_band:bec :      0.00s CPU      0.00s WALL (    1235 calls)
     addusdens    :      0.01s CPU      0.01s WALL (      19 calls)
                                        0.00s GPU  (      19 calls)
     addusd:skk   :      0.00s CPU      0.00s WALL (      19 calls)
                                        0.00s GPU  (      19 calls)

     Called by *egterg:
     cdiaghg      :      0.35s CPU      0.36s WALL (    3889 calls)
     cegterg:over :      0.07s CPU      0.07s WALL (    2979 calls)
     cegterg:upda :      0.02s CPU      0.02s WALL (    2979 calls)
     cegterg:last :      0.03s CPU      0.04s WALL (    2674 calls)
     h_psi        :      2.78s CPU      2.92s WALL (    4279 calls)
     s_psi        :      0.03s CPU      0.03s WALL (    4279 calls)
     g_psi        :      0.01s CPU      0.01s WALL (    2979 calls)

     Called by h_psi:
     h_psi:calbec :      0.09s CPU      0.09s WALL (    4279 calls)
     vloc_psi     :      2.56s CPU      2.70s WALL (    4279 calls)
     add_vuspsi   :      0.04s CPU      0.04s WALL (    4279 calls)

     General routines
     calbec       :      0.45s CPU      0.43s WALL (   11227 calls)
     fft          :      0.13s CPU      0.13s WALL (     239 calls)
     ffts         :      0.00s CPU      0.00s WALL (      19 calls)
     fftw         :      2.70s CPU      2.85s WALL (   66382 calls)
     fftc         :      5.93s CPU      5.47s WALL (   43680 calls)
     fftcw        :      0.47s CPU      0.47s WALL (    8320 calls)

     Parallel routines

     EXX routines
     exx_grid     :      0.00s CPU      0.00s WALL (       1 calls)
     exxinit      :      0.54s CPU      0.63s WALL (       5 calls)
     vexx         :     25.54s CPU     22.99s WALL (     325 calls)
     matcalc      :      0.07s CPU      0.07s WALL (    4283 calls)
     aceupdate    :      0.05s CPU      0.13s WALL (     325 calls)
     vexxace      :      0.08s CPU      0.08s WALL (    3373 calls)
     aceinit      :     25.61s CPU     23.14s WALL (     325 calls)

     EXX+US  routines
     becxx        :      0.00s CPU      0.00s WALL (       5 calls)
     addusxx      :      7.80s CPU      7.06s WALL (   20800 calls)
     newdxx       :      8.98s CPU      7.88s WALL (   20800 calls)
     qvan_init    :      0.19s CPU      0.18s WALL (     325 calls)
     nlxx_pot     :      0.10s CPU      0.09s WALL (    2600 calls)

     EXX+PAW routines
     PAW_newdxx   :      0.98s CPU      0.93s WALL (   20800 calls)

     PAW routines
     PAW_pot      :      0.69s CPU      0.76s WALL (      20 calls)
     PAW_symme    :      0.00s CPU      0.00s WALL (      38 calls)

     PWSCF        :     31.79s CPU     29.70s WALL


   This run was terminated on:   5: 2:13  14Aug2026            

=------------------------------------------------------------------------------=
   JOB DONE.
=------------------------------------------------------------------------------=
