C  N                                    
   1.00000000000000     
    10.7211360931000002    0.0000000000000000    0.0000000000000000
     0.0000000000000000   10.7211360931000002    0.0000000000000000
     0.0000000000000000    0.0000000000000000   10.7211360931000002
   C    N 
   214     1
Direct
     0.0832679740487521    0.0833781217667422    0.0833986919512455
     0.0836242597499535    0.0832356287435019    0.4167741077151206
     0.0829276753730070    0.0834009774477380    0.7499847665793737
     0.0836707572773108    0.4167612445276418    0.0829959087226868
     0.0832730054943909    0.4168106085814642    0.4167021825486756
     0.0829832909252772    0.4166856928812379    0.7498875780977130
     0.0833439548316761    0.7499853861613914    0.0833227111683215
     0.0834729650292019    0.7500557826930887    0.4166313019695380
     0.0835383245997008    0.7499058931679627    0.7498898006812027
     0.4166819004206275    0.0834009774477380    0.0837389906269905
     0.4168200997586595    0.0835452273762058    0.4170504626589349
     0.4162800395069866    0.0827097449821537    0.7503866274930147
     0.4167790889022882    0.4166856928812379    0.0836833750747203
     0.4183077970666886    0.4176252028583463    0.4182112222155112
     0.4155872910154912    0.4159834857886011    0.7510793759845029
     0.4167768663187985    0.7499058931679627    0.0831283414002968
     0.4159172952042454    0.7507897742114125    0.4168724970070130
     0.4171999693947868    0.7492087687269091    0.7494666976052144
     0.7498925592848806    0.0832356287435019    0.0830424062500441
     0.7499624415712489    0.0835803472922194    0.4167042254287523
     0.7496162043410664    0.0835452273762058    0.7498465672413417
     0.7499644844513256    0.4168106085814642    0.0833936605056067
     0.7571600100667339    0.4104514738905962    0.4095066569332673
     0.7484554447844900    0.4176252028583463    0.7483588699333126
     0.7500353650304632    0.7500557826930887    0.0831937009707957
     0.7498056635815118    0.7494344190542890    0.4168610034184894
     0.7497941699929882    0.7507897742114125    0.7507493717957558
     0.2500676444477392    0.2500152334206263    0.0837389906269905
     0.2502118943762071    0.2501534327586583    0.4170504626589349
     0.2493764119821549    0.2496133725069853    0.7503866274930147
     0.2499022957435031    0.5832258922848794    0.0830424062500441
     0.2502470142922206    0.5832957745712477    0.4167042254287523
     0.2502118943762071    0.5829495373410651    0.7498465672413417
     0.2500447887667434    0.9166013080487545    0.0833986919512455
     0.2499022957435031    0.9169575937499559    0.4167741077151206
     0.2500676444477392    0.9162610093730095    0.7499847665793737
     0.5833523588812355    0.2501124219022870    0.0836833750747203
     0.5842918688583438    0.2516411300666874    0.4182112222155112
     0.5826501517885987    0.2489206240154900    0.7510793759845029
     0.5834772745814618    0.5832978174513244    0.0833936605056067
     0.5771181398905867    0.5904933430667327    0.4095066569332673
     0.5842918688583438    0.5817887777844888    0.7483588699333126
     0.5834279105276394    0.9170040912773132    0.0829959087226868
     0.5834772745814618    0.9166063394943933    0.4167021825486756
     0.5833523588812355    0.9163166249252797    0.7498875780977130
     0.9165725601679640    0.2501101993187973    0.0831283414002968
     0.9174564412114137    0.2492506282042442    0.4168724970070130
     0.9158754357269103    0.2505333023947856    0.7494666976052144
     0.9167224496930899    0.5833686980304620    0.0831937009707957
     0.9161010860542902    0.5831389965815106    0.4168610034184894
     0.9174564412114137    0.5831275029929870    0.7507493717957558
     0.9166520531613926    0.9166772888316785    0.0833227111683215
     0.9167224496930899    0.9168062990292043    0.4166313019695380
     0.9165725601679640    0.9168716585997032    0.7498898006812027
     0.2501833521392030    0.0835166851392017    0.2502268977503093
     0.2497500718512313    0.0830834048512301    0.5835483823881660
     0.2497716776845280    0.0831050106845268    0.9168949893154732
     0.2504918014551762    0.4168682232131147    0.2504920684871834
     0.2498727608407307    0.4165155139480703    0.5834844860519297
     0.2497500718512313    0.4164516176118340    0.9169165951487699
     0.2500275818540771    0.7500621768273135    0.2499378231726865
     0.2504918014551762    0.7495079315128166    0.5831317767868853
     0.2501833521392030    0.7497731022496907    0.9164833148607983
     0.5835348892131123    0.0838251344551750    0.2504920684871834
     0.5831821799480679    0.0832060938407295    0.5834844860519297
     0.5831182836118316    0.0830834048512301    0.9169165951487699
     0.5840436388913162    0.4173769728913186    0.2510354636844383
     0.5831821799480679    0.4165155139480703    0.9167939061592705
     0.5837353980876188    0.7510656950955763    0.2489343049044237
     0.5840436388913162    0.7489645363155617    0.5826230271086814
     0.5835348892131123    0.7495079315128166    0.9161748655448250
     0.9167288438273147    0.0833609148540759    0.2499378231726865
     0.9161745985128178    0.0838251344551750    0.5831317767868853
     0.9164397692496919    0.0835166851392017    0.9164833148607983
     0.9177323620955775    0.4170687320876212    0.2489343049044237
     0.9156312033155629    0.4173769728913186    0.5826230271086814
     0.9161745985128178    0.4168682232131147    0.9161748655448250
     0.9165420413415433    0.7498753743415421    0.2501246256584579
     0.9177323620955775    0.7510656950955763    0.5829312679123788
     0.9167288438273147    0.7500621768273135    0.9166390851459241
     0.0835383245997008    0.2501101993187973    0.2500941068320373
     0.0829832909252772    0.2501124219022870    0.5833143071187621
     0.0829276753730070    0.2500152334206263    0.9165990225522620
     0.0834729650292019    0.5833686980304620    0.2499442173069113
     0.0832730054943909    0.5832978174513244    0.5831893914185358
     0.0836242597499535    0.5832258922848794    0.9167643712564981
     0.0833439548316761    0.9166772888316785    0.2500146138386086
     0.0836707572773108    0.9170040912773132    0.5832387554723582
     0.0832679740487521    0.9166013080487545    0.9166218782332578
     0.4171999693947868    0.2505333023947856    0.2507912312730909
     0.4155872910154912    0.2489206240154900    0.5840165142113989
     0.4162800395069866    0.2496133725069853    0.9172902550178463
     0.4159172952042454    0.5831275029929870    0.2492102257885875
     0.4183077970666886    0.5817887777844888    0.5823747971416537
     0.4168200997586595    0.5829495373410651    0.9164547726237942
     0.4167768663187985    0.9168716585997032    0.2500941068320373
     0.4167790889022882    0.9163166249252797    0.5833143071187621
     0.4166819004206275    0.9162610093730095    0.9165990225522620
     0.7497941699929882    0.2492506282042442    0.2492102257885875
     0.7484554447844900    0.2516411300666874    0.5823747971416537
     0.7496162043410664    0.2501534327586583    0.9164547726237942
     0.7498056635815118    0.5831389965815106    0.2505655809457110
     0.7571600100667339    0.5904933430667327    0.5895485261094109
     0.7499624415712489    0.5832957745712477    0.9164196527077806
     0.7500353650304632    0.9168062990292043    0.2499442173069113
     0.7499644844513256    0.9166063394943933    0.5831893914185358
     0.7498925592848806    0.9169575937499559    0.9167643712564981
     0.9999137973346492    0.0000693134474758    0.9999306865525242
     0.0000815826451017    0.0000675005612010    0.3332709689701758
     0.9997127315146415    0.0002928101519259    0.6666332626578324
     0.9997127315146415    0.3333667373421676    0.9997071898480741
     0.0001856111100835    0.3334260372553572    0.3332367217089782
     0.9991242278655150    0.3339059390850991    0.6660940609149009
     0.0000815826451017    0.6667290310298242    0.9999324994387990
     0.9997521377570777    0.6664345964166642    0.3335654035833358
     0.0001856111100835    0.6667632782910218    0.6665739627446428
     0.3333274495289800    0.9998368033842056    0.0001631966157944
     0.3334983115241101    0.0002322410953539    0.3334626363752804
     0.3332620922919034    0.9995587298049742    0.6668080069932287
     0.3332620922919034    0.3331919930067713    0.0004412701950258
     0.3344468923485167    0.3337147304367178    0.3344883966148231
     0.3325659468346842    0.3327914742177924    0.6672085257822076
     0.3334983115241101    0.6665373636247196    0.9997677589046461
     0.3333368540311454    0.6667646345051637    0.3332353654948363
     0.3344468923485167    0.6655116033851769    0.6662852695632822
     0.6666444169359522    0.0001101666173398    0.9998898333826602
     0.6667170800552285    0.0001783222922995    0.3335088115010052
     0.6665606649194515    0.9998697748855818    0.6665646954240003
     0.6665606649194515    0.3334353045759997    0.0001302251144182
     0.6681224855015770    0.3346768638822937    0.3343770414990530
     0.6631411617977605    0.3338978834191195    0.6661021165808805
     0.6667170800552285    0.6664911884989948    0.9998216777077005
     0.6659412061636516    0.6662140719421359    0.3337859280578641
     0.6681224855015770    0.6656229585009470    0.6653231361177063
     0.1665034703842068    0.1666607835289824    0.0001631966157944
     0.1668989080953551    0.1668316455241126    0.3334626363752804
     0.1662253968049754    0.1665954262919058    0.6668080069932287
     0.1667768336173410    0.4999777499359510    0.9998898333826602
     0.1668449892923007    0.5000504130552272    0.3335088115010052
     0.1665364418855830    0.4998939979194503    0.6665646954240003
     0.1667359804474771    0.8332471303346480    0.9999306865525242
     0.1667341675612022    0.8334149156451005    0.3332709689701758
     0.1669594771519272    0.8330460645146402    0.6666332626578324
     0.4998586600067725    0.1665954262919058    0.0004412701950258
     0.5003813974367191    0.1677802263485191    0.3344883966148231
     0.4994581412177936    0.1658992808346866    0.6672085257822076
     0.5001019715760009    0.4998939979194503    0.0001302251144182
     0.5013435308822949    0.5014558185015758    0.3343770414990530
     0.5005645504191207    0.4964744947977593    0.6661021165808805
     0.5000334043421688    0.8330460645146402    0.9997071898480741
     0.5000927042553585    0.8335189441100823    0.3332367217089782
     0.5005726060851003    0.8324575608655138    0.6660940609149009
     0.8332040296247172    0.1668316455241126    0.9997677589046461
     0.8334313005051612    0.1666701880311479    0.3332353654948363
     0.8321782693851745    0.1677802263485191    0.6662852695632822
     0.8331578544989924    0.5000504130552272    0.9998216777077005
     0.8328807379421335    0.4992745391636504    0.3337859280578641
     0.8322896245009446    0.5014558185015758    0.6653231361177063
     0.8333956970298217    0.8334149156451005    0.9999324994387990
     0.8331012624166618    0.8330854707570765    0.3335654035833358
     0.8334299442910194    0.8335189441100823    0.6665739627446428
     0.1667359804474771    0.0000693134474758    0.1667528696653520
     0.1667768336173410    0.0001101666173398    0.5000222500640490
     0.1665034703842068    0.9998368033842056    0.8333392164710176
     0.1669594771519272    0.3333667373421676    0.1669539354853598
     0.1665364418855830    0.3334353045759997    0.5001060020805497
     0.1662253968049754    0.3331919930067713    0.8334045737080942
     0.1667341675612022    0.6667290310298242    0.1665850843548995
     0.1668449892923007    0.6664911884989948    0.4999495869447728
     0.1668989080953551    0.6665373636247196    0.8331683544758874
     0.5000334043421688    0.0002928101519259    0.1669539354853598
     0.5001019715760009    0.9998697748855818    0.5001060020805497
     0.4998586600067725    0.9995587298049742    0.8334045737080942
     0.5005726060851003    0.3339059390850991    0.1675424391344862
     0.5005645504191207    0.3338978834191195    0.5035255052022407
     0.4994581412177936    0.3327914742177924    0.8341007191653134
     0.5000927042553585    0.6667632782910218    0.1664810558899177
     0.5013435308822949    0.6656229585009470    0.4985441814984242
     0.5003813974367191    0.6655116033851769    0.8322197736514809
     0.8333956970298217    0.0000675005612010    0.1665850843548995
     0.8331578544989924    0.0001783222922995    0.4999495869447728
     0.8332040296247172    0.0002322410953539    0.8331683544758874
     0.8334299442910194    0.3334260372553572    0.1664810558899177
     0.8322896245009446    0.3346768638822937    0.4985441814984242
     0.8321782693851745    0.3337147304367178    0.8322197736514809
     0.8331012624166618    0.6664345964166642    0.1669145292429235
     0.8328807379421335    0.6662140719421359    0.5007254608363496
     0.8334313005051612    0.6667646345051637    0.8333298119688521
     0.9999991671271076    0.1668278488929218    0.1666674998728936
     0.0002902690213276    0.1663831229894370    0.4998190526728905
     0.9994612935181166    0.1669234596096061    0.8330765403903939
     0.0006443515571988    0.4999737529526840    0.1660223154428024
     0.9994599285191939    0.5001729029749171    0.4998270970250829
     0.0002902690213276    0.5001809473271095    0.8336168770105630
     0.9999613965265581    0.8332947295265569    0.1667052704734431
     0.0006443515571988    0.8339776845571976    0.5000262470473160
     0.9999991671271076    0.8333325001271064    0.8331721511070782
     0.3335901256096037    0.1669234596096061    0.1672053734818846
     0.3329608135248563    0.1662941475248587    0.5004077984106061
     0.3329814729682710    0.1663148069682734    0.8336851930317266
     0.3330497889894346    0.5001809473271095    0.1663763979786737
     0.3338360549265005    0.4998560814520943    0.5001439185479057
     0.3329608135248563    0.4995922015893939    0.8337058524751413
     0.3334945148929194    0.8333325001271064    0.1666674998728936
     0.3330497889894346    0.8336236020213263    0.4998190526728905
     0.3335901256096037    0.8327946265181154    0.8330765403903939
     0.6668476143271107    0.1663831229894370    0.1663763979786737
     0.6665227484520955    0.1671693889265029    0.5001439185479057
     0.6662588685893951    0.1662941475248587    0.8337058524751413
     0.6668395699749183    0.5001729029749171    0.1672067384808074
     0.6665227484520955    0.4998560814520943    0.8328306110734971
     0.6666404199526852    0.8339776845571976    0.1660223154428024
     0.6668395699749183    0.8327932615191926    0.4998270970250829
     0.6668476143271107    0.8336236020213263    0.8336168770105630
     0.5767831245449457    0.4101164585449482    0.5898835414550518
 
  0.00000000E+00  0.00000000E+00  0.00000000E+00
  0.00000000E+00  0.00000000E+00  0.00000000E+00
  0.00000000E+00  0.00000000E+00  0.00000000E+00
  0.00000000E+00  0.00000000E+00  0.00000000E+00
  0.00000000E+00  0.00000000E+00  0.00000000E+00
  0.00000000E+00  0.00000000E+00  0.00000000E+00
  0.00000000E+00  0.00000000E+00  0.00000000E+00
  0.00000000E+00  0.00000000E+00  0.00000000E+00
  0.00000000E+00  0.00000000E+00  0.00000000E+00
  0.00000000E+00  0.00000000E+00  0.00000000E+00
  0.00000000E+00  0.00000000E+00  0.00000000E+00
  0.00000000E+00  0.00000000E+00  0.00000000E+00
  0.00000000E+00  0.00000000E+00  0.00000000E+00
  0.00000000E+00  0.00000000E+00  0.00000000E+00
  0.00000000E+00  0.00000000E+00  0.00000000E+00
  0.00000000E+00  0.00000000E+00  0.00000000E+00
  0.00000000E+00  0.00000000E+00  0.00000000E+00
  0.00000000E+00  0.00000000E+00  0.00000000E+00
  0.00000000E+00  0.00000000E+00  0.00000000E+00
  0.00000000E+00  0.00000000E+00  0.00000000E+00
  0.00000000E+00  0.00000000E+00  0.00000000E+00
  0.00000000E+00  0.00000000E+00  0.00000000E+00
  0.00000000E+00  0.00000000E+00  0.00000000E+00
  0.00000000E+00  0.00000000E+00  0.00000000E+00
  0.00000000E+00  0.00000000E+00  0.00000000E+00
  0.00000000E+00  0.00000000E+00  0.00000000E+00
  0.00000000E+00  0.00000000E+00  0.00000000E+00
  0.00000000E+00  0.00000000E+00  0.00000000E+00
  0.00000000E+00  0.00000000E+00  0.00000000E+00
  0.00000000E+00  0.00000000E+00  0.00000000E+00
  0.00000000E+00  0.00000000E+00  0.00000000E+00
  0.00000000E+00  0.00000000E+00  0.00000000E+00
  0.00000000E+00  0.00000000E+00  0.00000000E+00
  0.00000000E+00  0.00000000E+00  0.00000000E+00
  0.00000000E+00  0.00000000E+00  0.00000000E+00
  0.00000000E+00  0.00000000E+00  0.00000000E+00
  0.00000000E+00  0.00000000E+00  0.00000000E+00
  0.00000000E+00  0.00000000E+00  0.00000000E+00
  0.00000000E+00  0.00000000E+00  0.00000000E+00
  0.00000000E+00  0.00000000E+00  0.00000000E+00
  0.00000000E+00  0.00000000E+00  0.00000000E+00
  0.00000000E+00  0.00000000E+00  0.00000000E+00
  0.00000000E+00  0.00000000E+00  0.00000000E+00
  0.00000000E+00  0.00000000E+00  0.00000000E+00
  0.00000000E+00  0.00000000E+00  0.00000000E+00
  0.00000000E+00  0.00000000E+00  0.00000000E+00
  0.00000000E+00  0.00000000E+00  0.00000000E+00
  0.00000000E+00  0.00000000E+00  0.00000000E+00
  0.00000000E+00  0.00000000E+00  0.00000000E+00
  0.00000000E+00  0.00000000E+00  0.00000000E+00
  0.00000000E+00  0.00000000E+00  0.00000000E+00
  0.00000000E+00  0.00000000E+00  0.00000000E+00
  0.00000000E+00  0.00000000E+00  0.00000000E+00
  0.00000000E+00  0.00000000E+00  0.00000000E+00
  0.00000000E+00  0.00000000E+00  0.00000000E+00
  0.00000000E+00  0.00000000E+00  0.00000000E+00
  0.00000000E+00  0.00000000E+00  0.00000000E+00
  0.00000000E+00  0.00000000E+00  0.00000000E+00
  0.00000000E+00  0.00000000E+00  0.00000000E+00
  0.00000000E+00  0.00000000E+00  0.00000000E+00
  0.00000000E+00  0.00000000E+00  0.00000000E+00
  0.00000000E+00  0.00000000E+00  0.00000000E+00
  0.00000000E+00  0.00000000E+00  0.00000000E+00
  0.00000000E+00  0.00000000E+00  0.00000000E+00
  0.00000000E+00  0.00000000E+00  0.00000000E+00
  0.00000000E+00  0.00000000E+00  0.00000000E+00
  0.00000000E+00  0.00000000E+00  0.00000000E+00
  0.00000000E+00  0.00000000E+00  0.00000000E+00
  0.00000000E+00  0.00000000E+00  0.00000000E+00
  0.00000000E+00  0.00000000E+00  0.00000000E+00
  0.00000000E+00  0.00000000E+00  0.00000000E+00
  0.00000000E+00  0.00000000E+00  0.00000000E+00
  0.00000000E+00  0.00000000E+00  0.00000000E+00
  0.00000000E+00  0.00000000E+00  0.00000000E+00
  0.00000000E+00  0.00000000E+00  0.00000000E+00
  0.00000000E+00  0.00000000E+00  0.00000000E+00
  0.00000000E+00  0.00000000E+00  0.00000000E+00
  0.00000000E+00  0.00000000E+00  0.00000000E+00
  0.00000000E+00  0.00000000E+00  0.00000000E+00
  0.00000000E+00  0.00000000E+00  0.00000000E+00
  0.00000000E+00  0.00000000E+00  0.00000000E+00
  0.00000000E+00  0.00000000E+00  0.00000000E+00
  0.00000000E+00  0.00000000E+00  0.00000000E+00
  0.00000000E+00  0.00000000E+00  0.00000000E+00
  0.00000000E+00  0.00000000E+00  0.00000000E+00
  0.00000000E+00  0.00000000E+00  0.00000000E+00
  0.00000000E+00  0.00000000E+00  0.00000000E+00
  0.00000000E+00  0.00000000E+00  0.00000000E+00
  0.00000000E+00  0.00000000E+00  0.00000000E+00
  0.00000000E+00  0.00000000E+00  0.00000000E+00
  0.00000000E+00  0.00000000E+00  0.00000000E+00
  0.00000000E+00  0.00000000E+00  0.00000000E+00
  0.00000000E+00  0.00000000E+00  0.00000000E+00
  0.00000000E+00  0.00000000E+00  0.00000000E+00
  0.00000000E+00  0.00000000E+00  0.00000000E+00
  0.00000000E+00  0.00000000E+00  0.00000000E+00
  0.00000000E+00  0.00000000E+00  0.00000000E+00
  0.00000000E+00  0.00000000E+00  0.00000000E+00
  0.00000000E+00  0.00000000E+00  0.00000000E+00
  0.00000000E+00  0.00000000E+00  0.00000000E+00
  0.00000000E+00  0.00000000E+00  0.00000000E+00
  0.00000000E+00  0.00000000E+00  0.00000000E+00
  0.00000000E+00  0.00000000E+00  0.00000000E+00
  0.00000000E+00  0.00000000E+00  0.00000000E+00
  0.00000000E+00  0.00000000E+00  0.00000000E+00
  0.00000000E+00  0.00000000E+00  0.00000000E+00
  0.00000000E+00  0.00000000E+00  0.00000000E+00
  0.00000000E+00  0.00000000E+00  0.00000000E+00
  0.00000000E+00  0.00000000E+00  0.00000000E+00
  0.00000000E+00  0.00000000E+00  0.00000000E+00
  0.00000000E+00  0.00000000E+00  0.00000000E+00
  0.00000000E+00  0.00000000E+00  0.00000000E+00
  0.00000000E+00  0.00000000E+00  0.00000000E+00
  0.00000000E+00  0.00000000E+00  0.00000000E+00
  0.00000000E+00  0.00000000E+00  0.00000000E+00
  0.00000000E+00  0.00000000E+00  0.00000000E+00
  0.00000000E+00  0.00000000E+00  0.00000000E+00
  0.00000000E+00  0.00000000E+00  0.00000000E+00
  0.00000000E+00  0.00000000E+00  0.00000000E+00
  0.00000000E+00  0.00000000E+00  0.00000000E+00
  0.00000000E+00  0.00000000E+00  0.00000000E+00
  0.00000000E+00  0.00000000E+00  0.00000000E+00
  0.00000000E+00  0.00000000E+00  0.00000000E+00
  0.00000000E+00  0.00000000E+00  0.00000000E+00
  0.00000000E+00  0.00000000E+00  0.00000000E+00
  0.00000000E+00  0.00000000E+00  0.00000000E+00
  0.00000000E+00  0.00000000E+00  0.00000000E+00
  0.00000000E+00  0.00000000E+00  0.00000000E+00
  0.00000000E+00  0.00000000E+00  0.00000000E+00
  0.00000000E+00  0.00000000E+00  0.00000000E+00
  0.00000000E+00  0.00000000E+00  0.00000000E+00
  0.00000000E+00  0.00000000E+00  0.00000000E+00
  0.00000000E+00  0.00000000E+00  0.00000000E+00
  0.00000000E+00  0.00000000E+00  0.00000000E+00
  0.00000000E+00  0.00000000E+00  0.00000000E+00
  0.00000000E+00  0.00000000E+00  0.00000000E+00
  0.00000000E+00  0.00000000E+00  0.00000000E+00
  0.00000000E+00  0.00000000E+00  0.00000000E+00
  0.00000000E+00  0.00000000E+00  0.00000000E+00
  0.00000000E+00  0.00000000E+00  0.00000000E+00
  0.00000000E+00  0.00000000E+00  0.00000000E+00
  0.00000000E+00  0.00000000E+00  0.00000000E+00
  0.00000000E+00  0.00000000E+00  0.00000000E+00
  0.00000000E+00  0.00000000E+00  0.00000000E+00
  0.00000000E+00  0.00000000E+00  0.00000000E+00
  0.00000000E+00  0.00000000E+00  0.00000000E+00
  0.00000000E+00  0.00000000E+00  0.00000000E+00
  0.00000000E+00  0.00000000E+00  0.00000000E+00
  0.00000000E+00  0.00000000E+00  0.00000000E+00
  0.00000000E+00  0.00000000E+00  0.00000000E+00
  0.00000000E+00  0.00000000E+00  0.00000000E+00
  0.00000000E+00  0.00000000E+00  0.00000000E+00
  0.00000000E+00  0.00000000E+00  0.00000000E+00
  0.00000000E+00  0.00000000E+00  0.00000000E+00
  0.00000000E+00  0.00000000E+00  0.00000000E+00
  0.00000000E+00  0.00000000E+00  0.00000000E+00
  0.00000000E+00  0.00000000E+00  0.00000000E+00
  0.00000000E+00  0.00000000E+00  0.00000000E+00
  0.00000000E+00  0.00000000E+00  0.00000000E+00
  0.00000000E+00  0.00000000E+00  0.00000000E+00
  0.00000000E+00  0.00000000E+00  0.00000000E+00
  0.00000000E+00  0.00000000E+00  0.00000000E+00
  0.00000000E+00  0.00000000E+00  0.00000000E+00
  0.00000000E+00  0.00000000E+00  0.00000000E+00
  0.00000000E+00  0.00000000E+00  0.00000000E+00
  0.00000000E+00  0.00000000E+00  0.00000000E+00
  0.00000000E+00  0.00000000E+00  0.00000000E+00
  0.00000000E+00  0.00000000E+00  0.00000000E+00
  0.00000000E+00  0.00000000E+00  0.00000000E+00
  0.00000000E+00  0.00000000E+00  0.00000000E+00
  0.00000000E+00  0.00000000E+00  0.00000000E+00
  0.00000000E+00  0.00000000E+00  0.00000000E+00
  0.00000000E+00  0.00000000E+00  0.00000000E+00
  0.00000000E+00  0.00000000E+00  0.00000000E+00
  0.00000000E+00  0.00000000E+00  0.00000000E+00
  0.00000000E+00  0.00000000E+00  0.00000000E+00
  0.00000000E+00  0.00000000E+00  0.00000000E+00
  0.00000000E+00  0.00000000E+00  0.00000000E+00
  0.00000000E+00  0.00000000E+00  0.00000000E+00
  0.00000000E+00  0.00000000E+00  0.00000000E+00
  0.00000000E+00  0.00000000E+00  0.00000000E+00
  0.00000000E+00  0.00000000E+00  0.00000000E+00
  0.00000000E+00  0.00000000E+00  0.00000000E+00
  0.00000000E+00  0.00000000E+00  0.00000000E+00
  0.00000000E+00  0.00000000E+00  0.00000000E+00
  0.00000000E+00  0.00000000E+00  0.00000000E+00
  0.00000000E+00  0.00000000E+00  0.00000000E+00
  0.00000000E+00  0.00000000E+00  0.00000000E+00
  0.00000000E+00  0.00000000E+00  0.00000000E+00
  0.00000000E+00  0.00000000E+00  0.00000000E+00
  0.00000000E+00  0.00000000E+00  0.00000000E+00
  0.00000000E+00  0.00000000E+00  0.00000000E+00
  0.00000000E+00  0.00000000E+00  0.00000000E+00
  0.00000000E+00  0.00000000E+00  0.00000000E+00
  0.00000000E+00  0.00000000E+00  0.00000000E+00
  0.00000000E+00  0.00000000E+00  0.00000000E+00
  0.00000000E+00  0.00000000E+00  0.00000000E+00
  0.00000000E+00  0.00000000E+00  0.00000000E+00
  0.00000000E+00  0.00000000E+00  0.00000000E+00
  0.00000000E+00  0.00000000E+00  0.00000000E+00
  0.00000000E+00  0.00000000E+00  0.00000000E+00
  0.00000000E+00  0.00000000E+00  0.00000000E+00
  0.00000000E+00  0.00000000E+00  0.00000000E+00
  0.00000000E+00  0.00000000E+00  0.00000000E+00
  0.00000000E+00  0.00000000E+00  0.00000000E+00
  0.00000000E+00  0.00000000E+00  0.00000000E+00
  0.00000000E+00  0.00000000E+00  0.00000000E+00
  0.00000000E+00  0.00000000E+00  0.00000000E+00
  0.00000000E+00  0.00000000E+00  0.00000000E+00
  0.00000000E+00  0.00000000E+00  0.00000000E+00
  0.00000000E+00  0.00000000E+00  0.00000000E+00
  0.00000000E+00  0.00000000E+00  0.00000000E+00
  0.00000000E+00  0.00000000E+00  0.00000000E+00
  0.00000000E+00  0.00000000E+00  0.00000000E+00
  0.00000000E+00  0.00000000E+00  0.00000000E+00
