C  N                                    
   1.00000000000000     
    10.7211360931000002    0.0000000000000000    0.0000000000000000
     0.0000000000000000   10.7211360931000002    0.0000000000000000
     0.0000000000000000    0.0000000000000000   10.7211360931000002
   C    N 
   214     1
Direct
     0.0832923069132576    0.0833284432908314    0.0833743590867400
     0.0836926544175043    0.0831116542777224    0.4167693699591410
     0.0830431550956874    0.0834487019974191    0.7499712744935678
     0.0836959127956263    0.4167046115892816    0.0829707532043713
     0.0832247978946299    0.4167267337081526    0.4167112506968706
     0.0830689180067310    0.4167182757144658    0.7499090010754870
     0.0832388370668440    0.7499367918793780    0.0834278289331536
     0.0833081005748753    0.7499708219110701    0.4167362278406372
     0.0835616005626036    0.7499576320457493    0.7499930749605426
     0.4166953925064334    0.0834487019974191    0.0836235109043102
     0.4168473123480325    0.0835704459544715    0.4169520280474970
     0.4164006094970745    0.0828854298880302    0.7502660575029267
     0.4167576659245142    0.4167182757144658    0.0835977479932666
     0.4181561702345178    0.4177154155111609    0.4179839705112016
     0.4158784028842746    0.4161003114097710    0.7507882641157266
     0.4166735920394586    0.7499576320457493    0.0831050654373939
     0.4155252106614569    0.7510286855804154    0.4168776126304010
     0.4171891611432130    0.7493205464453538    0.7494775058567882
     0.7498972970408602    0.0831116542777224    0.0829740115824933
     0.7499884202429001    0.0834173040693145    0.4166782467571011
     0.7497146389525042    0.0835704459544715    0.7498193546519687
     0.7499554163031306    0.4167267337081526    0.0834418681053677
     0.7576309660048182    0.4089868698004295    0.4090357009951830
     0.7486826964887996    0.4177154155111609    0.7485104967654834
     0.7499304391593640    0.7499708219110701    0.0833585654251223
     0.7495391993074634    0.7491845156974790    0.4171274676925378
     0.7497890543696002    0.7510286855804154    0.7511414563385443
     0.2501153689974203    0.2500287255064322    0.0836235109043102
     0.2502371129544727    0.2501806453480313    0.4169520280474970
     0.2495520968880314    0.2497339424970733    0.7502660575029267
     0.2497783212777236    0.5832306300408590    0.0829740115824933
     0.2500839710693157    0.5833217532428989    0.4166782467571011
     0.2502371129544727    0.5830479719525030    0.7498193546519687
     0.2499951102908327    0.9166256409132600    0.0833743590867400
     0.2497783212777236    0.9170259884175067    0.4167693699591410
     0.2501153689974203    0.9163764890956898    0.7499712744935678
     0.5833849417144634    0.2500909989245130    0.0835977479932666
     0.5843820815111584    0.2514895032345166    0.4179839705112016
     0.5827669774097686    0.2492117358842734    0.7507882641157266
     0.5833933997081502    0.5832887493031294    0.0834418681053677
     0.5756535358004271    0.5909642990048170    0.4090357009951830
     0.5843820815111584    0.5820160294887984    0.7485104967654834
     0.5833712775892792    0.9170292467956287    0.0829707532043713
     0.5833933997081502    0.9165581318946323    0.4167112506968706
     0.5833849417144634    0.9164022520067334    0.7499090010754870
     0.9166242990457505    0.2500069250394574    0.0831050654373939
     0.9176953525804166    0.2488585436614557    0.4168776126304010
     0.9159872134453551    0.2505224941432118    0.7494775058567882
     0.9166374889110713    0.5832637721593628    0.0833585654251223
     0.9158511826974802    0.5828725323074622    0.4171274676925378
     0.9176953525804166    0.5831223873695990    0.7511414563385443
     0.9166034588793792    0.9165721710668464    0.0834278289331536
     0.9166374889110713    0.9166414345748777    0.4167362278406372
     0.9166242990457505    0.9168949345626061    0.7499930749605426
     0.2501671656714066    0.0835004986714054    0.2501522058932011
     0.2498954221516314    0.0832287551516302    0.5834876679819700
     0.2498585432982381    0.0831918762982369    0.9168081237017631
     0.2503831586854801    0.4168526581385805    0.2503892863312487
     0.2498935331624210    0.4165945348360154    0.5834054651639846
     0.2498954221516314    0.4165123320180300    0.9167712448483698
     0.2498264609427494    0.7500713356407118    0.2499286643592882
     0.2503831586854801    0.7496107136687513    0.5831473418614124
     0.2501671656714066    0.7498477941067989    0.9164995013285946
     0.5835193241385852    0.0837164916854789    0.2503892863312487
     0.5832612008360130    0.0832268661624198    0.5834054651639846
     0.5831789980180275    0.0832287551516302    0.9167712448483698
     0.5840051024227222    0.4173384364227246    0.2510430054277890
     0.5832612008360130    0.4165945348360154    0.9167731338375802
     0.5835164848120726    0.7510184069258585    0.2489815930741415
     0.5840051024227222    0.7489569945722110    0.5826615635772754
     0.5835193241385852    0.7496107136687513    0.9162835083145211
     0.9167380026407130    0.0831597939427482    0.2499286643592882
     0.9162773806687525    0.0837164916854789    0.5831473418614124
     0.9165144611068001    0.0835004986714054    0.9164995013285946
     0.9176850739258597    0.4168498188120751    0.2489815930741415
     0.9156236615722122    0.4173384364227246    0.5826615635772754
     0.9162773806687525    0.4168526581385805    0.9162835083145211
     0.9163417023864682    0.7496750353864670    0.2503249646135330
     0.9176850739258597    0.7510184069258585    0.5831501811879249
     0.9167380026407130    0.7500713356407118    0.9168402060572518
     0.0835616005626036    0.2500069250394574    0.2500423679542507
     0.0830689180067310    0.2500909989245130    0.5832817242855342
     0.0830431550956874    0.2500287255064322    0.9165512980025809
     0.0833081005748753    0.5832637721593628    0.2500291780889299
     0.0832247978946299    0.5832887493031294    0.5832732662918474
     0.0836926544175043    0.5832306300408590    0.9168883457222776
     0.0832388370668440    0.9165721710668464    0.2500632081206220
     0.0836959127956263    0.9170292467956287    0.5832953884107184
     0.0832923069132576    0.9166256409132600    0.9166715567091686
     0.4171891611432130    0.2505224941432118    0.2506794535546462
     0.4158784028842746    0.2492117358842734    0.5838996885902290
     0.4164006094970745    0.2497339424970733    0.9171145701119698
     0.4155252106614569    0.5831223873695990    0.2489713144195846
     0.4181561702345178    0.5820160294887984    0.5822845844888391
     0.4168473123480325    0.5830479719525030    0.9164295540455285
     0.4166735920394586    0.9168949345626061    0.2500423679542507
     0.4167576659245142    0.9164022520067334    0.5832817242855342
     0.4166953925064334    0.9163764890956898    0.9165512980025809
     0.7497890543696002    0.2488585436614557    0.2489713144195846
     0.7486826964887996    0.2514895032345166    0.5822845844888391
     0.7497146389525042    0.2501806453480313    0.9164295540455285
     0.7495391993074634    0.5828725323074622    0.2508154843025210
     0.7576309660048182    0.5909642990048170    0.5910131301995705
     0.7499884202429001    0.5833217532428989    0.9165826959306855
     0.7499304391593640    0.9166414345748777    0.2500291780889299
     0.7499554163031306    0.9165581318946323    0.5832732662918474
     0.7498972970408602    0.9170259884175067    0.9168883457222776
     0.9999224150135575    0.0000202976782475    0.9999797023217525
     0.0000448903172838    0.9999101852083356    0.3333136267942649
     0.9997891342452618    0.0002866800764707    0.6666906373060613
     0.9997891342452618    0.3333093626939387    0.9997133199235293
     0.0002181343820737    0.3332401213494549    0.3332440695564074
     0.9991828077733587    0.3338971896148237    0.6661028103851763
     0.0000448903172838    0.6666863732057351    0.0000898147916644
     0.9995323673072605    0.6662497196655153    0.3337502803344847
     0.0002181343820737    0.6667559304435926    0.6667598786505451
     0.3333354936102069    0.9999075901614134    0.0000924098385866
     0.3334351256747397    0.0002587335579349    0.3334085160701434
     0.3333485656697661    0.9997035204834859    0.6667509696505931
     0.3333485656697661    0.3332490303494069    0.0002964795165141
     0.3343886578267359    0.3337202590332637    0.3343589043341737
     0.3327666046104412    0.3329678544029093    0.6670321455970907
     0.3334351256747397    0.6665914839298566    0.9997412664420651
     0.3330731214808438    0.6668257760804792    0.3331742239195208
     0.3343886578267359    0.6656410956658263    0.6662797409667363
     0.6666668199234280    0.0001595984037053    0.9998404015962947
     0.6666563422767098    0.0000563976201349    0.3335109740103377
     0.6666026949269721    0.9998995129694990    0.6665692621205750
     0.6666026949269721    0.3334307378794250    0.0001004870305010
     0.6682780642810684    0.3342319998505516    0.3341186392270288
     0.6636297770178459    0.3341938537815494    0.6658061462184506
     0.6666563422767098    0.6664890259896623    0.9999436023798651
     0.6656686386381665    0.6659545710997605    0.3340454289002395
     0.6682780642810684    0.6658813607729712    0.6657680001494484
     0.1665742571614146    0.1666688276102093    0.0000924098385866
     0.1669254005579361    0.1667684596747421    0.3334085160701434
     0.1663701874834871    0.1666818996697685    0.6667509696505931
     0.1668262654037065    0.5000001529234268    0.9998404015962947
     0.1667230646201361    0.4999896752767015    0.3335109740103377
     0.1665661799695002    0.4999360279269709    0.6665692621205750
     0.1666869646782487    0.8332557480135563    0.9999797023217525
     0.1665768522083368    0.8333782233172826    0.3333136267942649
     0.1669533470764719    0.8331224672452606    0.6666906373060613
     0.4999156973494081    0.1666818996697685    0.0002964795165141
     0.5003869260332650    0.1677219918267312    0.3343589043341737
     0.4996345214029105    0.1660999386104436    0.6670321455970907
     0.5000974048794262    0.4999360279269709    0.0001004870305010
     0.5008986668505528    0.5016113972810672    0.3341186392270288
     0.5008605207815506    0.4969631100178447    0.6658061462184506
     0.4999760296939399    0.8331224672452606    0.9997133199235293
     0.4999067883494561    0.8335514673820725    0.3332440695564074
     0.5005638566148249    0.8325161407733574    0.6661028103851763
     0.8332581499298541    0.1667684596747421    0.9997412664420651
     0.8334924420804768    0.1664064554808462    0.3331742239195208
     0.8323077616658239    0.1677219918267312    0.6662797409667363
     0.8331556919896599    0.4999896752767015    0.9999436023798651
     0.8326212370997581    0.4990019716381653    0.3340454289002395
     0.8325480267729688    0.5016113972810672    0.6657680001494484
     0.8333530392057327    0.8333782233172826    0.0000898147916644
     0.8329163856655128    0.8328657003072593    0.3337502803344847
     0.8334225964435902    0.8335514673820725    0.6667598786505451
     0.1666869646782487    0.0000202976782475    0.1667442519864437
     0.1668262654037065    0.0001595984037053    0.4999998470765732
     0.1665742571614146    0.9999075901614134    0.8333311723897907
     0.1669533470764719    0.3333093626939387    0.1668775327547394
     0.1665661799695002    0.3334307378794250    0.5000639720730291
     0.1663701874834871    0.3332490303494069    0.8333181003302315
     0.1665768522083368    0.6666863732057351    0.1666217766827174
     0.1667230646201361    0.6664890259896623    0.5000103247232985
     0.1669254005579361    0.6665914839298566    0.8332315403252579
     0.4999760296939399    0.0002866800764707    0.1668775327547394
     0.5000974048794262    0.9998995129694990    0.5000639720730291
     0.4999156973494081    0.9997035204834859    0.8333181003302315
     0.5005638566148249    0.3338971896148237    0.1674838592266426
     0.5008605207815506    0.3341938537815494    0.5030368899821553
     0.4996345214029105    0.3329678544029093    0.8339000613895564
     0.4999067883494561    0.6667559304435926    0.1664485326179275
     0.5008986668505528    0.6658813607729712    0.4983886027189328
     0.5003869260332650    0.6656410956658263    0.8322780081732688
     0.8333530392057327    0.9999101852083356    0.1666217766827174
     0.8331556919896599    0.0000563976201349    0.5000103247232985
     0.8332581499298541    0.0002587335579349    0.8332315403252579
     0.8334225964435902    0.3332401213494549    0.1664485326179275
     0.8325480267729688    0.3342319998505516    0.4983886027189328
     0.8323077616658239    0.3337202590332637    0.8322780081732688
     0.8329163856655128    0.6662497196655153    0.1671342996927407
     0.8326212370997581    0.6659545710997605    0.5009980283618347
     0.8334924420804768    0.6668257760804792    0.8335935445191538
     0.0000193160117306    0.1667068873672832    0.1666473509882707
     0.0004708977224936    0.1661658225558540    0.4998028004001043
     0.9995753933403932    0.1669298306943787    0.8330701693056213
     0.0005867569034024    0.4998511874082254    0.1660799100965988
     0.9993818649543584    0.5000622699798569    0.4999377300201431
     0.0004708977224936    0.5001971995998957    0.8338341774441460
     0.9998256859730006    0.8331590189729994    0.1668409810270006
     0.0005867569034024    0.8339200899034012    0.5001488125917746
     0.0000193160117306    0.8333526490117293    0.8332931126327168
     0.3335964966943763    0.1669298306943787    0.1670912736596080
     0.3331492664777329    0.1664826004777353    0.5002595139669097
     0.3331197052502475    0.1664530392502499    0.8335469607497501
     0.3328324885558516    0.5001971995998957    0.1661957692775076
     0.3337470885655307    0.4999352895277198    0.5000647104722802
     0.3331492664777329    0.4997404860330903    0.8335173995222647
     0.3333735533672808    0.8333526490117293    0.1666473509882707
     0.3328324885558516    0.8338042307224924    0.4998028004001043
     0.3335964966943763    0.8329087263403920    0.8330701693056213
     0.6668638665998969    0.1661658225558540    0.1661957692775076
     0.6666019565277210    0.1670804225655331    0.5000647104722802
     0.6664071530330915    0.1664826004777353    0.8335173995222647
     0.6667289369798581    0.5000622699798569    0.1672848020456428
     0.6666019565277210    0.4999352895277198    0.8329195774344669
     0.6665178544082266    0.8339200899034012    0.1660799100965988
     0.6667289369798581    0.8327151979543572    0.4999377300201431
     0.6668638665998969    0.8338042307224924    0.8338341774441460
     0.5776123587246857    0.4109456927246882    0.5890543072753118
 
  0.00000000E+00  0.00000000E+00  0.00000000E+00
  0.00000000E+00  0.00000000E+00  0.00000000E+00
  0.00000000E+00  0.00000000E+00  0.00000000E+00
  0.00000000E+00  0.00000000E+00  0.00000000E+00
  0.00000000E+00  0.00000000E+00  0.00000000E+00
  0.00000000E+00  0.00000000E+00  0.00000000E+00
  0.00000000E+00  0.00000000E+00  0.00000000E+00
  0.00000000E+00  0.00000000E+00  0.00000000E+00
  0.00000000E+00  0.00000000E+00  0.00000000E+00
  0.00000000E+00  0.00000000E+00  0.00000000E+00
  0.00000000E+00  0.00000000E+00  0.00000000E+00
  0.00000000E+00  0.00000000E+00  0.00000000E+00
  0.00000000E+00  0.00000000E+00  0.00000000E+00
  0.00000000E+00  0.00000000E+00  0.00000000E+00
  0.00000000E+00  0.00000000E+00  0.00000000E+00
  0.00000000E+00  0.00000000E+00  0.00000000E+00
  0.00000000E+00  0.00000000E+00  0.00000000E+00
  0.00000000E+00  0.00000000E+00  0.00000000E+00
  0.00000000E+00  0.00000000E+00  0.00000000E+00
  0.00000000E+00  0.00000000E+00  0.00000000E+00
  0.00000000E+00  0.00000000E+00  0.00000000E+00
  0.00000000E+00  0.00000000E+00  0.00000000E+00
  0.00000000E+00  0.00000000E+00  0.00000000E+00
  0.00000000E+00  0.00000000E+00  0.00000000E+00
  0.00000000E+00  0.00000000E+00  0.00000000E+00
  0.00000000E+00  0.00000000E+00  0.00000000E+00
  0.00000000E+00  0.00000000E+00  0.00000000E+00
  0.00000000E+00  0.00000000E+00  0.00000000E+00
  0.00000000E+00  0.00000000E+00  0.00000000E+00
  0.00000000E+00  0.00000000E+00  0.00000000E+00
  0.00000000E+00  0.00000000E+00  0.00000000E+00
  0.00000000E+00  0.00000000E+00  0.00000000E+00
  0.00000000E+00  0.00000000E+00  0.00000000E+00
  0.00000000E+00  0.00000000E+00  0.00000000E+00
  0.00000000E+00  0.00000000E+00  0.00000000E+00
  0.00000000E+00  0.00000000E+00  0.00000000E+00
  0.00000000E+00  0.00000000E+00  0.00000000E+00
  0.00000000E+00  0.00000000E+00  0.00000000E+00
  0.00000000E+00  0.00000000E+00  0.00000000E+00
  0.00000000E+00  0.00000000E+00  0.00000000E+00
  0.00000000E+00  0.00000000E+00  0.00000000E+00
  0.00000000E+00  0.00000000E+00  0.00000000E+00
  0.00000000E+00  0.00000000E+00  0.00000000E+00
  0.00000000E+00  0.00000000E+00  0.00000000E+00
  0.00000000E+00  0.00000000E+00  0.00000000E+00
  0.00000000E+00  0.00000000E+00  0.00000000E+00
  0.00000000E+00  0.00000000E+00  0.00000000E+00
  0.00000000E+00  0.00000000E+00  0.00000000E+00
  0.00000000E+00  0.00000000E+00  0.00000000E+00
  0.00000000E+00  0.00000000E+00  0.00000000E+00
  0.00000000E+00  0.00000000E+00  0.00000000E+00
  0.00000000E+00  0.00000000E+00  0.00000000E+00
  0.00000000E+00  0.00000000E+00  0.00000000E+00
  0.00000000E+00  0.00000000E+00  0.00000000E+00
  0.00000000E+00  0.00000000E+00  0.00000000E+00
  0.00000000E+00  0.00000000E+00  0.00000000E+00
  0.00000000E+00  0.00000000E+00  0.00000000E+00
  0.00000000E+00  0.00000000E+00  0.00000000E+00
  0.00000000E+00  0.00000000E+00  0.00000000E+00
  0.00000000E+00  0.00000000E+00  0.00000000E+00
  0.00000000E+00  0.00000000E+00  0.00000000E+00
  0.00000000E+00  0.00000000E+00  0.00000000E+00
  0.00000000E+00  0.00000000E+00  0.00000000E+00
  0.00000000E+00  0.00000000E+00  0.00000000E+00
  0.00000000E+00  0.00000000E+00  0.00000000E+00
  0.00000000E+00  0.00000000E+00  0.00000000E+00
  0.00000000E+00  0.00000000E+00  0.00000000E+00
  0.00000000E+00  0.00000000E+00  0.00000000E+00
  0.00000000E+00  0.00000000E+00  0.00000000E+00
  0.00000000E+00  0.00000000E+00  0.00000000E+00
  0.00000000E+00  0.00000000E+00  0.00000000E+00
  0.00000000E+00  0.00000000E+00  0.00000000E+00
  0.00000000E+00  0.00000000E+00  0.00000000E+00
  0.00000000E+00  0.00000000E+00  0.00000000E+00
  0.00000000E+00  0.00000000E+00  0.00000000E+00
  0.00000000E+00  0.00000000E+00  0.00000000E+00
  0.00000000E+00  0.00000000E+00  0.00000000E+00
  0.00000000E+00  0.00000000E+00  0.00000000E+00
  0.00000000E+00  0.00000000E+00  0.00000000E+00
  0.00000000E+00  0.00000000E+00  0.00000000E+00
  0.00000000E+00  0.00000000E+00  0.00000000E+00
  0.00000000E+00  0.00000000E+00  0.00000000E+00
  0.00000000E+00  0.00000000E+00  0.00000000E+00
  0.00000000E+00  0.00000000E+00  0.00000000E+00
  0.00000000E+00  0.00000000E+00  0.00000000E+00
  0.00000000E+00  0.00000000E+00  0.00000000E+00
  0.00000000E+00  0.00000000E+00  0.00000000E+00
  0.00000000E+00  0.00000000E+00  0.00000000E+00
  0.00000000E+00  0.00000000E+00  0.00000000E+00
  0.00000000E+00  0.00000000E+00  0.00000000E+00
  0.00000000E+00  0.00000000E+00  0.00000000E+00
  0.00000000E+00  0.00000000E+00  0.00000000E+00
  0.00000000E+00  0.00000000E+00  0.00000000E+00
  0.00000000E+00  0.00000000E+00  0.00000000E+00
  0.00000000E+00  0.00000000E+00  0.00000000E+00
  0.00000000E+00  0.00000000E+00  0.00000000E+00
  0.00000000E+00  0.00000000E+00  0.00000000E+00
  0.00000000E+00  0.00000000E+00  0.00000000E+00
  0.00000000E+00  0.00000000E+00  0.00000000E+00
  0.00000000E+00  0.00000000E+00  0.00000000E+00
  0.00000000E+00  0.00000000E+00  0.00000000E+00
  0.00000000E+00  0.00000000E+00  0.00000000E+00
  0.00000000E+00  0.00000000E+00  0.00000000E+00
  0.00000000E+00  0.00000000E+00  0.00000000E+00
  0.00000000E+00  0.00000000E+00  0.00000000E+00
  0.00000000E+00  0.00000000E+00  0.00000000E+00
  0.00000000E+00  0.00000000E+00  0.00000000E+00
  0.00000000E+00  0.00000000E+00  0.00000000E+00
  0.00000000E+00  0.00000000E+00  0.00000000E+00
  0.00000000E+00  0.00000000E+00  0.00000000E+00
  0.00000000E+00  0.00000000E+00  0.00000000E+00
  0.00000000E+00  0.00000000E+00  0.00000000E+00
  0.00000000E+00  0.00000000E+00  0.00000000E+00
  0.00000000E+00  0.00000000E+00  0.00000000E+00
  0.00000000E+00  0.00000000E+00  0.00000000E+00
  0.00000000E+00  0.00000000E+00  0.00000000E+00
  0.00000000E+00  0.00000000E+00  0.00000000E+00
  0.00000000E+00  0.00000000E+00  0.00000000E+00
  0.00000000E+00  0.00000000E+00  0.00000000E+00
  0.00000000E+00  0.00000000E+00  0.00000000E+00
  0.00000000E+00  0.00000000E+00  0.00000000E+00
  0.00000000E+00  0.00000000E+00  0.00000000E+00
  0.00000000E+00  0.00000000E+00  0.00000000E+00
  0.00000000E+00  0.00000000E+00  0.00000000E+00
  0.00000000E+00  0.00000000E+00  0.00000000E+00
  0.00000000E+00  0.00000000E+00  0.00000000E+00
  0.00000000E+00  0.00000000E+00  0.00000000E+00
  0.00000000E+00  0.00000000E+00  0.00000000E+00
  0.00000000E+00  0.00000000E+00  0.00000000E+00
  0.00000000E+00  0.00000000E+00  0.00000000E+00
  0.00000000E+00  0.00000000E+00  0.00000000E+00
  0.00000000E+00  0.00000000E+00  0.00000000E+00
  0.00000000E+00  0.00000000E+00  0.00000000E+00
  0.00000000E+00  0.00000000E+00  0.00000000E+00
  0.00000000E+00  0.00000000E+00  0.00000000E+00
  0.00000000E+00  0.00000000E+00  0.00000000E+00
  0.00000000E+00  0.00000000E+00  0.00000000E+00
  0.00000000E+00  0.00000000E+00  0.00000000E+00
  0.00000000E+00  0.00000000E+00  0.00000000E+00
  0.00000000E+00  0.00000000E+00  0.00000000E+00
  0.00000000E+00  0.00000000E+00  0.00000000E+00
  0.00000000E+00  0.00000000E+00  0.00000000E+00
  0.00000000E+00  0.00000000E+00  0.00000000E+00
  0.00000000E+00  0.00000000E+00  0.00000000E+00
  0.00000000E+00  0.00000000E+00  0.00000000E+00
  0.00000000E+00  0.00000000E+00  0.00000000E+00
  0.00000000E+00  0.00000000E+00  0.00000000E+00
  0.00000000E+00  0.00000000E+00  0.00000000E+00
  0.00000000E+00  0.00000000E+00  0.00000000E+00
  0.00000000E+00  0.00000000E+00  0.00000000E+00
  0.00000000E+00  0.00000000E+00  0.00000000E+00
  0.00000000E+00  0.00000000E+00  0.00000000E+00
  0.00000000E+00  0.00000000E+00  0.00000000E+00
  0.00000000E+00  0.00000000E+00  0.00000000E+00
  0.00000000E+00  0.00000000E+00  0.00000000E+00
  0.00000000E+00  0.00000000E+00  0.00000000E+00
  0.00000000E+00  0.00000000E+00  0.00000000E+00
  0.00000000E+00  0.00000000E+00  0.00000000E+00
  0.00000000E+00  0.00000000E+00  0.00000000E+00
  0.00000000E+00  0.00000000E+00  0.00000000E+00
  0.00000000E+00  0.00000000E+00  0.00000000E+00
  0.00000000E+00  0.00000000E+00  0.00000000E+00
  0.00000000E+00  0.00000000E+00  0.00000000E+00
  0.00000000E+00  0.00000000E+00  0.00000000E+00
  0.00000000E+00  0.00000000E+00  0.00000000E+00
  0.00000000E+00  0.00000000E+00  0.00000000E+00
  0.00000000E+00  0.00000000E+00  0.00000000E+00
  0.00000000E+00  0.00000000E+00  0.00000000E+00
  0.00000000E+00  0.00000000E+00  0.00000000E+00
  0.00000000E+00  0.00000000E+00  0.00000000E+00
  0.00000000E+00  0.00000000E+00  0.00000000E+00
  0.00000000E+00  0.00000000E+00  0.00000000E+00
  0.00000000E+00  0.00000000E+00  0.00000000E+00
  0.00000000E+00  0.00000000E+00  0.00000000E+00
  0.00000000E+00  0.00000000E+00  0.00000000E+00
  0.00000000E+00  0.00000000E+00  0.00000000E+00
  0.00000000E+00  0.00000000E+00  0.00000000E+00
  0.00000000E+00  0.00000000E+00  0.00000000E+00
  0.00000000E+00  0.00000000E+00  0.00000000E+00
  0.00000000E+00  0.00000000E+00  0.00000000E+00
  0.00000000E+00  0.00000000E+00  0.00000000E+00
  0.00000000E+00  0.00000000E+00  0.00000000E+00
  0.00000000E+00  0.00000000E+00  0.00000000E+00
  0.00000000E+00  0.00000000E+00  0.00000000E+00
  0.00000000E+00  0.00000000E+00  0.00000000E+00
  0.00000000E+00  0.00000000E+00  0.00000000E+00
  0.00000000E+00  0.00000000E+00  0.00000000E+00
  0.00000000E+00  0.00000000E+00  0.00000000E+00
  0.00000000E+00  0.00000000E+00  0.00000000E+00
  0.00000000E+00  0.00000000E+00  0.00000000E+00
  0.00000000E+00  0.00000000E+00  0.00000000E+00
  0.00000000E+00  0.00000000E+00  0.00000000E+00
  0.00000000E+00  0.00000000E+00  0.00000000E+00
  0.00000000E+00  0.00000000E+00  0.00000000E+00
  0.00000000E+00  0.00000000E+00  0.00000000E+00
  0.00000000E+00  0.00000000E+00  0.00000000E+00
  0.00000000E+00  0.00000000E+00  0.00000000E+00
  0.00000000E+00  0.00000000E+00  0.00000000E+00
  0.00000000E+00  0.00000000E+00  0.00000000E+00
  0.00000000E+00  0.00000000E+00  0.00000000E+00
  0.00000000E+00  0.00000000E+00  0.00000000E+00
  0.00000000E+00  0.00000000E+00  0.00000000E+00
  0.00000000E+00  0.00000000E+00  0.00000000E+00
  0.00000000E+00  0.00000000E+00  0.00000000E+00
  0.00000000E+00  0.00000000E+00  0.00000000E+00
  0.00000000E+00  0.00000000E+00  0.00000000E+00
  0.00000000E+00  0.00000000E+00  0.00000000E+00
  0.00000000E+00  0.00000000E+00  0.00000000E+00
  0.00000000E+00  0.00000000E+00  0.00000000E+00
  0.00000000E+00  0.00000000E+00  0.00000000E+00
  0.00000000E+00  0.00000000E+00  0.00000000E+00
  0.00000000E+00  0.00000000E+00  0.00000000E+00
  0.00000000E+00  0.00000000E+00  0.00000000E+00
  0.00000000E+00  0.00000000E+00  0.00000000E+00
  0.00000000E+00  0.00000000E+00  0.00000000E+00
