    2    2    1    1
  0.5639752E+01  0.2517300E-09  0.2517300E-09  0.2517300E-09  0.5000000E-15
  1.000000000000000E-004
  CAR 
 unknown system                          
      8     47      8
 
  0.1276756E-14  0.1276756E-14  0.1276756E-14  0.1000000E-02
      1        -11.743264   1.000000
      2          9.806719   1.000000
      3          9.806719   1.000000
      4          9.806720   1.000000
      5         15.413823   0.000000
      6         15.413823   0.000000
      7         15.413824   0.000000
      8         23.268951   0.000000
 
  0.1000000E+00  0.1257202E-14  0.1278733E-14  0.8000000E-02
      1        -11.465498   1.000000
      2          8.124046   1.000000
      3          9.357615   1.000000
      4          9.357616   1.000000
      5         16.003661   0.000000
      6         16.003662   0.000000
      7         16.366519   0.000000
      8         23.499551   0.000000
 
  0.2000000E+00  0.1255815E-14  0.1296939E-14  0.8000000E-02
      1        -10.637211   1.000000
      2          4.906397   1.000000
      3          8.476725   1.000000
      4          8.476726   1.000000
      5         17.140056   0.000000
      6         17.140057   0.000000
      7         17.591996   0.000000
      8         24.137961   0.000000
 
  0.3000000E+00  0.1203015E-14  0.1309915E-14  0.8000000E-02
      1         -9.278184   1.000000
      2          1.494937   1.000000
      3          7.682180   1.000000
      4          7.682180   1.000000
      5         17.964808   0.000000
      6         17.964809   0.000000
      7         18.300033   0.000000
      8         24.915568   0.000000
 
  0.4000000E+00  0.1224943E-14  0.1342384E-14  0.8000000E-02
      1         -7.459585   1.000000
      2         -1.649810   1.000000
      3          7.167893   1.000000
      4          7.167894   1.000000
      5         18.253805   0.000000
      6         18.253806   0.000000
      7         18.633716   0.000000
      8         25.422423   0.000000
 
  0.5000000E+00  0.1216617E-14  0.1247647E-14  0.4000000E-02
      1         -5.936618   1.000000
      2         -3.627896   1.000000
      3          6.992344   1.000000
      4          6.992345   1.000000
      5         18.290829   0.000000
      6         18.290830   0.000000
      7         18.732321   0.000000
      8         25.557391   0.000000
 
  0.1000000E+00  0.1000000E+00  0.1257559E-14  0.6000000E-02
      1        -11.372995   1.000000
      2          8.572703   1.000000
      3          8.572704   1.000000
      4          8.936146   1.000000
      5         15.138617   0.000000
      6         16.965403   0.000000
      7         16.965404   0.000000
      8         23.366042   0.000000
 
  0.2000000E+00  0.1000000E+00  0.1290028E-14  0.2400000E-01
      1        -10.728396   1.000000
      2          6.025566   1.000000
      3          7.600270   1.000000
      4          8.466319   1.000000
      5         15.566669   0.000000
      6         18.273748   0.000000
      7         18.295075   0.000000
      8         23.267623   0.000000
 
  0.3000000E+00  0.1000000E+00  0.1316497E-14  0.2400000E-01
      1         -9.545716   1.000000
      2          2.741778   1.000000
      3          6.850967   1.000000
      4          7.594623   1.000000
      5         16.608902   0.000000
      6         19.133204   0.000000
      7         19.225473   0.000000
      8         23.455044   0.000000
 
  0.4000000E+00  0.1000000E+00  0.1363612E-14  0.2400000E-01
      1         -7.869982   1.000000
      2         -0.468763   1.000000
      3          6.473257   1.000000
      4          6.721190   1.000000
      5         17.327689   0.000000
      6         19.442274   0.000000
      7         19.539163   0.000000
      8         24.342695   0.000000
 
  0.5000000E+00  0.1000000E+00  0.1297399E-14  0.2400000E-01
      1         -5.992865   1.000000
      2         -3.078064   1.000000
      3          6.084163   1.000000
      4          6.502009   1.000000
      5         17.732529   0.000000
      6         19.193341   0.000000
      7         19.670547   0.000000
      8         25.343869   0.000000
 
 -0.4000000E+00  0.1000000E+00  0.1241531E-14  0.2400000E-01
      1         -6.576696   1.000000
      2         -2.342928   1.000000
      3          5.789048   1.000000
      4          6.916335   1.000000
      5         18.131409   0.000000
      6         18.772601   0.000000
      7         19.608554   0.000000
      8         25.418939   0.000000
 
 -0.3000000E+00  0.1000000E+00  0.1259737E-14  0.2400000E-01
      1         -8.478271   1.000000
      2          0.579042   1.000000
      3          5.888892   1.000000
      4          7.650545   1.000000
      5         18.156525   0.000000
      6         18.459322   0.000000
      7         19.306167   0.000000
      8         24.610883   0.000000
 
 -0.2000000E+00  0.1000000E+00  0.1280036E-14  0.2400000E-01
      1         -9.998518   1.000000
      2          3.863310   1.000000
      3          6.402122   1.000000
      4          8.564688   1.000000
      5         17.180210   0.000000
      6         18.332637   0.000000
      7         18.511509   0.000000
      8         23.911844   0.000000
 
 -0.1000000E+00  0.1000000E+00  0.1258124E-14  0.1200000E-01
      1        -11.004248   1.000000
      2          6.863945   1.000000
      3          7.464001   1.000000
      4          9.329454   1.000000
      5         16.162295   0.000000
      6         17.188289   0.000000
      7         17.505330   0.000000
      8         23.660628   0.000000
 
  0.2000000E+00  0.2000000E+00  0.1282348E-14  0.6000000E-02
      1        -10.269742   1.000000
      2          6.562467   1.000000
      3          6.562467   1.000000
      4          6.715993   1.000000
      5         14.546468   0.000000
      6         19.892315   0.000000
      7         19.892316   0.000000
      8         21.703211   0.000000
 
  0.3000000E+00  0.2000000E+00  0.1309202E-14  0.2400000E-01
      1         -9.271135   1.000000
      2          3.956183   1.000000
      3          5.769405   1.000000
      4          6.146963   1.000000
      5         14.975972   0.000000
      6         20.641898   0.000000
      7         21.133192   0.000000
      8         21.168503   0.000000
 
  0.4000000E+00  0.2000000E+00  0.1328561E-14  0.2400000E-01
      1         -7.764981   1.000000
      2          0.982242   1.000000
      3          5.085883   1.000000
      4          5.382100   1.000000
      5         15.925654   0.000000
      6         21.083443   0.000000
      7         21.642960   0.000000
      8         21.737159   0.000000
 
  0.5000000E+00  0.2000000E+00  0.1290872E-14  0.2400000E-01
      1         -5.892292   1.000000
      2         -1.768031   1.000000
      3          4.082825   1.000000
      4          5.447078   1.000000
      5         16.505848   0.000000
      6         21.382922   0.000000
      7         21.931450   0.000000
      8         23.119243   0.000000
 
 -0.4000000E+00  0.2000000E+00  0.1234619E-14  0.2400000E-01
      1         -5.342317   1.000000
      2         -2.426223   1.000000
      3          3.408700   1.000000
      4          5.946405   1.000000
      5         17.078313   0.000000
      6         20.699075   0.000000
      7         21.905282   0.000000
      8         25.103901   0.000000
 
 -0.3000000E+00  0.2000000E+00  0.1260149E-14  0.2400000E-01
      1         -7.177622   1.000000
      2          0.092352   1.000000
      3          3.186483   1.000000
      4          6.798515   1.000000
      5         17.817486   0.000000
      6         19.676520   0.000000
      7         21.592109   0.000000
      8         24.330216   0.000000
 
 -0.2000000E+00  0.2000000E+00  0.1301415E-14  0.1200000E-01
      1         -8.828651   1.000000
      2          2.806442   1.000000
      3          3.772918   1.000000
      4          7.811210   1.000000
      5         18.326063   0.000000
      6         18.426473   0.000000
      7         20.346271   0.000000
      8         23.548895   0.000000
 
  0.3000000E+00  0.3000000E+00  0.1302674E-14  0.6000000E-02
      1         -8.459582   1.000000
      2          3.714691   1.000000
      3          4.893725   1.000000
      4          4.893725   1.000000
      5         14.056492   0.000000
      6         18.514598   0.000000
      7         22.961292   0.000000
      8         22.961293   0.000000
 
  0.4000000E+00  0.3000000E+00  0.1321265E-14  0.2400000E-01
      1         -7.135853   1.000000
      2          1.731432   1.000000
      3          3.793307   1.000000
      4          4.420585   1.000000
      5         14.615663   0.000000
      6         17.850128   0.000000
      7         23.953013   0.000000
      8         24.013886   0.000000
 
  0.5000000E+00  0.3000000E+00  0.1311331E-14  0.2400000E-01
      1         -5.385815   1.000000
      2         -0.459257   1.000000
      3          2.251825   1.000000
      4          4.416864   1.000000
      5         15.381938   0.000000
      6         19.394193   0.000000
      7         23.930657   0.000000
      8         24.398784   0.000000
 
 -0.4000000E+00  0.3000000E+00  0.1248716E-14  0.2400000E-01
      1         -4.025809   1.000000
      2         -1.901641   1.000000
      3          1.099363   1.000000
      4          4.878744   1.000000
      5         15.962292   0.000000
      6         22.438015   0.000000
      7         23.087217   0.000000
      8         24.481304   0.000000
 
 -0.3000000E+00  0.3000000E+00  0.1270508E-14  0.1200000E-01
      1         -5.469451   1.000000
      2         -0.366942   1.000000
      3          0.899440   1.000000
      4          5.734914   1.000000
      5         16.806622   0.000000
      6         21.580566   0.000000
      7         23.999594   0.000000
      8         24.399098   0.000000
 
  0.4000000E+00  0.4000000E+00  0.1238198E-14  0.6000000E-02
      1         -5.998514   1.000000
      2          0.347673   1.000000
      3          3.835155   1.000000
      4          3.835155   1.000000
      5         13.990471   0.000000
      6         16.033078   0.000000
      7         25.562723   0.000000
      8         25.562724   0.000000
 
  0.5000000E+00  0.4000000E+00  0.1219232E-14  0.2400000E-01
      1         -4.412313   1.000000
      2         -1.291483   1.000000
      3          2.720644   1.000000
      4          3.718296   1.000000
      5         14.663182   0.000000
      6         16.135093   0.000000
      7         25.940049   0.000000
      8         26.130786   0.000000
 
 -0.4000000E+00  0.4000000E+00  0.1231745E-14  0.1200000E-01
      1         -2.941239   1.000000
      2         -2.332751   1.000000
      3          0.983790   1.000000
      4          4.083668   1.000000
      5         15.174781   0.000000
      6         18.837380   0.000000
      7         25.030496   0.000000
      8         25.884725   0.000000
 
  0.5000000E+00  0.5000000E+00  0.1193213E-14  0.3000000E-02
      1         -2.996010   1.000000
      2         -2.996010   1.000000
      3          3.474567   1.000000
      4          3.474567   1.000000
      5         14.579670   0.000000
      6         14.579670   0.000000
      7         26.697520   0.000000
      8         26.697521   0.000000
 
  0.3000000E+00  0.2000000E+00  0.1000000E+00  0.2400000E-01
      1         -9.906489   1.000000
      2          4.755330   1.000000
      3          5.562783   1.000000
      4          7.897911   1.000000
      5         15.960057   0.000000
      6         19.248240   0.000000
      7         19.837586   0.000000
      8         22.505725   0.000000
 
  0.4000000E+00  0.2000000E+00  0.1000000E+00  0.4800000E-01
      1         -8.560586   1.000000
      2          1.917396   1.000000
      3          4.690397   1.000000
      4          6.999582   1.000000
      5         17.089950   0.000000
      6         19.422246   0.000000
      7         21.085727   0.000000
      8         22.571329   0.000000
 
  0.5000000E+00  0.2000000E+00  0.1000000E+00  0.4800000E-01
      1         -6.767440   1.000000
      2         -1.061416   1.000000
      3          4.452997   1.000000
      4          6.128126   1.000000
      5         17.831272   0.000000
      6         19.162057   0.000000
      7         21.634010   0.000000
      8         23.992542   0.000000
 
 -0.4000000E+00  0.2000000E+00  0.1000000E+00  0.2400000E-01
      1         -5.284896   1.000000
      2         -2.962133   1.000000
      3          4.446980   1.000000
      4          5.742390   1.000000
      5         18.020902   0.000000
      6         19.016462   0.000000
      7         21.793726   0.000000
      8         25.142351   0.000000
 
  0.4000000E+00  0.3000000E+00  0.1000000E+00  0.2400000E-01
      1         -8.109388   1.000000
      2          2.715920   1.000000
      3          3.967068   1.000000
      4          5.449716   1.000000
      5         15.529316   0.000000
      6         19.609607   0.000000
      7         21.678560   0.000000
      8         22.990275   0.000000
 
  0.5000000E+00  0.3000000E+00  0.1000000E+00  0.4800000E-01
      1         -6.474063   1.000000
      2          0.368227   1.000000
      3          3.080291   1.000000
      4          4.605568   1.000000
      5         16.666880   0.000000
      6         20.125540   0.000000
      7         21.672823   0.000000
      8         24.076269   0.000000
 
 -0.4000000E+00  0.3000000E+00  0.1000000E+00  0.4800000E-01
      1         -4.676938   1.000000
      2         -1.908803   1.000000
      3          2.435930   1.000000
      4          4.439493   1.000000
      5         17.278333   0.000000
      6         20.861343   0.000000
      7         22.810395   0.000000
      8         24.245075   0.000000
 
 -0.3000000E+00  0.3000000E+00  0.1000000E+00  0.4800000E-01
      1         -5.253968   1.000000
      2         -1.182168   1.000000
      3          1.965965   1.000000
      4          5.014913   1.000000
      5         17.922061   0.000000
      6         20.169558   0.000000
      7         23.357645   0.000000
      8         24.410469   0.000000
 
 -0.2000000E+00  0.3000000E+00  0.1000000E+00  0.2400000E-01
      1         -7.080994   1.000000
      2          1.104668   1.000000
      3          2.271629   1.000000
      4          6.003323   1.000000
      5         18.714756   0.000000
      6         18.768537   0.000000
      7         22.480118   0.000000
      8         23.163965   0.000000
 
  0.5000000E+00  0.4000000E+00  0.1000000E+00  0.2400000E-01
      1         -5.680313   1.000000
      2          0.256782   1.000000
      3          2.986760   1.000000
      4          3.480539   1.000000
      5         15.461797   0.000000
      6         17.333265   0.000000
      7         24.147496   0.000000
      8         25.504500   0.000000
 
 -0.4000000E+00  0.4000000E+00  0.1000000E+00  0.4800000E-01
      1         -3.903272   1.000000
      2         -1.288195   1.000000
      3          1.419216   1.000000
      4          3.356664   1.000000
      5         16.433557   0.000000
      6         19.082437   0.000000
      7         23.792187   0.000000
      8         25.388590   0.000000
 
 -0.3000000E+00  0.4000000E+00  0.1000000E+00  0.2400000E-01
      1         -3.604958   1.000000
      2         -1.460970   1.000000
      3          0.442041   1.000000
      4          3.975705   1.000000
      5         17.055826   0.000000
      6         22.145237   0.000000
      7         22.843603   0.000000
      8         24.170456   0.000000
 
 -0.4000000E+00  0.5000000E+00  0.1000000E+00  0.1200000E-01
      1         -2.769281   1.000000
      2         -2.769281   1.000000
      3          2.761306   1.000000
      4          2.761307   1.000000
      5         15.997340   0.000000
      6         15.997340   0.000000
      7         25.923668   0.000000
      8         25.923670   0.000000
 
 -0.4000000E+00  0.4000000E+00  0.2000000E+00  0.2400000E-01
      1         -4.783915   1.000000
      2         -0.384709   1.000000
      3          1.444469   1.000000
      4          3.390659   1.000000
      5         18.796101   0.000000
      6         19.688286   0.000000
      7         21.630665   0.000000
      8         24.975845   0.000000
 
 -0.3000000E+00  0.4000000E+00  0.2000000E+00  0.2400000E-01
      1         -3.407435   1.000000
      2         -1.598664   1.000000
      3          1.129931   1.000000
      4          2.805960   1.000000
      5         19.282920   0.000000
      6         20.404560   0.000000
      7         22.886140   0.000000
      8         23.113067   0.000000
 
 -0.3000000E+00  0.5000000E+00  0.2000000E+00  0.1200000E-01
      1         -2.297851   1.000000
      2         -2.297851   1.000000
      3          1.637394   1.000000
      4          1.637394   1.000000
      5         19.214958   0.000000
      6         19.214958   0.000000
      7         23.368734   0.000000
      8         23.368735   0.000000
