<?xml version="1.0" encoding="ISO-8859-1"?>
<modeling>
 <generator>
  <i name="program" type="string">vasp </i>
  <i name="version" type="string">6.5.1  </i>
  <i name="subversion" type="string">10Mar25 (build Feb 13 2026 23:13:13) complex                          parallel </i>
  <i name="platform" type="string">LinuxIFC </i>
  <i name="date" type="string">2026 06 23 </i>
  <i name="time" type="string">04:04:31 </i>
 </generator>
 <incar>
  <i type="string" name="PREC">Normal</i>
  <i type="string" name="ALGO">Fast</i>
  <i type="int" name="ISPIN">     1</i>
  <i type="int" name="NELMIN">     4</i>
  <i name="EDIFF">      0.00000100</i>
  <i type="int" name="NSW">     0</i>
  <i name="ENCUT">    850.00000000</i>
  <i type="logical" name="LREAL"> F  </i>
  <i type="int" name="ISMEAR">     0</i>
  <i name="SIGMA">      0.20000000</i>
  <i type="logical" name="LWAVE"> F  </i>
 </incar>
 <primitive_cell>
  <structure name="primitive_cell" >
   <crystal>
    <varray name="basis" >
     <v>       2.51730013       0.00000000       0.00000000 </v>
     <v>       1.25865006       2.18004586       0.00000000 </v>
     <v>       1.25865006       0.72668195       2.05536695 </v>
    </varray>
    <i name="volume">     11.27950384 </i>
    <varray name="rec_basis" >
     <v>       0.39725100      -0.22935297      -0.16217704 </v>
     <v>       0.00000000       0.45870595      -0.16217704 </v>
     <v>       0.00000000       0.00000000       0.48653113 </v>
    </varray>
   </crystal>
   <varray name="positions" >
    <v>       0.25000000       0.25000000       0.25000000 </v>
    <v>       0.00000000       0.00000000       0.00000000 </v>
   </varray>
  </structure>
  <varray name="primitive_index" >
   <v type="int" >        1 </v>
   <v type="int" >        2 </v>
  </varray>
 </primitive_cell>
 <kpoints>
  <generation param="Gamma">
   <v type="int" name="divisions">      10       10       10 </v>
   <v name="usershift">      0.00000000       0.00000000       0.00000000 </v>
   <v name="genvec1">      0.10000000      -0.00000000      -0.00000000 </v>
   <v name="genvec2">      0.00000000       0.10000000      -0.00000000 </v>
   <v name="genvec3">      0.00000000       0.00000000       0.10000000 </v>
   <v name="shift">      0.00000000       0.00000000       0.00000000 </v>
  </generation>
  <varray name="kpointlist" >
   <v>       0.00000000       0.00000000       0.00000000 </v>
   <v>       0.10000000       0.00000000       0.00000000 </v>
   <v>       0.20000000       0.00000000       0.00000000 </v>
   <v>       0.30000000       0.00000000       0.00000000 </v>
   <v>       0.40000000       0.00000000       0.00000000 </v>
   <v>       0.50000000       0.00000000       0.00000000 </v>
   <v>       0.10000000       0.10000000       0.00000000 </v>
   <v>       0.20000000       0.10000000       0.00000000 </v>
   <v>       0.30000000       0.10000000       0.00000000 </v>
   <v>       0.40000000       0.10000000       0.00000000 </v>
   <v>       0.50000000       0.10000000       0.00000000 </v>
   <v>      -0.40000000       0.10000000       0.00000000 </v>
   <v>      -0.30000000       0.10000000       0.00000000 </v>
   <v>      -0.20000000       0.10000000       0.00000000 </v>
   <v>      -0.10000000       0.10000000       0.00000000 </v>
   <v>       0.20000000       0.20000000       0.00000000 </v>
   <v>       0.30000000       0.20000000       0.00000000 </v>
   <v>       0.40000000       0.20000000       0.00000000 </v>
   <v>       0.50000000       0.20000000       0.00000000 </v>
   <v>      -0.40000000       0.20000000       0.00000000 </v>
   <v>      -0.30000000       0.20000000       0.00000000 </v>
   <v>      -0.20000000       0.20000000       0.00000000 </v>
   <v>       0.30000000       0.30000000       0.00000000 </v>
   <v>       0.40000000       0.30000000       0.00000000 </v>
   <v>       0.50000000       0.30000000       0.00000000 </v>
   <v>      -0.40000000       0.30000000       0.00000000 </v>
   <v>      -0.30000000       0.30000000       0.00000000 </v>
   <v>       0.40000000       0.40000000       0.00000000 </v>
   <v>       0.50000000       0.40000000       0.00000000 </v>
   <v>      -0.40000000       0.40000000       0.00000000 </v>
   <v>       0.50000000       0.50000000       0.00000000 </v>
   <v>       0.30000000       0.20000000       0.10000000 </v>
   <v>       0.40000000       0.20000000       0.10000000 </v>
   <v>       0.50000000       0.20000000       0.10000000 </v>
   <v>      -0.40000000       0.20000000       0.10000000 </v>
   <v>       0.40000000       0.30000000       0.10000000 </v>
   <v>       0.50000000       0.30000000       0.10000000 </v>
   <v>      -0.40000000       0.30000000       0.10000000 </v>
   <v>      -0.30000000       0.30000000       0.10000000 </v>
   <v>      -0.20000000       0.30000000       0.10000000 </v>
   <v>       0.50000000       0.40000000       0.10000000 </v>
   <v>      -0.40000000       0.40000000       0.10000000 </v>
   <v>      -0.30000000       0.40000000       0.10000000 </v>
   <v>      -0.40000000       0.50000000       0.10000000 </v>
   <v>      -0.40000000       0.40000000       0.20000000 </v>
   <v>      -0.30000000       0.40000000       0.20000000 </v>
   <v>      -0.30000000       0.50000000       0.20000000 </v>
  </varray>
  <varray name="weights" >
   <v>       0.00100000 </v>
   <v>       0.00800000 </v>
   <v>       0.00800000 </v>
   <v>       0.00800000 </v>
   <v>       0.00800000 </v>
   <v>       0.00400000 </v>
   <v>       0.00600000 </v>
   <v>       0.02400000 </v>
   <v>       0.02400000 </v>
   <v>       0.02400000 </v>
   <v>       0.02400000 </v>
   <v>       0.02400000 </v>
   <v>       0.02400000 </v>
   <v>       0.02400000 </v>
   <v>       0.01200000 </v>
   <v>       0.00600000 </v>
   <v>       0.02400000 </v>
   <v>       0.02400000 </v>
   <v>       0.02400000 </v>
   <v>       0.02400000 </v>
   <v>       0.02400000 </v>
   <v>       0.01200000 </v>
   <v>       0.00600000 </v>
   <v>       0.02400000 </v>
   <v>       0.02400000 </v>
   <v>       0.02400000 </v>
   <v>       0.01200000 </v>
   <v>       0.00600000 </v>
   <v>       0.02400000 </v>
   <v>       0.01200000 </v>
   <v>       0.00300000 </v>
   <v>       0.02400000 </v>
   <v>       0.04800000 </v>
   <v>       0.04800000 </v>
   <v>       0.02400000 </v>
   <v>       0.02400000 </v>
   <v>       0.04800000 </v>
   <v>       0.04800000 </v>
   <v>       0.04800000 </v>
   <v>       0.02400000 </v>
   <v>       0.02400000 </v>
   <v>       0.04800000 </v>
   <v>       0.02400000 </v>
   <v>       0.01200000 </v>
   <v>       0.02400000 </v>
   <v>       0.02400000 </v>
   <v>       0.01200000 </v>
  </varray>
 </kpoints>
 <parameters>
  <separator name="general" >
   <i type="string" name="SYSTEM">unknown system</i>
   <i type="logical" name="LCOMPAT"> F  </i>
  </separator>
  <separator name="electronic" >
   <i type="string" name="PREC">normal</i>
   <i name="ENMAX">    850.00000000</i>
   <i name="ENAUG">    644.87300000</i>
   <i name="EDIFF">      0.00000100</i>
   <i type="int" name="IALGO">    68</i>
   <i type="int" name="IWAVPR">    10</i>
   <i type="int" name="NBANDS">     8</i>
   <i type="int" name="NBANDSLOW">    -1</i>
   <i type="int" name="NBANDSHIGH">    -1</i>
   <i name="NELECT">      8.00000000</i>
   <i type="int" name="TURBO">     0</i>
   <i type="int" name="IRESTART">     0</i>
   <i type="int" name="NREBOOT">     0</i>
   <i type="int" name="NMIN">     0</i>
   <i name="EREF">      0.00000000</i>
   <separator name="electronic smearing" >
    <i type="int" name="ISMEAR">     0</i>
    <i name="SIGMA">      0.20000000</i>
    <i name="KSPACING">      0.50000000</i>
    <i type="logical" name="KGAMMA"> T  </i>
    <i type="logical" name="KBLOWUP"> T  </i>
   </separator>
   <separator name="electronic projectors" >
    <i type="logical" name="LREAL"> F  </i>
    <v name="ROPT">      0.00000000</v>
    <i type="int" name="LMAXPAW">  -100</i>
    <i type="int" name="LMAXMIX">     2</i>
    <i type="logical" name="NLSPLINE"> F  </i>
   </separator>
   <separator name="electronic startup" >
    <i type="int" name="ISTART">     0</i>
    <i type="int" name="ICHARG">     2</i>
    <i type="int" name="INIWAV">     1</i>
   </separator>
   <separator name="electronic spin" >
    <i type="int" name="ISPIN">     1</i>
    <i type="logical" name="LNONCOLLINEAR"> F  </i>
    <v name="MAGMOM">      1.00000000      1.00000000</v>
    <i name="NUPDOWN">     -1.00000000</i>
    <i type="logical" name="LSORBIT"> F  </i>
    <v name="SAXIS">      0.00000000      0.00000000      1.00000000</v>
    <i type="logical" name="LSPIRAL"> F  </i>
    <v name="QSPIRAL">      0.00000000      0.00000000      0.00000000</v>
    <i type="logical" name="LZEROZ"> F  </i>
   </separator>
   <separator name="electronic exchange-correlation" >
    <i type="logical" name="LASPH"> F  </i>
   </separator>
   <separator name="electronic convergence" >
    <i type="int" name="NELM">    60</i>
    <i type="int" name="NELMDL">    -5</i>
    <i type="int" name="NELMIN">     4</i>
    <i name="ENINI">    850.00000000</i>
    <separator name="electronic convergence detail" >
     <i type="logical" name="LDIAG"> T  </i>
     <i type="logical" name="LSUBROT"> F  </i>
     <i type="logical" name="LROBUST"> F  </i>
     <i type="int" name="ISEARCH">     0</i>
     <i name="WEIMIN">      0.00000000</i>
     <i name="EBREAK">      0.00000003</i>
     <i name="DEPER">      0.30000000</i>
     <i type="int" name="NRMM">     4</i>
     <i name="TIME">      0.40000000</i>
    </separator>
   </separator>
   <separator name="electronic mixer" >
    <i name="AMIX">      0.40000000</i>
    <i name="BMIX">      1.00000000</i>
    <i name="AMIN">      0.10000000</i>
    <i name="AMIX_MAG">      1.60000000</i>
    <i name="BMIX_MAG">      1.00000000</i>
    <separator name="electronic mixer details" >
     <i type="int" name="IMIX">     4</i>
     <i type="logical" name="MIXFIRST"> F  </i>
     <i type="int" name="MAXMIX">   -45</i>
     <i name="WC">    100.00000000</i>
     <i type="int" name="INIMIX">     1</i>
     <i type="int" name="MIXPRE">     1</i>
     <i type="int" name="MREMOVE">     5</i>
    </separator>
   </separator>
   <separator name="electronic dipolcorrection" >
    <i type="logical" name="LDIPOL"> F  </i>
    <i type="logical" name="LMONO"> F  </i>
    <i type="int" name="IDIPOL">     0</i>
    <i name="EPSILON">      1.00000000</i>
    <v name="DIPOL">   -100.00000000   -100.00000000   -100.00000000</v>
    <i name="EFIELD">      0.00000000</i>
    <i type="logical" name="LVACPOTAV"> F  </i>
   </separator>
  </separator>
  <separator name="grids" >
   <i type="int" name="NGX">    18</i>
   <i type="int" name="NGY">    18</i>
   <i type="int" name="NGZ">    18</i>
   <i type="int" name="NGXF">    36</i>
   <i type="int" name="NGYF">    36</i>
   <i type="int" name="NGZF">    36</i>
   <i type="logical" name="ADDGRID"> F  </i>
  </separator>
  <separator name="ionic" >
   <i type="int" name="NSW">     0</i>
   <i type="int" name="IBRION">    -1</i>
   <i type="int" name="MDALGO">     0</i>
   <i type="int" name="ISIF">     2</i>
   <i name="PSTRESS">      0.00000000</i>
   <i name="EDIFFG">      0.00001000</i>
   <i type="int" name="NFREE">     0</i>
   <i name="POTIM">      0.50000000</i>
   <i name="SMASS">     -3.00000000</i>
   <i name="SCALEE">      1.00000000</i>
  </separator>
  <separator name="ionic md" >
   <i name="TEBEG">      0.00010000</i>
   <i name="TEEND">      0.00010000</i>
   <i type="int" name="NBLOCK">     1</i>
   <i type="int" name="KBLOCK">     1</i>
   <i type="int" name="NPACO">   256</i>
   <i name="APACO">     10.00000000</i>
  </separator>
  <separator name="symmetry" >
   <i type="int" name="ISYM">     2</i>
   <i name="SYMPREC">      0.00001000</i>
  </separator>
  <separator name="dos" >
   <i type="int" name="LORBIT">     0</i>
   <v name="RWIGS">     -1.00000000</v>
   <i type="int" name="NEDOS">   301</i>
   <i name="EMIN">     10.00000000</i>
   <i name="EMAX">    -10.00000000</i>
   <i name="EFERMI">      0.00000000</i>
  </separator>
  <separator name="writing" >
   <i type="int" name="NWRITE">     2</i>
   <i type="logical" name="LWAVE"> F  </i>
   <i type="logical" name="LDOWNSAMPLE"> F  </i>
   <i type="logical" name="LCHARG"> T  </i>
   <i type="logical" name="LPARD"> F  </i>
   <i type="logical" name="LVTOT"> F  </i>
   <i type="logical" name="LVHAR"> F  </i>
   <i type="logical" name="LELF"> F  </i>
   <i type="logical" name="LOPTICS"> F  </i>
   <v name="STM">      0.00000000      0.00000000      0.00000000      0.00000000      0.00000000      0.00000000      0.00000000</v>
  </separator>
  <separator name="performance" >
   <i type="int" name="NPAR">     4</i>
   <i type="int" name="NSIM">     4</i>
   <i type="int" name="NBLK">    -1</i>
   <i type="logical" name="LPLANE"> T  </i>
   <i type="logical" name="LSCALAPACK"> T  </i>
   <i type="logical" name="LSCAAWARE"> F  </i>
   <i type="logical" name="LSCALU"> F  </i>
   <i type="logical" name="LASYNC"> F  </i>
   <i type="logical" name="LORBITALREAL"> F  </i>
  </separator>
  <separator name="miscellaneous" >
   <i type="int" name="IDIOT">     3</i>
   <i type="int" name="PHON_NSTRUCT">    -1</i>
   <i type="logical" name="LMUSIC"> F  </i>
   <v name="POMASS">     12.01100000</v>
   <v name="DARWINR">      0.00000000</v>
   <v name="DARWINV">      1.00000000</v>
   <i type="logical" name="LCORR"> T  </i>
  </separator>
  <i type="logical" name="GGA_COMPAT"> T  </i>
  <i type="logical" name="LBERRY"> F  </i>
  <i type="int" name="ICORELEVEL">     0</i>
  <i type="logical" name="LDAU"> F  </i>
  <i type="int" name="I_CONSTRAINED_M">     0</i>
  <separator name="electronic exchange-correlation" >
   <i type="string" name="GGA    ">PE</i>
   <i type="string" name="XC_C">1</i>
   <i type="int" name="VOSKOWN">     0</i>
   <i type="logical" name="LHFCALC"> F  </i>
   <i type="string" name="PRECFOCK"></i>
   <i type="logical" name="LSYMGRAD"> F  </i>
   <i type="logical" name="LHFONE"> F  </i>
   <i type="logical" name="LRHFCALC"> F  </i>
   <i type="logical" name="LTHOMAS"> F  </i>
   <i type="logical" name="LMODELHF"> F  </i>
   <i type="logical" name="LFOCKACE"> F  </i>
   <i name="ENCUT4O">     -1.00000000</i>
   <i type="int" name="EXXOEP">     0</i>
   <i type="int" name="FOURORBIT">     0</i>
   <i name="AEXX">      0.00000000</i>
   <i name="HFALPHA">      0.00000000</i>
   <i name="MCALPHA">      0.00000000</i>
   <i name="ALDAX">      1.00000000</i>
   <i name="AGGAX">      1.00000000</i>
   <i name="AMGGAX">      1.00000000</i>
   <i name="ALDAC">      1.00000000</i>
   <i name="AGGAC">      1.00000000</i>
   <i name="AMGGAC">      1.00000000</i>
   <i type="int" name="NKREDX">     1</i>
   <i type="int" name="NKREDY">     1</i>
   <i type="int" name="NKREDZ">     1</i>
   <i type="logical" name="SHIFTRED"> F  </i>
   <i type="logical" name="ODDONLY"> F  </i>
   <i type="logical" name="EVENONLY"> F  </i>
   <i type="int" name="LMAXFOCK">     0</i>
   <i type="int" name="NMAXFOCKAE">     0</i>
   <i type="logical" name="LFOCKAEDFT"> F  </i>
   <i name="HFSCREEN">      0.00000000</i>
   <i name="HFSCREENC">      0.00000000</i>
   <i type="int" name="NBANDSGWLOW">     0</i>
  </separator>
  <separator name="vdW DFT" >
   <i type="logical" name="LUSE_VDW"> F  </i>
   <i type="int" name="IVDW_NL">    -1</i>
   <i type="logical" name="LSPIN_VDW"> F  </i>
   <i name="ZAB_VDW">     -0.84910000</i>
   <i name="GAMMA_VDW">      1.39626340</i>
   <i name="ALPHA_VDW">      0.00000000</i>
   <i name="PARAM1">      0.12340000</i>
   <i name="PARAM2">      1.00000000</i>
   <i name="BPARAM">      6.30000000</i>
   <i name="CPARAM">      0.00930000</i>
  </separator>
  <separator name="model GW" >
   <i type="int" name="MODEL_GW">     0</i>
   <i name="MODEL_EPS0">      3.38385115</i>
   <i name="MODEL_ALPHA">      1.00000000</i>
  </separator>
  <separator name="linear response parameters" >
   <i type="logical" name="LEPSILON"> F  </i>
   <i type="logical" name="LRPA"> F  </i>
   <i type="logical" name="LNABLA"> F  </i>
   <i type="logical" name="LVEL"> F  </i>
   <i name="CSHIFT">      0.10000000</i>
   <i name="OMEGAMAX">     -1.00000000</i>
   <i name="DEG_THRESHOLD">      0.00200000</i>
   <i name="RTIME">     -0.10000000</i>
   <i name="WPLASMAI">      0.00000000</i>
   <v name="DFIELD">      0.00000000      0.00000000      0.00000000</v>
   <v name="WPLASMA">      0.00000000      0.00000000      0.00000000      0.00000000      0.00000000      0.00000000      0.00000000      0.00000000      0.00000000</v>
  </separator>
  <separator name="orbital magnetization" >
   <i type="logical" name="NUCIND"> F  </i>
   <v name="MAGPOS">      0.00000000      0.00000000      0.00000000</v>
   <i type="logical" name="LNICSALL"> T  </i>
   <i type="logical" name="ORBITALMAG"> F  </i>
   <i type="logical" name="LMAGBLOCH"> F  </i>
   <i type="logical" name="LCHIMAG"> F  </i>
   <i type="logical" name="LGAUGE"> T  </i>
   <i type="int" name="MAGATOM">     0</i>
   <v name="MAGDIPOL">      0.00000000      0.00000000      0.00000000</v>
   <v name="AVECCONST">      0.00000000      0.00000000      0.00000000</v>
  </separator>
  <separator name="response functions" >
   <i type="logical" name="LALL_IN_ONE"> F  </i>
   <i type="int" name="IALL_IN_ONE">    -1</i>
   <i type="int" name="NBANDS_WAVE">    -1</i>
   <i type="logical" name="LFINITE_TEMPERATURE"> F  </i>
   <i type="logical" name="LADDER"> F  </i>
   <i type="logical" name="LRPAFORCE"> F  </i>
   <i type="logical" name="LFXC"> F  </i>
   <i type="logical" name="LHARTREE"> T  </i>
   <i type="int" name="IBSE">     2</i>
   <v type="int" name="KPOINT">    -1     0     0     0</v>
   <i type="logical" name="LTCTC"> F  </i>
   <i type="logical" name="LTCTE"> F  </i>
   <i type="logical" name="LTETE"> F  </i>
   <i type="logical" name="LTRIPLET"> F  </i>
   <i type="logical" name="LFXCEPS"> F  </i>
   <i type="logical" name="LFXHEG"> F  </i>
   <i type="int" name="NATURALO">     2</i>
   <i type="logical" name="LHOLEGF"> F  </i>
   <i type="logical" name="L2ORDER"> F  </i>
   <i type="logical" name="LDMP1"> F  </i>
   <i type="logical" name="LMP2LT"> F  </i>
   <i type="logical" name="LSMP2LT"> F  </i>
   <i type="logical" name="LGWLF"> F  </i>
   <i name="ENCUTGW">     -1.60000002</i>
   <i name="ENCUTGWSOFT">     -1.60000002</i>
   <i name="ENCUTLF">     -1.00000000</i>
   <i type="logical" name="ESF_SPLINES"> F  </i>
   <i name="ESF_CONV">      0.01000000</i>
   <i type="int" name="ESF_NINTER">    15</i>
   <i type="int" name="LMAXMP2">    -1</i>
   <i name="SCISSOR">      0.00000000</i>
   <i type="int" name="NOMEGA">     0</i>
   <i type="int" name="NOMEGAR">     0</i>
   <i type="int" name="NBANDSGW">    -1</i>
   <i type="int" name="NBANDSO">    -1</i>
   <i type="int" name="NBANDSV">    -1</i>
   <i type="int" name="NELMGW">     1</i>
   <i type="int" name="NELMHF">     1</i>
   <i type="int" name="DIM">     3</i>
   <i type="int" name="IESPILON">     4</i>
   <i type="int" name="ANTIRES">     0</i>
   <i name="OMEGAMAX">    -30.00000000</i>
   <i name="OMEGAMIN">    -30.00000000</i>
   <i name="OMEGATL">   -200.00000000</i>
   <i type="int" name="OMEGAGRID">     0</i>
   <i name="CSHIFT">     -0.10000000</i>
   <i type="logical" name="LSELFENERGY"> F  </i>
   <i type="logical" name="LSPECTRAL"> F  </i>
   <i type="logical" name="LSPECTRALGW"> F  </i>
   <i type="logical" name="LSINGLES"> F  </i>
   <i type="logical" name="LFERMIGW"> F  </i>
   <i type="logical" name="ODDONLYGW"> F  </i>
   <i type="logical" name="EVENONLYGW"> F  </i>
   <i type="int" name="NKREDLFX">     1</i>
   <i type="int" name="NKREDLFY">     1</i>
   <i type="int" name="NKREDLFZ">     1</i>
   <i type="int" name="MAXMEM">  2800</i>
   <i type="int" name="TELESCOPE">     0</i>
   <i type="int" name="NTAUPAR">    -1</i>
   <i type="int" name="NOMEGAPAR">    -1</i>
   <i name="DAMP_NEWTON">      0.80000001</i>
   <i name="LAMBDA">      1.00000000</i>
  </separator>
  <separator name="External order field" >
   <i name="OFIELD_KAPPA">      0.00000000</i>
   <v name="OFIELD_K">      0.00000000      0.00000000      0.00000000</v>
   <i name="OFIELD_Q6_NEAR">      0.00000000</i>
   <i name="OFIELD_Q6_FAR">      0.00000000</i>
   <i name="OFIELD_A">      0.00000000</i>
  </separator>
  <separator name="optional k-points parameters" >
   <i type="int" name="KPOINTS_OPT_MODE">     1</i>
   <i type="logical" name="LKPOINTS_OPT"> F  </i>
  </separator>
 </parameters>
 <atominfo>
  <atoms>       2 </atoms>
  <types>       1 </types>
  <array name="atoms" >
   <dimension dim="1">ion</dimension>
   <field type="string">element</field>
   <field type="int">atomtype</field>
   <set>
    <rc><c>C </c><c>   1</c></rc>
    <rc><c>C </c><c>   1</c></rc>
   </set>
  </array>
  <array name="atomtypes" >
   <dimension dim="1">type</dimension>
   <field type="int">atomspertype</field>
   <field type="string">element</field>
   <field>mass</field>
   <field>valence</field>
   <field type="string">pseudopotential</field>
   <set>
    <rc><c>   2</c><c>C </c><c>     12.01100000</c><c>      4.00000000</c><c>  PAW_PBE C 08Apr2002                   </c></rc>
   </set>
  </array>
 </atominfo>
 <structure name="initialpos" >
  <crystal>
   <varray name="basis" >
    <v>       2.51730013       0.00000000       0.00000000 </v>
    <v>       1.25865006       2.18004586       0.00000000 </v>
    <v>       1.25865006       0.72668195       2.05536695 </v>
   </varray>
   <i name="volume">     11.27950384 </i>
   <varray name="rec_basis" >
    <v>       0.39725100      -0.22935297      -0.16217704 </v>
    <v>       0.00000000       0.45870595      -0.16217704 </v>
    <v>       0.00000000       0.00000000       0.48653113 </v>
   </varray>
  </crystal>
  <varray name="positions" >
   <v>       0.25000000       0.25000000       0.25000000 </v>
   <v>       0.00000000       0.00000000       0.00000000 </v>
  </varray>
 </structure>
 <calculation>
  <scstep>
   <time name="dav">    0.05    0.06</time>
   <time name="total">    0.06    0.06</time>
   <energy>
    <i name="alphaZ">     29.13132251 </i>
    <i name="ewald">   -348.62358043 </i>
    <i name="hartreedc">    -17.48913657 </i>
    <i name="XCdc">     27.44127266 </i>
    <i name="pawpsdc">    217.04409276 </i>
    <i name="pawaedc">   -218.18290438 </i>
    <i name="eentropy">     -0.00503486 </i>
    <i name="bandstr">     26.53197915 </i>
    <i name="atom">    294.30958204 </i>
    <i name="e_fr_energy">     10.15759289 </i>
    <i name="e_wo_entrp">     10.16262775 </i>
    <i name="e_0_energy">     10.16011032 </i>
   </energy>
  </scstep>
  <scstep>
   <time name="dav">    0.08    0.08</time>
   <time name="total">    0.08    0.08</time>
   <energy>
    <i name="e_fr_energy">    -18.58258568 </i>
    <i name="e_wo_entrp">    -18.58258568 </i>
    <i name="e_0_energy">    -18.58258568 </i>
   </energy>
  </scstep>
  <scstep>
   <time name="dav">    0.06    0.06</time>
   <time name="total">    0.06    0.06</time>
   <energy>
    <i name="e_fr_energy">    -18.84573669 </i>
    <i name="e_wo_entrp">    -18.84573669 </i>
    <i name="e_0_energy">    -18.84573669 </i>
   </energy>
  </scstep>
  <scstep>
   <time name="dav">    0.07    0.07</time>
   <time name="total">    0.07    0.07</time>
   <energy>
    <i name="e_fr_energy">    -18.84618691 </i>
    <i name="e_wo_entrp">    -18.84618691 </i>
    <i name="e_0_energy">    -18.84618691 </i>
   </energy>
  </scstep>
  <scstep>
   <time name="dav">    0.06    0.06</time>
   <time name="total">    0.06    0.06</time>
   <energy>
    <i name="e_fr_energy">    -18.84618724 </i>
    <i name="e_wo_entrp">    -18.84618724 </i>
    <i name="e_0_energy">    -18.84618724 </i>
   </energy>
  </scstep>
  <scstep>
   <time name="diag">    0.04    0.04</time>
   <time name="diis">    0.02    0.02</time>
   <time name="orth">    0.00    0.00</time>
   <time name="total">    0.08    0.08</time>
   <energy>
    <i name="e_fr_energy">    -18.35854588 </i>
    <i name="e_wo_entrp">    -18.35854588 </i>
    <i name="e_0_energy">    -18.35854588 </i>
   </energy>
  </scstep>
  <scstep>
   <time name="diag">    0.03    0.03</time>
   <time name="diis">    0.02    0.02</time>
   <time name="orth">    0.00    0.00</time>
   <time name="total">    0.07    0.07</time>
   <energy>
    <i name="e_fr_energy">    -18.19465960 </i>
    <i name="e_wo_entrp">    -18.19465960 </i>
    <i name="e_0_energy">    -18.19465960 </i>
   </energy>
  </scstep>
  <scstep>
   <time name="diag">    0.03    0.03</time>
   <time name="diis">    0.02    0.02</time>
   <time name="orth">    0.00    0.00</time>
   <time name="total">    0.06    0.07</time>
   <energy>
    <i name="e_fr_energy">    -18.19835843 </i>
    <i name="e_wo_entrp">    -18.19835843 </i>
    <i name="e_0_energy">    -18.19835843 </i>
   </energy>
  </scstep>
  <scstep>
   <time name="diag">    0.03    0.03</time>
   <time name="diis">    0.02    0.02</time>
   <time name="orth">    0.00    0.00</time>
   <time name="total">    0.07    0.07</time>
   <energy>
    <i name="e_fr_energy">    -18.19856997 </i>
    <i name="e_wo_entrp">    -18.19856997 </i>
    <i name="e_0_energy">    -18.19856997 </i>
   </energy>
  </scstep>
  <scstep>
   <time name="diag">    0.03    0.03</time>
   <time name="diis">    0.02    0.02</time>
   <time name="orth">    0.00    0.00</time>
   <time name="total">    0.06    0.06</time>
   <energy>
    <i name="e_fr_energy">    -18.19859650 </i>
    <i name="e_wo_entrp">    -18.19859650 </i>
    <i name="e_0_energy">    -18.19859650 </i>
   </energy>
  </scstep>
  <scstep>
   <time name="diag">    0.03    0.03</time>
   <time name="diis">    0.02    0.02</time>
   <time name="orth">    0.00    0.00</time>
   <time name="total">    0.06    0.06</time>
   <energy>
    <i name="e_fr_energy">    -18.19860016 </i>
    <i name="e_wo_entrp">    -18.19860016 </i>
    <i name="e_0_energy">    -18.19860016 </i>
   </energy>
  </scstep>
  <scstep>
   <time name="diag">    0.03    0.03</time>
   <time name="diis">    0.02    0.02</time>
   <time name="orth">    0.00    0.00</time>
   <time name="total">    0.06    0.06</time>
   <energy>
    <i name="e_fr_energy">    -18.19860120 </i>
    <i name="e_wo_entrp">    -18.19860120 </i>
    <i name="e_0_energy">    -18.19860120 </i>
   </energy>
  </scstep>
  <scstep>
   <time name="diag">    0.03    0.03</time>
   <time name="diis">    0.02    0.02</time>
   <time name="orth">    0.00    0.00</time>
   <time name="total">    0.05    0.05</time>
   <energy>
    <i name="alphaZ">     29.13132251 </i>
    <i name="ewald">   -348.62358043 </i>
    <i name="hartreedc">    -26.32362558 </i>
    <i name="XCdc">     28.24945788 </i>
    <i name="pawpsdc">    772.04923960 </i>
    <i name="pawaedc">   -773.38242093 </i>
    <i name="eentropy">     -0.00000000 </i>
    <i name="bandstr">      6.39142347 </i>
    <i name="atom">    294.30958204 </i>
    <i name="e_fr_energy">    -18.19860145 </i>
    <i name="e_wo_entrp">    -18.19860145 </i>
    <i name="e_0_energy">    -18.19860145 </i>
   </energy>
  </scstep>
  <structure>
   <crystal>
    <varray name="basis" >
     <v>       2.51730013       0.00000000       0.00000000 </v>
     <v>       1.25865006       2.18004586       0.00000000 </v>
     <v>       1.25865006       0.72668195       2.05536695 </v>
    </varray>
    <i name="volume">     11.27950384 </i>
    <varray name="rec_basis" >
     <v>       0.39725100      -0.22935297      -0.16217704 </v>
     <v>       0.00000000       0.45870595      -0.16217704 </v>
     <v>       0.00000000       0.00000000       0.48653113 </v>
    </varray>
   </crystal>
   <varray name="positions" >
    <v>       0.25000000       0.25000000       0.25000000 </v>
    <v>       0.00000000       0.00000000       0.00000000 </v>
   </varray>
  </structure>
  <varray name="forces" >
   <v>       0.00000000      -0.00000000      -0.00000000 </v>
   <v>      -0.00000000       0.00000000       0.00000000 </v>
  </varray>
  <varray name="stress" >
   <v>      44.52415029       0.00000000       0.00000000 </v>
   <v>       0.00000000      44.52415029      -0.00000000 </v>
   <v>       0.00000000      -0.00000000      44.52415029 </v>
  </varray>
  <energy>
   <i name="e_fr_energy">    -18.19860145 </i>
   <i name="e_wo_entrp">    -18.19860145 </i>
   <i name="e_0_energy">    -18.19860145 </i>
  </energy>
  <time name="totalsc">    0.91    0.94</time>
  <eigenvalues>
   <array>
    <dimension dim="1">band</dimension>
    <dimension dim="2">kpoint</dimension>
    <dimension dim="3">spin</dimension>
    <field>eigene</field>
    <field>occ</field>
    <set>
     <set comment="spin 1">
      <set comment="kpoint 1">
       <r>  -11.7433    1.0000 </r>
       <r>    9.8067    1.0000 </r>
       <r>    9.8067    1.0000 </r>
       <r>    9.8067    1.0000 </r>
       <r>   15.4138    0.0000 </r>
       <r>   15.4138    0.0000 </r>
       <r>   15.4138    0.0000 </r>
       <r>   23.2690    0.0000 </r>
      </set>
      <set comment="kpoint 2">
       <r>  -11.4655    1.0000 </r>
       <r>    8.1240    1.0000 </r>
       <r>    9.3576    1.0000 </r>
       <r>    9.3576    1.0000 </r>
       <r>   16.0037    0.0000 </r>
       <r>   16.0037    0.0000 </r>
       <r>   16.3665    0.0000 </r>
       <r>   23.4996    0.0000 </r>
      </set>
      <set comment="kpoint 3">
       <r>  -10.6372    1.0000 </r>
       <r>    4.9064    1.0000 </r>
       <r>    8.4767    1.0000 </r>
       <r>    8.4767    1.0000 </r>
       <r>   17.1401    0.0000 </r>
       <r>   17.1401    0.0000 </r>
       <r>   17.5920    0.0000 </r>
       <r>   24.1380    0.0000 </r>
      </set>
      <set comment="kpoint 4">
       <r>   -9.2782    1.0000 </r>
       <r>    1.4949    1.0000 </r>
       <r>    7.6822    1.0000 </r>
       <r>    7.6822    1.0000 </r>
       <r>   17.9648    0.0000 </r>
       <r>   17.9648    0.0000 </r>
       <r>   18.3000    0.0000 </r>
       <r>   24.9156    0.0000 </r>
      </set>
      <set comment="kpoint 5">
       <r>   -7.4596    1.0000 </r>
       <r>   -1.6498    1.0000 </r>
       <r>    7.1679    1.0000 </r>
       <r>    7.1679    1.0000 </r>
       <r>   18.2538    0.0000 </r>
       <r>   18.2538    0.0000 </r>
       <r>   18.6337    0.0000 </r>
       <r>   25.4224    0.0000 </r>
      </set>
      <set comment="kpoint 6">
       <r>   -5.9366    1.0000 </r>
       <r>   -3.6279    1.0000 </r>
       <r>    6.9923    1.0000 </r>
       <r>    6.9923    1.0000 </r>
       <r>   18.2908    0.0000 </r>
       <r>   18.2908    0.0000 </r>
       <r>   18.7323    0.0000 </r>
       <r>   25.5574    0.0000 </r>
      </set>
      <set comment="kpoint 7">
       <r>  -11.3730    1.0000 </r>
       <r>    8.5727    1.0000 </r>
       <r>    8.5727    1.0000 </r>
       <r>    8.9361    1.0000 </r>
       <r>   15.1386    0.0000 </r>
       <r>   16.9654    0.0000 </r>
       <r>   16.9654    0.0000 </r>
       <r>   23.3660    0.0000 </r>
      </set>
      <set comment="kpoint 8">
       <r>  -10.7284    1.0000 </r>
       <r>    6.0256    1.0000 </r>
       <r>    7.6003    1.0000 </r>
       <r>    8.4663    1.0000 </r>
       <r>   15.5667    0.0000 </r>
       <r>   18.2737    0.0000 </r>
       <r>   18.2951    0.0000 </r>
       <r>   23.2676    0.0000 </r>
      </set>
      <set comment="kpoint 9">
       <r>   -9.5457    1.0000 </r>
       <r>    2.7418    1.0000 </r>
       <r>    6.8510    1.0000 </r>
       <r>    7.5946    1.0000 </r>
       <r>   16.6089    0.0000 </r>
       <r>   19.1332    0.0000 </r>
       <r>   19.2255    0.0000 </r>
       <r>   23.4550    0.0000 </r>
      </set>
      <set comment="kpoint 10">
       <r>   -7.8700    1.0000 </r>
       <r>   -0.4688    1.0000 </r>
       <r>    6.4733    1.0000 </r>
       <r>    6.7212    1.0000 </r>
       <r>   17.3277    0.0000 </r>
       <r>   19.4423    0.0000 </r>
       <r>   19.5392    0.0000 </r>
       <r>   24.3427    0.0000 </r>
      </set>
      <set comment="kpoint 11">
       <r>   -5.9929    1.0000 </r>
       <r>   -3.0781    1.0000 </r>
       <r>    6.0842    1.0000 </r>
       <r>    6.5020    1.0000 </r>
       <r>   17.7325    0.0000 </r>
       <r>   19.1933    0.0000 </r>
       <r>   19.6705    0.0000 </r>
       <r>   25.3439    0.0000 </r>
      </set>
      <set comment="kpoint 12">
       <r>   -6.5767    1.0000 </r>
       <r>   -2.3429    1.0000 </r>
       <r>    5.7890    1.0000 </r>
       <r>    6.9163    1.0000 </r>
       <r>   18.1314    0.0000 </r>
       <r>   18.7726    0.0000 </r>
       <r>   19.6086    0.0000 </r>
       <r>   25.4189    0.0000 </r>
      </set>
      <set comment="kpoint 13">
       <r>   -8.4783    1.0000 </r>
       <r>    0.5790    1.0000 </r>
       <r>    5.8889    1.0000 </r>
       <r>    7.6505    1.0000 </r>
       <r>   18.1565    0.0000 </r>
       <r>   18.4593    0.0000 </r>
       <r>   19.3062    0.0000 </r>
       <r>   24.6109    0.0000 </r>
      </set>
      <set comment="kpoint 14">
       <r>   -9.9985    1.0000 </r>
       <r>    3.8633    1.0000 </r>
       <r>    6.4021    1.0000 </r>
       <r>    8.5647    1.0000 </r>
       <r>   17.1802    0.0000 </r>
       <r>   18.3326    0.0000 </r>
       <r>   18.5115    0.0000 </r>
       <r>   23.9118    0.0000 </r>
      </set>
      <set comment="kpoint 15">
       <r>  -11.0042    1.0000 </r>
       <r>    6.8639    1.0000 </r>
       <r>    7.4640    1.0000 </r>
       <r>    9.3295    1.0000 </r>
       <r>   16.1623    0.0000 </r>
       <r>   17.1883    0.0000 </r>
       <r>   17.5053    0.0000 </r>
       <r>   23.6606    0.0000 </r>
      </set>
      <set comment="kpoint 16">
       <r>  -10.2697    1.0000 </r>
       <r>    6.5625    1.0000 </r>
       <r>    6.5625    1.0000 </r>
       <r>    6.7160    1.0000 </r>
       <r>   14.5465    0.0000 </r>
       <r>   19.8923    0.0000 </r>
       <r>   19.8923    0.0000 </r>
       <r>   21.7032    0.0000 </r>
      </set>
      <set comment="kpoint 17">
       <r>   -9.2711    1.0000 </r>
       <r>    3.9562    1.0000 </r>
       <r>    5.7694    1.0000 </r>
       <r>    6.1470    1.0000 </r>
       <r>   14.9760    0.0000 </r>
       <r>   20.6419    0.0000 </r>
       <r>   21.1332    0.0000 </r>
       <r>   21.1685    0.0000 </r>
      </set>
      <set comment="kpoint 18">
       <r>   -7.7650    1.0000 </r>
       <r>    0.9822    1.0000 </r>
       <r>    5.0859    1.0000 </r>
       <r>    5.3821    1.0000 </r>
       <r>   15.9257    0.0000 </r>
       <r>   21.0834    0.0000 </r>
       <r>   21.6430    0.0000 </r>
       <r>   21.7372    0.0000 </r>
      </set>
      <set comment="kpoint 19">
       <r>   -5.8923    1.0000 </r>
       <r>   -1.7680    1.0000 </r>
       <r>    4.0828    1.0000 </r>
       <r>    5.4471    1.0000 </r>
       <r>   16.5058    0.0000 </r>
       <r>   21.3829    0.0000 </r>
       <r>   21.9314    0.0000 </r>
       <r>   23.1192    0.0000 </r>
      </set>
      <set comment="kpoint 20">
       <r>   -5.3423    1.0000 </r>
       <r>   -2.4262    1.0000 </r>
       <r>    3.4087    1.0000 </r>
       <r>    5.9464    1.0000 </r>
       <r>   17.0783    0.0000 </r>
       <r>   20.6991    0.0000 </r>
       <r>   21.9053    0.0000 </r>
       <r>   25.1039    0.0000 </r>
      </set>
      <set comment="kpoint 21">
       <r>   -7.1776    1.0000 </r>
       <r>    0.0924    1.0000 </r>
       <r>    3.1865    1.0000 </r>
       <r>    6.7985    1.0000 </r>
       <r>   17.8175    0.0000 </r>
       <r>   19.6765    0.0000 </r>
       <r>   21.5921    0.0000 </r>
       <r>   24.3302    0.0000 </r>
      </set>
      <set comment="kpoint 22">
       <r>   -8.8287    1.0000 </r>
       <r>    2.8064    1.0000 </r>
       <r>    3.7729    1.0000 </r>
       <r>    7.8112    1.0000 </r>
       <r>   18.3261    0.0000 </r>
       <r>   18.4265    0.0000 </r>
       <r>   20.3463    0.0000 </r>
       <r>   23.5489    0.0000 </r>
      </set>
      <set comment="kpoint 23">
       <r>   -8.4596    1.0000 </r>
       <r>    3.7147    1.0000 </r>
       <r>    4.8937    1.0000 </r>
       <r>    4.8937    1.0000 </r>
       <r>   14.0565    0.0000 </r>
       <r>   18.5146    0.0000 </r>
       <r>   22.9613    0.0000 </r>
       <r>   22.9613    0.0000 </r>
      </set>
      <set comment="kpoint 24">
       <r>   -7.1359    1.0000 </r>
       <r>    1.7314    1.0000 </r>
       <r>    3.7933    1.0000 </r>
       <r>    4.4206    1.0000 </r>
       <r>   14.6157    0.0000 </r>
       <r>   17.8501    0.0000 </r>
       <r>   23.9530    0.0000 </r>
       <r>   24.0139    0.0000 </r>
      </set>
      <set comment="kpoint 25">
       <r>   -5.3858    1.0000 </r>
       <r>   -0.4593    1.0000 </r>
       <r>    2.2518    1.0000 </r>
       <r>    4.4169    1.0000 </r>
       <r>   15.3819    0.0000 </r>
       <r>   19.3942    0.0000 </r>
       <r>   23.9307    0.0000 </r>
       <r>   24.3988    0.0000 </r>
      </set>
      <set comment="kpoint 26">
       <r>   -4.0258    1.0000 </r>
       <r>   -1.9016    1.0000 </r>
       <r>    1.0994    1.0000 </r>
       <r>    4.8787    1.0000 </r>
       <r>   15.9623    0.0000 </r>
       <r>   22.4380    0.0000 </r>
       <r>   23.0872    0.0000 </r>
       <r>   24.4813    0.0000 </r>
      </set>
      <set comment="kpoint 27">
       <r>   -5.4695    1.0000 </r>
       <r>   -0.3669    1.0000 </r>
       <r>    0.8994    1.0000 </r>
       <r>    5.7349    1.0000 </r>
       <r>   16.8066    0.0000 </r>
       <r>   21.5806    0.0000 </r>
       <r>   23.9996    0.0000 </r>
       <r>   24.3991    0.0000 </r>
      </set>
      <set comment="kpoint 28">
       <r>   -5.9985    1.0000 </r>
       <r>    0.3477    1.0000 </r>
       <r>    3.8352    1.0000 </r>
       <r>    3.8352    1.0000 </r>
       <r>   13.9905    0.0000 </r>
       <r>   16.0331    0.0000 </r>
       <r>   25.5627    0.0000 </r>
       <r>   25.5627    0.0000 </r>
      </set>
      <set comment="kpoint 29">
       <r>   -4.4123    1.0000 </r>
       <r>   -1.2915    1.0000 </r>
       <r>    2.7206    1.0000 </r>
       <r>    3.7183    1.0000 </r>
       <r>   14.6632    0.0000 </r>
       <r>   16.1351    0.0000 </r>
       <r>   25.9400    0.0000 </r>
       <r>   26.1308    0.0000 </r>
      </set>
      <set comment="kpoint 30">
       <r>   -2.9412    1.0000 </r>
       <r>   -2.3328    1.0000 </r>
       <r>    0.9838    1.0000 </r>
       <r>    4.0837    1.0000 </r>
       <r>   15.1748    0.0000 </r>
       <r>   18.8374    0.0000 </r>
       <r>   25.0305    0.0000 </r>
       <r>   25.8847    0.0000 </r>
      </set>
      <set comment="kpoint 31">
       <r>   -2.9960    1.0000 </r>
       <r>   -2.9960    1.0000 </r>
       <r>    3.4746    1.0000 </r>
       <r>    3.4746    1.0000 </r>
       <r>   14.5797    0.0000 </r>
       <r>   14.5797    0.0000 </r>
       <r>   26.6975    0.0000 </r>
       <r>   26.6975    0.0000 </r>
      </set>
      <set comment="kpoint 32">
       <r>   -9.9065    1.0000 </r>
       <r>    4.7553    1.0000 </r>
       <r>    5.5628    1.0000 </r>
       <r>    7.8979    1.0000 </r>
       <r>   15.9601    0.0000 </r>
       <r>   19.2482    0.0000 </r>
       <r>   19.8376    0.0000 </r>
       <r>   22.5057    0.0000 </r>
      </set>
      <set comment="kpoint 33">
       <r>   -8.5606    1.0000 </r>
       <r>    1.9174    1.0000 </r>
       <r>    4.6904    1.0000 </r>
       <r>    6.9996    1.0000 </r>
       <r>   17.0899    0.0000 </r>
       <r>   19.4222    0.0000 </r>
       <r>   21.0857    0.0000 </r>
       <r>   22.5713    0.0000 </r>
      </set>
      <set comment="kpoint 34">
       <r>   -6.7674    1.0000 </r>
       <r>   -1.0614    1.0000 </r>
       <r>    4.4530    1.0000 </r>
       <r>    6.1281    1.0000 </r>
       <r>   17.8313    0.0000 </r>
       <r>   19.1621    0.0000 </r>
       <r>   21.6340    0.0000 </r>
       <r>   23.9925    0.0000 </r>
      </set>
      <set comment="kpoint 35">
       <r>   -5.2849    1.0000 </r>
       <r>   -2.9621    1.0000 </r>
       <r>    4.4470    1.0000 </r>
       <r>    5.7424    1.0000 </r>
       <r>   18.0209    0.0000 </r>
       <r>   19.0165    0.0000 </r>
       <r>   21.7937    0.0000 </r>
       <r>   25.1424    0.0000 </r>
      </set>
      <set comment="kpoint 36">
       <r>   -8.1094    1.0000 </r>
       <r>    2.7159    1.0000 </r>
       <r>    3.9671    1.0000 </r>
       <r>    5.4497    1.0000 </r>
       <r>   15.5293    0.0000 </r>
       <r>   19.6096    0.0000 </r>
       <r>   21.6786    0.0000 </r>
       <r>   22.9903    0.0000 </r>
      </set>
      <set comment="kpoint 37">
       <r>   -6.4741    1.0000 </r>
       <r>    0.3682    1.0000 </r>
       <r>    3.0803    1.0000 </r>
       <r>    4.6056    1.0000 </r>
       <r>   16.6669    0.0000 </r>
       <r>   20.1255    0.0000 </r>
       <r>   21.6728    0.0000 </r>
       <r>   24.0763    0.0000 </r>
      </set>
      <set comment="kpoint 38">
       <r>   -4.6769    1.0000 </r>
       <r>   -1.9088    1.0000 </r>
       <r>    2.4359    1.0000 </r>
       <r>    4.4395    1.0000 </r>
       <r>   17.2783    0.0000 </r>
       <r>   20.8613    0.0000 </r>
       <r>   22.8104    0.0000 </r>
       <r>   24.2451    0.0000 </r>
      </set>
      <set comment="kpoint 39">
       <r>   -5.2540    1.0000 </r>
       <r>   -1.1822    1.0000 </r>
       <r>    1.9660    1.0000 </r>
       <r>    5.0149    1.0000 </r>
       <r>   17.9221    0.0000 </r>
       <r>   20.1696    0.0000 </r>
       <r>   23.3576    0.0000 </r>
       <r>   24.4105    0.0000 </r>
      </set>
      <set comment="kpoint 40">
       <r>   -7.0810    1.0000 </r>
       <r>    1.1047    1.0000 </r>
       <r>    2.2716    1.0000 </r>
       <r>    6.0033    1.0000 </r>
       <r>   18.7148    0.0000 </r>
       <r>   18.7685    0.0000 </r>
       <r>   22.4801    0.0000 </r>
       <r>   23.1640    0.0000 </r>
      </set>
      <set comment="kpoint 41">
       <r>   -5.6803    1.0000 </r>
       <r>    0.2568    1.0000 </r>
       <r>    2.9868    1.0000 </r>
       <r>    3.4805    1.0000 </r>
       <r>   15.4618    0.0000 </r>
       <r>   17.3333    0.0000 </r>
       <r>   24.1475    0.0000 </r>
       <r>   25.5045    0.0000 </r>
      </set>
      <set comment="kpoint 42">
       <r>   -3.9033    1.0000 </r>
       <r>   -1.2882    1.0000 </r>
       <r>    1.4192    1.0000 </r>
       <r>    3.3567    1.0000 </r>
       <r>   16.4336    0.0000 </r>
       <r>   19.0824    0.0000 </r>
       <r>   23.7922    0.0000 </r>
       <r>   25.3886    0.0000 </r>
      </set>
      <set comment="kpoint 43">
       <r>   -3.6050    1.0000 </r>
       <r>   -1.4610    1.0000 </r>
       <r>    0.4420    1.0000 </r>
       <r>    3.9757    1.0000 </r>
       <r>   17.0558    0.0000 </r>
       <r>   22.1452    0.0000 </r>
       <r>   22.8436    0.0000 </r>
       <r>   24.1705    0.0000 </r>
      </set>
      <set comment="kpoint 44">
       <r>   -2.7693    1.0000 </r>
       <r>   -2.7693    1.0000 </r>
       <r>    2.7613    1.0000 </r>
       <r>    2.7613    1.0000 </r>
       <r>   15.9973    0.0000 </r>
       <r>   15.9973    0.0000 </r>
       <r>   25.9237    0.0000 </r>
       <r>   25.9237    0.0000 </r>
      </set>
      <set comment="kpoint 45">
       <r>   -4.7839    1.0000 </r>
       <r>   -0.3847    1.0000 </r>
       <r>    1.4445    1.0000 </r>
       <r>    3.3907    1.0000 </r>
       <r>   18.7961    0.0000 </r>
       <r>   19.6883    0.0000 </r>
       <r>   21.6307    0.0000 </r>
       <r>   24.9758    0.0000 </r>
      </set>
      <set comment="kpoint 46">
       <r>   -3.4074    1.0000 </r>
       <r>   -1.5987    1.0000 </r>
       <r>    1.1299    1.0000 </r>
       <r>    2.8060    1.0000 </r>
       <r>   19.2829    0.0000 </r>
       <r>   20.4046    0.0000 </r>
       <r>   22.8861    0.0000 </r>
       <r>   23.1131    0.0000 </r>
      </set>
      <set comment="kpoint 47">
       <r>   -2.2979    1.0000 </r>
       <r>   -2.2979    1.0000 </r>
       <r>    1.6374    1.0000 </r>
       <r>    1.6374    1.0000 </r>
       <r>   19.2150    0.0000 </r>
       <r>   19.2150    0.0000 </r>
       <r>   23.3687    0.0000 </r>
       <r>   23.3687    0.0000 </r>
      </set>
     </set>
    </set>
   </array>
  </eigenvalues>
  <separator name="orbital magnetization" >
   <v name="MAGDIPOLOUT">      0.00000000      0.00000000      0.00000000</v>
  </separator>
  <dos>
   <i name="efermi">     10.58972909 </i>
   <total>
    <array>
     <dimension dim="1">gridpoints</dimension>
     <dimension dim="2">spin</dimension>
     <field>energy</field>
     <field>total</field>
     <field>integrated</field>
     <set>
      <set comment="spin 1">
       <r>   -13.7433     0.0000     0.0000 </r>
       <r>   -13.6018     0.0000     0.0000 </r>
       <r>   -13.4603     0.0000     0.0000 </r>
       <r>   -13.3189     0.0000     0.0000 </r>
       <r>   -13.1774     0.0000     0.0000 </r>
       <r>   -13.0359     0.0000     0.0000 </r>
       <r>   -12.8944     0.0000     0.0000 </r>
       <r>   -12.7530     0.0000     0.0000 </r>
       <r>   -12.6115     0.0000     0.0000 </r>
       <r>   -12.4700     0.0000     0.0000 </r>
       <r>   -12.3286     0.0000     0.0000 </r>
       <r>   -12.1871     0.0000     0.0000 </r>
       <r>   -12.0456     0.0002     0.0000 </r>
       <r>   -11.9042     0.0017     0.0003 </r>
       <r>   -11.7627     0.0066     0.0012 </r>
       <r>   -11.6212     0.0215     0.0043 </r>
       <r>   -11.4798     0.0548     0.0120 </r>
       <r>   -11.3383     0.0737     0.0224 </r>
       <r>   -11.1968     0.0561     0.0304 </r>
       <r>   -11.0553     0.0608     0.0390 </r>
       <r>   -10.9139     0.0969     0.0527 </r>
       <r>   -10.7724     0.1482     0.0736 </r>
       <r>   -10.6309     0.1755     0.0985 </r>
       <r>   -10.4895     0.1110     0.1142 </r>
       <r>   -10.3480     0.0507     0.1213 </r>
       <r>   -10.2065     0.0629     0.1303 </r>
       <r>   -10.0651     0.1447     0.1507 </r>
       <r>    -9.9236     0.2457     0.1855 </r>
       <r>    -9.7821     0.2169     0.2162 </r>
       <r>    -9.6407     0.1447     0.2366 </r>
       <r>    -9.4992     0.1623     0.2596 </r>
       <r>    -9.3577     0.1948     0.2872 </r>
       <r>    -9.2162     0.2008     0.3156 </r>
       <r>    -9.0748     0.1290     0.3338 </r>
       <r>    -8.9333     0.0680     0.3434 </r>
       <r>    -8.7918     0.1037     0.3581 </r>
       <r>    -8.6504     0.2338     0.3912 </r>
       <r>    -8.5089     0.4001     0.4478 </r>
       <r>    -8.3674     0.3543     0.4979 </r>
       <r>    -8.2260     0.1910     0.5249 </r>
       <r>    -8.0845     0.1690     0.5488 </r>
       <r>    -7.9430     0.2189     0.5798 </r>
       <r>    -7.8016     0.2662     0.6174 </r>
       <r>    -7.6601     0.2226     0.6489 </r>
       <r>    -7.5186     0.1188     0.6657 </r>
       <r>    -7.3771     0.1018     0.6801 </r>
       <r>    -7.2357     0.2223     0.7116 </r>
       <r>    -7.0942     0.3802     0.7654 </r>
       <r>    -6.9527     0.3524     0.8152 </r>
       <r>    -6.8113     0.3120     0.8594 </r>
       <r>    -6.6698     0.3904     0.9146 </r>
       <r>    -6.5283     0.4462     0.9777 </r>
       <r>    -6.3869     0.3818     1.0317 </r>
       <r>    -6.2454     0.1937     1.0591 </r>
       <r>    -6.1039     0.1398     1.0789 </r>
       <r>    -5.9625     0.2671     1.1167 </r>
       <r>    -5.8210     0.3265     1.1629 </r>
       <r>    -5.6795     0.2701     1.2011 </r>
       <r>    -5.5380     0.2771     1.2403 </r>
       <r>    -5.3966     0.4670     1.3064 </r>
       <r>    -5.2551     0.6525     1.3987 </r>
       <r>    -5.1136     0.4742     1.4657 </r>
       <r>    -4.9722     0.1926     1.4930 </r>
       <r>    -4.8307     0.1978     1.5210 </r>
       <r>    -4.6892     0.3593     1.5718 </r>
       <r>    -4.5478     0.3585     1.6225 </r>
       <r>    -4.4063     0.2378     1.6562 </r>
       <r>    -4.2648     0.1501     1.6774 </r>
       <r>    -4.1234     0.1495     1.6985 </r>
       <r>    -3.9819     0.2917     1.7398 </r>
       <r>    -3.8404     0.3748     1.7928 </r>
       <r>    -3.6989     0.2907     1.8339 </r>
       <r>    -3.5575     0.2413     1.8681 </r>
       <r>    -3.4160     0.2284     1.9004 </r>
       <r>    -3.2745     0.1830     1.9263 </r>
       <r>    -3.1331     0.2047     1.9552 </r>
       <r>    -2.9916     0.3346     2.0026 </r>
       <r>    -2.8501     0.3692     2.0548 </r>
       <r>    -2.7087     0.2633     2.0921 </r>
       <r>    -2.5672     0.1903     2.1190 </r>
       <r>    -2.4257     0.3043     2.1620 </r>
       <r>    -2.2843     0.4363     2.2237 </r>
       <r>    -2.1428     0.3374     2.2715 </r>
       <r>    -2.0013     0.3092     2.3152 </r>
       <r>    -1.8598     0.4838     2.3837 </r>
       <r>    -1.7184     0.5095     2.4557 </r>
       <r>    -1.5769     0.4231     2.5156 </r>
       <r>    -1.4354     0.4520     2.5795 </r>
       <r>    -1.2940     0.6460     2.6709 </r>
       <r>    -1.1525     0.7862     2.7822 </r>
       <r>    -1.0110     0.6134     2.8689 </r>
       <r>    -0.8696     0.2783     2.9083 </r>
       <r>    -0.7281     0.0863     2.9205 </r>
       <r>    -0.5866     0.1492     2.9416 </r>
       <r>    -0.4452     0.3710     2.9941 </r>
       <r>    -0.3037     0.4115     3.0523 </r>
       <r>    -0.1622     0.2075     3.0817 </r>
       <r>    -0.0207     0.1100     3.0972 </r>
       <r>     0.1207     0.2100     3.1269 </r>
       <r>     0.2622     0.4015     3.1837 </r>
       <r>     0.4037     0.5641     3.2635 </r>
       <r>     0.5451     0.5006     3.3344 </r>
       <r>     0.6866     0.2875     3.3750 </r>
       <r>     0.8281     0.2080     3.4045 </r>
       <r>     0.9695     0.3837     3.4587 </r>
       <r>     1.1110     0.5818     3.5410 </r>
       <r>     1.2525     0.5387     3.6172 </r>
       <r>     1.3939     0.4949     3.6873 </r>
       <r>     1.5354     0.5360     3.7631 </r>
       <r>     1.6769     0.4802     3.8310 </r>
       <r>     1.8184     0.4960     3.9012 </r>
       <r>     1.9598     0.6007     3.9862 </r>
       <r>     2.1013     0.5322     4.0615 </r>
       <r>     2.2428     0.4262     4.1218 </r>
       <r>     2.3842     0.4608     4.1869 </r>
       <r>     2.5257     0.4680     4.2532 </r>
       <r>     2.6672     0.5737     4.3343 </r>
       <r>     2.8086     0.7741     4.4438 </r>
       <r>     2.9501     0.7156     4.5451 </r>
       <r>     3.0916     0.6136     4.6319 </r>
       <r>     3.2330     0.6298     4.7210 </r>
       <r>     3.3745     0.7289     4.8241 </r>
       <r>     3.5160     0.7112     4.9247 </r>
       <r>     3.6575     0.5620     5.0042 </r>
       <r>     3.7989     0.6656     5.0984 </r>
       <r>     3.9404     0.8447     5.2179 </r>
       <r>     4.0819     0.7530     5.3244 </r>
       <r>     4.2233     0.5289     5.3992 </r>
       <r>     4.3648     0.7044     5.4989 </r>
       <r>     4.5063     1.1258     5.6581 </r>
       <r>     4.6477     1.1261     5.8174 </r>
       <r>     4.7892     0.8895     5.9433 </r>
       <r>     4.9307     0.7327     6.0469 </r>
       <r>     5.0722     0.6211     6.1348 </r>
       <r>     5.2136     0.4265     6.1951 </r>
       <r>     5.3551     0.3766     6.2484 </r>
       <r>     5.4966     0.5163     6.3215 </r>
       <r>     5.6380     0.5882     6.4047 </r>
       <r>     5.7795     0.7058     6.5045 </r>
       <r>     5.9210     0.8733     6.6281 </r>
       <r>     6.0624     0.9761     6.7662 </r>
       <r>     6.2039     0.8514     6.8866 </r>
       <r>     6.3454     0.5685     6.9670 </r>
       <r>     6.4868     0.5064     7.0387 </r>
       <r>     6.6283     0.5363     7.1145 </r>
       <r>     6.7698     0.6112     7.2010 </r>
       <r>     6.9113     0.7545     7.3078 </r>
       <r>     7.0527     0.6887     7.4052 </r>
       <r>     7.1942     0.4017     7.4620 </r>
       <r>     7.3357     0.1941     7.4895 </r>
       <r>     7.4771     0.2529     7.5253 </r>
       <r>     7.6186     0.4843     7.5938 </r>
       <r>     7.7601     0.5410     7.6703 </r>
       <r>     7.9015     0.3784     7.7238 </r>
       <r>     8.0430     0.2112     7.7537 </r>
       <r>     8.1845     0.1114     7.7695 </r>
       <r>     8.3259     0.1320     7.7882 </r>
       <r>     8.4674     0.2991     7.8305 </r>
       <r>     8.6089     0.3876     7.8853 </r>
       <r>     8.7504     0.2323     7.9182 </r>
       <r>     8.8918     0.0813     7.9297 </r>
       <r>     9.0333     0.0433     7.9358 </r>
       <r>     9.1748     0.0571     7.9439 </r>
       <r>     9.3162     0.1237     7.9614 </r>
       <r>     9.4577     0.1457     7.9820 </r>
       <r>     9.5992     0.0731     7.9923 </r>
       <r>     9.7406     0.0242     7.9958 </r>
       <r>     9.8821     0.0173     7.9982 </r>
       <r>    10.0236     0.0100     7.9996 </r>
       <r>    10.1650     0.0024     8.0000 </r>
       <r>    10.3065     0.0002     8.0000 </r>
       <r>    10.4480     0.0000     8.0000 </r>
       <r>    10.5895     0.0000     8.0000 </r>
       <r>    10.7309     0.0000     8.0000 </r>
       <r>    10.8724     0.0000     8.0000 </r>
       <r>    11.0139     0.0000     8.0000 </r>
       <r>    11.1553     0.0000     8.0000 </r>
       <r>    11.2968     0.0000     8.0000 </r>
       <r>    11.4383     0.0000     8.0000 </r>
       <r>    11.5797     0.0000     8.0000 </r>
       <r>    11.7212     0.0000     8.0000 </r>
       <r>    11.8627     0.0000     8.0000 </r>
       <r>    12.0041     0.0000     8.0000 </r>
       <r>    12.1456     0.0000     8.0000 </r>
       <r>    12.2871     0.0000     8.0000 </r>
       <r>    12.4286     0.0000     8.0000 </r>
       <r>    12.5700     0.0000     8.0000 </r>
       <r>    12.7115     0.0000     8.0000 </r>
       <r>    12.8530     0.0000     8.0000 </r>
       <r>    12.9944     0.0000     8.0000 </r>
       <r>    13.1359     0.0000     8.0000 </r>
       <r>    13.2774     0.0000     8.0000 </r>
       <r>    13.4188     0.0000     8.0000 </r>
       <r>    13.5603     0.0001     8.0000 </r>
       <r>    13.7018     0.0021     8.0003 </r>
       <r>    13.8432     0.0160     8.0026 </r>
       <r>    13.9847     0.0488     8.0095 </r>
       <r>    14.1262     0.0623     8.0183 </r>
       <r>    14.2677     0.0390     8.0238 </r>
       <r>    14.4091     0.0612     8.0325 </r>
       <r>    14.5506     0.2013     8.0609 </r>
       <r>    14.6921     0.3218     8.1065 </r>
       <r>    14.8335     0.2567     8.1428 </r>
       <r>    14.9750     0.1952     8.1704 </r>
       <r>    15.1165     0.2072     8.1997 </r>
       <r>    15.2579     0.2379     8.2334 </r>
       <r>    15.3994     0.3680     8.2854 </r>
       <r>    15.5409     0.4925     8.3551 </r>
       <r>    15.6823     0.3954     8.4110 </r>
       <r>    15.8238     0.3504     8.4606 </r>
       <r>    15.9653     0.6168     8.5479 </r>
       <r>    16.1068     0.7304     8.6512 </r>
       <r>    16.2482     0.5230     8.7252 </r>
       <r>    16.3897     0.4659     8.7911 </r>
       <r>    16.5312     0.6178     8.8785 </r>
       <r>    16.6726     0.6509     8.9706 </r>
       <r>    16.8141     0.5034     9.0418 </r>
       <r>    16.9556     0.5035     9.1130 </r>
       <r>    17.0970     0.8498     9.2333 </r>
       <r>    17.2385     1.0832     9.3865 </r>
       <r>    17.3800     0.8862     9.5119 </r>
       <r>    17.5214     0.5153     9.5848 </r>
       <r>    17.6629     0.4320     9.6459 </r>
       <r>    17.8044     0.7653     9.7542 </r>
       <r>    17.9459     1.0489     9.9025 </r>
       <r>    18.0873     0.9735    10.0403 </r>
       <r>    18.2288     0.9411    10.1734 </r>
       <r>    18.3703     0.9908    10.3136 </r>
       <r>    18.5117     0.8377    10.4321 </r>
       <r>    18.6532     0.6947    10.5303 </r>
       <r>    18.7947     0.7400    10.6350 </r>
       <r>    18.9361     0.7665    10.7435 </r>
       <r>    19.0776     1.0070    10.8859 </r>
       <r>    19.2191     1.4563    11.0920 </r>
       <r>    19.3605     1.5141    11.3062 </r>
       <r>    19.5020     1.2806    11.4873 </r>
       <r>    19.6435     1.1000    11.6429 </r>
       <r>    19.7850     0.8534    11.7637 </r>
       <r>    19.9264     0.5411    11.8402 </r>
       <r>    20.0679     0.4856    11.9089 </r>
       <r>    20.2094     0.5988    11.9936 </r>
       <r>    20.3508     0.5083    12.0655 </r>
       <r>    20.4923     0.3485    12.1149 </r>
       <r>    20.6338     0.3372    12.1626 </r>
       <r>    20.7752     0.4330    12.2238 </r>
       <r>    20.9167     0.5252    12.2981 </r>
       <r>    21.0582     0.6655    12.3922 </r>
       <r>    21.1996     0.7132    12.4932 </r>
       <r>    21.3411     0.5196    12.5667 </r>
       <r>    21.4826     0.5762    12.6482 </r>
       <r>    21.6241     1.1136    12.8057 </r>
       <r>    21.7655     1.3745    13.0002 </r>
       <r>    21.9070     0.9544    13.1352 </r>
       <r>    22.0485     0.4962    13.2054 </r>
       <r>    22.1899     0.2794    13.2449 </r>
       <r>    22.3314     0.2816    13.2847 </r>
       <r>    22.4729     0.5126    13.3573 </r>
       <r>    22.6143     0.6817    13.4537 </r>
       <r>    22.7558     0.6755    13.5493 </r>
       <r>    22.8973     0.7787    13.6594 </r>
       <r>    23.0387     0.8850    13.7846 </r>
       <r>    23.1802     0.9268    13.9157 </r>
       <r>    23.3217     0.9222    14.0462 </r>
       <r>    23.4632     0.8199    14.1622 </r>
       <r>    23.6046     0.5858    14.2451 </r>
       <r>    23.7461     0.5460    14.3223 </r>
       <r>    23.8876     0.8993    14.4495 </r>
       <r>    24.0290     1.3321    14.6380 </r>
       <r>    24.1705     1.4222    14.8392 </r>
       <r>    24.3120     1.3156    15.0253 </r>
       <r>    24.4534     1.1503    15.1880 </r>
       <r>    24.5949     0.7413    15.2929 </r>
       <r>    24.7364     0.3329    15.3400 </r>
       <r>    24.8779     0.2258    15.3719 </r>
       <r>    25.0193     0.3734    15.4248 </r>
       <r>    25.1608     0.5097    15.4969 </r>
       <r>    25.3023     0.6081    15.5829 </r>
       <r>    25.4437     0.7474    15.6886 </r>
       <r>    25.5852     0.6160    15.7758 </r>
       <r>    25.7267     0.3248    15.8217 </r>
       <r>    25.8681     0.2911    15.8629 </r>
       <r>    26.0096     0.3812    15.9168 </r>
       <r>    26.1511     0.3063    15.9602 </r>
       <r>    26.2925     0.1499    15.9814 </r>
       <r>    26.4340     0.0438    15.9876 </r>
       <r>    26.5755     0.0191    15.9903 </r>
       <r>    26.7170     0.0309    15.9947 </r>
       <r>    26.8584     0.0270    15.9985 </r>
       <r>    26.9999     0.0094    15.9998 </r>
       <r>    27.1414     0.0013    16.0000 </r>
       <r>    27.2828     0.0001    16.0000 </r>
       <r>    27.4243     0.0000    16.0000 </r>
       <r>    27.5658     0.0000    16.0000 </r>
       <r>    27.7072     0.0000    16.0000 </r>
       <r>    27.8487     0.0000    16.0000 </r>
       <r>    27.9902     0.0000    16.0000 </r>
       <r>    28.1316     0.0000    16.0000 </r>
       <r>    28.2731     0.0000    16.0000 </r>
       <r>    28.4146     0.0000    16.0000 </r>
       <r>    28.5561     0.0000    16.0000 </r>
       <r>    28.6975     0.0000    16.0000 </r>
      </set>
     </set>
    </array>
   </total>
  </dos>
 </calculation>
 <structure name="finalpos" >
  <crystal>
   <varray name="basis" >
    <v>       2.51730013       0.00000000       0.00000000 </v>
    <v>       1.25865006       2.18004586       0.00000000 </v>
    <v>       1.25865006       0.72668195       2.05536695 </v>
   </varray>
   <i name="volume">     11.27950384 </i>
   <varray name="rec_basis" >
    <v>       0.39725100      -0.22935297      -0.16217704 </v>
    <v>       0.00000000       0.45870595      -0.16217704 </v>
    <v>       0.00000000       0.00000000       0.48653113 </v>
   </varray>
  </crystal>
  <varray name="positions" >
   <v>       0.25000000       0.25000000       0.25000000 </v>
   <v>       0.00000000       0.00000000       0.00000000 </v>
  </varray>
 </structure>
</modeling>
