    2    2    1    1
  0.5639752E+01  0.2517300E-09  0.2517300E-09  0.2517300E-09  0.5000000E-15
  1.000000000000000E-004
  CAR 
 unknown system                          
      8     47      8
 
  0.1276756E-14  0.1276756E-14  0.1276756E-14  0.1000000E-02
      1        -11.768711   1.000000
      2          9.880496   1.000000
      3          9.881134   1.000000
      4          9.881134   1.000000
      5         15.522112   0.000000
      6         15.522847   0.000000
      7         15.522847   0.000000
      8         23.211256   0.000000
 
  0.1000000E+00  0.1257202E-14  0.1278733E-14  0.8000000E-02
      1        -11.490607   1.000000
      2          8.178080   1.000000
      3          9.430693   1.000000
      4          9.431238   1.000000
      5         16.127764   0.000000
      6         16.128429   0.000000
      7         16.533534   0.000000
      8         23.482509   0.000000
 
  0.2000000E+00  0.1255815E-14  0.1296939E-14  0.8000000E-02
      1        -10.662962   1.000000
      2          4.914065   1.000000
      3          8.497102   1.000000
      4          8.497720   1.000000
      5         17.328170   0.000000
      6         17.328723   0.000000
      7         17.683969   0.000000
      8         24.175873   0.000000
 
  0.3000000E+00  0.1203015E-14  0.1309915E-14  0.8000000E-02
      1         -9.303012   1.000000
      2          1.490086   1.000000
      3          7.698376   1.000000
      4          7.698968   1.000000
      5         18.151911   0.000000
      6         18.152464   0.000000
      7         18.318632   0.000000
      8         25.055239   0.000000
 
  0.4000000E+00  0.1224943E-14  0.1342384E-14  0.8000000E-02
      1         -7.484363   1.000000
      2         -1.642702   1.000000
      3          7.190800   1.000000
      4          7.191344   1.000000
      5         18.358244   0.000000
      6         18.358983   0.000000
      7         18.634283   0.000000
      8         25.781190   0.000000
 
  0.5000000E+00  0.1216617E-14  0.1247647E-14  0.4000000E-02
      1         -5.965195   1.000000
      2         -3.630840   1.000000
      3          7.011101   1.000000
      4          7.011633   1.000000
      5         18.373791   0.000000
      6         18.374578   0.000000
      7         18.724218   0.000000
      8         25.968508   0.000000
 
  0.1000000E+00  0.1000000E+00  0.1257559E-14  0.6000000E-02
      1        -11.398499   1.000000
      2          8.631049   1.000000
      3          8.631445   1.000000
      4          8.947851   1.000000
      5         15.268394   0.000000
      6         17.124038   0.000000
      7         17.124570   0.000000
      8         23.339258   0.000000
 
  0.2000000E+00  0.1000000E+00  0.1290028E-14  0.2400000E-01
      1        -10.753628   1.000000
      2          6.052777   1.000000
      3          7.658345   1.000000
      4          8.494597   1.000000
      5         15.690321   0.000000
      6         18.441253   0.000000
      7         18.521544   0.000000
      8         23.288547   0.000000
 
  0.3000000E+00  0.1000000E+00  0.1316497E-14  0.2400000E-01
      1         -9.571198   1.000000
      2          2.736640   1.000000
      3          6.874100   1.000000
      4          7.615019   1.000000
      5         16.715210   0.000000
      6         19.224283   0.000000
      7         19.388351   0.000000
      8         23.529137   0.000000
 
  0.4000000E+00  0.1000000E+00  0.1363612E-14  0.2400000E-01
      1         -7.894464   1.000000
      2         -0.470939   1.000000
      3          6.486987   1.000000
      4          6.738496   1.000000
      5         17.438948   0.000000
      6         19.587603   0.000000
      7         19.606167   0.000000
      8         24.531849   0.000000
 
  0.5000000E+00  0.1000000E+00  0.1297399E-14  0.2400000E-01
      1         -6.018776   1.000000
      2         -3.078125   1.000000
      3          6.105638   1.000000
      4          6.529283   1.000000
      5         17.852023   0.000000
      6         19.370022   0.000000
      7         19.724836   0.000000
      8         25.792492   0.000000
 
 -0.4000000E+00  0.1000000E+00  0.1241531E-14  0.2400000E-01
      1         -6.600834   1.000000
      2         -2.345054   1.000000
      3          5.806688   1.000000
      4          6.943296   1.000000
      5         18.262808   0.000000
      6         18.966284   0.000000
      7         19.646853   0.000000
      8         25.813247   0.000000
 
 -0.3000000E+00  0.1000000E+00  0.1259737E-14  0.2400000E-01
      1         -8.502835   1.000000
      2          0.572783   1.000000
      3          5.921171   1.000000
      4          7.660548   1.000000
      5         18.301042   0.000000
      6         18.574813   0.000000
      7         19.367579   0.000000
      8         24.767720   0.000000
 
 -0.2000000E+00  0.1000000E+00  0.1280036E-14  0.2400000E-01
      1        -10.024358   1.000000
      2          3.861703   1.000000
      3          6.432414   1.000000
      4          8.576092   1.000000
      5         17.306579   0.000000
      6         18.445095   0.000000
      7         18.630559   0.000000
      8         23.963792   0.000000
 
 -0.1000000E+00  0.1000000E+00  0.1258124E-14  0.1200000E-01
      1        -11.029759   1.000000
      2          6.874583   1.000000
      3          7.512121   1.000000
      4          9.391367   1.000000
      5         16.277893   0.000000
      6         17.351136   0.000000
      7         17.662714   0.000000
      8         23.665930   0.000000
 
  0.2000000E+00  0.2000000E+00  0.1282348E-14  0.6000000E-02
      1        -10.295558   1.000000
      2          6.618132   1.000000
      3          6.618458   1.000000
      4          6.703368   1.000000
      5         14.655343   0.000000
      6         20.138621   0.000000
      7         20.139215   0.000000
      8         21.706973   0.000000
 
  0.3000000E+00  0.2000000E+00  0.1309202E-14  0.2400000E-01
      1         -9.296239   1.000000
      2          3.951926   1.000000
      3          5.822513   1.000000
      4          6.154401   1.000000
      5         15.051117   0.000000
      6         20.666036   0.000000
      7         21.354371   0.000000
      8         21.394426   0.000000
 
  0.4000000E+00  0.2000000E+00  0.1328561E-14  0.2400000E-01
      1         -7.788775   1.000000
      2          0.978481   1.000000
      3          5.099590   1.000000
      4          5.408500   1.000000
      5         15.990367   0.000000
      6         21.159059   0.000000
      7         21.868882   0.000000
      8         21.889944   0.000000
 
  0.5000000E+00  0.2000000E+00  0.1290872E-14  0.2400000E-01
      1         -5.916139   1.000000
      2         -1.772256   1.000000
      3          4.098218   1.000000
      4          5.479894   1.000000
      5         16.579716   0.000000
      6         21.599506   0.000000
      7         22.082775   0.000000
      8         23.347101   0.000000
 
 -0.4000000E+00  0.2000000E+00  0.1234619E-14  0.2400000E-01
      1         -5.366267   1.000000
      2         -2.425041   1.000000
      3          3.431153   1.000000
      4          5.970511   1.000000
      5         17.167836   0.000000
      6         20.936806   0.000000
      7         22.030179   0.000000
      8         25.513681   0.000000
 
 -0.3000000E+00  0.2000000E+00  0.1260149E-14  0.2400000E-01
      1         -7.201869   1.000000
      2          0.092951   1.000000
      3          3.206636   1.000000
      4          6.811227   1.000000
      5         17.926662   0.000000
      6         19.905891   0.000000
      7         21.716767   0.000000
      8         24.537549   0.000000
 
 -0.2000000E+00  0.2000000E+00  0.1301415E-14  0.1200000E-01
      1         -8.853645   1.000000
      2          2.800075   1.000000
      3          3.801693   1.000000
      4          7.821159   1.000000
      5         18.516673   0.000000
      6         18.528179   0.000000
      7         20.488241   0.000000
      8         23.622964   0.000000
 
  0.3000000E+00  0.3000000E+00  0.1302674E-14  0.6000000E-02
      1         -8.484010   1.000000
      2          3.693420   1.000000
      3          4.943049   1.000000
      4          4.943342   1.000000
      5         14.111099   0.000000
      6         18.530879   0.000000
      7         23.258501   0.000000
      8         23.259271   0.000000
 
  0.4000000E+00  0.3000000E+00  0.1321265E-14  0.2400000E-01
      1         -7.158305   1.000000
      2          1.734516   1.000000
      3          3.815954   1.000000
      4          4.472291   1.000000
      5         14.665039   0.000000
      6         17.883428   0.000000
      7         24.253839   0.000000
      8         24.323949   0.000000
 
  0.5000000E+00  0.3000000E+00  0.1311331E-14  0.2400000E-01
      1         -5.406565   1.000000
      2         -0.455122   1.000000
      3          2.268796   1.000000
      4          4.445929   1.000000
      5         15.440676   0.000000
      6         19.501046   0.000000
      7         24.272878   0.000000
      8         24.721707   0.000000
 
 -0.4000000E+00  0.3000000E+00  0.1248716E-14  0.2400000E-01
      1         -4.051698   1.000000
      2         -1.904776   1.000000
      3          1.111455   1.000000
      4          4.904624   1.000000
      5         16.018119   0.000000
      6         22.613281   0.000000
      7         23.392198   0.000000
      8         24.748327   0.000000
 
 -0.3000000E+00  0.3000000E+00  0.1270508E-14  0.1200000E-01
      1         -5.491978   1.000000
      2         -0.365152   1.000000
      3          0.916989   1.000000
      4          5.767955   1.000000
      5         16.885355   0.000000
      6         21.820957   0.000000
      7         24.287064   0.000000
      8         24.673375   0.000000
 
  0.4000000E+00  0.4000000E+00  0.1238198E-14  0.6000000E-02
      1         -6.018037   1.000000
      2          0.341491   1.000000
      3          3.883895   1.000000
      4          3.884172   1.000000
      5         14.012522   0.000000
      6         16.056834   0.000000
      7         25.971171   0.000000
      8         25.972129   0.000000
 
  0.5000000E+00  0.4000000E+00  0.1219232E-14  0.2400000E-01
      1         -4.428768   1.000000
      2         -1.298432   1.000000
      3          2.737327   1.000000
      4          3.741048   1.000000
      5         14.696226   0.000000
      6         16.183026   0.000000
      7         26.357751   0.000000
      8         26.541366   0.000000
 
 -0.4000000E+00  0.4000000E+00  0.1231745E-14  0.1200000E-01
      1         -2.962467   1.000000
      2         -2.338992   1.000000
      3          0.993546   1.000000
      4          4.108440   1.000000
      5         15.220603   0.000000
      6         18.935780   0.000000
      7         25.473026   0.000000
      8         26.236569   0.000000
 
  0.5000000E+00  0.5000000E+00  0.1193213E-14  0.3000000E-02
      1         -3.005900   1.000000
      2         -3.005891   1.000000
      3          3.517100   1.000000
      4          3.517372   1.000000
      5         14.610282   0.000000
      6         14.610292   0.000000
      7         27.246243   0.000000
      8         27.247306   0.000000
 
  0.3000000E+00  0.2000000E+00  0.1000000E+00  0.2400000E-01
      1         -9.931951   1.000000
      2          4.754796   1.000000
      3          5.598068   1.000000
      4          7.922667   1.000000
      5         16.062963   0.000000
      6         19.415333   0.000000
      7         20.030235   0.000000
      8         22.535278   0.000000
 
  0.4000000E+00  0.2000000E+00  0.1000000E+00  0.4800000E-01
      1         -8.585081   1.000000
      2          1.914117   1.000000
      3          4.714673   1.000000
      4          7.016776   1.000000
      5         17.191351   0.000000
      6         19.560431   0.000000
      7         21.248388   0.000000
      8         22.658713   0.000000
 
  0.5000000E+00  0.2000000E+00  0.1000000E+00  0.4800000E-01
      1         -6.791903   1.000000
      2         -1.064814   1.000000
      3          4.469893   1.000000
      4          6.141666   1.000000
      5         17.940931   0.000000
      6         19.252771   0.000000
      7         21.775501   0.000000
      8         24.210125   0.000000
 
 -0.4000000E+00  0.2000000E+00  0.1000000E+00  0.2400000E-01
      1         -5.312614   1.000000
      2         -2.961372   1.000000
      3          4.450416   1.000000
      4          5.763070   1.000000
      5         18.150253   0.000000
      6         19.078287   0.000000
      7         21.938376   0.000000
      8         25.534847   0.000000
 
  0.4000000E+00  0.3000000E+00  0.1000000E+00  0.2400000E-01
      1         -8.133497   1.000000
      2          2.713937   1.000000
      3          3.994068   1.000000
      4          5.470366   1.000000
      5         15.598459   0.000000
      6         19.652226   0.000000
      7         21.877289   0.000000
      8         23.234613   0.000000
 
  0.5000000E+00  0.3000000E+00  0.1000000E+00  0.4800000E-01
      1         -6.496319   1.000000
      2          0.369219   1.000000
      3          3.098858   1.000000
      4          4.636973   1.000000
      5         16.753110   0.000000
      6         20.247950   0.000000
      7         21.847282   0.000000
      8         24.381852   0.000000
 
 -0.4000000E+00  0.3000000E+00  0.1000000E+00  0.4800000E-01
      1         -4.701204   1.000000
      2         -1.912748   1.000000
      3          2.451984   1.000000
      4          4.464580   1.000000
      5         17.353735   0.000000
      6         21.017709   0.000000
      7         23.018175   0.000000
      8         24.538313   0.000000
 
 -0.3000000E+00  0.3000000E+00  0.1000000E+00  0.4800000E-01
      1         -5.275645   1.000000
      2         -1.186499   1.000000
      3          1.982516   1.000000
      4          5.036892   1.000000
      5         18.009177   0.000000
      6         20.337285   0.000000
      7         23.577457   0.000000
      8         24.728471   0.000000
 
 -0.2000000E+00  0.3000000E+00  0.1000000E+00  0.2400000E-01
      1         -7.104700   1.000000
      2          1.117460   1.000000
      3          2.293662   1.000000
      4          6.027753   1.000000
      5         18.883155   0.000000
      6         18.907510   0.000000
      7         22.603733   0.000000
      8         23.453247   0.000000
 
  0.5000000E+00  0.4000000E+00  0.1000000E+00  0.2400000E-01
      1         -5.700412   1.000000
      2          0.257802   1.000000
      3          3.010459   1.000000
      4          3.516959   1.000000
      5         15.520771   0.000000
      6         17.386495   0.000000
      7         24.466406   0.000000
      8         25.895973   0.000000
 
 -0.4000000E+00  0.4000000E+00  0.1000000E+00  0.4800000E-01
      1         -3.921385   1.000000
      2         -1.292307   1.000000
      3          1.432503   1.000000
      4          3.391372   1.000000
      5         16.506843   0.000000
      6         19.193320   0.000000
      7         24.070971   0.000000
      8         25.783581   0.000000
 
 -0.3000000E+00  0.4000000E+00  0.1000000E+00  0.2400000E-01
      1         -3.629159   1.000000
      2         -1.468941   1.000000
      3          0.449517   1.000000
      4          3.998334   1.000000
      5         17.128069   0.000000
      6         22.330356   0.000000
      7         23.089172   0.000000
      8         24.436797   0.000000
 
 -0.4000000E+00  0.5000000E+00  0.1000000E+00  0.1200000E-01
      1         -2.783461   1.000000
      2         -2.783436   1.000000
      3          2.787657   1.000000
      4          2.787925   1.000000
      5         16.044842   0.000000
      6         16.044924   0.000000
      7         26.340373   0.000000
      8         26.341311   0.000000
 
 -0.4000000E+00  0.4000000E+00  0.2000000E+00  0.2400000E-01
      1         -4.801621   1.000000
      2         -0.387721   1.000000
      3          1.458982   1.000000
      4          3.430319   1.000000
      5         18.914188   0.000000
      6         19.846560   0.000000
      7         21.801990   0.000000
      8         25.396263   0.000000
 
 -0.3000000E+00  0.4000000E+00  0.2000000E+00  0.2400000E-01
      1         -3.427710   1.000000
      2         -1.607083   1.000000
      3          1.142734   1.000000
      4          2.834426   1.000000
      5         19.416326   0.000000
      6         20.511911   0.000000
      7         23.115453   0.000000
      8         23.391265   0.000000
 
 -0.3000000E+00  0.5000000E+00  0.2000000E+00  0.1200000E-01
      1         -2.313906   1.000000
      2         -2.313883   1.000000
      3          1.659489   1.000000
      4          1.659701   1.000000
      5         19.335761   0.000000
      6         19.335952   0.000000
      7         23.608945   0.000000
      8         23.609494   0.000000
