C  N                                    
   1.00000000000000     
    10.7211360931000002    0.0000000000000000    0.0000000000000000
     0.0000000000000000   10.7211360931000002    0.0000000000000000
     0.0000000000000000    0.0000000000000000   10.7211360931000002
   C    N 
   214     1
Direct
     0.0832801404810013    0.0833532825287833    0.0833865255189963
     0.0836584570837289    0.0831736415106121    0.4167717388371344
     0.0829854152343472    0.0834248397225750    0.7499780205364743
     0.0836833350364685    0.4167329280584582    0.0829833309635291
     0.0832489016945104    0.4167686711448084    0.4167067166227767
     0.0830261044660006    0.4167019842978519    0.7498982895866035
     0.0832913959492600    0.7499610890203812    0.0833752700507375
     0.0833905328020350    0.7500133023020794    0.4166837649050876
     0.0835499625811522    0.7499317626068560    0.7499414378208726
     0.4166886464635269    0.0834248397225750    0.0836812507656504
     0.4168337060533460    0.0835578366653351    0.4170012453532124
     0.4163403245020305    0.0827975874350955    0.7503263424979707
     0.4167683774133977    0.4167019842978519    0.0836405615339970
     0.4182319836506068    0.4176703091847571    0.4180975963633600
     0.4157328469498793    0.4160418985991825    0.7509338200501148
     0.4167252291791286    0.7499317626068560    0.0831167034188454
     0.4157212529328547    0.7509092298959175    0.4168750548187035
     0.4171945652689999    0.7492646575861315    0.7494721017310013
     0.7498949281628668    0.0831736415106121    0.0830082089162687
     0.7499754309070781    0.0834988256807634    0.4166912360929302
     0.7496654216467888    0.0835578366653351    0.7498329609466552
     0.7499599503772245    0.4167686711448084    0.0834177643054872
     0.7573954880357761    0.4097191718455093    0.4092711789642252
     0.7485690706366412    0.4176703091847571    0.7484346833493944
     0.7499829020949136    0.7500133023020794    0.0832761331979626
     0.7496724314444876    0.7493094673758876    0.4169942355555136
     0.7497916121812978    0.7509092298959175    0.7509454140671465
     0.2500915067225762    0.2500219794635257    0.0836812507656504
     0.2502245036653363    0.2501670390533448    0.4170012453532124
     0.2494642544350967    0.2496736575020293    0.7503263424979707
     0.2498403085106133    0.5832282611628656    0.0830082089162687
     0.2501654926807646    0.5833087639070698    0.4166912360929302
     0.2502245036653363    0.5829987546467876    0.7498329609466552
     0.2500199495287845    0.9166134744810037    0.0833865255189963
     0.2498403085106133    0.9169917910837313    0.4167717388371344
     0.2500915067225762    0.9163187492343496    0.7499780205364743
     0.5833686502978495    0.2501017104133965    0.0836405615339970
     0.5843369751847547    0.2515653166506056    0.4180975963633600
     0.5827085645991801    0.2490661799498852    0.7509338200501148
     0.5834353371448060    0.5832932833772233    0.0834177643054872
     0.5763858378455069    0.5907288210357748    0.4092711789642252
     0.5843369751847547    0.5819024036366400    0.7484346833493944
     0.5833995940584558    0.9170166690364709    0.0829833309635291
     0.5834353371448060    0.9165822356945128    0.4167067166227767
     0.5833686502978495    0.9163594384660030    0.7498982895866035
     0.9165984296068572    0.2500585621791274    0.0831167034188454
     0.9175758968959187    0.2490545859328535    0.4168750548187035
     0.9159313245861327    0.2505278982689987    0.7494721017310013
     0.9166799693020806    0.5833162350949124    0.0832761331979626
     0.9159761343758888    0.5830057644444864    0.4169942355555136
     0.9175758968959187    0.5831249451812965    0.7509454140671465
     0.9166277560203824    0.9166247299492625    0.0833752700507375
     0.9166799693020806    0.9167238668020374    0.4166837649050876
     0.9165984296068572    0.9168832965811546    0.7499414378208726
     0.2501752589053083    0.0835085919053071    0.2501895518217552
     0.2498227470014314    0.0831560800014302    0.5835180251850645
     0.2498151104913831    0.0831484434913818    0.9168515565086182
     0.2504374800703246    0.4168604406758476    0.2504406774092161
     0.2498831470015759    0.4165550243920464    0.5834449756079536
     0.2498227470014314    0.4164819748149355    0.9168439199985698
     0.2499270213984133    0.7500667562340126    0.2499332437659874
     0.2504374800703246    0.7495593225907839    0.5831395593241453
     0.2501752589053083    0.7498104481782448    0.9164914080946929
     0.5835271066758523    0.0837708130703234    0.2504406774092161
     0.5832216903920440    0.0832164800015747    0.5834449756079536
     0.5831486408149331    0.0831560800014302    0.9168439199985698
     0.5840243706570192    0.4173577046570216    0.2510392345561101
     0.5832216903920440    0.4165550243920464    0.9167835199984253
     0.5836259414498457    0.7510420510107139    0.2489579489892861
     0.5840243706570192    0.7489607654438899    0.5826422953429784
     0.5835271066758523    0.7495593225907839    0.9162291869296766
     0.9167334232340139    0.0832603543984121    0.2499332437659874
     0.9162259895907852    0.0837708130703234    0.5831395593241453
     0.9164771151782460    0.0835085919053071    0.9164914080946929
     0.9177087180107151    0.4169592754498481    0.2489579489892861
     0.9156274324438911    0.4173577046570216    0.5826422953429784
     0.9162259895907852    0.4168604406758476    0.9162291869296766
     0.9164418718640022    0.7497752048640010    0.2502247951359990
     0.9177087180107151    0.7510420510107139    0.5830407245501519
     0.9167334232340139    0.7500667562340126    0.9167396456015879
     0.0835499625811522    0.2500585621791274    0.2500682373931440
     0.0830261044660006    0.2501017104133965    0.5832980157021481
     0.0829854152343472    0.2500219794635257    0.9165751602774179
     0.0833905328020350    0.5833162350949124    0.2499866976979206
     0.0832489016945104    0.5832932833772233    0.5832313288551916
     0.0836584570837289    0.5832282611628656    0.9168263584893879
     0.0832913959492600    0.9166247299492625    0.2500389109796188
     0.0836833350364685    0.9170166690364709    0.5832670719415418
     0.0832801404810013    0.9166134744810037    0.9166467174712167
     0.4171945652689999    0.2505278982689987    0.2507353424138685
     0.4157328469498793    0.2490661799498852    0.5839581014008175
     0.4163403245020305    0.2496736575020293    0.9172024125649045
     0.4157212529328547    0.5831249451812965    0.2490907701040825
     0.4182319836506068    0.5819024036366400    0.5823296908152429
     0.4168337060533460    0.5829987546467876    0.9164421633346649
     0.4167252291791286    0.9168832965811546    0.2500682373931440
     0.4167683774133977    0.9163594384660030    0.5832980157021481
     0.4166886464635269    0.9163187492343496    0.9165751602774179
     0.7497916121812978    0.2490545859328535    0.2490907701040825
     0.7485690706366412    0.2515653166506056    0.5823296908152429
     0.7496654216467888    0.2501670390533448    0.9164421633346649
     0.7496724314444876    0.5830057644444864    0.2506905326241124
     0.7573954880357761    0.5907288210357748    0.5902808281544907
     0.7499754309070781    0.5833087639070698    0.9165011743192366
     0.7499829020949136    0.9167238668020374    0.2499866976979206
     0.7499599503772245    0.9165822356945128    0.5832313288551916
     0.7498949281628668    0.9169917910837313    0.9168263584893879
     0.9999181061741069    0.0000448055628652    0.9999551944371348
     0.0000632364811963    0.9999888428847683    0.3332922978822239
     0.9997509328799481    0.0002897451142019    0.6666619499819433
     0.9997509328799481    0.3333380500180567    0.9997102548857981
     0.0002018727460822    0.3333330793024061    0.3332403956326928
     0.9991535178194368    0.3339015643499650    0.6660984356500350
     0.0000632364811963    0.6667077021177761    0.0000111571152317
     0.9996422525321691    0.6663421580410898    0.3336578419589102
     0.0002018727460822    0.6667596043673072    0.6666669206975939
     0.3333314715695934    0.9998721967728130    0.0001278032271870
     0.3334667185994249    0.0002454873266444    0.3334355762227119
     0.3333053289808348    0.9996311251442265    0.6667794883219145
     0.3333053289808348    0.3332205116780855    0.0003688748557735
     0.3344177750876227    0.3337174947349908    0.3344236504744984
     0.3326662757225662    0.3328796643103473    0.6671203356896527
     0.3334667185994249    0.6665644237772881    0.9997545126733556
     0.3332049877559982    0.6667952052928214    0.3332047947071786
     0.3344177750876227    0.6655763495255016    0.6662825052650092
     0.6666556184296866    0.0001348825105225    0.9998651174894775
     0.6666867111659656    0.0001173599562208    0.3335098927556714
     0.6665816799232118    0.9998846439275368    0.6665669787722877
     0.6665816799232118    0.3334330212277123    0.0001153560724632
     0.6682002748913263    0.3344544318664262    0.3342478403630409
     0.6633854694078067    0.3340458686003345    0.6659541313996655
     0.6666867111659656    0.6664901072443286    0.9998826400437792
     0.6658049224009090    0.6660843215209482    0.3339156784790518
     0.6682002748913263    0.6657521596369591    0.6655455681335738
     0.1665388637728142    0.1666648055695958    0.0001278032271870
     0.1669121543266456    0.1668000525994273    0.3334355762227119
     0.1662977921442277    0.1666386629808372    0.6667794883219145
     0.1668015495105237    0.4999889514296854    0.9998651174894775
     0.1667840269562220    0.5000200441659644    0.3335098927556714
     0.1665513109275381    0.4999150129232106    0.6665669787722877
     0.1667114725628664    0.8332514391741057    0.9999551944371348
     0.1666555098847695    0.8333965694811951    0.3332922978822239
     0.1669564121142031    0.8330842658799469    0.6666619499819433
     0.4998871786780867    0.1666386629808372    0.0003688748557735
     0.5003841617349920    0.1677511090876251    0.3344236504744984
     0.4995463313103485    0.1659996097225687    0.6671203356896527
     0.5000996882277136    0.4999150129232106    0.0001153560724632
     0.5011210988664274    0.5015336078913251    0.3342478403630409
     0.5007125356003357    0.4967188024078055    0.6659541313996655
     0.5000047170180579    0.8330842658799469    0.9997102548857981
     0.4999997463024073    0.8335352057460810    0.3332403956326928
     0.5005682313499662    0.8324868508194356    0.6660984356500350
     0.8332310897772857    0.1668000525994273    0.9997545126733556
     0.8334618712928190    0.1665383217560006    0.3332047947071786
     0.8322430155254992    0.1677511090876251    0.6662825052650092
     0.8331567732443261    0.5000200441659644    0.9998826400437792
     0.8327509875209458    0.4991382554009078    0.3339156784790518
     0.8324188256369567    0.5015336078913251    0.6655455681335738
     0.8333743681177737    0.8333965694811951    0.0000111571152317
     0.8330088240410873    0.8329755855321679    0.3336578419589102
     0.8334262703673048    0.8335352057460810    0.6666669206975939
     0.1667114725628664    0.0000448055628652    0.1667485608258943
     0.1668015495105237    0.0001348825105225    0.5000110485703146
     0.1665388637728142    0.9998721967728130    0.8333351944304042
     0.1669564121142031    0.3333380500180567    0.1669157341200531
     0.1665513109275381    0.3334330212277123    0.5000849870767894
     0.1662977921442277    0.3332205116780855    0.8333613370191628
     0.1666555098847695    0.6667077021177761    0.1666034305188049
     0.1667840269562220    0.6664901072443286    0.4999799558340356
     0.1669121543266456    0.6665644237772881    0.8331999474005727
     0.5000047170180579    0.0002897451142019    0.1669157341200531
     0.5000996882277136    0.9998846439275368    0.5000849870767894
     0.4998871786780867    0.9996311251442265    0.8333613370191628
     0.5005682313499662    0.3339015643499650    0.1675131491805644
     0.5007125356003357    0.3340458686003345    0.5032811975921945
     0.4995463313103485    0.3328796643103473    0.8340003902774313
     0.4999997463024073    0.6667596043673072    0.1664647942539190
     0.5011210988664274    0.6657521596369591    0.4984663921086749
     0.5003841617349920    0.6655763495255016    0.8322488909123749
     0.8333743681177737    0.9999888428847683    0.1666034305188049
     0.8331567732443261    0.0001173599562208    0.4999799558340356
     0.8332310897772857    0.0002454873266444    0.8331999474005727
     0.8334262703673048    0.3333330793024061    0.1664647942539190
     0.8324188256369567    0.3344544318664262    0.4984663921086749
     0.8322430155254992    0.3337174947349908    0.8322488909123749
     0.8330088240410873    0.6663421580410898    0.1670244144678321
     0.8327509875209458    0.6660843215209482    0.5008617445990922
     0.8334618712928190    0.6667952052928214    0.8334616782439994
     0.0000092415694226    0.1667673681301025    0.1666574254305786
     0.0003805833719071    0.1662744727726491    0.4998109265364974
     0.9995183434292514    0.1669266451519889    0.8330733548480111
     0.0006155542303006    0.4999124701804547    0.1660511127697006
     0.9994208967367797    0.5001175864773870    0.4998824135226130
     0.0003805833719071    0.5001890734635026    0.8337255272273509
     0.9998935412497758    0.8332268742497746    0.1667731257502254
     0.0006155542303006    0.8339488872302994    0.5000875298195453
     0.0000092415694226    0.8333425745694214    0.8332326318698975
     0.3335933111519864    0.1669266451519889    0.1671483235707498
     0.3330550400012910    0.1663883740012935    0.5003336561887579
     0.3330505891092557    0.1663839231092581    0.8336160768907419
     0.3329411387726466    0.5001890734635026    0.1662860836280942
     0.3337915717460120    0.4998956854899106    0.5001043145100894
     0.3330550400012910    0.4996663438112421    0.8336116259987065
     0.3334340341301001    0.8333425745694214    0.1666574254305786
     0.3329411387726466    0.8337139163719058    0.4998109265364974
     0.3335933111519864    0.8328516764292502    0.8330733548480111
     0.6668557404635038    0.1662744727726491    0.1662860836280942
     0.6665623524899118    0.1671249057460145    0.5001043145100894
     0.6663330108112433    0.1663883740012935    0.8336116259987065
     0.6667842534773882    0.5001175864773870    0.1672457702632215
     0.6665623524899118    0.4998956854899106    0.8328750942539855
     0.6665791371804559    0.8339488872302994    0.1660511127697006
     0.6667842534773882    0.8327542297367785    0.4998824135226130
     0.6668557404635038    0.8337139163719058    0.8337255272273509
     0.5771977416348193    0.4105310756348217    0.5894689243651783
 
  0.00000000E+00  0.00000000E+00  0.00000000E+00
  0.00000000E+00  0.00000000E+00  0.00000000E+00
  0.00000000E+00  0.00000000E+00  0.00000000E+00
  0.00000000E+00  0.00000000E+00  0.00000000E+00
  0.00000000E+00  0.00000000E+00  0.00000000E+00
  0.00000000E+00  0.00000000E+00  0.00000000E+00
  0.00000000E+00  0.00000000E+00  0.00000000E+00
  0.00000000E+00  0.00000000E+00  0.00000000E+00
  0.00000000E+00  0.00000000E+00  0.00000000E+00
  0.00000000E+00  0.00000000E+00  0.00000000E+00
  0.00000000E+00  0.00000000E+00  0.00000000E+00
  0.00000000E+00  0.00000000E+00  0.00000000E+00
  0.00000000E+00  0.00000000E+00  0.00000000E+00
  0.00000000E+00  0.00000000E+00  0.00000000E+00
  0.00000000E+00  0.00000000E+00  0.00000000E+00
  0.00000000E+00  0.00000000E+00  0.00000000E+00
  0.00000000E+00  0.00000000E+00  0.00000000E+00
  0.00000000E+00  0.00000000E+00  0.00000000E+00
  0.00000000E+00  0.00000000E+00  0.00000000E+00
  0.00000000E+00  0.00000000E+00  0.00000000E+00
  0.00000000E+00  0.00000000E+00  0.00000000E+00
  0.00000000E+00  0.00000000E+00  0.00000000E+00
  0.00000000E+00  0.00000000E+00  0.00000000E+00
  0.00000000E+00  0.00000000E+00  0.00000000E+00
  0.00000000E+00  0.00000000E+00  0.00000000E+00
  0.00000000E+00  0.00000000E+00  0.00000000E+00
  0.00000000E+00  0.00000000E+00  0.00000000E+00
  0.00000000E+00  0.00000000E+00  0.00000000E+00
  0.00000000E+00  0.00000000E+00  0.00000000E+00
  0.00000000E+00  0.00000000E+00  0.00000000E+00
  0.00000000E+00  0.00000000E+00  0.00000000E+00
  0.00000000E+00  0.00000000E+00  0.00000000E+00
  0.00000000E+00  0.00000000E+00  0.00000000E+00
  0.00000000E+00  0.00000000E+00  0.00000000E+00
  0.00000000E+00  0.00000000E+00  0.00000000E+00
  0.00000000E+00  0.00000000E+00  0.00000000E+00
  0.00000000E+00  0.00000000E+00  0.00000000E+00
  0.00000000E+00  0.00000000E+00  0.00000000E+00
  0.00000000E+00  0.00000000E+00  0.00000000E+00
  0.00000000E+00  0.00000000E+00  0.00000000E+00
  0.00000000E+00  0.00000000E+00  0.00000000E+00
  0.00000000E+00  0.00000000E+00  0.00000000E+00
  0.00000000E+00  0.00000000E+00  0.00000000E+00
  0.00000000E+00  0.00000000E+00  0.00000000E+00
  0.00000000E+00  0.00000000E+00  0.00000000E+00
  0.00000000E+00  0.00000000E+00  0.00000000E+00
  0.00000000E+00  0.00000000E+00  0.00000000E+00
  0.00000000E+00  0.00000000E+00  0.00000000E+00
  0.00000000E+00  0.00000000E+00  0.00000000E+00
  0.00000000E+00  0.00000000E+00  0.00000000E+00
  0.00000000E+00  0.00000000E+00  0.00000000E+00
  0.00000000E+00  0.00000000E+00  0.00000000E+00
  0.00000000E+00  0.00000000E+00  0.00000000E+00
  0.00000000E+00  0.00000000E+00  0.00000000E+00
  0.00000000E+00  0.00000000E+00  0.00000000E+00
  0.00000000E+00  0.00000000E+00  0.00000000E+00
  0.00000000E+00  0.00000000E+00  0.00000000E+00
  0.00000000E+00  0.00000000E+00  0.00000000E+00
  0.00000000E+00  0.00000000E+00  0.00000000E+00
  0.00000000E+00  0.00000000E+00  0.00000000E+00
  0.00000000E+00  0.00000000E+00  0.00000000E+00
  0.00000000E+00  0.00000000E+00  0.00000000E+00
  0.00000000E+00  0.00000000E+00  0.00000000E+00
  0.00000000E+00  0.00000000E+00  0.00000000E+00
  0.00000000E+00  0.00000000E+00  0.00000000E+00
  0.00000000E+00  0.00000000E+00  0.00000000E+00
  0.00000000E+00  0.00000000E+00  0.00000000E+00
  0.00000000E+00  0.00000000E+00  0.00000000E+00
  0.00000000E+00  0.00000000E+00  0.00000000E+00
  0.00000000E+00  0.00000000E+00  0.00000000E+00
  0.00000000E+00  0.00000000E+00  0.00000000E+00
  0.00000000E+00  0.00000000E+00  0.00000000E+00
  0.00000000E+00  0.00000000E+00  0.00000000E+00
  0.00000000E+00  0.00000000E+00  0.00000000E+00
  0.00000000E+00  0.00000000E+00  0.00000000E+00
  0.00000000E+00  0.00000000E+00  0.00000000E+00
  0.00000000E+00  0.00000000E+00  0.00000000E+00
  0.00000000E+00  0.00000000E+00  0.00000000E+00
  0.00000000E+00  0.00000000E+00  0.00000000E+00
  0.00000000E+00  0.00000000E+00  0.00000000E+00
  0.00000000E+00  0.00000000E+00  0.00000000E+00
  0.00000000E+00  0.00000000E+00  0.00000000E+00
  0.00000000E+00  0.00000000E+00  0.00000000E+00
  0.00000000E+00  0.00000000E+00  0.00000000E+00
  0.00000000E+00  0.00000000E+00  0.00000000E+00
  0.00000000E+00  0.00000000E+00  0.00000000E+00
  0.00000000E+00  0.00000000E+00  0.00000000E+00
  0.00000000E+00  0.00000000E+00  0.00000000E+00
  0.00000000E+00  0.00000000E+00  0.00000000E+00
  0.00000000E+00  0.00000000E+00  0.00000000E+00
  0.00000000E+00  0.00000000E+00  0.00000000E+00
  0.00000000E+00  0.00000000E+00  0.00000000E+00
  0.00000000E+00  0.00000000E+00  0.00000000E+00
  0.00000000E+00  0.00000000E+00  0.00000000E+00
  0.00000000E+00  0.00000000E+00  0.00000000E+00
  0.00000000E+00  0.00000000E+00  0.00000000E+00
  0.00000000E+00  0.00000000E+00  0.00000000E+00
  0.00000000E+00  0.00000000E+00  0.00000000E+00
  0.00000000E+00  0.00000000E+00  0.00000000E+00
  0.00000000E+00  0.00000000E+00  0.00000000E+00
  0.00000000E+00  0.00000000E+00  0.00000000E+00
  0.00000000E+00  0.00000000E+00  0.00000000E+00
  0.00000000E+00  0.00000000E+00  0.00000000E+00
  0.00000000E+00  0.00000000E+00  0.00000000E+00
  0.00000000E+00  0.00000000E+00  0.00000000E+00
  0.00000000E+00  0.00000000E+00  0.00000000E+00
  0.00000000E+00  0.00000000E+00  0.00000000E+00
  0.00000000E+00  0.00000000E+00  0.00000000E+00
  0.00000000E+00  0.00000000E+00  0.00000000E+00
  0.00000000E+00  0.00000000E+00  0.00000000E+00
  0.00000000E+00  0.00000000E+00  0.00000000E+00
  0.00000000E+00  0.00000000E+00  0.00000000E+00
  0.00000000E+00  0.00000000E+00  0.00000000E+00
  0.00000000E+00  0.00000000E+00  0.00000000E+00
  0.00000000E+00  0.00000000E+00  0.00000000E+00
  0.00000000E+00  0.00000000E+00  0.00000000E+00
  0.00000000E+00  0.00000000E+00  0.00000000E+00
  0.00000000E+00  0.00000000E+00  0.00000000E+00
  0.00000000E+00  0.00000000E+00  0.00000000E+00
  0.00000000E+00  0.00000000E+00  0.00000000E+00
  0.00000000E+00  0.00000000E+00  0.00000000E+00
  0.00000000E+00  0.00000000E+00  0.00000000E+00
  0.00000000E+00  0.00000000E+00  0.00000000E+00
  0.00000000E+00  0.00000000E+00  0.00000000E+00
  0.00000000E+00  0.00000000E+00  0.00000000E+00
  0.00000000E+00  0.00000000E+00  0.00000000E+00
  0.00000000E+00  0.00000000E+00  0.00000000E+00
  0.00000000E+00  0.00000000E+00  0.00000000E+00
  0.00000000E+00  0.00000000E+00  0.00000000E+00
  0.00000000E+00  0.00000000E+00  0.00000000E+00
  0.00000000E+00  0.00000000E+00  0.00000000E+00
  0.00000000E+00  0.00000000E+00  0.00000000E+00
  0.00000000E+00  0.00000000E+00  0.00000000E+00
  0.00000000E+00  0.00000000E+00  0.00000000E+00
  0.00000000E+00  0.00000000E+00  0.00000000E+00
  0.00000000E+00  0.00000000E+00  0.00000000E+00
  0.00000000E+00  0.00000000E+00  0.00000000E+00
  0.00000000E+00  0.00000000E+00  0.00000000E+00
  0.00000000E+00  0.00000000E+00  0.00000000E+00
  0.00000000E+00  0.00000000E+00  0.00000000E+00
  0.00000000E+00  0.00000000E+00  0.00000000E+00
  0.00000000E+00  0.00000000E+00  0.00000000E+00
  0.00000000E+00  0.00000000E+00  0.00000000E+00
  0.00000000E+00  0.00000000E+00  0.00000000E+00
  0.00000000E+00  0.00000000E+00  0.00000000E+00
  0.00000000E+00  0.00000000E+00  0.00000000E+00
  0.00000000E+00  0.00000000E+00  0.00000000E+00
  0.00000000E+00  0.00000000E+00  0.00000000E+00
  0.00000000E+00  0.00000000E+00  0.00000000E+00
  0.00000000E+00  0.00000000E+00  0.00000000E+00
  0.00000000E+00  0.00000000E+00  0.00000000E+00
  0.00000000E+00  0.00000000E+00  0.00000000E+00
  0.00000000E+00  0.00000000E+00  0.00000000E+00
  0.00000000E+00  0.00000000E+00  0.00000000E+00
  0.00000000E+00  0.00000000E+00  0.00000000E+00
  0.00000000E+00  0.00000000E+00  0.00000000E+00
  0.00000000E+00  0.00000000E+00  0.00000000E+00
  0.00000000E+00  0.00000000E+00  0.00000000E+00
  0.00000000E+00  0.00000000E+00  0.00000000E+00
  0.00000000E+00  0.00000000E+00  0.00000000E+00
  0.00000000E+00  0.00000000E+00  0.00000000E+00
  0.00000000E+00  0.00000000E+00  0.00000000E+00
  0.00000000E+00  0.00000000E+00  0.00000000E+00
  0.00000000E+00  0.00000000E+00  0.00000000E+00
  0.00000000E+00  0.00000000E+00  0.00000000E+00
  0.00000000E+00  0.00000000E+00  0.00000000E+00
  0.00000000E+00  0.00000000E+00  0.00000000E+00
  0.00000000E+00  0.00000000E+00  0.00000000E+00
  0.00000000E+00  0.00000000E+00  0.00000000E+00
  0.00000000E+00  0.00000000E+00  0.00000000E+00
  0.00000000E+00  0.00000000E+00  0.00000000E+00
  0.00000000E+00  0.00000000E+00  0.00000000E+00
  0.00000000E+00  0.00000000E+00  0.00000000E+00
  0.00000000E+00  0.00000000E+00  0.00000000E+00
  0.00000000E+00  0.00000000E+00  0.00000000E+00
  0.00000000E+00  0.00000000E+00  0.00000000E+00
  0.00000000E+00  0.00000000E+00  0.00000000E+00
  0.00000000E+00  0.00000000E+00  0.00000000E+00
  0.00000000E+00  0.00000000E+00  0.00000000E+00
  0.00000000E+00  0.00000000E+00  0.00000000E+00
  0.00000000E+00  0.00000000E+00  0.00000000E+00
  0.00000000E+00  0.00000000E+00  0.00000000E+00
  0.00000000E+00  0.00000000E+00  0.00000000E+00
  0.00000000E+00  0.00000000E+00  0.00000000E+00
  0.00000000E+00  0.00000000E+00  0.00000000E+00
  0.00000000E+00  0.00000000E+00  0.00000000E+00
  0.00000000E+00  0.00000000E+00  0.00000000E+00
  0.00000000E+00  0.00000000E+00  0.00000000E+00
  0.00000000E+00  0.00000000E+00  0.00000000E+00
  0.00000000E+00  0.00000000E+00  0.00000000E+00
  0.00000000E+00  0.00000000E+00  0.00000000E+00
  0.00000000E+00  0.00000000E+00  0.00000000E+00
  0.00000000E+00  0.00000000E+00  0.00000000E+00
  0.00000000E+00  0.00000000E+00  0.00000000E+00
  0.00000000E+00  0.00000000E+00  0.00000000E+00
  0.00000000E+00  0.00000000E+00  0.00000000E+00
  0.00000000E+00  0.00000000E+00  0.00000000E+00
  0.00000000E+00  0.00000000E+00  0.00000000E+00
  0.00000000E+00  0.00000000E+00  0.00000000E+00
  0.00000000E+00  0.00000000E+00  0.00000000E+00
  0.00000000E+00  0.00000000E+00  0.00000000E+00
  0.00000000E+00  0.00000000E+00  0.00000000E+00
  0.00000000E+00  0.00000000E+00  0.00000000E+00
  0.00000000E+00  0.00000000E+00  0.00000000E+00
  0.00000000E+00  0.00000000E+00  0.00000000E+00
  0.00000000E+00  0.00000000E+00  0.00000000E+00
  0.00000000E+00  0.00000000E+00  0.00000000E+00
  0.00000000E+00  0.00000000E+00  0.00000000E+00
  0.00000000E+00  0.00000000E+00  0.00000000E+00
  0.00000000E+00  0.00000000E+00  0.00000000E+00
  0.00000000E+00  0.00000000E+00  0.00000000E+00
  0.00000000E+00  0.00000000E+00  0.00000000E+00
  0.00000000E+00  0.00000000E+00  0.00000000E+00
  0.00000000E+00  0.00000000E+00  0.00000000E+00
  0.00000000E+00  0.00000000E+00  0.00000000E+00
