C  N                                    
   1.00000000000000     
    10.7211360931000002    0.0000000000000000    0.0000000000000000
     0.0000000000000000   10.7211360931000002    0.0000000000000000
     0.0000000000000000    0.0000000000000000   10.7211360931000002
   C    N 
   214     1
Direct
     0.0832193083197339    0.0834774787185637    0.0834473576802637
     0.0834874704148376    0.0834835776750609    0.4167835832270868
     0.0826967159276535    0.0833055283483901    0.7500117507509856
     0.0836204462406798    0.4168745104043623    0.0830462197593178
     0.0833694206938986    0.4169783583280875    0.4166840462522927
     0.0828120367623626    0.4166205272147820    0.7498447321421580
     0.0835541903613475    0.7500825747254254    0.0831124756386501
     0.0838026939378480    0.7502257042571259    0.4164214502273396
     0.0834917726738951    0.7498024154123826    0.7496832521225230
     0.4166549162490156    0.0833055283483901    0.0839699500723441
     0.4167656745799135    0.0834947902196674    0.4172473318818035
     0.4160388995268036    0.0823583751704078    0.7506277674731976
     0.4168219348578432    0.4166205272147820    0.0838546292376350
     0.4186110507310232    0.4174447775527312    0.4186657256241375
     0.4150050672779386    0.4157498345462471    0.7516615997220555
     0.4169834148774783    0.7498024154123826    0.0831748933261025
     0.4167014642898224    0.7503119514734067    0.4168622657602441
     0.4172215858979271    0.7489852132900197    0.7494450811020741
     0.7498830837729145    0.0834835776750609    0.0831791955851600
     0.7499104842279465    0.0839064337380364    0.4167561827720547
     0.7494193351181977    0.0834947902196674    0.7499009924200877
     0.7499826207477085    0.4169783583280875    0.0832972453060989
     0.7562180981905584    0.4133806820709225    0.4104485688094428
     0.7480009413758637    0.4174447775527312    0.7480556162689780
     0.7502452167726616    0.7502257042571259    0.0828639720621496
     0.7503385921296086    0.7499342257679160    0.4163280748703926
     0.7498044012397571    0.7503119514734067    0.7499652027101789
     0.2499721953483913    0.2499882492490144    0.0839699500723441
     0.2501614572196686    0.2500990075799123    0.4172473318818035
     0.2490250421704090    0.2493722325268024    0.7506277674731976
     0.2501502446750621    0.5832164167729132    0.0831791955851600
     0.2505731007380376    0.5832438172279453    0.4167561827720547
     0.2501614572196686    0.5827526681181965    0.7499009924200877
     0.2501441457185649    0.9165526423197363    0.0834473576802637
     0.2501502446750621    0.9168208044148400    0.4167835832270868
     0.2499721953483913    0.9160300499276559    0.7500117507509856
     0.5832871932147796    0.2501552678578420    0.0838546292376350
     0.5841114435527288    0.2519443837310220    0.4186657256241375
     0.5824165005462447    0.2483384002779374    0.7516615997220555
     0.5836450243280851    0.5833159537477073    0.0832972453060989
     0.5800473480709201    0.5895514311905572    0.4104485688094428
     0.5841114435527288    0.5813342743758625    0.7480556162689780
     0.5835411764043599    0.9169537802406822    0.0830462197593178
     0.5836450243280851    0.9167027546939011    0.4166840462522927
     0.5832871932147796    0.9161453707623650    0.7498447321421580
     0.9164690824123838    0.2503167478774770    0.0831748933261025
     0.9169786184734079    0.2500347972898211    0.4168622657602441
     0.9156518802900209    0.2505549188979259    0.7494450811020741
     0.9168923712571271    0.5835785497726604    0.0828639720621496
     0.9166008927679172    0.5836719251296074    0.4163280748703926
     0.9169786184734079    0.5831377342397559    0.7499652027101789
     0.9167492417254266    0.9168875243613499    0.0831124756386501
     0.9168923712571271    0.9171360279378504    0.4164214502273396
     0.9164690824123838    0.9168251066738975    0.7496832521225230
     0.2502157250748027    0.0835490580748015    0.2503762814645327
     0.2494593712504312    0.0827927042504299    0.5836698112005507
     0.2495979464571150    0.0829312794571138    0.9170687205428862
     0.2507090869945614    0.4168993533621759    0.2506976327990529
     0.2498312161973573    0.4163574721721943    0.5836425278278057
     0.2494593712504312    0.4163301887994493    0.9172072957495701
     0.2504298236767326    0.7500438592005167    0.2499561407994833
     0.2507090869945614    0.7493023672009471    0.5831006466378170
     0.2502157250748027    0.7496237185354673    0.9164509419251985
     0.5835660193621806    0.0840424199945602    0.2506976327990529
     0.5830241381721919    0.0831645491973561    0.5836425278278057
     0.5829968547994469    0.0827927042504299    0.9172072957495701
     0.5841207118284970    0.4174540458284994    0.2510203801977511
     0.5830241381721919    0.4163574721721943    0.9168354508026439
     0.5841732246387110    0.7511602714350047    0.2488397285649953
     0.5841207118284970    0.7489796198022489    0.5825459541715006
     0.5835660193621806    0.7493023672009471    0.9159575800054398
     0.9167105262005180    0.0837631566767314    0.2499561407994833
     0.9159690342009483    0.0840424199945602    0.5831006466378170
     0.9162903855354685    0.0835490580748015    0.9164509419251985
     0.9178269384350060    0.4175065586387134    0.2488397285649953
     0.9156462868022501    0.4174540458284994    0.5825459541715006
     0.9159690342009483    0.4168993533621759    0.9159575800054398
     0.9169427192517006    0.7502760522516994    0.2497239477483006
     0.9178269384350060    0.7511602714350047    0.5824934413612866
     0.9167105262005180    0.7500438592005167    0.9162368433232686
     0.0834917726738951    0.2503167478774770    0.2501975845876174
     0.0828120367623626    0.2501552678578420    0.5833794727852180
     0.0826967159276535    0.2499882492490144    0.9166944716516099
     0.0838026939378480    0.5835785497726604    0.2497742957428741
     0.0833694206938986    0.5833159537477073    0.5830216416719125
     0.0834874704148376    0.5832164167729132    0.9165164223249391
     0.0835541903613475    0.9168875243613499    0.2499174252745746
     0.0836204462406798    0.9169537802406822    0.5831254895956377
     0.0832193083197339    0.9165526423197363    0.9165225212814363
     0.4172215858979271    0.2505549188979259    0.2510147867099803
     0.4150050672779386    0.2483384002779374    0.5842501654537529
     0.4160388995268036    0.2493722325268024    0.9176416248295922
     0.4167014642898224    0.5831377342397559    0.2496880485265933
     0.4186110507310232    0.5813342743758625    0.5825552224472688
     0.4167656745799135    0.5827526681181965    0.9165052097803326
     0.4169834148774783    0.9168251066738975    0.2501975845876174
     0.4168219348578432    0.9161453707623650    0.5833794727852180
     0.4166549162490156    0.9160300499276559    0.9166944716516099
     0.7498044012397571    0.2500347972898211    0.2496880485265933
     0.7480009413758637    0.2519443837310220    0.5825552224472688
     0.7494193351181977    0.2500990075799123    0.9165052097803326
     0.7503385921296086    0.5836719251296074    0.2500657742320840
     0.7562180981905584    0.5895514311905572    0.5866193179290775
     0.7499104842279465    0.5832438172279453    0.9160935662619636
     0.7502452167726616    0.9171360279378504    0.2497742957428741
     0.7499826207477085    0.9167027546939011    0.5830216416719125
     0.7498830837729145    0.9168208044148400    0.9165164223249391
     0.9998965619768398    0.0001673449859467    0.9998326550140533
     0.0001549673007304    0.0003821312669317    0.3331856533219906
     0.9995599260533936    0.0003050703028364    0.6665185133613747
     0.9995599260533936    0.3334814866386253    0.9996949296971636
     0.0001205645661031    0.3337978690671477    0.3332220260141270
     0.9990070680498349    0.3339234380256499    0.6660765619743501
     0.0001549673007304    0.6668143466780094    0.9996178687330683
     0.0001916786567051    0.6668043499189551    0.3331956500810449
     0.0001205645661031    0.6667779739858730    0.6662021309328523
     0.3333113613665262    0.9996952298297828    0.0003047701702172
     0.3336246832228369    0.0001792561701919    0.3335708769855543
     0.3330891455361780    0.9992691484479508    0.6669220816785142
     0.3330891455361780    0.3330779183214858    0.0007308515520492
     0.3345633613920924    0.3337036732436403    0.3347473811761290
     0.3321646312831632    0.3324387138475657    0.6675612861524343
     0.3336246832228369    0.6664291230144457    0.9998207438298081
     0.3338643191317416    0.6666423513545396    0.3333576486454604
     0.3345633613920924    0.6652526188238710    0.6662963267563597
     0.6665996109610006    0.0000113030446087    0.9999886969553913
     0.6668385556122729    0.0004221716366359    0.3335044864823402
     0.6664766049044104    0.9998102987177475    0.6665555620308510
     0.6664766049044104    0.3334444379691490    0.0001897012822525
     0.6678113279426086    0.3355665919457849    0.3348938460430944
     0.6621639313575827    0.3333059426942455    0.6666940573057545
     0.6668385556122729    0.6664955135176598    0.9995778283633641
     0.6664863412146360    0.6667330736269008    0.3332669263730992
     0.6678113279426086    0.6651061539569056    0.6644334080542151
     0.1663618968297840    0.1666446953665286    0.0003047701702172
     0.1668459231701931    0.1669580172228393    0.3335708769855543
     0.1659358154479520    0.1664224795361804    0.6669220816785142
     0.1666779700446099    0.4999329439609994    0.9999886969553913
     0.1670888386366371    0.5001718886122646    0.3335044864823402
     0.1664769657177487    0.4998099379044092    0.6665555620308510
     0.1668340119859479    0.8332298949768386    0.9998326550140533
     0.1670487982669329    0.8334883003007292    0.3331856533219906
     0.1669717373028377    0.8328932590533924    0.6665185133613747
     0.4997445853214941    0.1664224795361804    0.0007308515520492
     0.5003703402436415    0.1678966953920948    0.3347473811761290
     0.4991053808475669    0.1654979652831656    0.6675612861524343
     0.5001111049691502    0.4998099379044092    0.0001897012822525
     0.5022332589457861    0.5011446609426073    0.3348938460430944
     0.4999726096942467    0.4954972643575815    0.6666940573057545
     0.5001481536386265    0.8328932590533924    0.9996949296971636
     0.5004645360671489    0.8334538975661019    0.3332220260141270
     0.5005901050256512    0.8323404010498336    0.6660765619743501
     0.8330957890144433    0.1669580172228393    0.9998207438298081
     0.8333090173545372    0.1671976531317441    0.3333576486454604
     0.8319192848238686    0.1678966953920948    0.6662963267563597
     0.8331621795176574    0.5001718886122646    0.9995778283633641
     0.8333997396268984    0.4998196742146348    0.3332669263730992
     0.8317728199569032    0.5011446609426073    0.6644334080542151
     0.8334810126780070    0.8334883003007292    0.9996178687330683
     0.8334710159189527    0.8335250116567039    0.3331956500810449
     0.8334446399858706    0.8334538975661019    0.6662021309328523
     0.1668340119859479    0.0001673449859467    0.1667701050231614
     0.1666779700446099    0.0000113030446087    0.5000670560390006
     0.1663618968297840    0.9996952298297828    0.8333553046334714
     0.1669717373028377    0.3334814866386253    0.1671067409466076
     0.1664769657177487    0.3334444379691490    0.5001900620955908
     0.1659358154479520    0.3330779183214858    0.8335775204638196
     0.1670487982669329    0.6668143466780094    0.1665116996992708
     0.1670888386366371    0.6664955135176598    0.4998281113877354
     0.1668459231701931    0.6664291230144457    0.8330419827771607
     0.5001481536386265    0.0003050703028364    0.1671067409466076
     0.5001111049691502    0.9998102987177475    0.5001900620955908
     0.4997445853214941    0.9992691484479508    0.8335775204638196
     0.5005901050256512    0.3339234380256499    0.1676595989501664
     0.4999726096942467    0.3333059426942455    0.5045027356424185
     0.4991053808475669    0.3324387138475657    0.8345020347168344
     0.5004645360671489    0.6667779739858730    0.1665461024338981
     0.5022332589457861    0.6651061539569056    0.4988553390573927
     0.5003703402436415    0.6652526188238710    0.8321033046079052
     0.8334810126780070    0.0003821312669317    0.1665116996992708
     0.8331621795176574    0.0004221716366359    0.4998281113877354
     0.8330957890144433    0.0001792561701919    0.8330419827771607
     0.8334446399858706    0.3337978690671477    0.1665461024338981
     0.8317728199569032    0.3355665919457849    0.4988553390573927
     0.8319192848238686    0.3337036732436403    0.8321033046079052
     0.8334710159189527    0.6668043499189551    0.1664749883432961
     0.8333997396268984    0.6667330736269008    0.5001803257853652
     0.8333090173545372    0.6666423513545396    0.8328023468682559
     0.9999588693578758    0.1670697719441918    0.1667077976421254
     0.9999290116189883    0.1668177238566102    0.4998515572184559
     0.9992330938735705    0.1669107174400466    0.8330892825599534
     0.0007595408647845    0.5002188840416082    0.1659071261352167
     0.9996160556488647    0.5003941689650517    0.4996058310349483
     0.9999290116189883    0.5001484427815441    0.8331822761433898
     0.0002328176336661    0.8335661506336649    0.1664338493663351
     0.0007595408647845    0.8340928738647833    0.4997811159583918
     0.9999588693578758    0.8332922023578746    0.8329302280558082
     0.3335773834400442    0.1669107174400466    0.1674335731264307
     0.3325839076191102    0.1659172416191126    0.5007043672979847
     0.3327050084043108    0.1660383424043133    0.8339616575956867
     0.3334843898566078    0.5001484427815441    0.1667376553810129
     0.3340139876484400    0.4996976653008289    0.5003023346991711
     0.3325839076191102    0.4992956327020153    0.8340827583808874
     0.3337364379441894    0.8332922023578746    0.1667077976421254
     0.3334843898566078    0.8332623446189871    0.4998515572184559
     0.3335773834400442    0.8325664268735693    0.8330892825599534
     0.6668151097815453    0.1668177238566102    0.1667376553810129
     0.6663643323008301    0.1673473216484425    0.5003023346991711
     0.6659622997020165    0.1659172416191126    0.8340827583808874
     0.6670608359650529    0.5003941689650517    0.1670506113511365
     0.6663643323008301    0.4996976653008289    0.8326526783515575
     0.6668855510416094    0.8340928738647833    0.1659071261352167
     0.6670608359650529    0.8329493886488635    0.4996058310349483
     0.6668151097815453    0.8332623446189871    0.8331822761433898
     0.5751246561854657    0.4084579901854681    0.5915420098145319
 
  0.00000000E+00  0.00000000E+00  0.00000000E+00
  0.00000000E+00  0.00000000E+00  0.00000000E+00
  0.00000000E+00  0.00000000E+00  0.00000000E+00
  0.00000000E+00  0.00000000E+00  0.00000000E+00
  0.00000000E+00  0.00000000E+00  0.00000000E+00
  0.00000000E+00  0.00000000E+00  0.00000000E+00
  0.00000000E+00  0.00000000E+00  0.00000000E+00
  0.00000000E+00  0.00000000E+00  0.00000000E+00
  0.00000000E+00  0.00000000E+00  0.00000000E+00
  0.00000000E+00  0.00000000E+00  0.00000000E+00
  0.00000000E+00  0.00000000E+00  0.00000000E+00
  0.00000000E+00  0.00000000E+00  0.00000000E+00
  0.00000000E+00  0.00000000E+00  0.00000000E+00
  0.00000000E+00  0.00000000E+00  0.00000000E+00
  0.00000000E+00  0.00000000E+00  0.00000000E+00
  0.00000000E+00  0.00000000E+00  0.00000000E+00
  0.00000000E+00  0.00000000E+00  0.00000000E+00
  0.00000000E+00  0.00000000E+00  0.00000000E+00
  0.00000000E+00  0.00000000E+00  0.00000000E+00
  0.00000000E+00  0.00000000E+00  0.00000000E+00
  0.00000000E+00  0.00000000E+00  0.00000000E+00
  0.00000000E+00  0.00000000E+00  0.00000000E+00
  0.00000000E+00  0.00000000E+00  0.00000000E+00
  0.00000000E+00  0.00000000E+00  0.00000000E+00
  0.00000000E+00  0.00000000E+00  0.00000000E+00
  0.00000000E+00  0.00000000E+00  0.00000000E+00
  0.00000000E+00  0.00000000E+00  0.00000000E+00
  0.00000000E+00  0.00000000E+00  0.00000000E+00
  0.00000000E+00  0.00000000E+00  0.00000000E+00
  0.00000000E+00  0.00000000E+00  0.00000000E+00
  0.00000000E+00  0.00000000E+00  0.00000000E+00
  0.00000000E+00  0.00000000E+00  0.00000000E+00
  0.00000000E+00  0.00000000E+00  0.00000000E+00
  0.00000000E+00  0.00000000E+00  0.00000000E+00
  0.00000000E+00  0.00000000E+00  0.00000000E+00
  0.00000000E+00  0.00000000E+00  0.00000000E+00
  0.00000000E+00  0.00000000E+00  0.00000000E+00
  0.00000000E+00  0.00000000E+00  0.00000000E+00
  0.00000000E+00  0.00000000E+00  0.00000000E+00
  0.00000000E+00  0.00000000E+00  0.00000000E+00
  0.00000000E+00  0.00000000E+00  0.00000000E+00
  0.00000000E+00  0.00000000E+00  0.00000000E+00
  0.00000000E+00  0.00000000E+00  0.00000000E+00
  0.00000000E+00  0.00000000E+00  0.00000000E+00
  0.00000000E+00  0.00000000E+00  0.00000000E+00
  0.00000000E+00  0.00000000E+00  0.00000000E+00
  0.00000000E+00  0.00000000E+00  0.00000000E+00
  0.00000000E+00  0.00000000E+00  0.00000000E+00
  0.00000000E+00  0.00000000E+00  0.00000000E+00
  0.00000000E+00  0.00000000E+00  0.00000000E+00
  0.00000000E+00  0.00000000E+00  0.00000000E+00
  0.00000000E+00  0.00000000E+00  0.00000000E+00
  0.00000000E+00  0.00000000E+00  0.00000000E+00
  0.00000000E+00  0.00000000E+00  0.00000000E+00
  0.00000000E+00  0.00000000E+00  0.00000000E+00
  0.00000000E+00  0.00000000E+00  0.00000000E+00
  0.00000000E+00  0.00000000E+00  0.00000000E+00
  0.00000000E+00  0.00000000E+00  0.00000000E+00
  0.00000000E+00  0.00000000E+00  0.00000000E+00
  0.00000000E+00  0.00000000E+00  0.00000000E+00
  0.00000000E+00  0.00000000E+00  0.00000000E+00
  0.00000000E+00  0.00000000E+00  0.00000000E+00
  0.00000000E+00  0.00000000E+00  0.00000000E+00
  0.00000000E+00  0.00000000E+00  0.00000000E+00
  0.00000000E+00  0.00000000E+00  0.00000000E+00
  0.00000000E+00  0.00000000E+00  0.00000000E+00
  0.00000000E+00  0.00000000E+00  0.00000000E+00
  0.00000000E+00  0.00000000E+00  0.00000000E+00
  0.00000000E+00  0.00000000E+00  0.00000000E+00
  0.00000000E+00  0.00000000E+00  0.00000000E+00
  0.00000000E+00  0.00000000E+00  0.00000000E+00
  0.00000000E+00  0.00000000E+00  0.00000000E+00
  0.00000000E+00  0.00000000E+00  0.00000000E+00
  0.00000000E+00  0.00000000E+00  0.00000000E+00
  0.00000000E+00  0.00000000E+00  0.00000000E+00
  0.00000000E+00  0.00000000E+00  0.00000000E+00
  0.00000000E+00  0.00000000E+00  0.00000000E+00
  0.00000000E+00  0.00000000E+00  0.00000000E+00
  0.00000000E+00  0.00000000E+00  0.00000000E+00
  0.00000000E+00  0.00000000E+00  0.00000000E+00
  0.00000000E+00  0.00000000E+00  0.00000000E+00
  0.00000000E+00  0.00000000E+00  0.00000000E+00
  0.00000000E+00  0.00000000E+00  0.00000000E+00
  0.00000000E+00  0.00000000E+00  0.00000000E+00
  0.00000000E+00  0.00000000E+00  0.00000000E+00
  0.00000000E+00  0.00000000E+00  0.00000000E+00
  0.00000000E+00  0.00000000E+00  0.00000000E+00
  0.00000000E+00  0.00000000E+00  0.00000000E+00
  0.00000000E+00  0.00000000E+00  0.00000000E+00
  0.00000000E+00  0.00000000E+00  0.00000000E+00
  0.00000000E+00  0.00000000E+00  0.00000000E+00
  0.00000000E+00  0.00000000E+00  0.00000000E+00
  0.00000000E+00  0.00000000E+00  0.00000000E+00
  0.00000000E+00  0.00000000E+00  0.00000000E+00
  0.00000000E+00  0.00000000E+00  0.00000000E+00
  0.00000000E+00  0.00000000E+00  0.00000000E+00
  0.00000000E+00  0.00000000E+00  0.00000000E+00
  0.00000000E+00  0.00000000E+00  0.00000000E+00
  0.00000000E+00  0.00000000E+00  0.00000000E+00
  0.00000000E+00  0.00000000E+00  0.00000000E+00
  0.00000000E+00  0.00000000E+00  0.00000000E+00
  0.00000000E+00  0.00000000E+00  0.00000000E+00
  0.00000000E+00  0.00000000E+00  0.00000000E+00
  0.00000000E+00  0.00000000E+00  0.00000000E+00
  0.00000000E+00  0.00000000E+00  0.00000000E+00
  0.00000000E+00  0.00000000E+00  0.00000000E+00
  0.00000000E+00  0.00000000E+00  0.00000000E+00
  0.00000000E+00  0.00000000E+00  0.00000000E+00
  0.00000000E+00  0.00000000E+00  0.00000000E+00
  0.00000000E+00  0.00000000E+00  0.00000000E+00
  0.00000000E+00  0.00000000E+00  0.00000000E+00
  0.00000000E+00  0.00000000E+00  0.00000000E+00
  0.00000000E+00  0.00000000E+00  0.00000000E+00
  0.00000000E+00  0.00000000E+00  0.00000000E+00
  0.00000000E+00  0.00000000E+00  0.00000000E+00
  0.00000000E+00  0.00000000E+00  0.00000000E+00
  0.00000000E+00  0.00000000E+00  0.00000000E+00
  0.00000000E+00  0.00000000E+00  0.00000000E+00
  0.00000000E+00  0.00000000E+00  0.00000000E+00
  0.00000000E+00  0.00000000E+00  0.00000000E+00
  0.00000000E+00  0.00000000E+00  0.00000000E+00
  0.00000000E+00  0.00000000E+00  0.00000000E+00
  0.00000000E+00  0.00000000E+00  0.00000000E+00
  0.00000000E+00  0.00000000E+00  0.00000000E+00
  0.00000000E+00  0.00000000E+00  0.00000000E+00
  0.00000000E+00  0.00000000E+00  0.00000000E+00
  0.00000000E+00  0.00000000E+00  0.00000000E+00
  0.00000000E+00  0.00000000E+00  0.00000000E+00
  0.00000000E+00  0.00000000E+00  0.00000000E+00
  0.00000000E+00  0.00000000E+00  0.00000000E+00
  0.00000000E+00  0.00000000E+00  0.00000000E+00
  0.00000000E+00  0.00000000E+00  0.00000000E+00
  0.00000000E+00  0.00000000E+00  0.00000000E+00
  0.00000000E+00  0.00000000E+00  0.00000000E+00
  0.00000000E+00  0.00000000E+00  0.00000000E+00
  0.00000000E+00  0.00000000E+00  0.00000000E+00
  0.00000000E+00  0.00000000E+00  0.00000000E+00
  0.00000000E+00  0.00000000E+00  0.00000000E+00
  0.00000000E+00  0.00000000E+00  0.00000000E+00
  0.00000000E+00  0.00000000E+00  0.00000000E+00
  0.00000000E+00  0.00000000E+00  0.00000000E+00
  0.00000000E+00  0.00000000E+00  0.00000000E+00
  0.00000000E+00  0.00000000E+00  0.00000000E+00
  0.00000000E+00  0.00000000E+00  0.00000000E+00
  0.00000000E+00  0.00000000E+00  0.00000000E+00
  0.00000000E+00  0.00000000E+00  0.00000000E+00
  0.00000000E+00  0.00000000E+00  0.00000000E+00
  0.00000000E+00  0.00000000E+00  0.00000000E+00
  0.00000000E+00  0.00000000E+00  0.00000000E+00
  0.00000000E+00  0.00000000E+00  0.00000000E+00
  0.00000000E+00  0.00000000E+00  0.00000000E+00
  0.00000000E+00  0.00000000E+00  0.00000000E+00
  0.00000000E+00  0.00000000E+00  0.00000000E+00
  0.00000000E+00  0.00000000E+00  0.00000000E+00
  0.00000000E+00  0.00000000E+00  0.00000000E+00
  0.00000000E+00  0.00000000E+00  0.00000000E+00
  0.00000000E+00  0.00000000E+00  0.00000000E+00
  0.00000000E+00  0.00000000E+00  0.00000000E+00
  0.00000000E+00  0.00000000E+00  0.00000000E+00
  0.00000000E+00  0.00000000E+00  0.00000000E+00
  0.00000000E+00  0.00000000E+00  0.00000000E+00
  0.00000000E+00  0.00000000E+00  0.00000000E+00
  0.00000000E+00  0.00000000E+00  0.00000000E+00
  0.00000000E+00  0.00000000E+00  0.00000000E+00
  0.00000000E+00  0.00000000E+00  0.00000000E+00
  0.00000000E+00  0.00000000E+00  0.00000000E+00
  0.00000000E+00  0.00000000E+00  0.00000000E+00
  0.00000000E+00  0.00000000E+00  0.00000000E+00
  0.00000000E+00  0.00000000E+00  0.00000000E+00
  0.00000000E+00  0.00000000E+00  0.00000000E+00
  0.00000000E+00  0.00000000E+00  0.00000000E+00
  0.00000000E+00  0.00000000E+00  0.00000000E+00
  0.00000000E+00  0.00000000E+00  0.00000000E+00
  0.00000000E+00  0.00000000E+00  0.00000000E+00
  0.00000000E+00  0.00000000E+00  0.00000000E+00
  0.00000000E+00  0.00000000E+00  0.00000000E+00
  0.00000000E+00  0.00000000E+00  0.00000000E+00
  0.00000000E+00  0.00000000E+00  0.00000000E+00
  0.00000000E+00  0.00000000E+00  0.00000000E+00
  0.00000000E+00  0.00000000E+00  0.00000000E+00
  0.00000000E+00  0.00000000E+00  0.00000000E+00
  0.00000000E+00  0.00000000E+00  0.00000000E+00
  0.00000000E+00  0.00000000E+00  0.00000000E+00
  0.00000000E+00  0.00000000E+00  0.00000000E+00
  0.00000000E+00  0.00000000E+00  0.00000000E+00
  0.00000000E+00  0.00000000E+00  0.00000000E+00
  0.00000000E+00  0.00000000E+00  0.00000000E+00
  0.00000000E+00  0.00000000E+00  0.00000000E+00
  0.00000000E+00  0.00000000E+00  0.00000000E+00
  0.00000000E+00  0.00000000E+00  0.00000000E+00
  0.00000000E+00  0.00000000E+00  0.00000000E+00
  0.00000000E+00  0.00000000E+00  0.00000000E+00
  0.00000000E+00  0.00000000E+00  0.00000000E+00
  0.00000000E+00  0.00000000E+00  0.00000000E+00
  0.00000000E+00  0.00000000E+00  0.00000000E+00
  0.00000000E+00  0.00000000E+00  0.00000000E+00
  0.00000000E+00  0.00000000E+00  0.00000000E+00
  0.00000000E+00  0.00000000E+00  0.00000000E+00
  0.00000000E+00  0.00000000E+00  0.00000000E+00
  0.00000000E+00  0.00000000E+00  0.00000000E+00
  0.00000000E+00  0.00000000E+00  0.00000000E+00
  0.00000000E+00  0.00000000E+00  0.00000000E+00
  0.00000000E+00  0.00000000E+00  0.00000000E+00
  0.00000000E+00  0.00000000E+00  0.00000000E+00
  0.00000000E+00  0.00000000E+00  0.00000000E+00
  0.00000000E+00  0.00000000E+00  0.00000000E+00
  0.00000000E+00  0.00000000E+00  0.00000000E+00
  0.00000000E+00  0.00000000E+00  0.00000000E+00
  0.00000000E+00  0.00000000E+00  0.00000000E+00
  0.00000000E+00  0.00000000E+00  0.00000000E+00
  0.00000000E+00  0.00000000E+00  0.00000000E+00
  0.00000000E+00  0.00000000E+00  0.00000000E+00
  0.00000000E+00  0.00000000E+00  0.00000000E+00
  0.00000000E+00  0.00000000E+00  0.00000000E+00
  0.00000000E+00  0.00000000E+00  0.00000000E+00
