  215  215    1    2
  0.5731707E+01  0.1072114E-08  0.1072114E-08  0.1072114E-08  0.5000000E-15
  1.000000000000000E-004
  CAR 
 unknown system                          
    862      1    540
 
  0.1276756E-14  0.1276756E-14  0.1276756E-14  0.1000000E+01
      1        -11.916932      -11.903440   1.000000   1.000000
      2        -11.273189      -11.225780   1.000000   1.000000
      3        -10.874984      -10.872268   1.000000   1.000000
      4        -10.874984      -10.872268   1.000000   1.000000
      5        -10.818974      -10.813393   1.000000   1.000000
      6        -10.818974      -10.813393   1.000000   1.000000
      7        -10.756455      -10.744379   1.000000   1.000000
      8        -10.344131      -10.317054   1.000000   1.000000
      9         -9.887240       -9.883928   1.000000   1.000000
     10         -9.887240       -9.883928   1.000000   1.000000
     11         -9.864610       -9.862474   1.000000   1.000000
     12         -9.864610       -9.862474   1.000000   1.000000
     13         -9.839226       -9.835851   1.000000   1.000000
     14         -9.827356       -9.822864   1.000000   1.000000
     15         -9.817387       -9.812227   1.000000   1.000000
     16         -9.817387       -9.812227   1.000000   1.000000
     17         -9.754910       -9.741593   1.000000   1.000000
     18         -9.754910       -9.741593   1.000000   1.000000
     19         -9.604703       -9.583382   1.000000   1.000000
     20         -9.162607       -9.144734   1.000000   1.000000
     21         -8.851914       -8.845865   1.000000   1.000000
     22         -8.851914       -8.845471   1.000000   1.000000
     23         -8.850397       -8.845471   1.000000   1.000000
     24         -8.812535       -8.805593   1.000000   1.000000
     25         -8.809282       -8.796990   1.000000   1.000000
     26         -8.809282       -8.796990   1.000000   1.000000
     27         -8.651234       -8.629460   1.000000   1.000000
     28         -8.102213       -8.076494   1.000000   1.000000
     29         -7.863891       -7.858113   1.000000   1.000000
     30         -7.863891       -7.858113   1.000000   1.000000
     31         -7.835261       -7.827523   1.000000   1.000000
     32         -7.835261       -7.827523   1.000000   1.000000
     33         -7.784202       -7.776555   1.000000   1.000000
     34         -7.522526       -7.498176   1.000000   1.000000
     35         -7.013241       -7.005664   1.000000   1.000000
     36         -7.013241       -7.005664   1.000000   1.000000
     37         -6.971724       -6.969044   1.000000   1.000000
     38         -6.971724       -6.969044   1.000000   1.000000
     39         -6.961404       -6.960658   1.000000   1.000000
     40         -6.950567       -6.946609   1.000000   1.000000
     41         -6.950567       -6.946609   1.000000   1.000000
     42         -6.949175       -6.946554   1.000000   1.000000
     43         -6.942496       -6.939883   1.000000   1.000000
     44         -6.942496       -6.939883   1.000000   1.000000
     45         -6.938560       -6.936266   1.000000   1.000000
     46         -6.915942       -6.914257   1.000000   1.000000
     47         -6.915564       -6.911736   1.000000   1.000000
     48         -6.915564       -6.911736   1.000000   1.000000
     49         -6.888856       -6.880045   1.000000   1.000000
     50         -6.888856       -6.880045   1.000000   1.000000
     51         -6.866742       -6.861856   1.000000   1.000000
     52         -6.864936       -6.856031   1.000000   1.000000
     53         -6.863666       -6.854834   1.000000   1.000000
     54         -6.863666       -6.854834   1.000000   1.000000
     55         -6.781143       -6.760813   1.000000   1.000000
     56         -6.781143       -6.760813   1.000000   1.000000
     57         -6.627161       -6.615189   1.000000   1.000000
     58         -6.451926       -6.442947   1.000000   1.000000
     59         -6.238451       -6.233654   1.000000   1.000000
     60         -6.238451       -6.233654   1.000000   1.000000
     61         -6.178739       -6.175118   1.000000   1.000000
     62         -6.174089       -6.169878   1.000000   1.000000
     63         -6.174089       -6.169878   1.000000   1.000000
     64         -6.160875       -6.158467   1.000000   1.000000
     65         -6.160255       -6.154660   1.000000   1.000000
     66         -6.159759       -6.154660   1.000000   1.000000
     67         -6.159759       -6.152795   1.000000   1.000000
     68         -6.133865       -6.130657   1.000000   1.000000
     69         -6.133865       -6.130657   1.000000   1.000000
     70         -6.118124       -6.112130   1.000000   1.000000
     71         -6.118124       -6.112130   1.000000   1.000000
     72         -6.111083       -6.102653   1.000000   1.000000
     73         -6.088495       -6.083641   1.000000   1.000000
     74         -6.088495       -6.083641   1.000000   1.000000
     75         -6.046356       -6.035210   1.000000   1.000000
     76         -6.046356       -6.035210   1.000000   1.000000
     77         -6.042812       -6.032976   1.000000   1.000000
     78         -6.009866       -5.999050   1.000000   1.000000
     79         -5.874050       -5.821211   1.000000   1.000000
     80         -5.874050       -5.821211   1.000000   1.000000
     81         -5.244865       -5.190885   1.000000   1.000000
     82         -4.684447       -4.670586   1.000000   1.000000
     83         -4.520365       -4.514999   1.000000   1.000000
     84         -4.520365       -4.514999   1.000000   1.000000
     85         -4.460239       -4.451550   1.000000   1.000000
     86         -4.460239       -4.451550   1.000000   1.000000
     87         -4.452664       -4.447433   1.000000   1.000000
     88         -4.447800       -4.440624   1.000000   1.000000
     89         -4.447800       -4.440624   1.000000   1.000000
     90         -4.434178       -4.429282   1.000000   1.000000
     91         -4.382633       -4.356476   1.000000   1.000000
     92         -4.382633       -4.356476   1.000000   1.000000
     93         -4.041689       -3.990102   1.000000   1.000000
     94         -3.262538       -3.246479   1.000000   1.000000
     95         -3.211877       -3.206714   1.000000   1.000000
     96         -3.211877       -3.206714   1.000000   1.000000
     97         -3.175138       -3.168833   1.000000   1.000000
     98         -3.175138       -3.168833   1.000000   1.000000
     99         -3.133995       -3.127533   1.000000   1.000000
    100         -2.949680       -2.924260   1.000000   1.000000
    101         -2.814322       -2.805294   1.000000   1.000000
    102         -2.814322       -2.805294   1.000000   1.000000
    103         -2.706422       -2.704852   1.000000   1.000000
    104         -2.706422       -2.704099   1.000000   1.000000
    105         -2.705412       -2.704099   1.000000   1.000000
    106         -2.693690       -2.689975   1.000000   1.000000
    107         -2.691138       -2.688497   1.000000   1.000000
    108         -2.691138       -2.688497   1.000000   1.000000
    109         -2.687086       -2.681834   1.000000   1.000000
    110         -2.687086       -2.681834   1.000000   1.000000
    111         -2.671934       -2.670152   1.000000   1.000000
    112         -2.643042       -2.640122   1.000000   1.000000
    113         -2.643042       -2.640122   1.000000   1.000000
    114         -2.626470       -2.619880   1.000000   1.000000
    115         -2.597229       -2.587682   1.000000   1.000000
    116         -2.577437       -2.568805   1.000000   1.000000
    117         -2.577437       -2.568805   1.000000   1.000000
    118         -2.563161       -2.552961   1.000000   1.000000
    119         -2.563161       -2.552961   1.000000   1.000000
    120         -2.541160       -2.536467   1.000000   1.000000
    121         -2.524042       -2.513321   1.000000   1.000000
    122         -2.524042       -2.512259   1.000000   1.000000
    123         -2.517803       -2.512259   1.000000   1.000000
    124         -2.484738       -2.479397   1.000000   1.000000
    125         -2.484738       -2.479397   1.000000   1.000000
    126         -2.483105       -2.474443   1.000000   1.000000
    127         -2.464896       -2.460967   1.000000   1.000000
    128         -2.455052       -2.450288   1.000000   1.000000
    129         -2.455052       -2.450288   1.000000   1.000000
    130         -2.449563       -2.447586   1.000000   1.000000
    131         -2.440841       -2.431582   1.000000   1.000000
    132         -2.435959       -2.429510   1.000000   1.000000
    133         -2.435959       -2.429510   1.000000   1.000000
    134         -2.417441       -2.413584   1.000000   1.000000
    135         -2.417441       -2.413584   1.000000   1.000000
    136         -2.392331       -2.386815   1.000000   1.000000
    137         -2.392331       -2.386815   1.000000   1.000000
    138         -2.379057       -2.373130   1.000000   1.000000
    139         -2.377227       -2.371840   1.000000   1.000000
    140         -2.377227       -2.371840   1.000000   1.000000
    141         -2.374783       -2.356315   1.000000   1.000000
    142         -2.374783       -2.356315   1.000000   1.000000
    143         -2.354295       -2.323072   1.000000   1.000000
    144         -2.165515       -2.145585   1.000000   1.000000
    145         -2.023611       -1.983239   1.000000   1.000000
    146         -2.023611       -1.983239   1.000000   1.000000
    147         -1.652427       -1.632297   1.000000   1.000000
    148         -1.414546       -1.406639   1.000000   1.000000
    149         -1.414546       -1.406639   1.000000   1.000000
    150         -1.409369       -1.389528   1.000000   1.000000
    151         -1.352160       -1.348081   1.000000   1.000000
    152         -1.352160       -1.348081   1.000000   1.000000
    153         -1.350838       -1.346823   1.000000   1.000000
    154         -1.333391       -1.325703   1.000000   1.000000
    155         -1.318035       -1.311979   1.000000   1.000000
    156         -1.318035       -1.311979   1.000000   1.000000
    157         -1.169353       -1.119037   1.000000   1.000000
    158         -1.169353       -1.119037   1.000000   1.000000
    159         -0.244214       -0.176152   1.000000   1.000000
    160          0.060532        0.073476   1.000000   1.000000
    161          0.060532        0.073476   1.000000   1.000000
    162          0.122297        0.135196   1.000000   1.000000
    163          0.188545        0.196648   1.000000   1.000000
    164          0.199617        0.205903   1.000000   1.000000
    165          0.201623        0.206538   1.000000   1.000000
    166          0.201623        0.206538   1.000000   1.000000
    167          0.206802        0.208898   1.000000   1.000000
    168          0.206802        0.208898   1.000000   1.000000
    169          0.216791        0.219464   1.000000   1.000000
    170          0.221144        0.226718   1.000000   1.000000
    171          0.234086        0.241863   1.000000   1.000000
    172          0.239578        0.243750   1.000000   1.000000
    173          0.239578        0.243750   1.000000   1.000000
    174          0.264814        0.272440   1.000000   1.000000
    175          0.264814        0.272440   1.000000   1.000000
    176          0.367605        0.381320   1.000000   1.000000
    177          0.367605        0.381320   1.000000   1.000000
    178          0.370926        0.384342   1.000000   1.000000
    179          0.408906        0.426925   1.000000   1.000000
    180          0.714891        0.725676   1.000000   1.000000
    181          0.714891        0.725676   1.000000   1.000000
    182          0.761999        0.786449   1.000000   1.000000
    183          0.848205        0.850139   1.000000   1.000000
    184          0.855101        0.857603   1.000000   1.000000
    185          0.855101        0.857603   1.000000   1.000000
    186          0.859746        0.861656   1.000000   1.000000
    187          0.860391        0.865256   1.000000   1.000000
    188          0.860391        0.865256   1.000000   1.000000
    189          0.869040        0.875158   1.000000   1.000000
    190          0.869040        0.875158   1.000000   1.000000
    191          0.877047        0.890041   1.000000   1.000000
    192          0.887610        0.895134   1.000000   1.000000
    193          0.892408        0.897396   1.000000   1.000000
    194          0.892408        0.897396   1.000000   1.000000
    195          0.893154        0.901075   1.000000   1.000000
    196          0.893154        0.901075   1.000000   1.000000
    197          0.909523        0.920152   1.000000   1.000000
    198          0.938021        0.947767   1.000000   1.000000
    199          0.938021        0.947767   1.000000   1.000000
    200          0.942379        0.949978   1.000000   1.000000
    201          1.149283        1.198057   1.000000   1.000000
    202          1.149283        1.198057   1.000000   1.000000
    203          1.586969        1.599831   1.000000   1.000000
    204          1.586969        1.599831   1.000000   1.000000
    205          1.650478        1.667642   1.000000   1.000000
    206          1.717087        1.719090   1.000000   1.000000
    207          1.717087        1.719090   1.000000   1.000000
    208          1.717782        1.722504   1.000000   1.000000
    209          1.721934        1.725012   1.000000   1.000000
    210          1.721934        1.725012   1.000000   1.000000
    211          1.723667        1.725398   1.000000   1.000000
    212          1.738188        1.739867   1.000000   1.000000
    213          1.743377        1.747214   1.000000   1.000000
    214          1.743377        1.747214   1.000000   1.000000
    215          1.767012        1.770714   1.000000   1.000000
    216          1.767012        1.770714   1.000000   1.000000
    217          1.818400        1.824565   1.000000   1.000000
    218          1.818400        1.824565   1.000000   1.000000
    219          1.831593        1.837365   1.000000   1.000000
    220          1.840304        1.849993   1.000000   1.000000
    221          1.851485        1.858228   1.000000   1.000000
    222          1.877290        1.888810   1.000000   1.000000
    223          1.877290        1.888810   1.000000   1.000000
    224          1.907486        1.920103   1.000000   1.000000
    225          1.945754        1.954376   1.000000   1.000000
    226          1.945754        1.954376   1.000000   1.000000
    227          2.014364        2.046937   1.000000   1.000000
    228          2.119550        2.128144   1.000000   1.000000
    229          2.119550        2.128144   1.000000   1.000000
    230          2.220770        2.233801   1.000000   1.000000
    231          2.235960        2.239107   1.000000   1.000000
    232          2.235960        2.239107   1.000000   1.000000
    233          2.260807        2.264756   1.000000   1.000000
    234          2.266501        2.270007   1.000000   1.000000
    235          2.266501        2.270007   1.000000   1.000000
    236          2.272002        2.276273   1.000000   1.000000
    237          2.275629        2.280907   1.000000   1.000000
    238          2.275629        2.280907   1.000000   1.000000
    239          2.276572        2.285904   1.000000   1.000000
    240          2.286053        2.292501   1.000000   1.000000
    241          2.286053        2.292501   1.000000   1.000000
    242          2.299385        2.305482   1.000000   1.000000
    243          2.301544        2.314281   1.000000   1.000000
    244          2.316531        2.327912   1.000000   1.000000
    245          2.316531        2.327912   1.000000   1.000000
    246          2.330318        2.333622   1.000000   1.000000
    247          2.348199        2.357839   1.000000   1.000000
    248          2.348199        2.357839   1.000000   1.000000
    249          2.349121        2.367616   1.000000   1.000000
    250          2.380600        2.391563   1.000000   1.000000
    251          2.380600        2.391563   1.000000   1.000000
    252          2.418607        2.433069   1.000000   1.000000
    253          2.418607        2.433069   1.000000   1.000000
    254          2.680131        2.715878   1.000000   1.000000
    255          2.751893        2.787765   1.000000   1.000000
    256          2.751893        2.787765   1.000000   1.000000
    257          3.229900        3.239692   1.000000   1.000000
    258          3.229900        3.239692   1.000000   1.000000
    259          3.312478        3.323626   1.000000   1.000000
    260          3.316649        3.330090   1.000000   1.000000
    261          3.348514        3.362531   1.000000   1.000000
    262          3.348514        3.362531   1.000000   1.000000
    263          3.442913        3.512920   1.000000   1.000000
    264          3.737416        3.753671   1.000000   1.000000
    265          3.737416        3.753671   1.000000   1.000000
    266          3.840980        3.853020   1.000000   1.000000
    267          3.851626        3.854831   1.000000   1.000000
    268          3.851626        3.854831   1.000000   1.000000
    269          3.876204        3.879609   1.000000   1.000000
    270          3.879418        3.885394   1.000000   1.000000
    271          3.879418        3.885394   1.000000   1.000000
    272          3.898173        3.916095   1.000000   1.000000
    273          3.958466        3.971524   1.000000   1.000000
    274          3.958466        3.971524   1.000000   1.000000
    275          4.081645        4.091064   1.000000   1.000000
    276          4.081645        4.091064   1.000000   1.000000
    277          4.211966        4.237393   1.000000   1.000000
    278          4.264452        4.268346   1.000000   1.000000
    279          4.264941        4.270441   1.000000   1.000000
    280          4.264941        4.270441   1.000000   1.000000
    281          4.265075        4.284808   1.000000   1.000000
    282          4.283234        4.291892   1.000000   1.000000
    283          4.283234        4.291892   1.000000   1.000000
    284          4.310244        4.316885   1.000000   1.000000
    285          4.331202        4.340136   1.000000   1.000000
    286          4.331202        4.340136   1.000000   1.000000
    287          4.344140        4.358381   1.000000   1.000000
    288          4.449708        4.459927   1.000000   1.000000
    289          4.449708        4.459927   1.000000   1.000000
    290          4.480798        4.484955   1.000000   1.000000
    291          4.507360        4.510584   1.000000   1.000000
    292          4.515804        4.519574   1.000000   1.000000
    293          4.515804        4.519574   1.000000   1.000000
    294          4.526537        4.529980   1.000000   1.000000
    295          4.531552        4.534061   1.000000   1.000000
    296          4.531552        4.534061   1.000000   1.000000
    297          4.536343        4.539953   1.000000   1.000000
    298          4.536343        4.539953   1.000000   1.000000
    299          4.548624        4.550748   1.000000   1.000000
    300          4.554373        4.556926   1.000000   1.000000
    301          4.554373        4.556926   1.000000   1.000000
    302          4.557641        4.562902   1.000000   1.000000
    303          4.584976        4.590331   1.000000   1.000000
    304          4.584976        4.590331   1.000000   1.000000
    305          4.596137        4.600237   1.000000   1.000000
    306          4.602405        4.609406   1.000000   1.000000
    307          4.602405        4.609406   1.000000   1.000000
    308          4.606059        4.616207   1.000000   1.000000
    309          4.606059        4.616207   1.000000   1.000000
    310          4.621925        4.629525   1.000000   1.000000
    311          4.664694        4.670519   1.000000   1.000000
    312          4.664694        4.670519   1.000000   1.000000
    313          4.693766        4.701357   1.000000   1.000000
    314          4.718289        4.723213   1.000000   1.000000
    315          4.720492        4.723213   1.000000   1.000000
    316          4.720492        4.725056   1.000000   1.000000
    317          4.723599        4.729128   1.000000   1.000000
    318          4.727224        4.733205   1.000000   1.000000
    319          4.734479        4.736769   1.000000   1.000000
    320          4.734480        4.736769   1.000000   1.000000
    321          4.741072        4.743955   1.000000   1.000000
    322          4.741072        4.743955   1.000000   1.000000
    323          4.752877        4.757637   1.000000   1.000000
    324          4.754580        4.757637   1.000000   1.000000
    325          4.754580        4.757944   1.000000   1.000000
    326          4.759396        4.762751   1.000000   1.000000
    327          4.759396        4.765091   1.000000   1.000000
    328          4.759813        4.765091   1.000000   1.000000
    329          4.767081        4.772102   1.000000   1.000000
    330          4.767081        4.772102   1.000000   1.000000
    331          4.768742        4.773272   1.000000   1.000000
    332          4.775509        4.779901   1.000000   1.000000
    333          4.785741        4.790726   1.000000   1.000000
    334          4.785741        4.790726   1.000000   1.000000
    335          4.791990        4.803350   1.000000   1.000000
    336          4.798798        4.806618   1.000000   1.000000
    337          4.798798        4.806618   1.000000   1.000000
    338          4.800242        4.813526   1.000000   1.000000
    339          4.810843        4.823572   1.000000   1.000000
    340          4.810843        4.823572   1.000000   1.000000
    341          4.830272        4.839166   1.000000   1.000000
    342          4.833631        4.840036   1.000000   1.000000
    343          4.833631        4.840036   1.000000   1.000000
    344          4.854687        4.859920   1.000000   1.000000
    345          4.854687        4.859920   1.000000   1.000000
    346          4.889939        4.910120   1.000000   1.000000
    347          4.898680        4.910120   1.000000   1.000000
    348          4.898680        4.917044   1.000000   1.000000
    349          4.931419        4.941658   1.000000   1.000000
    350          4.953330        4.958689   1.000000   1.000000
    351          4.953330        4.972558   1.000000   1.000000
    352          4.953850        4.972558   1.000000   1.000000
    353          4.973580        4.987878   1.000000   1.000000
    354          5.073545        5.105040   1.000000   1.000000
    355          5.073545        5.105040   1.000000   1.000000
    356          5.303251        5.323325   1.000000   1.000000
    357          5.324089        5.339374   1.000000   1.000000
    358          5.324089        5.339374   1.000000   1.000000
    359          5.480406        5.486903   1.000000   1.000000
    360          5.480407        5.486903   1.000000   1.000000
    361          5.553917        5.556273   1.000000   1.000000
    362          5.555216        5.558461   1.000000   1.000000
    363          5.555216        5.558461   1.000000   1.000000
    364          5.562839        5.564701   1.000000   1.000000
    365          5.592616        5.597651   1.000000   1.000000
    366          5.592616        5.597651   1.000000   1.000000
    367          5.599686        5.603492   1.000000   1.000000
    368          5.601988        5.614617   1.000000   1.000000
    369          5.624960        5.631355   1.000000   1.000000
    370          5.624960        5.631355   1.000000   1.000000
    371          5.633828        5.640322   1.000000   1.000000
    372          5.640781        5.654293   1.000000   1.000000
    373          5.640781        5.654293   1.000000   1.000000
    374          5.651366        5.667684   1.000000   1.000000
    375          5.651366        5.667684   1.000000   1.000000
    376          5.674036        5.679563   1.000000   1.000000
    377          5.711575        5.741106   1.000000   1.000000
    378          5.711575        5.741106   1.000000   1.000000
    379          5.805312        5.834508   1.000000   1.000000
    380          6.299623        6.383357   1.000000   1.000000
    381          6.550512        6.603251   1.000000   1.000000
    382          6.550512        6.603251   1.000000   1.000000
    383          6.845378        6.913811   1.000000   1.000000
    384          6.899678        6.913811   1.000000   1.000000
    385          6.899678        6.970217   1.000000   1.000000
    386          6.966936        6.970217   1.000000   1.000000
    387          6.966936        6.977308   1.000000   1.000000
    388          6.978160        6.981979   1.000000   1.000000
    389          7.000599        7.002877   1.000000   1.000000
    390          7.003714        7.021327   1.000000   1.000000
    391          7.010540        7.021327   1.000000   1.000000
    392          7.010541        7.033406   1.000000   1.000000
    393          7.065932        7.070774   1.000000   1.000000
    394          7.065932        7.070774   1.000000   1.000000
    395          7.087540        7.096369   1.000000   1.000000
    396          7.158525        7.162788   1.000000   1.000000
    397          7.158525        7.162788   1.000000   1.000000
    398          7.222123        7.231187   1.000000   1.000000
    399          7.230128        7.236211   1.000000   1.000000
    400          7.230129        7.236211   1.000000   1.000000
    401          7.238225        7.244034   1.000000   1.000000
    402          7.238225        7.244034   1.000000   1.000000
    403          7.246454        7.257440   1.000000   1.000000
    404          7.246454        7.257440   1.000000   1.000000
    405          7.259535        7.264089   1.000000   1.000000
    406          7.277256        7.287970   1.000000   1.000000
    407          7.277256        7.287970   1.000000   1.000000
    408          7.302194        7.315886   1.000000   1.000000
    409          7.313681        7.327733   1.000000   1.000000
    410          7.313681        7.327733   1.000000   1.000000
    411          7.317994        7.333616   1.000000   1.000000
    412          7.330405        7.338396   1.000000   1.000000
    413          7.330405        7.338396   1.000000   1.000000
    414          7.813980        7.888024   1.000000   1.000000
    415          7.921191        7.944934   1.000000   1.000000
    416          7.921191        7.944934   1.000000   1.000000
    417          8.086439        8.140685   1.000000   1.000000
    418          8.132712        8.140685   1.000000   1.000000
    419          8.132712        8.151975   1.000000   1.000000
    420          8.149934        8.184001   1.000000   1.000000
    421          8.177010        8.184001   1.000000   1.000000
    422          8.177010        8.187073   1.000000   1.000000
    423          8.183909        8.239089   1.000000   1.000000
    424          8.228661        8.271569   1.000000   1.000000
    425          8.254869        8.271569   1.000000   1.000000
    426          8.254869        8.400224   1.000000   1.000000
    427          9.299892        9.439769   1.000000   1.000000
    428          9.412797        9.441339   1.000000   1.000000
    429          9.412797        9.441339   1.000000   1.000000
    430         10.042306       10.757640   1.000000   0.000000
    431         11.707898       12.687030   1.000000   1.000000
    432         11.707898       12.687030   1.000000   0.000000
    433         13.669738       13.673700   0.000000   0.000000
    434         13.669738       13.673700   0.000000   0.000000
    435         13.677591       13.692664   0.000000   0.000000
    436         13.726604       13.737823   0.000000   0.000000
    437         13.726604       13.737823   0.000000   0.000000
    438         13.747619       13.756976   0.000000   0.000000
    439         14.222561       14.233940   0.000000   0.000000
    440         14.305254       14.312274   0.000000   0.000000
    441         14.305254       14.312274   0.000000   0.000000
    442         14.328787       14.334521   0.000000   0.000000
    443         14.328787       14.334522   0.000000   0.000000
    444         14.387737       14.396782   0.000000   0.000000
    445         14.456627       14.461709   0.000000   0.000000
    446         14.456627       14.461709   0.000000   0.000000
    447         14.507326       14.535064   0.000000   0.000000
    448         14.555247       14.571296   0.000000   0.000000
    449         14.555247       14.571296   0.000000   0.000000
    450         14.585315       14.595661   0.000000   0.000000
    451         15.184162       15.201965   0.000000   0.000000
    452         15.184162       15.201965   0.000000   0.000000
    453         15.207633       15.219267   0.000000   0.000000
    454         15.721384       15.739906   0.000000   0.000000
    455         15.837303       15.840462   0.000000   0.000000
    456         15.837303       15.840462   0.000000   0.000000
    457         15.858933       15.861348   0.000000   0.000000
    458         15.888061       15.896004   0.000000   0.000000
    459         15.888061       15.896005   0.000000   0.000000
    460         15.899838       15.905429   0.000000   0.000000
    461         15.899838       15.905429   0.000000   0.000000
    462         15.910360       15.916403   0.000000   0.000000
    463         15.921401       15.925671   0.000000   0.000000
    464         15.921401       15.925671   0.000000   0.000000
    465         15.956933       15.964032   0.000000   0.000000
    466         16.337360       16.354191   0.000000   0.000000
    467         16.537796       16.541870   0.000000   0.000000
    468         16.537796       16.541870   0.000000   0.000000
    469         16.582939       16.585569   0.000000   0.000000
    470         16.588366       16.591740   0.000000   0.000000
    471         16.588366       16.591740   0.000000   0.000000
    472         16.591663       16.594499   0.000000   0.000000
    473         16.595719       16.600713   0.000000   0.000000
    474         16.595719       16.600713   0.000000   0.000000
    475         16.607456       16.612461   0.000000   0.000000
    476         16.607457       16.612461   0.000000   0.000000
    477         16.618967       16.624729   0.000000   0.000000
    478         16.618967       16.624729   0.000000   0.000000
    479         16.624424       16.629179   0.000000   0.000000
    480         16.631127       16.635764   0.000000   0.000000
    481         16.649916       16.655497   0.000000   0.000000
    482         16.655342       16.663516   0.000000   0.000000
    483         16.655342       16.663516   0.000000   0.000000
    484         16.700305       16.706160   0.000000   0.000000
    485         16.700305       16.706160   0.000000   0.000000
    486         16.719686       16.729196   0.000000   0.000000
    487         16.736687       16.744280   0.000000   0.000000
    488         16.736687       16.744280   0.000000   0.000000
    489         16.741902       16.749693   0.000000   0.000000
    490         16.981751       16.995127   0.000000   0.000000
    491         16.996600       17.006145   0.000000   0.000000
    492         16.996603       17.006162   0.000000   0.000000
    493         17.072744       17.074396   0.000000   0.000000
    494         17.077926       17.079378   0.000000   0.000000
    495         17.089917       17.092713   0.000000   0.000000
    496         17.089952       17.092719   0.000000   0.000000
    497         17.099339       17.102792   0.000000   0.000000
    498         17.099359       17.102816   0.000000   0.000000
    499         17.108562       17.110753   0.000000   0.000000
    500         17.118938       17.121270   0.000000   0.000000
    501         17.118966       17.121294   0.000000   0.000000
    502         17.142105       17.145777   0.000000   0.000000
    503         17.154174       17.158273   0.000000   0.000000
    504         17.154189       17.158302   0.000000   0.000000
    505         17.181959       17.186008   0.000000   0.000000
    506         17.181989       17.186046   0.000000   0.000000
    507         17.184097       17.187532   0.000000   0.000000
    508         17.193288       17.204567   0.000000   0.000000
    509         17.201013       17.204791   0.000000   0.000000
    510         17.201020       17.204839   0.000000   0.000000
    511         17.208496       17.211818   0.000000   0.000000
    512         17.226217       17.234053   0.000000   0.000000
    513         17.226303       17.234143   0.000000   0.000000
    514         17.236581       17.240064   0.000000   0.000000
    515         17.245226       17.255397   0.000000   0.000000
    516         17.245264       17.255516   0.000000   0.000000
    517         17.249938       17.261902   0.000000   0.000000
    518         17.250034       17.262032   0.000000   0.000000
    519         17.260930       17.270628   0.000000   0.000000
    520         17.261083       17.270798   0.000000   0.000000
    521         17.269931       17.275617   0.000000   0.000000
    522         17.286703       17.291397   0.000000   0.000000
    523         17.286938       17.291560   0.000000   0.000000
    524         17.319493       17.327447   0.000000   0.000000
    525         17.321907       17.328808   0.000000   0.000000
    526         17.374401       17.386579   0.000000   0.000000
    527         17.387388       17.393937   0.000000   0.000000
    528         17.388029       17.395376   0.000000   0.000000
    529         17.449424       17.458973   0.000000   0.000000
    530         17.453071       17.460310   0.000000   0.000000
    531         17.465661       17.473934   0.000000   0.000000
    532         17.592644       17.596655   0.000000   0.000000
    533         17.667056       17.692719   0.000000   0.000000
    534         17.692751       17.701079   0.000000   0.000000
    535         17.717675       17.711482   0.000000   0.000000
    536         17.732273       17.741840   0.000000   0.000000
    537         17.742116       17.748107   0.000000   0.000000
    538         17.749894       17.756432   0.000000   0.000000
    539         17.768598       17.768531   0.000000   0.000000
    540         17.779587       17.792549   0.000000   0.000000
