       N       E                     dE             d eps       ncg     rms          rms(c)
DAV:   1     0.295893219339E+04    0.29589E+04   -0.45410E+05  2160   0.153E+03
DAV:   2    -0.174379389381E+04   -0.47027E+04   -0.45075E+04  2624   0.298E+02
DAV:   3    -0.199518105618E+04   -0.25139E+03   -0.24889E+03  2592   0.668E+01
DAV:   4    -0.200176739010E+04   -0.65863E+01   -0.65667E+01  2648   0.105E+01
DAV:   5    -0.200195090502E+04   -0.18351E+00   -0.18318E+00  2600   0.171E+00    0.578E+01
DAV:   6    -0.194975999827E+04    0.52191E+02   -0.41554E+01  2496   0.863E+00    0.343E+01
DAV:   7    -0.193279168635E+04    0.16968E+02   -0.49694E+01  2496   0.929E+00    0.837E+00
DAV:   8    -0.193306055091E+04   -0.26886E+00   -0.18879E+00  2600   0.198E+00    0.430E+00
DAV:   9    -0.193306318201E+04   -0.26311E-02   -0.30278E-01  2544   0.861E-01    0.118E+00
DAV:  10    -0.193306988187E+04   -0.66999E-02   -0.67870E-02  2568   0.371E-01    0.441E-01
DAV:  11    -0.193307036042E+04   -0.47855E-03   -0.77520E-03  2568   0.139E-01    0.163E-01
DAV:  12    -0.193307086126E+04   -0.50084E-03   -0.24116E-03  2584   0.676E-02    0.886E-02
DAV:  13    -0.193307103695E+04   -0.17569E-03   -0.40942E-04  2624   0.315E-02    0.531E-02
DAV:  14    -0.193307117429E+04   -0.13735E-03   -0.11950E-04  2576   0.180E-02    0.249E-02
DAV:  15    -0.193307120867E+04   -0.34380E-04   -0.33633E-05  2568   0.102E-02    0.101E-02
DAV:  16    -0.193307121265E+04   -0.39765E-05   -0.63872E-06  2352   0.402E-03    0.396E-03
DAV:  17    -0.193307121253E+04    0.12275E-06   -0.73295E-07  1616   0.156E-03
   1 F= -.19330712E+04 E0= -.19330712E+04  d E =0.000000E+00  mag=     2.0000
