 vasp.6.5.1 10Mar25 (build Feb 13 2026 23:13:13) complex                        
  
 executed on             LinuxIFC date 2026.09.17  21:33:59
 running   28 mpi-ranks, with    1 threads/rank, on    1 nodes
 distrk:  each k-point on   28 cores,    1 groups
 distr:  one band on NCORE=   7 cores,    4 groups


--------------------------------------------------------------------------------------------------------


 INCAR:
   ALGO = Normal
   PREC = Normal
   LREAL = Auto
   EDIFF = 1e-06
   ENCUT = 500.0
   NELM = 100
   ISIF = 2
   IBRION = 2
   EDIFFG = -0.01
   NSW = 0
   ISMEAR = -2
   SIGMA = 0.005
   NUPDOWN = 2
   FERWE = 432*1.0 216*0.0
   FERDO = 429*1.0 1*0.0 1*1.0 217*0.0
   ISPIN = 2
   LWAVE = False
   LCHARG = False
   LORBIT = 10
   NELECT = 862.0
   NPAR = 4
   NCORE = 7

 POTCAR:    PAW_PBE C 08Apr2002                   
 POTCAR:    PAW_PBE N 08Apr2002                   
 -----------------------------------------------------------------------------
|                                                                             |
|           W    W    AA    RRRRR   N    N  II  N    N   GGGG   !!!           |
|           W    W   A  A   R    R  NN   N  II  NN   N  G    G  !!!           |
|           W    W  A    A  R    R  N N  N  II  N N  N  G       !!!           |
|           W WW W  AAAAAA  RRRRR   N  N N  II  N  N N  G  GGG   !            |
|           WW  WW  A    A  R   R   N   NN  II  N   NN  G    G                |
|           W    W  A    A  R    R  N    N  II  N    N   GGGG   !!!           |
|                                                                             |
|     You requested a magnetic or noncollinear calculation, but did not       |
|     specify the initial magnetic moment with the MAGMOM tag. Note that      |
|     a default of 9.302e-3 will be used for all atoms. This                  |
|     ferromagnetic setup may break the symmetry of the crystal, in           |
|     particular it may rule out finding an antiferromagnetic solution.       |
|     Thence, we recommend setting the initial magnetic moment manually       |
|     or verifying carefully that this magnetic setup is desired.             |
|                                                                             |
 -----------------------------------------------------------------------------

 POTCAR:    PAW_PBE C 08Apr2002                   
   SHA256 =  253f7b50bb8d59471dbedb8285d89021f4a42ed1a2c5d38a03a736e69125dd95 C/POTCAR              
   COPYR  = (c) Copyright 08Apr2002 Georg Kresse                                                    
   COPYR  = This file is part of the software VASP. Any use, copying, and all other rights are regul
   COPYR  = If you do not have a valid VASP license, you may not use, copy or distribute this file. 
   VRHFIN =C: s2p2                                                                                  
   LEXCH  = PE                                                                                      
   EATOM  =   147.1560 eV,   10.8157 Ry                                                             
                                                                                                    
   TITEL  = PAW_PBE C 08Apr2002                                                                     
   LULTRA =        F    use ultrasoft PP ?                                                          
   IUNSCR =        1    unscreen: 0-lin 1-nonlin 2-no                                               
   RPACOR =    1.200    partial core radius                                                         
   POMASS =   12.011; ZVAL   =    4.000    mass and valenz                                          
   RCORE  =    1.500    outmost cutoff radius                                                       
   RWIGS  =    1.630; RWIGS  =    0.863    wigner-seitz radius (au A)                               
   ENMAX  =  400.000; ENMIN  =  300.000 eV                                                          
   ICORE  =        2    local potential                                                             
   LCOR   =        T    correct aug charges                                                         
   LPAW   =        T    paw PP                                                                      
   EAUG   =  644.873                                                                                
   DEXC   =    0.000                                                                                
   RMAX   =    1.529    core radius for proj-oper                                                   
   RAUG   =    1.300    factor for augmentation sphere                                              
   RDEP   =    1.501    radius for radial grids                                                     
   RDEPT  =    1.300    core radius for aug-charge                                                  
                                                                                                    
   Atomic configuration                                                                             
    4 entries                                                                                       
     n  l   j            E        occ.                                                              
     1  0  0.50      -273.3789   2.0000                                                             
     2  0  0.50       -13.7508   2.0000                                                             
     2  1  0.50        -5.2854   2.0000                                                             
     3  2  1.50        -5.4423   0.0000                                                             
   Description                                                                                      
     l       E           TYP  RCUT    TYP  RCUT                                                     
     0    -13.7508458     23  1.200                                                                 
     0     -8.2022199     23  1.200                                                                 
     1     -5.2854383     23  1.500                                                                 
     1     34.0145650     23  1.500                                                                 
     2     -5.4423304      7  1.500                                                                 
  local pseudopotential read in
  partial core-charges read in
  partial kinetic energy density read in
  atomic valenz-charges read in
  non local Contribution for L=           0  read in
    real space projection operators read in
  non local Contribution for L=           0  read in
    real space projection operators read in
  non local Contribution for L=           1  read in
    real space projection operators read in
  non local Contribution for L=           1  read in
    real space projection operators read in
    PAW grid and wavefunctions read in
 
   number of l-projection  operators is LMAX  =           4
   number of lm-projection operators is LMMAX =           8
 
 POTCAR:    PAW_PBE N 08Apr2002                   
   SHA256 =  e053789ff3a61a86a1b75d8a110fcc91f86041011e7b0817c7c99e4e8a6349d7 N/POTCAR              
   COPYR  = (c) Copyright 08Apr2002 Georg Kresse                                                    
   COPYR  = This file is part of the software VASP. Any use, copying, and all other rights are regul
   COPYR  = If you do not have a valid VASP license, you may not use, copy or distribute this file. 
   VRHFIN =N: s2p3                                                                                  
   LEXCH  = PE                                                                                      
   EATOM  =   264.5486 eV,   19.4438 Ry                                                             
                                                                                                    
   TITEL  = PAW_PBE N 08Apr2002                                                                     
   LULTRA =        F    use ultrasoft PP ?                                                          
   IUNSCR =        1    unscreen: 0-lin 1-nonlin 2-no                                               
   RPACOR =    1.200    partial core radius                                                         
   POMASS =   14.001; ZVAL   =    5.000    mass and valenz                                          
   RCORE  =    1.500    outmost cutoff radius                                                       
   RWIGS  =    1.400; RWIGS  =    0.741    wigner-seitz radius (au A)                               
   ENMAX  =  400.000; ENMIN  =  300.000 eV                                                          
   ICORE  =        2    local potential                                                             
   LCOR   =        T    correct aug charges                                                         
   LPAW   =        T    paw PP                                                                      
   EAUG   =  627.112                                                                                
   DEXC   =    0.000                                                                                
   RMAX   =    1.529    core radius for proj-oper                                                   
   RAUG   =    1.300    factor for augmentation sphere                                              
   RDEP   =    1.514    radius for radial grids                                                     
   RDEPT  =    1.338    core radius for aug-charge                                                  
                                                                                                    
   Atomic configuration                                                                             
    4 entries                                                                                       
     n  l   j            E        occ.                                                              
     1  0  0.50      -384.7179   2.0000                                                             
     2  0  0.50       -18.5828   2.0000                                                             
     2  1  0.50        -7.0898   3.0000                                                             
     3  2  1.50        -6.8029   0.0000                                                             
   Description                                                                                      
     l       E           TYP  RCUT    TYP  RCUT                                                     
     0    -18.5828119     23  1.200                                                                 
     0    -13.5018863     23  1.200                                                                 
     1     -7.0897853     23  1.500                                                                 
     1      9.5240782     23  1.500                                                                 
     2     -6.8029130      7  1.500                                                                 
  local pseudopotential read in
  partial core-charges read in
  partial kinetic energy density read in
  atomic valenz-charges read in
  non local Contribution for L=           0  read in
    real space projection operators read in
  non local Contribution for L=           0  read in
    real space projection operators read in
  non local Contribution for L=           1  read in
    real space projection operators read in
  non local Contribution for L=           1  read in
    real space projection operators read in
    PAW grid and wavefunctions read in
 
   number of l-projection  operators is LMAX  =           4
   number of lm-projection operators is LMMAX =           8
 
 Optimization of the real space projectors (new method)

 maximal supplied QI-value         = 25.13
 optimisation between [QCUT,QGAM] = [ 11.31, 22.87] = [ 35.82,146.48] Ry 
 Optimized for a Real-space Cutoff    1.00 Angstroem

   l    n(q)    QCUT    max X(q) W(low)/X(q) W(high)/X(q)  e(spline) 
   0      7    11.310   115.676    0.43E-03    0.13E-02    0.19E-06
   0      7    11.310    87.132    0.43E-03    0.13E-02    0.18E-06
   1      6    11.310     4.429    0.42E-03    0.74E-03    0.11E-06
   1      6    11.310     2.733    0.34E-03    0.55E-03    0.92E-07
 Optimization of the real space projectors (new method)

 maximal supplied QI-value         = 25.13
 optimisation between [QCUT,QGAM] = [ 11.31, 22.87] = [ 35.82,146.48] Ry 
 Optimized for a Real-space Cutoff    1.27 Angstroem

   l    n(q)    QCUT    max X(q) W(low)/X(q) W(high)/X(q)  e(spline) 
   0      9    11.310    79.467    0.75E-04    0.16E-03    0.36E-06
   0      9    11.310    66.151    0.74E-04    0.16E-03    0.36E-06
   1      8    11.310    17.416    0.35E-03    0.12E-03    0.95E-06
   1      8    11.310    12.382    0.37E-03    0.13E-03    0.98E-06
  PAW_PBE C 08Apr2002                   :
 energy of atom  1       EATOM= -147.1560
 kinetic energy error for atom=    0.0076 (will be added to EATOM!!)
  PAW_PBE N 08Apr2002                   :
 energy of atom  2       EATOM= -264.5486
 kinetic energy error for atom=    0.0138 (will be added to EATOM!!)
 
 
 POSCAR: C  N
  positions in direct lattice
  velocities in cartesian coordinates


 exchange-correlation table for PE
   RHO(1)=    0.500       N(1)  =     2000
   RHO(2)=  100.500       N(2)  =     4000
 


--------------------------------------------------------------------------------------------------------


 ion  position               nearest neighbor table
   1  0.083  0.083  0.083- 135 1.54 189 1.55 108 1.55 162 1.55
   2  0.083  0.083  0.417- 163 1.55 190 1.55 109 1.55 136 1.55
   3  0.083  0.083  0.750- 137 1.54 110 1.55 191 1.55 164 1.55
   4  0.084  0.417  0.083- 192 1.54 138 1.54 111 1.55 165 1.55
   5  0.083  0.417  0.417- 112 1.55 193 1.55 139 1.55 166 1.55
   6  0.083  0.417  0.750- 194 1.55 140 1.55 113 1.55 167 1.55
   7  0.084  0.750  0.083- 141 1.55 195 1.55 114 1.55 168 1.55
   8  0.084  0.750  0.416- 142 1.55 115 1.55 196 1.55 169 1.55
   9  0.083  0.750  0.750- 143 1.55 116 1.55 170 1.55 197 1.55
  10  0.417  0.083  0.084- 144 1.54 171 1.55 198 1.55 117 1.55
  11  0.417  0.083  0.417- 172 1.55 199 1.55 118 1.55 145 1.55
  12  0.416  0.082  0.751- 146 1.54 173 1.55 119 1.55 200 1.55
  13  0.417  0.417  0.084- 201 1.55 147 1.55 174 1.55 120 1.55
  14  0.419  0.417  0.419- 202 1.54 148 1.55 175 1.56 121 1.56
  15  0.415  0.416  0.752- 203 1.54 149 1.55 176 1.55 122 1.55
  16  0.417  0.750  0.083- 150 1.55 177 1.55 123 1.55 204 1.55
  17  0.417  0.750  0.417- 205 1.54 124 1.55 151 1.55 178 1.56
  18  0.417  0.749  0.749- 179 1.54 125 1.54 152 1.55 206 1.55
  19  0.750  0.083  0.083- 126 1.55 207 1.55 180 1.55 153 1.55
  20  0.750  0.084  0.417- 181 1.55 127 1.55 154 1.55 208 1.55
  21  0.749  0.083  0.750- 128 1.55 209 1.55 182 1.55 155 1.55
  22  0.750  0.417  0.083- 183 1.55 210 1.55 156 1.55 129 1.55
  23  0.756  0.413  0.410- 157 1.49 184 1.50 130 1.50
  24  0.748  0.417  0.748- 211 1.54 158 1.55 131 1.56 185 1.56
  25  0.750  0.750  0.083- 159 1.55 186 1.55 212 1.55 132 1.55
  26  0.750  0.750  0.416- 213 1.54 160 1.55 187 1.55 133 1.55
  27  0.750  0.750  0.750- 214 1.54 188 1.55 161 1.55 134 1.56
  28  0.250  0.250  0.084- 120 1.54 165 1.55 198 1.55 135 1.55
  29  0.250  0.250  0.417- 166 1.55 199 1.55 136 1.55 121 1.55
  30  0.249  0.249  0.751- 122 1.54 137 1.55 167 1.55 200 1.55
  31  0.250  0.583  0.083- 138 1.55 201 1.55 168 1.55 123 1.55
  32  0.251  0.583  0.417- 139 1.55 169 1.55 124 1.55 202 1.55
  33  0.250  0.583  0.750- 140 1.55 203 1.55 170 1.55 125 1.55
  34  0.250  0.917  0.083- 117 1.54 204 1.55 162 1.55 141 1.55
  35  0.250  0.917  0.417- 163 1.55 205 1.55 142 1.55 118 1.55
  36  0.250  0.916  0.750- 119 1.54 143 1.55 206 1.55 164 1.55
  37  0.583  0.250  0.084- 207 1.55 129 1.55 174 1.55 144 1.55
  38  0.584  0.252  0.419- 208 1.54 130 1.55 175 1.56 145 1.56
  39  0.582  0.248  0.752- 209 1.54 131 1.55 146 1.55 176 1.55
  40  0.584  0.583  0.083- 177 1.55 210 1.55 132 1.55 147 1.55
  41  0.580  0.590  0.410- 133 1.49 148 1.50 178 1.50
  42  0.584  0.581  0.748- 211 1.54 134 1.55 149 1.56 179 1.56
  43  0.584  0.917  0.083- 212 1.54 126 1.54 171 1.55 150 1.55
  44  0.584  0.917  0.417- 151 1.55 213 1.55 127 1.55 172 1.55
  45  0.583  0.916  0.750- 214 1.55 128 1.55 152 1.55 173 1.55
  46  0.916  0.250  0.083- 111 1.55 183 1.55 153 1.55 189 1.55
  47  0.917  0.250  0.417- 190 1.54 154 1.55 112 1.55 184 1.56
  48  0.916  0.251  0.749- 155 1.54 185 1.54 113 1.55 191 1.55
  49  0.917  0.584  0.083- 114 1.55 186 1.55 192 1.55 156 1.55
  50  0.917  0.584  0.416- 193 1.54 115 1.55 187 1.55 157 1.55
  51  0.917  0.583  0.750- 194 1.54 188 1.55 116 1.55 158 1.56
  52  0.917  0.917  0.083- 108 1.55 195 1.55 180 1.55 159 1.55
  53  0.917  0.917  0.416- 109 1.55 160 1.55 196 1.55 181 1.55
  54  0.916  0.917  0.750- 110 1.55 161 1.55 182 1.55 197 1.55
  55  0.250  0.084  0.250- 198 1.55 118 1.55 136 1.55 162 1.55
  56  0.249  0.083  0.584- 163 1.54 199 1.54 119 1.55 137 1.55
  57  0.250  0.083  0.917- 200 1.54 117 1.55 164 1.55 135 1.55
  58  0.251  0.417  0.251- 139 1.55 201 1.55 165 1.55 121 1.55
  59  0.250  0.416  0.584- 140 1.55 166 1.55 122 1.55 202 1.55
  60  0.249  0.416  0.917- 138 1.54 203 1.54 120 1.55 167 1.55
  61  0.250  0.750  0.250- 204 1.55 168 1.55 142 1.55 124 1.55
  62  0.251  0.749  0.583- 169 1.55 205 1.55 143 1.55 125 1.55
  63  0.250  0.750  0.916- 206 1.55 123 1.55 170 1.55 141 1.55
  64  0.584  0.084  0.251- 127 1.55 207 1.55 171 1.55 145 1.55
  65  0.583  0.083  0.584- 172 1.55 128 1.55 146 1.55 208 1.55
  66  0.583  0.083  0.917- 126 1.54 209 1.54 173 1.55 144 1.55
  67  0.584  0.417  0.251- 148 1.54 130 1.54 210 1.55 174 1.55
  68  0.583  0.416  0.917- 147 1.55 129 1.55 176 1.55 211 1.55
  69  0.584  0.751  0.249- 212 1.54 177 1.55 151 1.55 133 1.55
  70  0.584  0.749  0.583- 178 1.54 134 1.54 213 1.55 152 1.55
  71  0.584  0.749  0.916- 132 1.55 214 1.55 150 1.55 179 1.55
  72  0.917  0.084  0.250- 189 1.55 109 1.55 180 1.55 154 1.55
  73  0.916  0.084  0.583- 181 1.55 190 1.55 110 1.55 155 1.55
  74  0.916  0.084  0.916- 191 1.55 182 1.55 153 1.55 108 1.55
  75  0.918  0.418  0.249- 192 1.54 112 1.55 183 1.55 157 1.55
  76  0.916  0.417  0.583- 158 1.54 184 1.54 193 1.55 113 1.55
  77  0.916  0.417  0.916- 156 1.55 194 1.55 111 1.55 185 1.55
  78  0.917  0.750  0.250- 195 1.55 115 1.55 186 1.55 160 1.55
  79  0.918  0.751  0.582- 196 1.54 116 1.55 161 1.55 187 1.55
  80  0.917  0.750  0.916- 197 1.55 114 1.55 159 1.55 188 1.55
  81  0.083  0.250  0.250- 165 1.55 112 1.55 136 1.55 189 1.55
  82  0.083  0.250  0.583- 190 1.55 166 1.55 113 1.55 137 1.55
  83  0.083  0.250  0.917- 167 1.54 111 1.55 191 1.55 135 1.55
  84  0.084  0.584  0.250- 168 1.55 115 1.55 192 1.55 139 1.55
  85  0.083  0.583  0.583- 116 1.55 193 1.55 169 1.55 140 1.55
  86  0.083  0.583  0.917- 138 1.55 194 1.55 114 1.55 170 1.55
  87  0.084  0.917  0.250- 162 1.55 195 1.55 109 1.55 142 1.55
  88  0.084  0.917  0.583- 196 1.54 163 1.54 110 1.55 143 1.55
  89  0.083  0.917  0.917- 164 1.54 197 1.55 108 1.55 141 1.55
  90  0.417  0.251  0.251- 145 1.54 121 1.54 174 1.55 198 1.55
  91  0.415  0.248  0.584- 199 1.54 175 1.55 146 1.55 122 1.55
  92  0.416  0.249  0.918- 176 1.54 144 1.55 120 1.55 200 1.55
  93  0.417  0.583  0.250- 201 1.54 124 1.55 177 1.55 148 1.56
  94  0.419  0.581  0.583- 202 1.54 178 1.55 149 1.56 125 1.56
  95  0.417  0.583  0.917- 147 1.55 203 1.55 123 1.55 179 1.55
  96  0.417  0.917  0.250- 171 1.55 151 1.55 118 1.55 204 1.55
  97  0.417  0.916  0.583- 205 1.55 172 1.55 152 1.55 119 1.55
  98  0.417  0.916  0.917- 173 1.54 150 1.55 206 1.55 117 1.55
  99  0.750  0.250  0.250- 207 1.54 154 1.55 183 1.55 130 1.56
 100  0.748  0.252  0.583- 208 1.54 184 1.55 131 1.56 155 1.56
 101  0.749  0.250  0.917- 129 1.55 209 1.55 153 1.55 185 1.55
 102  0.750  0.584  0.250- 210 1.54 186 1.55 157 1.55 133 1.55
 103  0.756  0.590  0.587- 187 1.49 158 1.50 134 1.50
 104  0.750  0.583  0.916- 156 1.55 132 1.55 188 1.55 211 1.55
 105  0.750  0.917  0.250- 180 1.55 160 1.55 212 1.55 127 1.55
 106  0.750  0.917  0.583- 161 1.55 213 1.55 181 1.55 128 1.55
 107  0.750  0.917  0.917- 126 1.55 214 1.55 159 1.55 182 1.55
 108  1.000  0.000  1.000-  52 1.55   1 1.55  89 1.55  74 1.55
 109  0.000  0.000  0.333-  53 1.55   2 1.55  72 1.55  87 1.55
 110  1.000  0.000  0.667-   3 1.55  54 1.55  73 1.55  88 1.55
 111  1.000  0.333  1.000-  83 1.55  46 1.55  77 1.55   4 1.55
 112  0.000  0.334  0.333-  81 1.55   5 1.55  75 1.55  47 1.55
 113  0.999  0.334  0.666-  48 1.55   6 1.55  82 1.55  76 1.55
 114  0.000  0.667  1.000-  49 1.55  86 1.55  80 1.55   7 1.55
 115  0.000  0.667  0.333-  50 1.55  78 1.55   8 1.55  84 1.55
 116  0.000  0.667  0.666-   9 1.55  85 1.55  79 1.55  51 1.55
 117  0.333  1.000  0.000-  34 1.54  57 1.55  10 1.55  98 1.55
 118  0.334  0.000  0.334-  55 1.55  35 1.55  96 1.55  11 1.55
 119  0.333  0.999  0.667-  36 1.54  12 1.55  97 1.55  56 1.55
 120  0.333  0.333  0.001-  28 1.54  92 1.55  13 1.55  60 1.55
 121  0.335  0.334  0.335-  90 1.54  29 1.55  58 1.55  14 1.56
 122  0.332  0.332  0.668-  30 1.54  59 1.55  15 1.55  91 1.55
 123  0.334  0.666  1.000-  63 1.55  31 1.55  16 1.55  95 1.55
 124  0.334  0.667  0.333-  17 1.55  93 1.55  32 1.55  61 1.55
 125  0.335  0.665  0.666-  18 1.54  33 1.55  62 1.55  94 1.56
 126  0.667  0.000  1.000-  66 1.54  43 1.54  19 1.55 107 1.55
 127  0.667  0.000  0.334-  64 1.55  20 1.55  44 1.55 105 1.55
 128  0.666  1.000  0.667-  65 1.55  21 1.55  45 1.55 106 1.55
 129  0.666  0.333  0.000-  68 1.55 101 1.55  37 1.55  22 1.55
 130  0.668  0.336  0.335-  23 1.50  67 1.54  38 1.55  99 1.56
 131  0.662  0.333  0.667- 215 1.47  39 1.55 100 1.56  24 1.56
 132  0.667  0.666  1.000-  71 1.55 104 1.55  40 1.55  25 1.55
 133  0.666  0.667  0.333-  41 1.49  26 1.55 102 1.55  69 1.55
 134  0.668  0.665  0.664- 103 1.50  70 1.54  42 1.55  27 1.56
 135  0.166  0.167  0.000-   1 1.54  57 1.55  28 1.55  83 1.55
 136  0.167  0.167  0.334-  55 1.55   2 1.55  81 1.55  29 1.55
 137  0.166  0.166  0.667-   3 1.54  30 1.55  82 1.55  56 1.55
 138  0.167  0.500  1.000-  60 1.54   4 1.54  31 1.55  86 1.55
 139  0.167  0.500  0.334-  58 1.55  32 1.55   5 1.55  84 1.55
 140  0.166  0.500  0.667-  59 1.55  33 1.55   6 1.55  85 1.55
 141  0.167  0.833  1.000-   7 1.55  34 1.55  89 1.55  63 1.55
 142  0.167  0.833  0.333-   8 1.55  35 1.55  61 1.55  87 1.55
 143  0.167  0.833  0.667-  36 1.55   9 1.55  62 1.55  88 1.55
 144  0.500  0.166  0.001-  10 1.54  92 1.55  37 1.55  66 1.55
 145  0.500  0.168  0.335-  90 1.54  11 1.55  64 1.55  38 1.56
 146  0.499  0.165  0.668-  12 1.54  65 1.55  39 1.55  91 1.55
 147  0.500  0.500  0.000-  68 1.55  95 1.55  13 1.55  40 1.55
 148  0.502  0.501  0.335-  41 1.50  67 1.54  14 1.55  93 1.56
 149  0.500  0.495  0.667- 215 1.47  15 1.55  42 1.56  94 1.56
 150  0.500  0.833  1.000-  98 1.55  16 1.55  71 1.55  43 1.55
 151  0.500  0.833  0.333-  96 1.55  44 1.55  69 1.55  17 1.55
 152  0.501  0.832  0.666-  18 1.55  45 1.55  97 1.55  70 1.55
 153  0.833  0.167  1.000-  74 1.55  19 1.55  46 1.55 101 1.55
 154  0.833  0.167  0.333-  99 1.55  47 1.55  20 1.55  72 1.55
 155  0.832  0.168  0.666-  48 1.54  21 1.55  73 1.55 100 1.56
 156  0.833  0.500  1.000-  77 1.55 104 1.55  22 1.55  49 1.55
 157  0.833  0.500  0.333-  23 1.49 102 1.55  50 1.55  75 1.55
 158  0.832  0.501  0.664- 103 1.50  76 1.54  24 1.55  51 1.56
 159  0.833  0.833  1.000-  25 1.55 107 1.55  80 1.55  52 1.55
 160  0.833  0.834  0.333-  26 1.55  78 1.55 105 1.55  53 1.55
 161  0.833  0.833  0.666-  54 1.55 106 1.55  79 1.55  27 1.55
 162  0.167  0.000  0.167-  87 1.55  34 1.55   1 1.55  55 1.55
 163  0.167  0.000  0.500-  56 1.54  88 1.54  35 1.55   2 1.55
 164  0.166  1.000  0.833-  89 1.54  57 1.55  36 1.55   3 1.55
 165  0.167  0.333  0.167-  28 1.55  81 1.55  58 1.55   4 1.55
 166  0.166  0.333  0.500-  59 1.55  29 1.55  82 1.55   5 1.55
 167  0.166  0.333  0.834-  83 1.54  30 1.55   6 1.55  60 1.55
 168  0.167  0.667  0.167-  84 1.55  31 1.55  61 1.55   7 1.55
 169  0.167  0.666  0.500-  62 1.55  32 1.55  85 1.55   8 1.55
 170  0.167  0.666  0.833-  63 1.55  86 1.55   9 1.55  33 1.55
 171  0.500  0.000  0.167-  10 1.55  96 1.55  64 1.55  43 1.55
 172  0.500  1.000  0.500-  65 1.55  11 1.55  97 1.55  44 1.55
 173  0.500  0.999  0.834-  98 1.54  12 1.55  45 1.55  66 1.55
 174  0.501  0.334  0.168-  90 1.55  37 1.55  13 1.55  67 1.55
 175  0.500  0.333  0.505- 215 1.47  91 1.55  38 1.56  14 1.56
 176  0.499  0.332  0.835-  92 1.54  68 1.55  39 1.55  15 1.55
 177  0.500  0.667  0.167-  16 1.55  40 1.55  69 1.55  93 1.55
 178  0.502  0.665  0.499-  41 1.50  70 1.54  94 1.55  17 1.56
 179  0.500  0.665  0.832-  18 1.54  95 1.55  71 1.55  42 1.56
 180  0.833  0.000  0.167- 105 1.55  19 1.55  72 1.55  52 1.55
 181  0.833  0.000  0.500-  73 1.55  20 1.55 106 1.55  53 1.55
 182  0.833  0.000  0.833-  74 1.55 107 1.55  54 1.55  21 1.55
 183  0.833  0.334  0.167-  46 1.55  22 1.55  75 1.55  99 1.55
 184  0.832  0.336  0.499-  23 1.50  76 1.54 100 1.55  47 1.56
 185  0.832  0.334  0.832-  48 1.54 101 1.55  77 1.55  24 1.56
 186  0.833  0.667  0.166- 102 1.55  78 1.55  25 1.55  49 1.55
 187  0.833  0.667  0.500- 103 1.49  26 1.55  50 1.55  79 1.55
 188  0.833  0.667  0.833-  27 1.55  51 1.55 104 1.55  80 1.55
 189  1.000  0.167  0.167-  72 1.55   1 1.55  81 1.55  46 1.55
 190  1.000  0.167  0.500-  47 1.54  82 1.55   2 1.55  73 1.55
 191  0.999  0.167  0.833-  74 1.55   3 1.55  83 1.55  48 1.55
 192  0.001  0.500  0.166-  75 1.54   4 1.54  84 1.55  49 1.55
 193  1.000  0.500  0.500-  50 1.54  76 1.55   5 1.55  85 1.55
 194  1.000  0.500  0.833-  51 1.54   6 1.55  86 1.55  77 1.55
 195  0.000  0.834  0.166-  78 1.55   7 1.55  87 1.55  52 1.55
 196  0.001  0.834  0.500-  79 1.54  88 1.54   8 1.55  53 1.55
 197  1.000  0.833  0.833-  80 1.55  89 1.55   9 1.55  54 1.55
 198  0.334  0.167  0.167-  55 1.55  28 1.55  10 1.55  90 1.55
 199  0.333  0.166  0.501-  91 1.54  56 1.54  29 1.55  11 1.55
 200  0.333  0.166  0.834-  57 1.54  30 1.55  12 1.55  92 1.55
 201  0.333  0.500  0.167-  93 1.54  13 1.55  31 1.55  58 1.55
 202  0.334  0.500  0.500-  14 1.54  94 1.54  32 1.55  59 1.55
 203  0.333  0.499  0.834-  15 1.54  60 1.54  33 1.55  95 1.55
 204  0.334  0.833  0.167-  61 1.55  34 1.55  16 1.55  96 1.55
 205  0.333  0.833  0.500-  17 1.54  97 1.55  35 1.55  62 1.55
 206  0.334  0.833  0.833-  63 1.55  36 1.55  98 1.55  18 1.55
 207  0.667  0.167  0.167-  99 1.54  37 1.55  19 1.55  64 1.55
 208  0.666  0.167  0.500- 100 1.54  38 1.54  20 1.55  65 1.55
 209  0.666  0.166  0.834-  39 1.54  66 1.54  21 1.55 101 1.55
 210  0.667  0.500  0.167- 102 1.54  67 1.55  22 1.55  40 1.55
 211  0.666  0.500  0.833-  24 1.54  42 1.54 104 1.55  68 1.55
 212  0.667  0.834  0.166-  69 1.54  43 1.54  25 1.55 105 1.55
 213  0.667  0.833  0.500-  26 1.54  70 1.55 106 1.55  44 1.55
 214  0.667  0.833  0.833-  27 1.54  45 1.55 107 1.55  71 1.55
 215  0.575  0.408  0.592- 149 1.47 175 1.47 131 1.47
 
  LATTYP: Found a simple cubic cell.
 ALAT       =    10.7211360931
  
  Lattice vectors:
  
 A1 = (  10.7211360931,   0.0000000000,   0.0000000000)
 A2 = (   0.0000000000,  10.7211360931,   0.0000000000)
 A3 = (   0.0000000000,   0.0000000000,  10.7211360931)


Analysis of symmetry for initial positions (statically):
=====================================================================
 Subroutine PRICEL returns:
 Original cell was already a primitive cell.
 

 Routine SETGRP: Setting up the symmetry group for a 
 simple cubic supercell.


 Subroutine GETGRP returns: Found  6 space group operations
 (whereof  2 operations were pure point group operations)
 out of a pool of 48 trial point group operations.


The static configuration has the point symmetry C_1h.
 The point group associated with its full space group is C_3v.


Analysis of symmetry for dynamics (positions and initial velocities):
=====================================================================
 Subroutine PRICEL returns:
 Original cell was already a primitive cell.
 

 Routine SETGRP: Setting up the symmetry group for a 
 simple cubic supercell.


 Subroutine GETGRP returns: Found  6 space group operations
 (whereof  2 operations were pure point group operations)
 out of a pool of 48 trial point group operations.


The dynamic configuration has the point symmetry C_1h.
 The point group associated with its full space group is C_3v.


Analysis of structural, dynamic, and magnetic symmetry:
=====================================================================
 Subroutine PRICEL returns:
 Original cell was already a primitive cell.
 

 Routine SETGRP: Setting up the symmetry group for a 
 simple cubic supercell.


 Subroutine GETGRP returns: Found  6 space group operations
 (whereof  2 operations were pure point group operations)
 out of a pool of 48 trial point group operations.


The overall configuration has the point symmetry C_1h.
 The point group associated with its full space group is C_3v.


 Subroutine INISYM returns: Found  6 space group operations
 (whereof  2 operations are pure point group operations),
 and found     1 'primitive' translations


----------------------------------------------------------------------------------------

                                     Primitive cell                                     

  volume of cell :    1232.3170

  direct lattice vectors                    reciprocal lattice vectors
    10.721136093  0.000000000  0.000000000     0.093273697  0.000000000  0.000000000
     0.000000000 10.721136093  0.000000000     0.000000000  0.093273697  0.000000000
     0.000000000  0.000000000 10.721136093     0.000000000  0.000000000  0.093273697

  length of vectors
    10.721136093 10.721136093 10.721136093     0.093273697  0.093273697  0.093273697

  position of ions in fractional coordinates (direct lattice)
     0.083219308  0.083477479  0.083447358
     0.083487470  0.083483578  0.416783583
     0.082696716  0.083305528  0.750011751
     0.083620446  0.416874510  0.083046220
     0.083369421  0.416978358  0.416684046
     0.082812037  0.416620527  0.749844732
     0.083554190  0.750082575  0.083112476
     0.083802694  0.750225704  0.416421450
     0.083491773  0.749802415  0.749683252
     0.416654916  0.083305528  0.083969950
     0.416765675  0.083494790  0.417247332
     0.416038900  0.082358375  0.750627767
     0.416821935  0.416620527  0.083854629
     0.418611051  0.417444778  0.418665726
     0.415005067  0.415749835  0.751661600
     0.416983415  0.749802415  0.083174893
     0.416701464  0.750311951  0.416862266
     0.417221586  0.748985213  0.749445081
     0.749883084  0.083483578  0.083179196
     0.749910484  0.083906434  0.416756183
     0.749419335  0.083494790  0.749900992
     0.749982621  0.416978358  0.083297245
     0.756218098  0.413380682  0.410448569
     0.748000941  0.417444778  0.748055616
     0.750245217  0.750225704  0.082863972
     0.750338592  0.749934226  0.416328075
     0.749804401  0.750311951  0.749965203
     0.249972195  0.249988249  0.083969950
     0.250161457  0.250099008  0.417247332
     0.249025042  0.249372233  0.750627767
     0.250150245  0.583216417  0.083179196
     0.250573101  0.583243817  0.416756183
     0.250161457  0.582752668  0.749900992
     0.250144146  0.916552642  0.083447358
     0.250150245  0.916820804  0.416783583
     0.249972195  0.916030050  0.750011751
     0.583287193  0.250155268  0.083854629
     0.584111444  0.251944384  0.418665726
     0.582416501  0.248338400  0.751661600
     0.583645024  0.583315954  0.083297245
     0.580047348  0.589551431  0.410448569
     0.584111444  0.581334274  0.748055616
     0.583541176  0.916953780  0.083046220
     0.583645024  0.916702755  0.416684046
     0.583287193  0.916145371  0.749844732
     0.916469082  0.250316748  0.083174893
     0.916978618  0.250034797  0.416862266
     0.915651880  0.250554919  0.749445081
     0.916892371  0.583578550  0.082863972
     0.916600893  0.583671925  0.416328075
     0.916978618  0.583137734  0.749965203
     0.916749242  0.916887524  0.083112476
     0.916892371  0.917136028  0.416421450
     0.916469082  0.916825107  0.749683252
     0.250215725  0.083549058  0.250376281
     0.249459371  0.082792704  0.583669811
     0.249597946  0.082931279  0.917068721
     0.250709087  0.416899353  0.250697633
     0.249831216  0.416357472  0.583642528
     0.249459371  0.416330189  0.917207296
     0.250429824  0.750043859  0.249956141
     0.250709087  0.749302367  0.583100647
     0.250215725  0.749623719  0.916450942
     0.583566019  0.084042420  0.250697633
     0.583024138  0.083164549  0.583642528
     0.582996855  0.082792704  0.917207296
     0.584120712  0.417454046  0.251020380
     0.583024138  0.416357472  0.916835451
     0.584173225  0.751160271  0.248839729
     0.584120712  0.748979620  0.582545954
     0.583566019  0.749302367  0.915957580
     0.916710526  0.083763157  0.249956141
     0.915969034  0.084042420  0.583100647
     0.916290386  0.083549058  0.916450942
     0.917826938  0.417506559  0.248839729
     0.915646287  0.417454046  0.582545954
     0.915969034  0.416899353  0.915957580
     0.916942719  0.750276052  0.249723948
     0.917826938  0.751160271  0.582493441
     0.916710526  0.750043859  0.916236843
     0.083491773  0.250316748  0.250197585
     0.082812037  0.250155268  0.583379473
     0.082696716  0.249988249  0.916694472
     0.083802694  0.583578550  0.249774296
     0.083369421  0.583315954  0.583021642
     0.083487470  0.583216417  0.916516422
     0.083554190  0.916887524  0.249917425
     0.083620446  0.916953780  0.583125490
     0.083219308  0.916552642  0.916522521
     0.417221586  0.250554919  0.251014787
     0.415005067  0.248338400  0.584250165
     0.416038900  0.249372233  0.917641625
     0.416701464  0.583137734  0.249688049
     0.418611051  0.581334274  0.582555222
     0.416765675  0.582752668  0.916505210
     0.416983415  0.916825107  0.250197585
     0.416821935  0.916145371  0.583379473
     0.416654916  0.916030050  0.916694472
     0.749804401  0.250034797  0.249688049
     0.748000941  0.251944384  0.582555222
     0.749419335  0.250099008  0.916505210
     0.750338592  0.583671925  0.250065774
     0.756218098  0.589551431  0.586619318
     0.749910484  0.583243817  0.916093566
     0.750245217  0.917136028  0.249774296
     0.749982621  0.916702755  0.583021642
     0.749883084  0.916820804  0.916516422
     0.999896562  0.000167345  0.999832655
     0.000154967  0.000382131  0.333185653
     0.999559926  0.000305070  0.666518513
     0.999559926  0.333481487  0.999694930
     0.000120565  0.333797869  0.333222026
     0.999007068  0.333923438  0.666076562
     0.000154967  0.666814347  0.999617869
     0.000191679  0.666804350  0.333195650
     0.000120565  0.666777974  0.666202131
     0.333311361  0.999695230  0.000304770
     0.333624683  0.000179256  0.333570877
     0.333089146  0.999269148  0.666922082
     0.333089146  0.333077918  0.000730852
     0.334563361  0.333703673  0.334747381
     0.332164631  0.332438714  0.667561286
     0.333624683  0.666429123  0.999820744
     0.333864319  0.666642351  0.333357649
     0.334563361  0.665252619  0.666296327
     0.666599611  0.000011303  0.999988697
     0.666838556  0.000422172  0.333504486
     0.666476605  0.999810299  0.666555562
     0.666476605  0.333444438  0.000189701
     0.667811328  0.335566592  0.334893846
     0.662163931  0.333305943  0.666694057
     0.666838556  0.666495514  0.999577828
     0.666486341  0.666733074  0.333266926
     0.667811328  0.665106154  0.664433408
     0.166361897  0.166644695  0.000304770
     0.166845923  0.166958017  0.333570877
     0.165935815  0.166422480  0.666922082
     0.166677970  0.499932944  0.999988697
     0.167088839  0.500171889  0.333504486
     0.166476966  0.499809938  0.666555562
     0.166834012  0.833229895  0.999832655
     0.167048798  0.833488300  0.333185653
     0.166971737  0.832893259  0.666518513
     0.499744585  0.166422480  0.000730852
     0.500370340  0.167896695  0.334747381
     0.499105381  0.165497965  0.667561286
     0.500111105  0.499809938  0.000189701
     0.502233259  0.501144661  0.334893846
     0.499972610  0.495497264  0.666694057
     0.500148154  0.832893259  0.999694930
     0.500464536  0.833453898  0.333222026
     0.500590105  0.832340401  0.666076562
     0.833095789  0.166958017  0.999820744
     0.833309017  0.167197653  0.333357649
     0.831919285  0.167896695  0.666296327
     0.833162180  0.500171889  0.999577828
     0.833399740  0.499819674  0.333266926
     0.831772820  0.501144661  0.664433408
     0.833481013  0.833488300  0.999617869
     0.833471016  0.833525012  0.333195650
     0.833444640  0.833453898  0.666202131
     0.166834012  0.000167345  0.166770105
     0.166677970  0.000011303  0.500067056
     0.166361897  0.999695230  0.833355305
     0.166971737  0.333481487  0.167106741
     0.166476966  0.333444438  0.500190062
     0.165935815  0.333077918  0.833577520
     0.167048798  0.666814347  0.166511700
     0.167088839  0.666495514  0.499828111
     0.166845923  0.666429123  0.833041983
     0.500148154  0.000305070  0.167106741
     0.500111105  0.999810299  0.500190062
     0.499744585  0.999269148  0.833577520
     0.500590105  0.333923438  0.167659599
     0.499972610  0.333305943  0.504502736
     0.499105381  0.332438714  0.834502035
     0.500464536  0.666777974  0.166546102
     0.502233259  0.665106154  0.498855339
     0.500370340  0.665252619  0.832103305
     0.833481013  0.000382131  0.166511700
     0.833162180  0.000422172  0.499828111
     0.833095789  0.000179256  0.833041983
     0.833444640  0.333797869  0.166546102
     0.831772820  0.335566592  0.498855339
     0.831919285  0.333703673  0.832103305
     0.833471016  0.666804350  0.166474988
     0.833399740  0.666733074  0.500180326
     0.833309017  0.666642351  0.832802347
     0.999958869  0.167069772  0.166707798
     0.999929012  0.166817724  0.499851557
     0.999233094  0.166910717  0.833089283
     0.000759541  0.500218884  0.165907126
     0.999616056  0.500394169  0.499605831
     0.999929012  0.500148443  0.833182276
     0.000232818  0.833566151  0.166433849
     0.000759541  0.834092874  0.499781116
     0.999958869  0.833292202  0.832930228
     0.333577383  0.166910717  0.167433573
     0.332583908  0.165917242  0.500704367
     0.332705008  0.166038342  0.833961658
     0.333484390  0.500148443  0.166737655
     0.334013988  0.499697665  0.500302335
     0.332583908  0.499295633  0.834082758
     0.333736438  0.833292202  0.166707798
     0.333484390  0.833262345  0.499851557
     0.333577383  0.832566427  0.833089283
     0.666815110  0.166817724  0.166737655
     0.666364332  0.167347322  0.500302335
     0.665962300  0.165917242  0.834082758
     0.667060836  0.500394169  0.167050611
     0.666364332  0.499697665  0.832652678
     0.666885551  0.834092874  0.165907126
     0.667060836  0.832949389  0.499605831
     0.666815110  0.833262345  0.833182276
     0.575124656  0.408457990  0.591542010

  ion indices of the primitive-cell ions
   primitive index   ion index
                 1           1
                 2           2
                 3           3
                 4           4
                 5           5
                 6           6
                 7           7
                 8           8
                 9           9
                10          10
                11          11
                12          12
                13          13
                14          14
                15          15
                16          16
                17          17
                18          18
                19          19
                20          20
                21          21
                22          22
                23          23
                24          24
                25          25
                26          26
                27          27
                28          28
                29          29
                30          30
                31          31
                32          32
                33          33
                34          34
                35          35
                36          36
                37          37
                38          38
                39          39
                40          40
                41          41
                42          42
                43          43
                44          44
                45          45
                46          46
                47          47
                48          48
                49          49
                50          50
                51          51
                52          52
                53          53
                54          54
                55          55
                56          56
                57          57
                58          58
                59          59
                60          60
                61          61
                62          62
                63          63
                64          64
                65          65
                66          66
                67          67
                68          68
                69          69
                70          70
                71          71
                72          72
                73          73
                74          74
                75          75
                76          76
                77          77
                78          78
                79          79
                80          80
                81          81
                82          82
                83          83
                84          84
                85          85
                86          86
                87          87
                88          88
                89          89
                90          90
                91          91
                92          92
                93          93
                94          94
                95          95
                96          96
                97          97
                98          98
                99          99
               100         100
               101         101
               102         102
               103         103
               104         104
               105         105
               106         106
               107         107
               108         108
               109         109
               110         110
               111         111
               112         112
               113         113
               114         114
               115         115
               116         116
               117         117
               118         118
               119         119
               120         120
               121         121
               122         122
               123         123
               124         124
               125         125
               126         126
               127         127
               128         128
               129         129
               130         130
               131         131
               132         132
               133         133
               134         134
               135         135
               136         136
               137         137
               138         138
               139         139
               140         140
               141         141
               142         142
               143         143
               144         144
               145         145
               146         146
               147         147
               148         148
               149         149
               150         150
               151         151
               152         152
               153         153
               154         154
               155         155
               156         156
               157         157
               158         158
               159         159
               160         160
               161         161
               162         162
               163         163
               164         164
               165         165
               166         166
               167         167
               168         168
               169         169
               170         170
               171         171
               172         172
               173         173
               174         174
               175         175
               176         176
               177         177
               178         178
               179         179
               180         180
               181         181
               182         182
               183         183
               184         184
               185         185
               186         186
               187         187
               188         188
               189         189
               190         190
               191         191
               192         192
               193         193
               194         194
               195         195
               196         196
               197         197
               198         198
               199         199
               200         200
               201         201
               202         202
               203         203
               204         204
               205         205
               206         206
               207         207
               208         208
               209         209
               210         210
               211         211
               212         212
               213         213
               214         214
               215         215

----------------------------------------------------------------------------------------

 
 
 KPOINTS: Gamma-point                             

Automatic generation of k-mesh.
 Grid dimensions read from file:
 generate k-points for:    1    1    1

 Generating k-lattice:

  Cartesian coordinates                     Fractional coordinates (reciprocal lattice)
     0.093273697  0.000000000  0.000000000     1.000000000  0.000000000  0.000000000
     0.000000000  0.093273697  0.000000000     0.000000000  1.000000000  0.000000000
     0.000000000  0.000000000  0.093273697     0.000000000  0.000000000  1.000000000

  Length of vectors
     0.093273697  0.093273697  0.093273697

  Shift w.r.t. Gamma in fractional coordinates (k-lattice)
     0.000000000  0.000000000  0.000000000

 
 Subroutine IBZKPT returns following result:
 ===========================================
 
 Found      1 irreducible k-points:
 
 Following reciprocal coordinates:
            Coordinates               Weight
  0.000000  0.000000  0.000000      1.000000
 
 Following cartesian coordinates:
            Coordinates               Weight
  0.000000  0.000000  0.000000      1.000000
 


--------------------------------------------------------------------------------------------------------




 Dimension of arrays:
   k-points           NKPTS =      1   k-points in BZ     NKDIM =      1   number of bands    NBANDS=    540
   number of dos      NEDOS =    301   number of ions     NIONS =    215
   non local maximal  LDIM  =      4   non local SUM 2l+1 LMDIM =      8
   total plane-waves  NPLWV = 216000
   max r-space proj   IRMAX =   1560   max aug-charges    IRDMAX=   2356
   dimension x,y,z NGX =    60 NGY =   60 NGZ =   60
   dimension x,y,z NGXF=   120 NGYF=  120 NGZF=  120
   support grid    NGXF=   120 NGYF=  120 NGZF=  120
   ions per type =             214   1
   NGX,Y,Z   is equivalent  to a cutoff of   9.30,  9.30,  9.30 a.u.
   NGXF,Y,Z  is equivalent  to a cutoff of  18.61, 18.61, 18.61 a.u.

 SYSTEM =  unknown system                          
 POSCAR =  C  N                                    

 Startparameter for this run:
   NWRITE =      2    write-flag & timer
   PREC   = normal    normal or accurate (medium, high low for compatibility)
   ISTART =      0    job   : 0-new  1-cont  2-samecut
   ICHARG =      2    charge: 1-file 2-atom 10-const
   ISPIN  =      2    spin polarized calculation?
   LNONCOLLINEAR =      F non collinear calculations
   LSORBIT =      F    spin-orbit coupling
   INIWAV =      1    electr: 0-lowe 1-rand  2-diag
   LASPH  =      F    aspherical Exc in radial PAW
 Electronic Relaxation 1
   ENCUT  =  500.0 eV  36.75 Ry    6.06 a.u.  19.55 19.55 19.55*2*pi/ulx,y,z
   ENINI  =  500.0     initial cutoff
   ENAUG  =  644.9 eV  augmentation charge cutoff
   NELM   =    100;   NELMIN=  2; NELMDL= -5     # of ELM steps 
   EDIFF  = 0.1E-05   stopping-criterion for ELM
   LREAL  =      T    real-space projection
   NLSPLINE    = F    spline interpolate recip. space projectors
   LCOMPAT=      F    compatible to vasp.4.4
   GGA_COMPAT  = T    GGA compatible to vasp.4.4-vasp.4.6
   LMAXPAW     = -100 max onsite density
   LMAXMIX     =    2 max onsite mixed and CHGCAR
   VOSKOWN=      0    Vosko Wilk Nusair interpolation
   ROPT   =   -0.00050  -0.00050
 Ionic relaxation
   EDIFFG = -.1E-01   stopping-criterion for IOM
   NSW    =      0    number of steps for IOM
   NBLOCK =      1;   KBLOCK =      1    inner block; outer block 
   IBRION =     -1    ionic relax: 0-MD 1-quasi-New 2-CG
   NFREE  =      1    steps in history (QN), initial steepest desc. (CG)
   ISIF   =      2    stress and relaxation
   IWAVPR =     10    prediction:  0-non 1-charg 2-wave 3-comb
   ISYM   =      2    0-nonsym 1-usesym 2-fastsym
   LCORR  =      T    Harris-Foulkes like correction to forces

   POTIM  = 0.5000    time-step for ionic-motion
   TEIN   =    0.0    initial temperature
   TEBEG  =    0.0;   TEEND  =   0.0 temperature during run
   SMASS  =  -3.00    Nose mass-parameter (am)
   estimated Nose-frequenzy (Omega)   =  0.10E-29 period in steps = 0.13E+47 mass=  -0.263E-26a.u.
   SCALEE = 1.0000    scale energy and forces
   NPACO  =    256;   APACO  = 10.0  distance and # of slots for P.C.
   PSTRESS=    0.0 pullay stress

  Mass of Ions in am
   POMASS =  12.01 14.00
  Ionic Valenz
   ZVAL   =   4.00  5.00
  Atomic Wigner-Seitz radii
   RWIGS  =  -1.00 -1.00
  virtual crystal weights 
   VCA    =   1.00  1.00
   NELECT =     862.0000    total number of electrons
   NUPDOWN=       2.0000    fix difference up-down

 DOS related values:
   EMIN   =  10.00;   EMAX   =-10.00  energy-range for DOS
   EFERMI =   0.00;   METHOD = LEGACY      
   ISMEAR =    -2;   SIGMA  =   0.01  broadening in eV -4-tet -1-fermi 0-gaus
   EFERMI_NEDOS =   21; number of points for ismear=-14 and -15

 Electronic relaxation 2 (details)
   IALGO  =     38    algorithm
   LDIAG  =      T    sub-space diagonalisation (order eigenvalues)
   LSUBROT=      F    optimize rotation matrix (better conditioning)
   LROBUST=      F    robust break criterion during scf (extrapolated energy error)
   ISEARCH=      0    line search for conjugate gradient (0, 1=use gradient)
   TURBO    =      0    0=normal 1=particle mesh
   IRESTART =      0    0=no restart 2=restart with 2 vectors
   NREBOOT  =      0    no. of reboots
   NMIN     =      0    reboot dimension
   EREF     =   0.00    reference energy to select bands
   IMIX   =      4    mixing-type and parameters
     AMIX     =   0.40;   BMIX     =  1.00
     AMIX_MAG =   1.60;   BMIX_MAG =  1.00
     AMIN     =   0.10
     WC   =   100.;   INIMIX=   1;  MIXPRE=   1;  MAXMIX= -45

 Intra band minimization:
   WEIMIN = 0.0000     energy-eigenvalue tresh-hold
   EBREAK =  0.46E-09  absolut break condition
   DEPER  =   0.30     relativ break condition  

   TIME   =   0.40     timestep for ELM

  volume/ion in A,a.u.               =       5.73        38.68
  Fermi-wavevector in a.u.,A,eV,Ry     =   1.453237  2.746220 28.734113  2.111898
  Thomas-Fermi vector in A             =   2.570527
 
 Write flags
   LWAVE        =      F    write WAVECAR
   LDOWNSAMPLE  =      F    k-point downsampling of WAVECAR
   LCHARG       =      F    write CHGCAR
   LVTOT        =      F    write LOCPOT, total local potential
   LVHAR        =      F    write LOCPOT, Hartree potential only
   WRT_POTENTIAL= false  ! write potential to hdf5 file
   LELF         =      F    write electronic localiz. function (ELF)
   LORBIT       =     10    0 simple, 1 ext, 2 COOP (PROOUT), +10 PAW based schemes


 Python interface
   PLUGINS active      =      F    recompile with -DPLUGINS to activate
 
 Dipole corrections
   LMONO      =      F    monopole corrections only (constant potential shift)
   LDIPOL     =      F    correct potential (dipole corrections)
   IDIPOL     =      0    1-x, 2-y, 3-z, 4-all directions 
   EPSILON    =  1.0000000 bulk dielectric constant
   LVACPOTAV  =      F  vacuum potentials using an averaging scheme for the charge density
   VACPOTFLAT =  0.1000000 required flatness to determine vacuum potential
 
Coulomb truncation method
  LTRUNCATE          =      F  Coulomb kernel truncation to be used

 
 Exchange correlation treatment:
   GGA     = PE    functional components
   XC_C    = 1    coefficients multiplying the functional components
   LIBXC   =     F    Libxc                    
   VOSKOWN =     0    Vosko Wilk Nusair interpolation
   LHFCALC =     F    Hartree Fock is set to
   LHFONE  =     F    Hartree Fock one center treatment
   AEXX    =    0.0000 exact exchange contribution

 Parameters of functionals:
   PE:
     No parameter
 
 Van der Waals corrections
   IVDW    =     0    specifies the selected vdW correction

 Linear response parameters
   LEPSILON=     F    determine dielectric tensor
   LRPA    =     F    only Hartree local field effects (RPA)
   LNABLA  =     F    use nabla operator in PAW spheres
   LVEL    =     F    velocity operator in full k-point grid
   CSHIFT  =0.1000    complex shift for real part using Kramers Kronig
   OMEGAMAX=  -1.0    maximum frequency
   DEG_THRESHOLD= 0.2000000E-02 threshold for treating states as degnerate
   RTIME   =   -0.100 relaxation time in fs
  (WPLASMAI=    0.000 imaginary part of plasma frequency in eV, 0.658/RTIME)
   DFIELD  = 0.0000000 0.0000000 0.0000000 field for delta impulse in time
 
  Optional k-point grid parameters
   LKPOINTS_OPT  =     F    use optional k-point grid
   KPOINTS_OPT_MODE=     1    mode for optional k-point grid
 
 Orbital magnetization related:
   ORBITALMAG=     F  switch on orbital magnetization
   LCHIMAG   =     F  perturbation theory with respect to B field
   DQ        =  0.001000  dq finite difference perturbation B field
   LLRAUG    =     F  two centre corrections for induced B field
   LBONE     =     F  B-component reconstruction in AE one-centre
   LVGVCALC  =     T  calculate vGv susceptibility
   LVGVAPPL  =     F  apply vGv susceptibility instead of pGv for G=0

 Random number generation:
   RANDOM_GENERATOR = DEFAULT
   PCG_SEED         = not used


--------------------------------------------------------------------------------------------------------


 Static calculation
 charge density and potential will be updated during run
 spin polarized calculation
 Variant of blocked Davidson
 Davidson routine will perform the subspace rotation
 perform sub-space diagonalisation
    after iterative eigenvector-optimisation
 modified Broyden-mixing scheme, WC =      100.0
 initial mixing is a Kerker type mixing with AMIX =  0.4000 and BMIX =      1.0000
 Hartree-type preconditioning will be used
 using additional bands          109
 real space projection scheme for non local part
 use partial core corrections
 calculate Harris-corrections to forces 
   (improved forces if not selfconsistent)
 use gradient corrections 
 use of overlap-Matrix (Vanderbilt PP)
 partial occupancies read from INCAR or WAVECAR (fixed during run)


--------------------------------------------------------------------------------------------------------


  energy-cutoff  :      500.00
  volume of cell :     1232.32
      direct lattice vectors                 reciprocal lattice vectors
    10.721136093  0.000000000  0.000000000     0.093273697  0.000000000  0.000000000
     0.000000000 10.721136093  0.000000000     0.000000000  0.093273697  0.000000000
     0.000000000  0.000000000 10.721136093     0.000000000  0.000000000  0.093273697

  length of vectors
    10.721136093 10.721136093 10.721136093     0.093273697  0.093273697  0.093273697


 
 k-points in units of 2pi/SCALE and weight: Gamma-point                             
   0.00000000  0.00000000  0.00000000       1.000
 
 k-points in reciprocal lattice and weights: Gamma-point                             
   0.00000000  0.00000000  0.00000000       1.000
 
 position of ions in fractional coordinates (direct lattice) 
   0.08321931  0.08347748  0.08344736
   0.08348747  0.08348358  0.41678358
   0.08269672  0.08330553  0.75001175
   0.08362045  0.41687451  0.08304622
   0.08336942  0.41697836  0.41668405
   0.08281204  0.41662053  0.74984473
   0.08355419  0.75008257  0.08311248
   0.08380269  0.75022570  0.41642145
   0.08349177  0.74980242  0.74968325
   0.41665492  0.08330553  0.08396995
   0.41676567  0.08349479  0.41724733
   0.41603890  0.08235838  0.75062777
   0.41682193  0.41662053  0.08385463
   0.41861105  0.41744478  0.41866573
   0.41500507  0.41574983  0.75166160
   0.41698341  0.74980242  0.08317489
   0.41670146  0.75031195  0.41686227
   0.41722159  0.74898521  0.74944508
   0.74988308  0.08348358  0.08317920
   0.74991048  0.08390643  0.41675618
   0.74941934  0.08349479  0.74990099
   0.74998262  0.41697836  0.08329725
   0.75621810  0.41338068  0.41044857
   0.74800094  0.41744478  0.74805562
   0.75024522  0.75022570  0.08286397
   0.75033859  0.74993423  0.41632807
   0.74980440  0.75031195  0.74996520
   0.24997220  0.24998825  0.08396995
   0.25016146  0.25009901  0.41724733
   0.24902504  0.24937223  0.75062777
   0.25015024  0.58321642  0.08317920
   0.25057310  0.58324382  0.41675618
   0.25016146  0.58275267  0.74990099
   0.25014415  0.91655264  0.08344736
   0.25015024  0.91682080  0.41678358
   0.24997220  0.91603005  0.75001175
   0.58328719  0.25015527  0.08385463
   0.58411144  0.25194438  0.41866573
   0.58241650  0.24833840  0.75166160
   0.58364502  0.58331595  0.08329725
   0.58004735  0.58955143  0.41044857
   0.58411144  0.58133427  0.74805562
   0.58354118  0.91695378  0.08304622
   0.58364502  0.91670275  0.41668405
   0.58328719  0.91614537  0.74984473
   0.91646908  0.25031675  0.08317489
   0.91697862  0.25003480  0.41686227
   0.91565188  0.25055492  0.74944508
   0.91689237  0.58357855  0.08286397
   0.91660089  0.58367193  0.41632807
   0.91697862  0.58313773  0.74996520
   0.91674924  0.91688752  0.08311248
   0.91689237  0.91713603  0.41642145
   0.91646908  0.91682511  0.74968325
   0.25021573  0.08354906  0.25037628
   0.24945937  0.08279270  0.58366981
   0.24959795  0.08293128  0.91706872
   0.25070909  0.41689935  0.25069763
   0.24983122  0.41635747  0.58364253
   0.24945937  0.41633019  0.91720730
   0.25042982  0.75004386  0.24995614
   0.25070909  0.74930237  0.58310065
   0.25021573  0.74962372  0.91645094
   0.58356602  0.08404242  0.25069763
   0.58302414  0.08316455  0.58364253
   0.58299685  0.08279270  0.91720730
   0.58412071  0.41745405  0.25102038
   0.58302414  0.41635747  0.91683545
   0.58417322  0.75116027  0.24883973
   0.58412071  0.74897962  0.58254595
   0.58356602  0.74930237  0.91595758
   0.91671053  0.08376316  0.24995614
   0.91596903  0.08404242  0.58310065
   0.91629039  0.08354906  0.91645094
   0.91782694  0.41750656  0.24883973
   0.91564629  0.41745405  0.58254595
   0.91596903  0.41689935  0.91595758
   0.91694272  0.75027605  0.24972395
   0.91782694  0.75116027  0.58249344
   0.91671053  0.75004386  0.91623684
   0.08349177  0.25031675  0.25019758
   0.08281204  0.25015527  0.58337947
   0.08269672  0.24998825  0.91669447
   0.08380269  0.58357855  0.24977430
   0.08336942  0.58331595  0.58302164
   0.08348747  0.58321642  0.91651642
   0.08355419  0.91688752  0.24991743
   0.08362045  0.91695378  0.58312549
   0.08321931  0.91655264  0.91652252
   0.41722159  0.25055492  0.25101479
   0.41500507  0.24833840  0.58425017
   0.41603890  0.24937223  0.91764162
   0.41670146  0.58313773  0.24968805
   0.41861105  0.58133427  0.58255522
   0.41676567  0.58275267  0.91650521
   0.41698341  0.91682511  0.25019758
   0.41682193  0.91614537  0.58337947
   0.41665492  0.91603005  0.91669447
   0.74980440  0.25003480  0.24968805
   0.74800094  0.25194438  0.58255522
   0.74941934  0.25009901  0.91650521
   0.75033859  0.58367193  0.25006577
   0.75621810  0.58955143  0.58661932
   0.74991048  0.58324382  0.91609357
   0.75024522  0.91713603  0.24977430
   0.74998262  0.91670275  0.58302164
   0.74988308  0.91682080  0.91651642
   0.99989656  0.00016734  0.99983266
   0.00015497  0.00038213  0.33318565
   0.99955993  0.00030507  0.66651851
   0.99955993  0.33348149  0.99969493
   0.00012056  0.33379787  0.33322203
   0.99900707  0.33392344  0.66607656
   0.00015497  0.66681435  0.99961787
   0.00019168  0.66680435  0.33319565
   0.00012056  0.66677797  0.66620213
   0.33331136  0.99969523  0.00030477
   0.33362468  0.00017926  0.33357088
   0.33308915  0.99926915  0.66692208
   0.33308915  0.33307792  0.00073085
   0.33456336  0.33370367  0.33474738
   0.33216463  0.33243871  0.66756129
   0.33362468  0.66642912  0.99982074
   0.33386432  0.66664235  0.33335765
   0.33456336  0.66525262  0.66629633
   0.66659961  0.00001130  0.99998870
   0.66683856  0.00042217  0.33350449
   0.66647660  0.99981030  0.66655556
   0.66647660  0.33344444  0.00018970
   0.66781133  0.33556659  0.33489385
   0.66216393  0.33330594  0.66669406
   0.66683856  0.66649551  0.99957783
   0.66648634  0.66673307  0.33326693
   0.66781133  0.66510615  0.66443341
   0.16636190  0.16664470  0.00030477
   0.16684592  0.16695802  0.33357088
   0.16593582  0.16642248  0.66692208
   0.16667797  0.49993294  0.99998870
   0.16708884  0.50017189  0.33350449
   0.16647697  0.49980994  0.66655556
   0.16683401  0.83322989  0.99983266
   0.16704880  0.83348830  0.33318565
   0.16697174  0.83289326  0.66651851
   0.49974459  0.16642248  0.00073085
   0.50037034  0.16789670  0.33474738
   0.49910538  0.16549797  0.66756129
   0.50011110  0.49980994  0.00018970
   0.50223326  0.50114466  0.33489385
   0.49997261  0.49549726  0.66669406
   0.50014815  0.83289326  0.99969493
   0.50046454  0.83345390  0.33322203
   0.50059011  0.83234040  0.66607656
   0.83309579  0.16695802  0.99982074
   0.83330902  0.16719765  0.33335765
   0.83191928  0.16789670  0.66629633
   0.83316218  0.50017189  0.99957783
   0.83339974  0.49981967  0.33326693
   0.83177282  0.50114466  0.66443341
   0.83348101  0.83348830  0.99961787
   0.83347102  0.83352501  0.33319565
   0.83344464  0.83345390  0.66620213
   0.16683401  0.00016734  0.16677011
   0.16667797  0.00001130  0.50006706
   0.16636190  0.99969523  0.83335530
   0.16697174  0.33348149  0.16710674
   0.16647697  0.33344444  0.50019006
   0.16593582  0.33307792  0.83357752
   0.16704880  0.66681435  0.16651170
   0.16708884  0.66649551  0.49982811
   0.16684592  0.66642912  0.83304198
   0.50014815  0.00030507  0.16710674
   0.50011110  0.99981030  0.50019006
   0.49974459  0.99926915  0.83357752
   0.50059011  0.33392344  0.16765960
   0.49997261  0.33330594  0.50450274
   0.49910538  0.33243871  0.83450203
   0.50046454  0.66677797  0.16654610
   0.50223326  0.66510615  0.49885534
   0.50037034  0.66525262  0.83210330
   0.83348101  0.00038213  0.16651170
   0.83316218  0.00042217  0.49982811
   0.83309579  0.00017926  0.83304198
   0.83344464  0.33379787  0.16654610
   0.83177282  0.33556659  0.49885534
   0.83191928  0.33370367  0.83210330
   0.83347102  0.66680435  0.16647499
   0.83339974  0.66673307  0.50018033
   0.83330902  0.66664235  0.83280235
   0.99995887  0.16706977  0.16670780
   0.99992901  0.16681772  0.49985156
   0.99923309  0.16691072  0.83308928
   0.00075954  0.50021888  0.16590713
   0.99961606  0.50039417  0.49960583
   0.99992901  0.50014844  0.83318228
   0.00023282  0.83356615  0.16643385
   0.00075954  0.83409287  0.49978112
   0.99995887  0.83329220  0.83293023
   0.33357738  0.16691072  0.16743357
   0.33258391  0.16591724  0.50070437
   0.33270501  0.16603834  0.83396166
   0.33348439  0.50014844  0.16673766
   0.33401399  0.49969767  0.50030233
   0.33258391  0.49929563  0.83408276
   0.33373644  0.83329220  0.16670780
   0.33348439  0.83326234  0.49985156
   0.33357738  0.83256643  0.83308928
   0.66681511  0.16681772  0.16673766
   0.66636433  0.16734732  0.50030233
   0.66596230  0.16591724  0.83408276
   0.66706084  0.50039417  0.16705061
   0.66636433  0.49969767  0.83265268
   0.66688555  0.83409287  0.16590713
   0.66706084  0.83294939  0.49960583
   0.66681511  0.83326234  0.83318228
   0.57512466  0.40845799  0.59154201
 
 position of ions in cartesian coordinates  (Angst):
   0.89220553  0.89497341  0.89465048
   0.89508053  0.89503880  4.46839352
   0.88660275  0.89312991  8.04097805
   0.89650618  4.46936836  0.89034982
   0.89381491  4.47048173  4.46732637
   0.88783912  4.46664537  8.03918742
   0.89579585  8.04173736  0.89106016
   0.89846009  8.04327188  4.46451104
   0.89512666  8.03873374  8.03745617
   4.46701406  0.89312991  0.90025326
   4.46820152  0.89515901  4.47336543
   4.46040966  0.88297535  8.04758245
   4.46880469  4.46664537  0.89901689
   4.48798604  4.47548227  4.48857222
   4.44932581  4.45731056  8.05866631
   4.47053594  8.03873374  0.89172935
   4.46751311  8.04419654  4.46923708
   4.47308940  8.02997240  8.03490271
   8.03959860  0.89503880  0.89177548
   8.03989236  0.89957230  4.46809975
   8.03462668  0.89515901  8.03979060
   8.04066574  4.47048173  0.89304110
   8.10751715  4.43191055  4.40047497
   8.01941989  4.47548227  8.02000607
   8.04348107  8.04327188  0.88839592
   8.04448216  8.04014690  4.46350995
   8.03875503  8.04419654  8.04047900
   2.67998593  2.68015804  0.90025326
   2.68201503  2.68134550  4.47336543
   2.66983137  2.67355364  8.04758245
   2.68189482  6.25274258  0.89177548
   2.68642831  6.25303634  4.46809975
   2.68201503  6.24777066  8.03979060
   2.68182943  9.82648561  0.89465048
   2.68189482  9.82936062  4.46839352
   2.67998593  9.82088283  8.04097805
   6.25350138  2.68194867  0.89901689
   6.26233828  2.70113003  4.48857222
   6.24416657  2.66246979  8.05866631
   6.25733774  6.25380973  0.89304110
   6.21876656  6.32066113  4.40047497
   6.26233828  6.23256387  8.02000607
   6.25622437  9.83078627  0.89034982
   6.25733774  9.82809499  4.46732637
   6.25350138  9.82211920  8.03918742
   9.82558976  2.68367992  0.89172935
   9.83105256  2.68065709  4.46923708
   9.81682842  2.68623338  8.03490271
   9.83012789  6.25662505  0.88839592
   9.82700291  6.25762614  4.46350995
   9.83105256  6.25189901  8.04047900
   9.82859338  9.83007593  0.89106016
   9.83012789  9.83274017  4.46451104
   9.82558976  9.82940674  8.03745617
   2.68259684  0.89574082  2.68431819
   2.67448787  0.88763185  6.25760348
   2.67597355  0.88911753  9.83201856
   2.68788624  4.46963470  2.68776344
   2.67847447  4.46382512  6.25731097
   2.67448787  4.46353261  9.83350424
   2.68489222  8.04132229  2.67981380
   2.68788624  8.03337265  6.25150139
   2.68259684  8.03681791  9.82539527
   6.25649071  0.90103022  2.68776344
   6.25068113  0.89161845  6.25731097
   6.25038862  0.88763185  9.83350424
   6.26243765  4.47558164  2.69122366
   6.25068113  4.46382512  9.82951764
   6.26300064  8.05329150  2.66784460
   6.26243765  8.02991243  6.24555446
   6.25649071  8.03337265  9.82010587
   9.82817831  0.89803620  2.67981380
   9.82022867  0.90103022  6.25150139
   9.82367392  0.89574082  9.82539527
   9.84014752  4.47614463  2.66784460
   9.81676845  4.47558164  6.24555446
   9.82022867  4.46963470  9.82010587
   9.83066768  8.04381166  2.67732443
   9.84014752  8.05329150  6.24499146
   9.82817831  8.04132229  9.82309989
   0.89512666  2.68367992  2.68240235
   0.88783912  2.68194867  6.25449072
   0.88660275  2.68015804  9.82800619
   0.89846009  6.25662505  2.67786422
   0.89381491  6.25380973  6.25065437
   0.89508053  6.25274258  9.82609730
   0.89579585  9.83007593  2.67939873
   0.89650618  9.83078627  6.25176773
   0.89220553  9.82648561  9.82616268
   4.47308940  2.68623338  2.69116369
   4.44932581  2.66246979  6.26382554
   4.46040966  2.67355364  9.83816074
   4.46751311  6.25189901  2.67693955
   4.48798604  6.23256387  6.24565382
   4.46820152  6.24777066  9.82597708
   4.47053594  9.82940674  2.68240235
   4.46880469  9.82211920  6.25449072
   4.46701406  9.82088283  9.82800619
   8.03875503  2.68065709  2.67693955
   8.01941989  2.70113003  6.24565382
   8.03462668  2.68134550  9.82597708
   8.04448216  6.25762614  2.68098920
   8.10751715  6.32066113  6.28922554
   8.03989236  6.25303634  9.82156380
   8.04348107  9.83274017  2.67786422
   8.04066574  9.82809499  6.25065437
   8.03959860  9.82936062  9.82609730
  10.72002712  0.00179413 10.71934196
   0.00166143  0.00409688  3.57212873
  10.71641800  0.00327070  7.14583569
  10.71641800  3.57530040 10.71786539
   0.00129259  3.57869238  3.57251869
  10.71049073  3.58003862  7.14109747
   0.00166143  7.14900736 10.71703921
   0.00205501  7.14890018  3.57223591
   0.00129259  7.14861740  7.14244371
   3.57347647 10.71786861  0.00326748
   3.57683563  0.00192183  3.57625877
   3.57109406 10.71330053  7.15016240
   3.57109406  3.57097369  0.00783556
   3.58689933  3.57768250  3.58887223
   3.56118222  3.56412069  7.15701540
   3.57683563  7.14487732 10.71921426
   3.57940480  7.14716337  3.57397272
   3.58689933  7.13226386  7.14345360
   7.14670515  0.00012118 10.72101491
   7.14926691  0.00452616  3.57554699
   7.14538638 10.71910228  7.14623289
   7.14538638  3.57490320  0.00203381
   7.15969613  3.59765510  3.59044250
   7.09914962  3.57341837  7.14771772
   7.14926691  7.14558911 10.71660993
   7.14549077  7.14813602  3.57300007
   7.15969613  7.13069359  7.12348099
   1.78358854  1.78662046  0.00326748
   1.78877785  1.78997962  3.57625877
   1.77902046  1.78423805  7.15016240
   1.78697720  5.35984913 10.72101491
   1.79138218  5.36241089  3.57554699
   1.78482221  5.35853036  7.14623289
   1.78865015  8.93317110 10.71934196
   1.79095290  8.93594150  3.57212873
   1.79012672  8.92956198  7.14583569
   5.35782971  1.78423805  0.00783556
   5.36453851  1.80004332  3.58887223
   5.35097671  1.77432621  7.15701540
   5.36175922  5.35853036  0.00203381
   5.38451112  5.37284011  3.59044250
   5.36027439  5.31229360  7.14771772
   5.36215642  8.92956198 10.71786539
   5.36554840  8.93557266  3.57251869
   5.36689464  8.92363472  7.14109747
   8.93173333  1.78997962 10.71921426
   8.93401938  1.79254879  3.57397272
   8.91911987  1.80004332  7.14345360
   8.93244511  5.36241089 10.71660993
   8.93499203  5.35863475  3.57300007
   8.91754960  5.37284011  7.12348099
   8.93586337  8.93594150 10.71703921
   8.93575619  8.93633509  3.57223591
   8.93547341  8.93557266  7.14244371
   1.78865015  0.00179413  1.78796499
   1.78697720  0.00012118  5.36128696
   1.78358854 10.71786861  8.93451563
   1.79012672  3.57530040  1.79157411
   1.78482221  3.57490320  5.36260573
   1.77902046  3.57097369  8.93689804
   1.79095290  7.14900736  1.78519459
   1.79138218  7.14558911  5.35872521
   1.78877785  7.14487732  8.93115647
   5.36215642  0.00327070  1.79157411
   5.36175922 10.71910228  5.36260573
   5.35782971 10.71330053  8.93689804
   5.36689464  3.58003862  1.79750138
   5.36027439  3.57341837  5.40884249
   5.35097671  3.56412069  8.94680988
   5.36554840  7.14861740  1.78556343
   5.38451112  7.13069359  5.34829598
   5.36453851  7.13226386  8.92109277
   8.93586337  0.00409688  1.78519459
   8.93244511  0.00452616  5.35872521
   8.93173333  0.00192183  8.93115647
   8.93547341  3.57869238  1.78556343
   8.91754960  3.59765510  5.34829598
   8.91911987  3.57768250  8.92109277
   8.93575619  7.14890018  1.78480101
   8.93499203  7.14813602  5.36250134
   8.93401938  7.14716337  8.92858730
  10.72069513  1.79117776  1.78729699
  10.72037502  1.78847552  5.35897657
  10.71291399  1.78947252  8.93166358
   0.00814314  5.36291473  1.77871288
  10.71701977  5.36479399  5.35634211
  10.72037502  5.36215952  8.93266057
   0.00249607  8.93677614  1.78435995
   0.00814314  8.94242321  5.35822136
  10.72069513  8.93383911  8.92995833
   3.57632853  1.78947252  1.79507812
   3.56567734  1.77882133  5.36811966
   3.56697567  1.78011967  8.94101643
   3.57533153  5.36215952  1.78761710
   3.58100942  5.35732668  5.36380942
   3.56567734  5.35301643  8.94231477
   3.57803377  8.93383911  1.78729699
   3.57533153  8.93351900  5.35897657
   3.57632853  8.92605797  8.93166358
   7.14901554  1.78847552  1.78761710
   7.14418269  1.79415341  5.36380942
   7.13987245  1.77882133  8.94231477
   7.15165000  5.36479399  1.79097234
   7.14418269  5.35732668  8.92698268
   7.14977075  8.94242321  1.77871288
   7.15165000  8.93016375  5.35634211
   7.14901554  8.93351900  8.93266057
   6.16598971  4.37913370  6.34200239
 


--------------------------------------------------------------------------------------------------------


 k-point     1 :   0.0000 0.0000 0.0000  plane waves:   31439

 maximum and minimum number of plane-waves per node :      4492     4489

 maximum number of plane-waves:     31439
 maximum index in each direction: 
   IXMAX=   19   IYMAX=   19   IZMAX=   19
   IXMIN=  -19   IYMIN=  -19   IZMIN=  -19


 real space projection operators:
  total allocation   :       9958.31 KBytes
  max/ min on nodes  :       1503.44       1320.88


 parallel 3D FFT for wavefunctions:
    minimum data exchange during FFTs selected (reduces bandwidth)
 parallel 3D FFT for charge:
    minimum data exchange during FFTs selected (reduces bandwidth)


 total amount of memory used by VASP MPI-rank0    69876. kBytes
=======================================================================

   base                                    :      30000. kBytes
   nonlr-proj                              :       7389. kBytes
   fftplans                                :       3375. kBytes
   grid                                    :       8446. kBytes
   one-center                              :        190. kBytes
   wavefun                                 :      20476. kBytes
 
     INWAV:  cpu time      0.0000: real time      0.0003
 Broyden mixing: mesh for mixing (old mesh)
   NGX = 39   NGY = 39   NGZ = 39
  (NGX  =120   NGY  =120   NGZ  =120)
  gives a total of  59319 points

 initial charge density was supplied:
 charge density of overlapping atoms calculated
 number of electron     861.0000000 magnetization       2.0000000
 keeping initial charge density in first step


--------------------------------------------------------------------------------------------------------


 Maximum index for non-local projection operator          180
 Maximum index for augmentation-charges          191 (set IRDMAX)


--------------------------------------------------------------------------------------------------------


 First call to EWALD:  gamma=   0.165
 Maximum number of real-space cells   3x   3x   3
 Maximum number of reciprocal cells   3x   3x   3

    FEWALD:  cpu time      0.0512: real time      0.0513


--------------------------------------- Ionic step        1  -------------------------------------------




--------------------------------------- Iteration      1(   1)  ---------------------------------------


    POTLOK:  cpu time      0.0939: real time      0.0948
    SETDIJ:  cpu time      0.0212: real time      0.0213
     EDDAV:  cpu time      6.3526: real time      6.4056
       DOS:  cpu time      0.0002: real time      0.0002
    --------------------------------------------
      LOOP:  cpu time      6.4680: real time      6.5219

 eigenvalue-minimisations  :  2160
 total energy-change (2. order) : 0.2958932E+04  (-0.4540988E+05)
 number of electron     861.0000000 magnetization       2.0000000
 augmentation part      861.0000000 magnetization       2.0000000

 Free energy of the ion-electron system (eV)
  ---------------------------------------------------
  alpha Z        PSCENC =      3085.66645011
  Ewald energy   TEWEN  =    -37259.75551720
  -Hartree energ DENC   =     -2023.90314033
  -exchange      EXHF   =         0.00000000
  -V(xc)+E(xc)   XCENC  =      2947.21854374
  PAW double counting   =     23428.64811967   -23551.69179075
  entropy T*S    EENTRO =         0.00000000
  eigenvalues    EBANDS =      4578.45244068
  atomic energy  EATOM  =     31754.29708746
  Solvation  Ediel_sol  =         0.00000000
  ---------------------------------------------------
  free energy    TOTEN  =      2958.93219339 eV

  energy without entropy =     2958.93219339  energy(sigma->0) =     2958.93219339


--------------------------------------------------------------------------------------------------------




--------------------------------------- Iteration      1(   2)  ---------------------------------------


     EDDAV:  cpu time      7.3669: real time      7.4309
       DOS:  cpu time      0.0003: real time      0.0003
    --------------------------------------------
      LOOP:  cpu time      7.3672: real time      7.4312

 eigenvalue-minimisations  :  2624
 total energy-change (2. order) :-0.4702726E+04  (-0.4507517E+04)
 number of electron     861.0000000 magnetization       2.0000000
 augmentation part      861.0000000 magnetization       2.0000000

 Free energy of the ion-electron system (eV)
  ---------------------------------------------------
  alpha Z        PSCENC =      3085.66645011
  Ewald energy   TEWEN  =    -37259.75551720
  -Hartree energ DENC   =     -2023.90314033
  -exchange      EXHF   =         0.00000000
  -V(xc)+E(xc)   XCENC  =      2947.21854374
  PAW double counting   =     23428.64811967   -23551.69179075
  entropy T*S    EENTRO =         0.00000000
  eigenvalues    EBANDS =      -124.27364652
  atomic energy  EATOM  =     31754.29708746
  Solvation  Ediel_sol  =         0.00000000
  ---------------------------------------------------
  free energy    TOTEN  =     -1743.79389381 eV

  energy without entropy =    -1743.79389381  energy(sigma->0) =    -1743.79389381


--------------------------------------------------------------------------------------------------------




--------------------------------------- Iteration      1(   3)  ---------------------------------------


     EDDAV:  cpu time      7.3295: real time      7.3905
       DOS:  cpu time      0.0002: real time      0.0002
    --------------------------------------------
      LOOP:  cpu time      7.3297: real time      7.3907

 eigenvalue-minimisations  :  2592
 total energy-change (2. order) :-0.2513872E+03  (-0.2488947E+03)
 number of electron     861.0000000 magnetization       2.0000000
 augmentation part      861.0000000 magnetization       2.0000000

 Free energy of the ion-electron system (eV)
  ---------------------------------------------------
  alpha Z        PSCENC =      3085.66645011
  Ewald energy   TEWEN  =    -37259.75551720
  -Hartree energ DENC   =     -2023.90314033
  -exchange      EXHF   =         0.00000000
  -V(xc)+E(xc)   XCENC  =      2947.21854374
  PAW double counting   =     23428.64811967   -23551.69179075
  entropy T*S    EENTRO =         0.00000000
  eigenvalues    EBANDS =      -375.66080889
  atomic energy  EATOM  =     31754.29708746
  Solvation  Ediel_sol  =         0.00000000
  ---------------------------------------------------
  free energy    TOTEN  =     -1995.18105618 eV

  energy without entropy =    -1995.18105618  energy(sigma->0) =    -1995.18105618


--------------------------------------------------------------------------------------------------------




--------------------------------------- Iteration      1(   4)  ---------------------------------------


     EDDAV:  cpu time      7.4330: real time      7.4967
       DOS:  cpu time      0.0003: real time      0.0003
    --------------------------------------------
      LOOP:  cpu time      7.4332: real time      7.4970

 eigenvalue-minimisations  :  2648
 total energy-change (2. order) :-0.6586334E+01  (-0.6566713E+01)
 number of electron     861.0000000 magnetization       2.0000000
 augmentation part      861.0000000 magnetization       2.0000000

 Free energy of the ion-electron system (eV)
  ---------------------------------------------------
  alpha Z        PSCENC =      3085.66645011
  Ewald energy   TEWEN  =    -37259.75551720
  -Hartree energ DENC   =     -2023.90314033
  -exchange      EXHF   =         0.00000000
  -V(xc)+E(xc)   XCENC  =      2947.21854374
  PAW double counting   =     23428.64811967   -23551.69179075
  entropy T*S    EENTRO =         0.00000000
  eigenvalues    EBANDS =      -382.24714281
  atomic energy  EATOM  =     31754.29708746
  Solvation  Ediel_sol  =         0.00000000
  ---------------------------------------------------
  free energy    TOTEN  =     -2001.76739010 eV

  energy without entropy =    -2001.76739010  energy(sigma->0) =    -2001.76739010


--------------------------------------------------------------------------------------------------------




--------------------------------------- Iteration      1(   5)  ---------------------------------------


     EDDAV:  cpu time      7.3407: real time      7.4047
       DOS:  cpu time      0.0004: real time      0.0004
    CHARGE:  cpu time      0.1162: real time      0.1169
    MIXING:  cpu time      0.0051: real time      0.0054
    --------------------------------------------
      LOOP:  cpu time      7.4624: real time      7.5274

 eigenvalue-minimisations  :  2600
 total energy-change (2. order) :-0.1835149E+00  (-0.1831824E+00)
 number of electron     861.9998818 magnetization       1.9999999
 augmentation part       21.5616223 magnetization       0.1415952

 Broyden mixing:
  rms(total) = 0.57756E+01    rms(broyden)= 0.57747E+01
  rms(prec ) = 0.67839E+01
  weight for this iteration     100.00

 Free energy of the ion-electron system (eV)
  ---------------------------------------------------
  alpha Z        PSCENC =      3085.66645011
  Ewald energy   TEWEN  =    -37259.75551720
  -Hartree energ DENC   =     -2023.90314033
  -exchange      EXHF   =         0.00000000
  -V(xc)+E(xc)   XCENC  =      2947.21854374
  PAW double counting   =     23428.64811967   -23551.69179075
  entropy T*S    EENTRO =         0.00000000
  eigenvalues    EBANDS =      -382.43065773
  atomic energy  EATOM  =     31754.29708746
  Solvation  Ediel_sol  =         0.00000000
  ---------------------------------------------------
  free energy    TOTEN  =     -2001.95090502 eV

  energy without entropy =    -2001.95090502  energy(sigma->0) =    -2001.95090502


--------------------------------------------------------------------------------------------------------




--------------------------------------- Iteration      1(   6)  ---------------------------------------


    POTLOK:  cpu time      0.0940: real time      0.0951
    SETDIJ:  cpu time      0.0206: real time      0.0207
     EDDAV:  cpu time      7.1368: real time      7.1962
       DOS:  cpu time      0.0004: real time      0.0004
    CHARGE:  cpu time      0.1150: real time      0.1157
    MIXING:  cpu time      0.0039: real time      0.0039
    --------------------------------------------
      LOOP:  cpu time      7.3707: real time      7.4319

 eigenvalue-minimisations  :  2496
 total energy-change (2. order) : 0.5219091E+02  (-0.4155439E+01)
 number of electron     861.9998845 magnetization       1.9999999
 augmentation part       21.0272094 magnetization       0.1341846

 Broyden mixing:
  rms(total) = 0.34346E+01    rms(broyden)= 0.34346E+01
  rms(prec ) = 0.39289E+01
  weight for this iteration     100.00

 eigenvalues of (default mixing * dielectric matrix)
  average eigenvalue GAMMA=   2.1120
  2.1120

 Free energy of the ion-electron system (eV)
  ---------------------------------------------------
  alpha Z        PSCENC =      3085.66645011
  Ewald energy   TEWEN  =    -37259.75551720
  -Hartree energ DENC   =     -2431.98981906
  -exchange      EXHF   =         0.00000000
  -V(xc)+E(xc)   XCENC  =      2988.32861362
  PAW double counting   =     40677.40357026   -40813.31219638
  entropy T*S    EENTRO =         0.00000000
  eigenvalues    EBANDS =        49.60181293
  atomic energy  EATOM  =     31754.29708746
  Solvation  Ediel_sol  =         0.00000000
  ---------------------------------------------------
  free energy    TOTEN  =     -1949.75999827 eV

  energy without entropy =    -1949.75999827  energy(sigma->0) =    -1949.75999827


--------------------------------------------------------------------------------------------------------




--------------------------------------- Iteration      1(   7)  ---------------------------------------


    POTLOK:  cpu time      0.0900: real time      0.0910
    SETDIJ:  cpu time      0.0206: real time      0.0206
     EDDAV:  cpu time      7.2019: real time      7.2620
       DOS:  cpu time      0.0004: real time      0.0004
    CHARGE:  cpu time      0.1133: real time      0.1139
    MIXING:  cpu time      0.0040: real time      0.0040
    --------------------------------------------
      LOOP:  cpu time      7.4302: real time      7.4919

 eigenvalue-minimisations  :  2496
 total energy-change (2. order) : 0.1696831E+02  (-0.4969371E+01)
 number of electron     861.9998874 magnetization       1.9999999
 augmentation part       20.4690195 magnetization       0.1123856

 Broyden mixing:
  rms(total) = 0.83721E+00    rms(broyden)= 0.83704E+00
  rms(prec ) = 0.86513E+00
  weight for this iteration     100.00

 eigenvalues of (default mixing * dielectric matrix)
  average eigenvalue GAMMA=   1.6391
  0.8837  2.3946

 Free energy of the ion-electron system (eV)
  ---------------------------------------------------
  alpha Z        PSCENC =      3085.66645011
  Ewald energy   TEWEN  =    -37259.75551720
  -Hartree energ DENC   =     -2970.62478084
  -exchange      EXHF   =         0.00000000
  -V(xc)+E(xc)   XCENC  =      3037.64327130
  PAW double counting   =     73208.38984908   -73356.76993466
  entropy T*S    EENTRO =         0.00000000
  eigenvalues    EBANDS =       568.36188839
  atomic energy  EATOM  =     31754.29708746
  Solvation  Ediel_sol  =         0.00000000
  ---------------------------------------------------
  free energy    TOTEN  =     -1932.79168635 eV

  energy without entropy =    -1932.79168635  energy(sigma->0) =    -1932.79168635


--------------------------------------------------------------------------------------------------------




--------------------------------------- Iteration      1(   8)  ---------------------------------------


    POTLOK:  cpu time      0.0899: real time      0.0908
    SETDIJ:  cpu time      0.0205: real time      0.0206
     EDDAV:  cpu time      7.3701: real time      7.4313
       DOS:  cpu time      0.0004: real time      0.0004
    CHARGE:  cpu time      0.1142: real time      0.1149
    MIXING:  cpu time      0.0040: real time      0.0040
    --------------------------------------------
      LOOP:  cpu time      7.5992: real time      7.6620

 eigenvalue-minimisations  :  2600
 total energy-change (2. order) :-0.2688646E+00  (-0.1887911E+00)
 number of electron     861.9998873 magnetization       1.9999999
 augmentation part       20.4887250 magnetization       0.1263934

 Broyden mixing:
  rms(total) = 0.42975E+00    rms(broyden)= 0.42973E+00
  rms(prec ) = 0.44665E+00
  weight for this iteration     100.00

 eigenvalues of (default mixing * dielectric matrix)
  average eigenvalue GAMMA=   1.6659
  2.5330  1.6656  0.7990

 Free energy of the ion-electron system (eV)
  ---------------------------------------------------
  alpha Z        PSCENC =      3085.66645011
  Ewald energy   TEWEN  =    -37259.75551720
  -Hartree energ DENC   =     -2981.50292840
  -exchange      EXHF   =         0.00000000
  -V(xc)+E(xc)   XCENC  =      3038.90304284
  PAW double counting   =     78727.14411149   -78873.91524187
  entropy T*S    EENTRO =         0.00000000
  eigenvalues    EBANDS =       576.10244466
  atomic energy  EATOM  =     31754.29708746
  Solvation  Ediel_sol  =         0.00000000
  ---------------------------------------------------
  free energy    TOTEN  =     -1933.06055091 eV

  energy without entropy =    -1933.06055091  energy(sigma->0) =    -1933.06055091


--------------------------------------------------------------------------------------------------------




--------------------------------------- Iteration      1(   9)  ---------------------------------------


    POTLOK:  cpu time      0.0902: real time      0.0935
    SETDIJ:  cpu time      0.0206: real time      0.0207
     EDDAV:  cpu time      7.3108: real time      7.3719
       DOS:  cpu time      0.0005: real time      0.0005
    CHARGE:  cpu time      0.1119: real time      0.1126
    MIXING:  cpu time      0.0040: real time      0.0040
    --------------------------------------------
      LOOP:  cpu time      7.5380: real time      7.6032

 eigenvalue-minimisations  :  2544
 total energy-change (2. order) :-0.2631099E-02  (-0.3027813E-01)
 number of electron     861.9998873 magnetization       1.9999999
 augmentation part       20.5061681 magnetization       0.1242312

 Broyden mixing:
  rms(total) = 0.11778E+00    rms(broyden)= 0.11778E+00
  rms(prec ) = 0.12614E+00
  weight for this iteration     100.00

 eigenvalues of (default mixing * dielectric matrix)
  average eigenvalue GAMMA=   1.5352
  2.5704  1.9611  0.8593  0.7500

 Free energy of the ion-electron system (eV)
  ---------------------------------------------------
  alpha Z        PSCENC =      3085.66645011
  Ewald energy   TEWEN  =    -37259.75551720
  -Hartree energ DENC   =     -2972.07491086
  -exchange      EXHF   =         0.00000000
  -V(xc)+E(xc)   XCENC  =      3038.26665042
  PAW double counting   =     81903.93236525   -82049.21498904
  entropy T*S    EENTRO =         0.00000000
  eigenvalues    EBANDS =       565.81968185
  atomic energy  EATOM  =     31754.29708746
  Solvation  Ediel_sol  =         0.00000000
  ---------------------------------------------------
  free energy    TOTEN  =     -1933.06318201 eV

  energy without entropy =    -1933.06318201  energy(sigma->0) =    -1933.06318201


--------------------------------------------------------------------------------------------------------




--------------------------------------- Iteration      1(  10)  ---------------------------------------


    POTLOK:  cpu time      0.0897: real time      0.0906
    SETDIJ:  cpu time      0.0206: real time      0.0207
     EDDAV:  cpu time      7.3002: real time      7.3615
       DOS:  cpu time      0.0003: real time      0.0003
    CHARGE:  cpu time      0.1129: real time      0.1135
    MIXING:  cpu time      0.0050: real time      0.0050
    --------------------------------------------
      LOOP:  cpu time      7.5287: real time      7.5916

 eigenvalue-minimisations  :  2568
 total energy-change (2. order) :-0.6699860E-02  (-0.6787012E-02)
 number of electron     861.9998873 magnetization       1.9999999
 augmentation part       20.5108762 magnetization       0.1230947

 Broyden mixing:
  rms(total) = 0.44097E-01    rms(broyden)= 0.44089E-01
  rms(prec ) = 0.48475E-01
  weight for this iteration     100.00

 eigenvalues of (default mixing * dielectric matrix)
  average eigenvalue GAMMA=   1.4142
  2.5275  2.0148  0.9332  0.9332  0.6623

 Free energy of the ion-electron system (eV)
  ---------------------------------------------------
  alpha Z        PSCENC =      3085.66645011
  Ewald energy   TEWEN  =    -37259.75551720
  -Hartree energ DENC   =     -2966.88633184
  -exchange      EXHF   =         0.00000000
  -V(xc)+E(xc)   XCENC  =      3037.86982482
  PAW double counting   =     82367.96397349   -82512.82409515
  entropy T*S    EENTRO =         0.00000000
  eigenvalues    EBANDS =       560.59872643
  atomic energy  EATOM  =     31754.29708746
  Solvation  Ediel_sol  =         0.00000000
  ---------------------------------------------------
  free energy    TOTEN  =     -1933.06988187 eV

  energy without entropy =    -1933.06988187  energy(sigma->0) =    -1933.06988187


--------------------------------------------------------------------------------------------------------




--------------------------------------- Iteration      1(  11)  ---------------------------------------


    POTLOK:  cpu time      0.0900: real time      0.0910
    SETDIJ:  cpu time      0.0205: real time      0.0206
     EDDAV:  cpu time      7.3744: real time      7.4355
       DOS:  cpu time      0.0005: real time      0.0005
    CHARGE:  cpu time      0.1124: real time      0.1130
    MIXING:  cpu time      0.0049: real time      0.0050
    --------------------------------------------
      LOOP:  cpu time      7.6027: real time      7.6656

 eigenvalue-minimisations  :  2568
 total energy-change (2. order) :-0.4785451E-03  (-0.7751958E-03)
 number of electron     861.9998872 magnetization       1.9999999
 augmentation part       20.5107151 magnetization       0.1231250

 Broyden mixing:
  rms(total) = 0.16308E-01    rms(broyden)= 0.16307E-01
  rms(prec ) = 0.18382E-01
  weight for this iteration     100.00

 eigenvalues of (default mixing * dielectric matrix)
  average eigenvalue GAMMA=   1.3391
  2.4984  2.0675  1.0132  1.0132  0.8069  0.6354

 Free energy of the ion-electron system (eV)
  ---------------------------------------------------
  alpha Z        PSCENC =      3085.66645011
  Ewald energy   TEWEN  =    -37259.75551720
  -Hartree energ DENC   =     -2966.15410025
  -exchange      EXHF   =         0.00000000
  -V(xc)+E(xc)   XCENC  =      3037.80738430
  PAW double counting   =     82373.25639631   -82518.05837061
  entropy T*S    EENTRO =         0.00000000
  eigenvalues    EBANDS =       559.87030946
  atomic energy  EATOM  =     31754.29708746
  Solvation  Ediel_sol  =         0.00000000
  ---------------------------------------------------
  free energy    TOTEN  =     -1933.07036042 eV

  energy without entropy =    -1933.07036042  energy(sigma->0) =    -1933.07036042


--------------------------------------------------------------------------------------------------------




--------------------------------------- Iteration      1(  12)  ---------------------------------------


    POTLOK:  cpu time      0.0898: real time      0.0907
    SETDIJ:  cpu time      0.0206: real time      0.0207
     EDDAV:  cpu time      7.3286: real time      7.3894
       DOS:  cpu time      0.0003: real time      0.0003
    CHARGE:  cpu time      0.1126: real time      0.1133
    MIXING:  cpu time      0.0046: real time      0.0046
    --------------------------------------------
      LOOP:  cpu time      7.5565: real time      7.6190

 eigenvalue-minimisations  :  2584
 total energy-change (2. order) :-0.5008432E-03  (-0.2411592E-03)
 number of electron     861.9998872 magnetization       1.9999999
 augmentation part       20.5103877 magnetization       0.1234161

 Broyden mixing:
  rms(total) = 0.88616E-02    rms(broyden)= 0.88593E-02
  rms(prec ) = 0.10104E-01
  weight for this iteration     100.00

 eigenvalues of (default mixing * dielectric matrix)
  average eigenvalue GAMMA=   1.2993
  2.4748  2.0927  1.1327  1.1327  0.9192  0.7302  0.6124

 Free energy of the ion-electron system (eV)
  ---------------------------------------------------
  alpha Z        PSCENC =      3085.66645011
  Ewald energy   TEWEN  =    -37259.75551720
  -Hartree energ DENC   =     -2966.14970616
  -exchange      EXHF   =         0.00000000
  -V(xc)+E(xc)   XCENC  =      3037.80675973
  PAW double counting   =     82341.29642496   -82486.07988511
  entropy T*S    EENTRO =         0.00000000
  eigenvalues    EBANDS =       559.84752494
  atomic energy  EATOM  =     31754.29708746
  Solvation  Ediel_sol  =         0.00000000
  ---------------------------------------------------
  free energy    TOTEN  =     -1933.07086126 eV

  energy without entropy =    -1933.07086126  energy(sigma->0) =    -1933.07086126


--------------------------------------------------------------------------------------------------------




--------------------------------------- Iteration      1(  13)  ---------------------------------------


    POTLOK:  cpu time      0.0903: real time      0.0928
    SETDIJ:  cpu time      0.0206: real time      0.0207
     EDDAV:  cpu time      7.5005: real time      7.5631
       DOS:  cpu time      0.0005: real time      0.0005
    CHARGE:  cpu time      0.1135: real time      0.1142
    MIXING:  cpu time      0.0047: real time      0.0048
    --------------------------------------------
      LOOP:  cpu time      7.7301: real time      7.7961

 eigenvalue-minimisations  :  2624
 total energy-change (2. order) :-0.1756857E-03  (-0.4094247E-04)
 number of electron     861.9998872 magnetization       1.9999999
 augmentation part       20.5104557 magnetization       0.1233240

 Broyden mixing:
  rms(total) = 0.53050E-02    rms(broyden)= 0.53048E-02
  rms(prec ) = 0.59032E-02
  weight for this iteration     100.00

 eigenvalues of (default mixing * dielectric matrix)
  average eigenvalue GAMMA=   1.2892
  2.4474  2.1308  1.5319  1.0900  0.8954  0.8954  0.7172  0.6052

 Free energy of the ion-electron system (eV)
  ---------------------------------------------------
  alpha Z        PSCENC =      3085.66645011
  Ewald energy   TEWEN  =    -37259.75551720
  -Hartree energ DENC   =     -2966.31764772
  -exchange      EXHF   =         0.00000000
  -V(xc)+E(xc)   XCENC  =      3037.82330361
  PAW double counting   =     82316.57408186   -82461.35962112
  entropy T*S    EENTRO =         0.00000000
  eigenvalues    EBANDS =       560.00082605
  atomic energy  EATOM  =     31754.29708746
  Solvation  Ediel_sol  =         0.00000000
  ---------------------------------------------------
  free energy    TOTEN  =     -1933.07103695 eV

  energy without entropy =    -1933.07103695  energy(sigma->0) =    -1933.07103695


--------------------------------------------------------------------------------------------------------




--------------------------------------- Iteration      1(  14)  ---------------------------------------


    POTLOK:  cpu time      0.0895: real time      0.0904
    SETDIJ:  cpu time      0.0204: real time      0.0205
     EDDAV:  cpu time      7.3117: real time      7.3728
       DOS:  cpu time      0.0005: real time      0.0005
    CHARGE:  cpu time      0.1130: real time      0.1136
    MIXING:  cpu time      0.0049: real time      0.0050
    --------------------------------------------
      LOOP:  cpu time      7.5401: real time      7.6028

 eigenvalue-minimisations  :  2576
 total energy-change (2. order) :-0.1373453E-03  (-0.1195003E-04)
 number of electron     861.9998872 magnetization       1.9999999
 augmentation part       20.5106676 magnetization       0.1232691

 Broyden mixing:
  rms(total) = 0.24950E-02    rms(broyden)= 0.24947E-02
  rms(prec ) = 0.28063E-02
  weight for this iteration     100.00

 eigenvalues of (default mixing * dielectric matrix)
  average eigenvalue GAMMA=   1.3326
  2.4343  2.4343  1.9608  1.0880  0.9711  0.9711  0.8365  0.6866  0.6106

 Free energy of the ion-electron system (eV)
  ---------------------------------------------------
  alpha Z        PSCENC =      3085.66645011
  Ewald energy   TEWEN  =    -37259.75551720
  -Hartree energ DENC   =     -2966.52120456
  -exchange      EXHF   =         0.00000000
  -V(xc)+E(xc)   XCENC  =      3037.84322858
  PAW double counting   =     82304.26391122   -82449.04604778
  entropy T*S    EENTRO =         0.00000000
  eigenvalues    EBANDS =       560.18091788
  atomic energy  EATOM  =     31754.29708746
  Solvation  Ediel_sol  =         0.00000000
  ---------------------------------------------------
  free energy    TOTEN  =     -1933.07117429 eV

  energy without entropy =    -1933.07117429  energy(sigma->0) =    -1933.07117429


--------------------------------------------------------------------------------------------------------




--------------------------------------- Iteration      1(  15)  ---------------------------------------


    POTLOK:  cpu time      0.0896: real time      0.0904
    SETDIJ:  cpu time      0.0205: real time      0.0206
     EDDAV:  cpu time      7.3686: real time      7.4303
       DOS:  cpu time      0.0005: real time      0.0005
    CHARGE:  cpu time      0.1126: real time      0.1134
    MIXING:  cpu time      0.0059: real time      0.0060
    --------------------------------------------
      LOOP:  cpu time      7.5976: real time      7.6612

 eigenvalue-minimisations  :  2568
 total energy-change (2. order) :-0.3438012E-04  (-0.3363279E-05)
 number of electron     861.9998872 magnetization       1.9999999
 augmentation part       20.5106004 magnetization       0.1232766

 Broyden mixing:
  rms(total) = 0.10134E-02    rms(broyden)= 0.10134E-02
  rms(prec ) = 0.11361E-02
  weight for this iteration     100.00

 eigenvalues of (default mixing * dielectric matrix)
  average eigenvalue GAMMA=   1.3396
  2.5599  2.5599  2.0104  1.1866  1.1866  0.9224  0.9224  0.7661  0.6148  0.6664

 Free energy of the ion-electron system (eV)
  ---------------------------------------------------
  alpha Z        PSCENC =      3085.66645011
  Ewald energy   TEWEN  =    -37259.75551720
  -Hartree energ DENC   =     -2966.68365889
  -exchange      EXHF   =         0.00000000
  -V(xc)+E(xc)   XCENC  =      3037.85858502
  PAW double counting   =     82299.75709692   -82444.53776841
  entropy T*S    EENTRO =         0.00000000
  eigenvalues    EBANDS =       560.32651631
  atomic energy  EATOM  =     31754.29708746
  Solvation  Ediel_sol  =         0.00000000
  ---------------------------------------------------
  free energy    TOTEN  =     -1933.07120867 eV

  energy without entropy =    -1933.07120867  energy(sigma->0) =    -1933.07120867


--------------------------------------------------------------------------------------------------------




--------------------------------------- Iteration      1(  16)  ---------------------------------------


    POTLOK:  cpu time      0.0898: real time      0.0907
    SETDIJ:  cpu time      0.0206: real time      0.0206
     EDDAV:  cpu time      6.8102: real time      6.8671
       DOS:  cpu time      0.0003: real time      0.0003
    CHARGE:  cpu time      0.1120: real time      0.1127
    MIXING:  cpu time      0.0053: real time      0.0053
    --------------------------------------------
      LOOP:  cpu time      7.0382: real time      7.0968

 eigenvalue-minimisations  :  2352
 total energy-change (2. order) :-0.3976529E-05  (-0.6387154E-06)
 number of electron     861.9998872 magnetization       1.9999999
 augmentation part       20.5105814 magnetization       0.1232739

 Broyden mixing:
  rms(total) = 0.39622E-03    rms(broyden)= 0.39618E-03
  rms(prec ) = 0.45494E-03
  weight for this iteration     100.00

 eigenvalues of (default mixing * dielectric matrix)
  average eigenvalue GAMMA=   1.3331
  2.7970  2.5011  2.0478  1.3198  1.3198  0.9022  0.9022  0.8523  0.7430  0.6180
  0.6606

 Free energy of the ion-electron system (eV)
  ---------------------------------------------------
  alpha Z        PSCENC =      3085.66645011
  Ewald energy   TEWEN  =    -37259.75551720
  -Hartree energ DENC   =     -2966.75340262
  -exchange      EXHF   =         0.00000000
  -V(xc)+E(xc)   XCENC  =      3037.86525771
  PAW double counting   =     82296.99662408   -82441.77756248
  entropy T*S    EENTRO =         0.00000000
  eigenvalues    EBANDS =       560.38985030
  atomic energy  EATOM  =     31754.29708746
  Solvation  Ediel_sol  =         0.00000000
  ---------------------------------------------------
  free energy    TOTEN  =     -1933.07121265 eV

  energy without entropy =    -1933.07121265  energy(sigma->0) =    -1933.07121265


--------------------------------------------------------------------------------------------------------




--------------------------------------- Iteration      1(  17)  ---------------------------------------


    POTLOK:  cpu time      0.0906: real time      0.0940
    SETDIJ:  cpu time      0.0206: real time      0.0207
     EDDAV:  cpu time      5.2026: real time      5.2465
       DOS:  cpu time      0.0002: real time      0.0002
    --------------------------------------------
      LOOP:  cpu time      5.3141: real time      5.3614

 eigenvalue-minimisations  :  1616
 total energy-change (2. order) : 0.1227454E-06  (-0.7329516E-07)
 number of electron     861.9998872 magnetization       1.9999999
 augmentation part       20.5105814 magnetization       0.1232739

 Free energy of the ion-electron system (eV)
  ---------------------------------------------------
  alpha Z        PSCENC =      3085.66645011
  Ewald energy   TEWEN  =    -37259.75551720
  -Hartree energ DENC   =     -2966.76640054
  -exchange      EXHF   =         0.00000000
  -V(xc)+E(xc)   XCENC  =      3037.86653558
  PAW double counting   =     82297.19362624   -82441.97432028
  entropy T*S    EENTRO =         0.00000000
  eigenvalues    EBANDS =       560.40132611
  atomic energy  EATOM  =     31754.29708746
  Solvation  Ediel_sol  =         0.00000000
  ---------------------------------------------------
  free energy    TOTEN  =     -1933.07121253 eV

  energy without entropy =    -1933.07121253  energy(sigma->0) =    -1933.07121253


--------------------------------------------------------------------------------------------------------




 average (electrostatic) potential at core
  the test charge radii are     0.6991  0.7089
  (the norm of the test charge is              1.0000)
       1 -45.6973       2 -45.6181       3 -45.6914       4 -45.6297       5 -45.5099
       6 -45.6017       7 -45.6533       8 -45.5645       9 -45.6155      10 -45.6914
      11 -45.6538      12 -45.7077      13 -45.6017      14 -45.5209      15 -45.6847
      16 -45.6155      17 -45.3423      18 -45.6114      19 -45.6181      20 -45.5567
      21 -45.6538      22 -45.5099      23 -43.4116      24 -45.5209      25 -45.5645
      26 -45.1838      27 -45.3423      28 -45.6914      29 -45.6538      30 -45.7077
      31 -45.6181      32 -45.5567      33 -45.6538      34 -45.6973      35 -45.6181
      36 -45.6914      37 -45.6017      38 -45.5209      39 -45.6847      40 -45.5099
      41 -43.4116      42 -45.5209      43 -45.6297      44 -45.5099      45 -45.6017
      46 -45.6155      47 -45.3423      48 -45.6114      49 -45.5645      50 -45.1838
      51 -45.3423      52 -45.6533      53 -45.5645      54 -45.6155      55 -45.6788
      56 -45.6843      57 -45.7300      58 -45.6208      59 -45.6243      60 -45.6843
      61 -45.6043      62 -45.6208      63 -45.6788      64 -45.6208      65 -45.6243
      66 -45.6843      67 -45.2256      68 -45.6243      69 -45.3301      70 -45.2256
      71 -45.6208      72 -45.6043      73 -45.6208      74 -45.6788      75 -45.3301
      76 -45.2256      77 -45.6208      78 -45.5277      79 -45.3301      80 -45.6043
      81 -45.6155      82 -45.6017      83 -45.6914      84 -45.5645      85 -45.5099
      86 -45.6181      87 -45.6533      88 -45.6297      89 -45.6973      90 -45.6114
      91 -45.6847      92 -45.7077      93 -45.3423      94 -45.5209      95 -45.6538
      96 -45.6155      97 -45.6017      98 -45.6914      99 -45.3423     100 -45.5209
     101 -45.6538     102 -45.1838     103 -43.4116     104 -45.5567     105 -45.5645
     106 -45.5099     107 -45.6181     108 -45.6961     109 -45.6185     110 -45.6542
     111 -45.6542     112 -45.4737     113 -45.5245     114 -45.6185     115 -45.4714
     116 -45.4737     117 -45.7182     118 -45.6545     119 -45.6801     120 -45.6801
     121 -45.6399     122 -45.7014     123 -45.6545     124 -45.4788     125 -45.6399
     126 -45.6331     127 -45.5693     128 -45.6085     129 -45.6085     130 -45.0694
     131 -46.2709     132 -45.5693     133 -45.0167     134 -45.0694     135 -45.7182
     136 -45.6545     137 -45.6801     138 -45.6331     139 -45.5693     140 -45.6085
     141 -45.6961     142 -45.6185     143 -45.6542     144 -45.6801     145 -45.6399
     146 -45.7014     147 -45.6085     148 -45.0694     149 -46.2709     150 -45.6542
     151 -45.4737     152 -45.5245     153 -45.6545     154 -45.4788     155 -45.6399
     156 -45.5693     157 -45.0167     158 -45.0694     159 -45.6185     160 -45.4714
     161 -45.4737     162 -45.6961     163 -45.6331     164 -45.7182     165 -45.6542
     166 -45.6085     167 -45.6801     168 -45.6185     169 -45.5693     170 -45.6545
     171 -45.6542     172 -45.6085     173 -45.6801     174 -45.5245     175 -46.2709
     176 -45.7014     177 -45.4737     178 -45.0694     179 -45.6399     180 -45.6185
     181 -45.5693     182 -45.6545     183 -45.4737     184 -45.0694     185 -45.6399
     186 -45.4714     187 -45.0167     188 -45.4788     189 -45.6473     190 -45.5252
     191 -45.6829     192 -45.5199     193 -45.3778     194 -45.5252     195 -45.6324
     196 -45.5199     197 -45.6473     198 -45.6829     199 -45.6875     200 -45.7269
     201 -45.5252     202 -45.5519     203 -45.6875     204 -45.6473     205 -45.5252
     206 -45.6829     207 -45.5252     208 -45.5519     209 -45.6875     210 -45.3778
     211 -45.5519     212 -45.5199     213 -45.3778     214 -45.5252     215 -60.3351
 
 
 
 E-fermi :  10.7811     XC(G=0): -13.1985     alpha+bet :-17.4791

 val. band max:       11.7078982175   @ k =   0.0000   0.0000   0.0000
 cond. band min:      12.6870299841   @ k =   0.0000   0.0000   0.0000
 fundamental gap:      0.9791317665
 Fermi energy:        11.7615246324

 spin component 1

 k-point     1 :       0.0000    0.0000    0.0000
  band No.  band energies     occupation 
      1     -11.9169      1.00000
      2     -11.2732      1.00000
      3     -10.8750      1.00000
      4     -10.8750      1.00000
      5     -10.8190      1.00000
      6     -10.8190      1.00000
      7     -10.7565      1.00000
      8     -10.3441      1.00000
      9      -9.8872      1.00000
     10      -9.8872      1.00000
     11      -9.8646      1.00000
     12      -9.8646      1.00000
     13      -9.8392      1.00000
     14      -9.8274      1.00000
     15      -9.8174      1.00000
     16      -9.8174      1.00000
     17      -9.7549      1.00000
     18      -9.7549      1.00000
     19      -9.6047      1.00000
     20      -9.1626      1.00000
     21      -8.8519      1.00000
     22      -8.8519      1.00000
     23      -8.8504      1.00000
     24      -8.8125      1.00000
     25      -8.8093      1.00000
     26      -8.8093      1.00000
     27      -8.6512      1.00000
     28      -8.1022      1.00000
     29      -7.8639      1.00000
     30      -7.8639      1.00000
     31      -7.8353      1.00000
     32      -7.8353      1.00000
     33      -7.7842      1.00000
     34      -7.5225      1.00000
     35      -7.0132      1.00000
     36      -7.0132      1.00000
     37      -6.9717      1.00000
     38      -6.9717      1.00000
     39      -6.9614      1.00000
     40      -6.9506      1.00000
     41      -6.9506      1.00000
     42      -6.9492      1.00000
     43      -6.9425      1.00000
     44      -6.9425      1.00000
     45      -6.9386      1.00000
     46      -6.9159      1.00000
     47      -6.9156      1.00000
     48      -6.9156      1.00000
     49      -6.8889      1.00000
     50      -6.8889      1.00000
     51      -6.8667      1.00000
     52      -6.8649      1.00000
     53      -6.8637      1.00000
     54      -6.8637      1.00000
     55      -6.7811      1.00000
     56      -6.7811      1.00000
     57      -6.6272      1.00000
     58      -6.4519      1.00000
     59      -6.2385      1.00000
     60      -6.2385      1.00000
     61      -6.1787      1.00000
     62      -6.1741      1.00000
     63      -6.1741      1.00000
     64      -6.1609      1.00000
     65      -6.1603      1.00000
     66      -6.1598      1.00000
     67      -6.1598      1.00000
     68      -6.1339      1.00000
     69      -6.1339      1.00000
     70      -6.1181      1.00000
     71      -6.1181      1.00000
     72      -6.1111      1.00000
     73      -6.0885      1.00000
     74      -6.0885      1.00000
     75      -6.0464      1.00000
     76      -6.0464      1.00000
     77      -6.0428      1.00000
     78      -6.0099      1.00000
     79      -5.8741      1.00000
     80      -5.8740      1.00000
     81      -5.2449      1.00000
     82      -4.6844      1.00000
     83      -4.5204      1.00000
     84      -4.5204      1.00000
     85      -4.4602      1.00000
     86      -4.4602      1.00000
     87      -4.4527      1.00000
     88      -4.4478      1.00000
     89      -4.4478      1.00000
     90      -4.4342      1.00000
     91      -4.3826      1.00000
     92      -4.3826      1.00000
     93      -4.0417      1.00000
     94      -3.2625      1.00000
     95      -3.2119      1.00000
     96      -3.2119      1.00000
     97      -3.1751      1.00000
     98      -3.1751      1.00000
     99      -3.1340      1.00000
    100      -2.9497      1.00000
    101      -2.8143      1.00000
    102      -2.8143      1.00000
    103      -2.7064      1.00000
    104      -2.7064      1.00000
    105      -2.7054      1.00000
    106      -2.6937      1.00000
    107      -2.6911      1.00000
    108      -2.6911      1.00000
    109      -2.6871      1.00000
    110      -2.6871      1.00000
    111      -2.6719      1.00000
    112      -2.6430      1.00000
    113      -2.6430      1.00000
    114      -2.6265      1.00000
    115      -2.5972      1.00000
    116      -2.5774      1.00000
    117      -2.5774      1.00000
    118      -2.5632      1.00000
    119      -2.5632      1.00000
    120      -2.5412      1.00000
    121      -2.5240      1.00000
    122      -2.5240      1.00000
    123      -2.5178      1.00000
    124      -2.4847      1.00000
    125      -2.4847      1.00000
    126      -2.4831      1.00000
    127      -2.4649      1.00000
    128      -2.4551      1.00000
    129      -2.4551      1.00000
    130      -2.4496      1.00000
    131      -2.4408      1.00000
    132      -2.4360      1.00000
    133      -2.4360      1.00000
    134      -2.4174      1.00000
    135      -2.4174      1.00000
    136      -2.3923      1.00000
    137      -2.3923      1.00000
    138      -2.3791      1.00000
    139      -2.3772      1.00000
    140      -2.3772      1.00000
    141      -2.3748      1.00000
    142      -2.3748      1.00000
    143      -2.3543      1.00000
    144      -2.1655      1.00000
    145      -2.0236      1.00000
    146      -2.0236      1.00000
    147      -1.6524      1.00000
    148      -1.4145      1.00000
    149      -1.4145      1.00000
    150      -1.4094      1.00000
    151      -1.3522      1.00000
    152      -1.3522      1.00000
    153      -1.3508      1.00000
    154      -1.3334      1.00000
    155      -1.3180      1.00000
    156      -1.3180      1.00000
    157      -1.1694      1.00000
    158      -1.1694      1.00000
    159      -0.2442      1.00000
    160       0.0605      1.00000
    161       0.0605      1.00000
    162       0.1223      1.00000
    163       0.1885      1.00000
    164       0.1996      1.00000
    165       0.2016      1.00000
    166       0.2016      1.00000
    167       0.2068      1.00000
    168       0.2068      1.00000
    169       0.2168      1.00000
    170       0.2211      1.00000
    171       0.2341      1.00000
    172       0.2396      1.00000
    173       0.2396      1.00000
    174       0.2648      1.00000
    175       0.2648      1.00000
    176       0.3676      1.00000
    177       0.3676      1.00000
    178       0.3709      1.00000
    179       0.4089      1.00000
    180       0.7149      1.00000
    181       0.7149      1.00000
    182       0.7620      1.00000
    183       0.8482      1.00000
    184       0.8551      1.00000
    185       0.8551      1.00000
    186       0.8597      1.00000
    187       0.8604      1.00000
    188       0.8604      1.00000
    189       0.8690      1.00000
    190       0.8690      1.00000
    191       0.8770      1.00000
    192       0.8876      1.00000
    193       0.8924      1.00000
    194       0.8924      1.00000
    195       0.8932      1.00000
    196       0.8932      1.00000
    197       0.9095      1.00000
    198       0.9380      1.00000
    199       0.9380      1.00000
    200       0.9424      1.00000
    201       1.1493      1.00000
    202       1.1493      1.00000
    203       1.5870      1.00000
    204       1.5870      1.00000
    205       1.6505      1.00000
    206       1.7171      1.00000
    207       1.7171      1.00000
    208       1.7178      1.00000
    209       1.7219      1.00000
    210       1.7219      1.00000
    211       1.7237      1.00000
    212       1.7382      1.00000
    213       1.7434      1.00000
    214       1.7434      1.00000
    215       1.7670      1.00000
    216       1.7670      1.00000
    217       1.8184      1.00000
    218       1.8184      1.00000
    219       1.8316      1.00000
    220       1.8403      1.00000
    221       1.8515      1.00000
    222       1.8773      1.00000
    223       1.8773      1.00000
    224       1.9075      1.00000
    225       1.9458      1.00000
    226       1.9458      1.00000
    227       2.0144      1.00000
    228       2.1195      1.00000
    229       2.1195      1.00000
    230       2.2208      1.00000
    231       2.2360      1.00000
    232       2.2360      1.00000
    233       2.2608      1.00000
    234       2.2665      1.00000
    235       2.2665      1.00000
    236       2.2720      1.00000
    237       2.2756      1.00000
    238       2.2756      1.00000
    239       2.2766      1.00000
    240       2.2861      1.00000
    241       2.2861      1.00000
    242       2.2994      1.00000
    243       2.3015      1.00000
    244       2.3165      1.00000
    245       2.3165      1.00000
    246       2.3303      1.00000
    247       2.3482      1.00000
    248       2.3482      1.00000
    249       2.3491      1.00000
    250       2.3806      1.00000
    251       2.3806      1.00000
    252       2.4186      1.00000
    253       2.4186      1.00000
    254       2.6801      1.00000
    255       2.7519      1.00000
    256       2.7519      1.00000
    257       3.2299      1.00000
    258       3.2299      1.00000
    259       3.3125      1.00000
    260       3.3166      1.00000
    261       3.3485      1.00000
    262       3.3485      1.00000
    263       3.4429      1.00000
    264       3.7374      1.00000
    265       3.7374      1.00000
    266       3.8410      1.00000
    267       3.8516      1.00000
    268       3.8516      1.00000
    269       3.8762      1.00000
    270       3.8794      1.00000
    271       3.8794      1.00000
    272       3.8982      1.00000
    273       3.9585      1.00000
    274       3.9585      1.00000
    275       4.0816      1.00000
    276       4.0816      1.00000
    277       4.2120      1.00000
    278       4.2645      1.00000
    279       4.2649      1.00000
    280       4.2649      1.00000
    281       4.2651      1.00000
    282       4.2832      1.00000
    283       4.2832      1.00000
    284       4.3102      1.00000
    285       4.3312      1.00000
    286       4.3312      1.00000
    287       4.3441      1.00000
    288       4.4497      1.00000
    289       4.4497      1.00000
    290       4.4808      1.00000
    291       4.5074      1.00000
    292       4.5158      1.00000
    293       4.5158      1.00000
    294       4.5265      1.00000
    295       4.5316      1.00000
    296       4.5316      1.00000
    297       4.5363      1.00000
    298       4.5363      1.00000
    299       4.5486      1.00000
    300       4.5544      1.00000
    301       4.5544      1.00000
    302       4.5576      1.00000
    303       4.5850      1.00000
    304       4.5850      1.00000
    305       4.5961      1.00000
    306       4.6024      1.00000
    307       4.6024      1.00000
    308       4.6061      1.00000
    309       4.6061      1.00000
    310       4.6219      1.00000
    311       4.6647      1.00000
    312       4.6647      1.00000
    313       4.6938      1.00000
    314       4.7183      1.00000
    315       4.7205      1.00000
    316       4.7205      1.00000
    317       4.7236      1.00000
    318       4.7272      1.00000
    319       4.7345      1.00000
    320       4.7345      1.00000
    321       4.7411      1.00000
    322       4.7411      1.00000
    323       4.7529      1.00000
    324       4.7546      1.00000
    325       4.7546      1.00000
    326       4.7594      1.00000
    327       4.7594      1.00000
    328       4.7598      1.00000
    329       4.7671      1.00000
    330       4.7671      1.00000
    331       4.7687      1.00000
    332       4.7755      1.00000
    333       4.7857      1.00000
    334       4.7857      1.00000
    335       4.7920      1.00000
    336       4.7988      1.00000
    337       4.7988      1.00000
    338       4.8002      1.00000
    339       4.8108      1.00000
    340       4.8108      1.00000
    341       4.8303      1.00000
    342       4.8336      1.00000
    343       4.8336      1.00000
    344       4.8547      1.00000
    345       4.8547      1.00000
    346       4.8899      1.00000
    347       4.8987      1.00000
    348       4.8987      1.00000
    349       4.9314      1.00000
    350       4.9533      1.00000
    351       4.9533      1.00000
    352       4.9539      1.00000
    353       4.9736      1.00000
    354       5.0735      1.00000
    355       5.0735      1.00000
    356       5.3033      1.00000
    357       5.3241      1.00000
    358       5.3241      1.00000
    359       5.4804      1.00000
    360       5.4804      1.00000
    361       5.5539      1.00000
    362       5.5552      1.00000
    363       5.5552      1.00000
    364       5.5628      1.00000
    365       5.5926      1.00000
    366       5.5926      1.00000
    367       5.5997      1.00000
    368       5.6020      1.00000
    369       5.6250      1.00000
    370       5.6250      1.00000
    371       5.6338      1.00000
    372       5.6408      1.00000
    373       5.6408      1.00000
    374       5.6514      1.00000
    375       5.6514      1.00000
    376       5.6740      1.00000
    377       5.7116      1.00000
    378       5.7116      1.00000
    379       5.8053      1.00000
    380       6.2996      1.00000
    381       6.5505      1.00000
    382       6.5505      1.00000
    383       6.8454      1.00000
    384       6.8997      1.00000
    385       6.8997      1.00000
    386       6.9669      1.00000
    387       6.9669      1.00000
    388       6.9782      1.00000
    389       7.0006      1.00000
    390       7.0037      1.00000
    391       7.0105      1.00000
    392       7.0105      1.00000
    393       7.0659      1.00000
    394       7.0659      1.00000
    395       7.0875      1.00000
    396       7.1585      1.00000
    397       7.1585      1.00000
    398       7.2221      1.00000
    399       7.2301      1.00000
    400       7.2301      1.00000
    401       7.2382      1.00000
    402       7.2382      1.00000
    403       7.2465      1.00000
    404       7.2465      1.00000
    405       7.2595      1.00000
    406       7.2773      1.00000
    407       7.2773      1.00000
    408       7.3022      1.00000
    409       7.3137      1.00000
    410       7.3137      1.00000
    411       7.3180      1.00000
    412       7.3304      1.00000
    413       7.3304      1.00000
    414       7.8140      1.00000
    415       7.9212      1.00000
    416       7.9212      1.00000
    417       8.0864      1.00000
    418       8.1327      1.00000
    419       8.1327      1.00000
    420       8.1499      1.00000
    421       8.1770      1.00000
    422       8.1770      1.00000
    423       8.1839      1.00000
    424       8.2287      1.00000
    425       8.2549      1.00000
    426       8.2549      1.00000
    427       9.2999      1.00000
    428       9.4128      1.00000
    429       9.4128      1.00000
    430      10.0423      1.00000
    431      11.7079      1.00000
    432      11.7079      1.00000
    433      13.6697      0.00000
    434      13.6697      0.00000
    435      13.6776      0.00000
    436      13.7266      0.00000
    437      13.7266      0.00000
    438      13.7476      0.00000
    439      14.2226      0.00000
    440      14.3053      0.00000
    441      14.3053      0.00000
    442      14.3288      0.00000
    443      14.3288      0.00000
    444      14.3877      0.00000
    445      14.4566      0.00000
    446      14.4566      0.00000
    447      14.5073      0.00000
    448      14.5552      0.00000
    449      14.5552      0.00000
    450      14.5853      0.00000
    451      15.1842      0.00000
    452      15.1842      0.00000
    453      15.2076      0.00000
    454      15.7214      0.00000
    455      15.8373      0.00000
    456      15.8373      0.00000
    457      15.8589      0.00000
    458      15.8881      0.00000
    459      15.8881      0.00000
    460      15.8998      0.00000
    461      15.8998      0.00000
    462      15.9104      0.00000
    463      15.9214      0.00000
    464      15.9214      0.00000
    465      15.9569      0.00000
    466      16.3374      0.00000
    467      16.5378      0.00000
    468      16.5378      0.00000
    469      16.5829      0.00000
    470      16.5884      0.00000
    471      16.5884      0.00000
    472      16.5917      0.00000
    473      16.5957      0.00000
    474      16.5957      0.00000
    475      16.6075      0.00000
    476      16.6075      0.00000
    477      16.6190      0.00000
    478      16.6190      0.00000
    479      16.6244      0.00000
    480      16.6311      0.00000
    481      16.6499      0.00000
    482      16.6553      0.00000
    483      16.6553      0.00000
    484      16.7003      0.00000
    485      16.7003      0.00000
    486      16.7197      0.00000
    487      16.7367      0.00000
    488      16.7367      0.00000
    489      16.7419      0.00000
    490      16.9818      0.00000
    491      16.9966      0.00000
    492      16.9966      0.00000
    493      17.0727      0.00000
    494      17.0779      0.00000
    495      17.0899      0.00000
    496      17.0900      0.00000
    497      17.0993      0.00000
    498      17.0994      0.00000
    499      17.1086      0.00000
    500      17.1189      0.00000
    501      17.1190      0.00000
    502      17.1421      0.00000
    503      17.1542      0.00000
    504      17.1542      0.00000
    505      17.1820      0.00000
    506      17.1820      0.00000
    507      17.1841      0.00000
    508      17.1933      0.00000
    509      17.2010      0.00000
    510      17.2010      0.00000
    511      17.2085      0.00000
    512      17.2262      0.00000
    513      17.2263      0.00000
    514      17.2366      0.00000
    515      17.2452      0.00000
    516      17.2453      0.00000
    517      17.2499      0.00000
    518      17.2500      0.00000
    519      17.2609      0.00000
    520      17.2611      0.00000
    521      17.2699      0.00000
    522      17.2867      0.00000
    523      17.2869      0.00000
    524      17.3195      0.00000
    525      17.3219      0.00000
    526      17.3744      0.00000
    527      17.3874      0.00000
    528      17.3880      0.00000
    529      17.4494      0.00000
    530      17.4531      0.00000
    531      17.4657      0.00000
    532      17.5926      0.00000
    533      17.6671      0.00000
    534      17.6928      0.00000
    535      17.7177      0.00000
    536      17.7323      0.00000
    537      17.7421      0.00000
    538      17.7499      0.00000
    539      17.7686      0.00000
    540      17.7796      0.00000
 Fermi energy:        10.7811117679

 spin component 2

 k-point     1 :       0.0000    0.0000    0.0000
  band No.  band energies     occupation 
      1     -11.9034      1.00000
      2     -11.2258      1.00000
      3     -10.8723      1.00000
      4     -10.8723      1.00000
      5     -10.8134      1.00000
      6     -10.8134      1.00000
      7     -10.7444      1.00000
      8     -10.3171      1.00000
      9      -9.8839      1.00000
     10      -9.8839      1.00000
     11      -9.8625      1.00000
     12      -9.8625      1.00000
     13      -9.8359      1.00000
     14      -9.8229      1.00000
     15      -9.8122      1.00000
     16      -9.8122      1.00000
     17      -9.7416      1.00000
     18      -9.7416      1.00000
     19      -9.5834      1.00000
     20      -9.1447      1.00000
     21      -8.8459      1.00000
     22      -8.8455      1.00000
     23      -8.8455      1.00000
     24      -8.8056      1.00000
     25      -8.7970      1.00000
     26      -8.7970      1.00000
     27      -8.6295      1.00000
     28      -8.0765      1.00000
     29      -7.8581      1.00000
     30      -7.8581      1.00000
     31      -7.8275      1.00000
     32      -7.8275      1.00000
     33      -7.7766      1.00000
     34      -7.4982      1.00000
     35      -7.0057      1.00000
     36      -7.0057      1.00000
     37      -6.9690      1.00000
     38      -6.9690      1.00000
     39      -6.9607      1.00000
     40      -6.9466      1.00000
     41      -6.9466      1.00000
     42      -6.9466      1.00000
     43      -6.9399      1.00000
     44      -6.9399      1.00000
     45      -6.9363      1.00000
     46      -6.9143      1.00000
     47      -6.9117      1.00000
     48      -6.9117      1.00000
     49      -6.8800      1.00000
     50      -6.8800      1.00000
     51      -6.8619      1.00000
     52      -6.8560      1.00000
     53      -6.8548      1.00000
     54      -6.8548      1.00000
     55      -6.7608      1.00000
     56      -6.7608      1.00000
     57      -6.6152      1.00000
     58      -6.4429      1.00000
     59      -6.2337      1.00000
     60      -6.2337      1.00000
     61      -6.1751      1.00000
     62      -6.1699      1.00000
     63      -6.1699      1.00000
     64      -6.1585      1.00000
     65      -6.1547      1.00000
     66      -6.1547      1.00000
     67      -6.1528      1.00000
     68      -6.1307      1.00000
     69      -6.1307      1.00000
     70      -6.1121      1.00000
     71      -6.1121      1.00000
     72      -6.1027      1.00000
     73      -6.0836      1.00000
     74      -6.0836      1.00000
     75      -6.0352      1.00000
     76      -6.0352      1.00000
     77      -6.0330      1.00000
     78      -5.9991      1.00000
     79      -5.8212      1.00000
     80      -5.8212      1.00000
     81      -5.1909      1.00000
     82      -4.6706      1.00000
     83      -4.5150      1.00000
     84      -4.5150      1.00000
     85      -4.4515      1.00000
     86      -4.4515      1.00000
     87      -4.4474      1.00000
     88      -4.4406      1.00000
     89      -4.4406      1.00000
     90      -4.4293      1.00000
     91      -4.3565      1.00000
     92      -4.3565      1.00000
     93      -3.9901      1.00000
     94      -3.2465      1.00000
     95      -3.2067      1.00000
     96      -3.2067      1.00000
     97      -3.1688      1.00000
     98      -3.1688      1.00000
     99      -3.1275      1.00000
    100      -2.9243      1.00000
    101      -2.8053      1.00000
    102      -2.8053      1.00000
    103      -2.7049      1.00000
    104      -2.7041      1.00000
    105      -2.7041      1.00000
    106      -2.6900      1.00000
    107      -2.6885      1.00000
    108      -2.6885      1.00000
    109      -2.6818      1.00000
    110      -2.6818      1.00000
    111      -2.6702      1.00000
    112      -2.6401      1.00000
    113      -2.6401      1.00000
    114      -2.6199      1.00000
    115      -2.5877      1.00000
    116      -2.5688      1.00000
    117      -2.5688      1.00000
    118      -2.5530      1.00000
    119      -2.5530      1.00000
    120      -2.5365      1.00000
    121      -2.5133      1.00000
    122      -2.5123      1.00000
    123      -2.5123      1.00000
    124      -2.4794      1.00000
    125      -2.4794      1.00000
    126      -2.4744      1.00000
    127      -2.4610      1.00000
    128      -2.4503      1.00000
    129      -2.4503      1.00000
    130      -2.4476      1.00000
    131      -2.4316      1.00000
    132      -2.4295      1.00000
    133      -2.4295      1.00000
    134      -2.4136      1.00000
    135      -2.4136      1.00000
    136      -2.3868      1.00000
    137      -2.3868      1.00000
    138      -2.3731      1.00000
    139      -2.3718      1.00000
    140      -2.3718      1.00000
    141      -2.3563      1.00000
    142      -2.3563      1.00000
    143      -2.3231      1.00000
    144      -2.1456      1.00000
    145      -1.9832      1.00000
    146      -1.9832      1.00000
    147      -1.6323      1.00000
    148      -1.4066      1.00000
    149      -1.4066      1.00000
    150      -1.3895      1.00000
    151      -1.3481      1.00000
    152      -1.3481      1.00000
    153      -1.3468      1.00000
    154      -1.3257      1.00000
    155      -1.3120      1.00000
    156      -1.3120      1.00000
    157      -1.1190      1.00000
    158      -1.1190      1.00000
    159      -0.1762      1.00000
    160       0.0735      1.00000
    161       0.0735      1.00000
    162       0.1352      1.00000
    163       0.1966      1.00000
    164       0.2059      1.00000
    165       0.2065      1.00000
    166       0.2065      1.00000
    167       0.2089      1.00000
    168       0.2089      1.00000
    169       0.2195      1.00000
    170       0.2267      1.00000
    171       0.2419      1.00000
    172       0.2437      1.00000
    173       0.2437      1.00000
    174       0.2724      1.00000
    175       0.2724      1.00000
    176       0.3813      1.00000
    177       0.3813      1.00000
    178       0.3843      1.00000
    179       0.4269      1.00000
    180       0.7257      1.00000
    181       0.7257      1.00000
    182       0.7864      1.00000
    183       0.8501      1.00000
    184       0.8576      1.00000
    185       0.8576      1.00000
    186       0.8617      1.00000
    187       0.8653      1.00000
    188       0.8653      1.00000
    189       0.8752      1.00000
    190       0.8752      1.00000
    191       0.8900      1.00000
    192       0.8951      1.00000
    193       0.8974      1.00000
    194       0.8974      1.00000
    195       0.9011      1.00000
    196       0.9011      1.00000
    197       0.9202      1.00000
    198       0.9478      1.00000
    199       0.9478      1.00000
    200       0.9500      1.00000
    201       1.1981      1.00000
    202       1.1981      1.00000
    203       1.5998      1.00000
    204       1.5998      1.00000
    205       1.6676      1.00000
    206       1.7191      1.00000
    207       1.7191      1.00000
    208       1.7225      1.00000
    209       1.7250      1.00000
    210       1.7250      1.00000
    211       1.7254      1.00000
    212       1.7399      1.00000
    213       1.7472      1.00000
    214       1.7472      1.00000
    215       1.7707      1.00000
    216       1.7707      1.00000
    217       1.8246      1.00000
    218       1.8246      1.00000
    219       1.8374      1.00000
    220       1.8500      1.00000
    221       1.8582      1.00000
    222       1.8888      1.00000
    223       1.8888      1.00000
    224       1.9201      1.00000
    225       1.9544      1.00000
    226       1.9544      1.00000
    227       2.0469      1.00000
    228       2.1281      1.00000
    229       2.1281      1.00000
    230       2.2338      1.00000
    231       2.2391      1.00000
    232       2.2391      1.00000
    233       2.2648      1.00000
    234       2.2700      1.00000
    235       2.2700      1.00000
    236       2.2763      1.00000
    237       2.2809      1.00000
    238       2.2809      1.00000
    239       2.2859      1.00000
    240       2.2925      1.00000
    241       2.2925      1.00000
    242       2.3055      1.00000
    243       2.3143      1.00000
    244       2.3279      1.00000
    245       2.3279      1.00000
    246       2.3336      1.00000
    247       2.3578      1.00000
    248       2.3578      1.00000
    249       2.3676      1.00000
    250       2.3916      1.00000
    251       2.3916      1.00000
    252       2.4331      1.00000
    253       2.4331      1.00000
    254       2.7159      1.00000
    255       2.7878      1.00000
    256       2.7878      1.00000
    257       3.2397      1.00000
    258       3.2397      1.00000
    259       3.3236      1.00000
    260       3.3301      1.00000
    261       3.3625      1.00000
    262       3.3625      1.00000
    263       3.5129      1.00000
    264       3.7537      1.00000
    265       3.7537      1.00000
    266       3.8530      1.00000
    267       3.8548      1.00000
    268       3.8548      1.00000
    269       3.8796      1.00000
    270       3.8854      1.00000
    271       3.8854      1.00000
    272       3.9161      1.00000
    273       3.9715      1.00000
    274       3.9715      1.00000
    275       4.0911      1.00000
    276       4.0911      1.00000
    277       4.2374      1.00000
    278       4.2683      1.00000
    279       4.2704      1.00000
    280       4.2704      1.00000
    281       4.2848      1.00000
    282       4.2919      1.00000
    283       4.2919      1.00000
    284       4.3169      1.00000
    285       4.3401      1.00000
    286       4.3401      1.00000
    287       4.3584      1.00000
    288       4.4599      1.00000
    289       4.4599      1.00000
    290       4.4850      1.00000
    291       4.5106      1.00000
    292       4.5196      1.00000
    293       4.5196      1.00000
    294       4.5300      1.00000
    295       4.5341      1.00000
    296       4.5341      1.00000
    297       4.5400      1.00000
    298       4.5400      1.00000
    299       4.5507      1.00000
    300       4.5569      1.00000
    301       4.5569      1.00000
    302       4.5629      1.00000
    303       4.5903      1.00000
    304       4.5903      1.00000
    305       4.6002      1.00000
    306       4.6094      1.00000
    307       4.6094      1.00000
    308       4.6162      1.00000
    309       4.6162      1.00000
    310       4.6295      1.00000
    311       4.6705      1.00000
    312       4.6705      1.00000
    313       4.7014      1.00000
    314       4.7232      1.00000
    315       4.7232      1.00000
    316       4.7251      1.00000
    317       4.7291      1.00000
    318       4.7332      1.00000
    319       4.7368      1.00000
    320       4.7368      1.00000
    321       4.7440      1.00000
    322       4.7440      1.00000
    323       4.7576      1.00000
    324       4.7576      1.00000
    325       4.7579      1.00000
    326       4.7628      1.00000
    327       4.7651      1.00000
    328       4.7651      1.00000
    329       4.7721      1.00000
    330       4.7721      1.00000
    331       4.7733      1.00000
    332       4.7799      1.00000
    333       4.7907      1.00000
    334       4.7907      1.00000
    335       4.8033      1.00000
    336       4.8066      1.00000
    337       4.8066      1.00000
    338       4.8135      1.00000
    339       4.8236      1.00000
    340       4.8236      1.00000
    341       4.8392      1.00000
    342       4.8400      1.00000
    343       4.8400      1.00000
    344       4.8599      1.00000
    345       4.8599      1.00000
    346       4.9101      1.00000
    347       4.9101      1.00000
    348       4.9170      1.00000
    349       4.9417      1.00000
    350       4.9587      1.00000
    351       4.9726      1.00000
    352       4.9726      1.00000
    353       4.9879      1.00000
    354       5.1050      1.00000
    355       5.1050      1.00000
    356       5.3233      1.00000
    357       5.3394      1.00000
    358       5.3394      1.00000
    359       5.4869      1.00000
    360       5.4869      1.00000
    361       5.5563      1.00000
    362       5.5585      1.00000
    363       5.5585      1.00000
    364       5.5647      1.00000
    365       5.5977      1.00000
    366       5.5977      1.00000
    367       5.6035      1.00000
    368       5.6146      1.00000
    369       5.6314      1.00000
    370       5.6314      1.00000
    371       5.6403      1.00000
    372       5.6543      1.00000
    373       5.6543      1.00000
    374       5.6677      1.00000
    375       5.6677      1.00000
    376       5.6796      1.00000
    377       5.7411      1.00000
    378       5.7411      1.00000
    379       5.8345      1.00000
    380       6.3834      1.00000
    381       6.6033      1.00000
    382       6.6033      1.00000
    383       6.9138      1.00000
    384       6.9138      1.00000
    385       6.9702      1.00000
    386       6.9702      1.00000
    387       6.9773      1.00000
    388       6.9820      1.00000
    389       7.0029      1.00000
    390       7.0213      1.00000
    391       7.0213      1.00000
    392       7.0334      1.00000
    393       7.0708      1.00000
    394       7.0708      1.00000
    395       7.0964      1.00000
    396       7.1628      1.00000
    397       7.1628      1.00000
    398       7.2312      1.00000
    399       7.2362      1.00000
    400       7.2362      1.00000
    401       7.2440      1.00000
    402       7.2440      1.00000
    403       7.2574      1.00000
    404       7.2574      1.00000
    405       7.2641      1.00000
    406       7.2880      1.00000
    407       7.2880      1.00000
    408       7.3159      1.00000
    409       7.3277      1.00000
    410       7.3277      1.00000
    411       7.3336      1.00000
    412       7.3384      1.00000
    413       7.3384      1.00000
    414       7.8880      1.00000
    415       7.9449      1.00000
    416       7.9449      1.00000
    417       8.1407      1.00000
    418       8.1407      1.00000
    419       8.1520      1.00000
    420       8.1840      1.00000
    421       8.1840      1.00000
    422       8.1871      1.00000
    423       8.2391      1.00000
    424       8.2716      1.00000
    425       8.2716      1.00000
    426       8.4002      1.00000
    427       9.4398      1.00000
    428       9.4413      1.00000
    429       9.4413      1.00000
    430      10.7576      0.00000
    431      12.6870      1.00000
    432      12.6870      0.00000
    433      13.6737      0.00000
    434      13.6737      0.00000
    435      13.6927      0.00000
    436      13.7378      0.00000
    437      13.7378      0.00000
    438      13.7570      0.00000
    439      14.2339      0.00000
    440      14.3123      0.00000
    441      14.3123      0.00000
    442      14.3345      0.00000
    443      14.3345      0.00000
    444      14.3968      0.00000
    445      14.4617      0.00000
    446      14.4617      0.00000
    447      14.5351      0.00000
    448      14.5713      0.00000
    449      14.5713      0.00000
    450      14.5957      0.00000
    451      15.2020      0.00000
    452      15.2020      0.00000
    453      15.2193      0.00000
    454      15.7399      0.00000
    455      15.8405      0.00000
    456      15.8405      0.00000
    457      15.8613      0.00000
    458      15.8960      0.00000
    459      15.8960      0.00000
    460      15.9054      0.00000
    461      15.9054      0.00000
    462      15.9164      0.00000
    463      15.9257      0.00000
    464      15.9257      0.00000
    465      15.9640      0.00000
    466      16.3542      0.00000
    467      16.5419      0.00000
    468      16.5419      0.00000
    469      16.5856      0.00000
    470      16.5917      0.00000
    471      16.5917      0.00000
    472      16.5945      0.00000
    473      16.6007      0.00000
    474      16.6007      0.00000
    475      16.6125      0.00000
    476      16.6125      0.00000
    477      16.6247      0.00000
    478      16.6247      0.00000
    479      16.6292      0.00000
    480      16.6358      0.00000
    481      16.6555      0.00000
    482      16.6635      0.00000
    483      16.6635      0.00000
    484      16.7062      0.00000
    485      16.7062      0.00000
    486      16.7292      0.00000
    487      16.7443      0.00000
    488      16.7443      0.00000
    489      16.7497      0.00000
    490      16.9951      0.00000
    491      17.0061      0.00000
    492      17.0062      0.00000
    493      17.0744      0.00000
    494      17.0794      0.00000
    495      17.0927      0.00000
    496      17.0927      0.00000
    497      17.1028      0.00000
    498      17.1028      0.00000
    499      17.1108      0.00000
    500      17.1213      0.00000
    501      17.1213      0.00000
    502      17.1458      0.00000
    503      17.1583      0.00000
    504      17.1583      0.00000
    505      17.1860      0.00000
    506      17.1860      0.00000
    507      17.1875      0.00000
    508      17.2046      0.00000
    509      17.2048      0.00000
    510      17.2048      0.00000
    511      17.2118      0.00000
    512      17.2341      0.00000
    513      17.2341      0.00000
    514      17.2401      0.00000
    515      17.2554      0.00000
    516      17.2555      0.00000
    517      17.2619      0.00000
    518      17.2620      0.00000
    519      17.2706      0.00000
    520      17.2708      0.00000
    521      17.2756      0.00000
    522      17.2914      0.00000
    523      17.2916      0.00000
    524      17.3274      0.00000
    525      17.3288      0.00000
    526      17.3866      0.00000
    527      17.3939      0.00000
    528      17.3954      0.00000
    529      17.4590      0.00000
    530      17.4603      0.00000
    531      17.4739      0.00000
    532      17.5967      0.00000
    533      17.6927      0.00000
    534      17.7011      0.00000
    535      17.7115      0.00000
    536      17.7418      0.00000
    537      17.7481      0.00000
    538      17.7564      0.00000
    539      17.7685      0.00000
    540      17.7925      0.00000


--------------------------------------------------------------------------------------------------------


 soft charge-density along one line, spin component           1
         0         1         2         3         4         5         6         7         8         9
 total charge-density along one line
 
 soft charge-density along one line, spin component           2
         0         1         2         3         4         5         6         7         8         9
 total charge-density along one line
 
 pseudopotential strength for first ion, spin component:           1
  9.453  12.553  -0.000  -0.000   0.000   0.000   0.000  -0.000
 12.553  16.669  -0.000  -0.000   0.000   0.000   0.000  -0.000
 -0.000  -0.000  -3.678   0.000  -0.000   7.204  -0.000   0.000
 -0.000  -0.000   0.000  -3.678   0.000  -0.000   7.204  -0.000
  0.000   0.000  -0.000   0.000  -3.678   0.000  -0.000   7.204
  0.000   0.000   7.204  -0.000   0.000 -16.207   0.000  -0.000
  0.000   0.000  -0.000   7.204  -0.000   0.000 -16.207  -0.000
 -0.000  -0.000   0.000  -0.000   7.204  -0.000  -0.000 -16.207
 pseudopotential strength for first ion, spin component:           2
  9.452  12.553  -0.000  -0.000   0.000   0.000   0.000  -0.000
 12.553  16.668  -0.000  -0.000   0.000   0.000   0.000  -0.000
 -0.000  -0.000  -3.678   0.000  -0.000   7.204  -0.000   0.000
 -0.000  -0.000   0.000  -3.678  -0.000  -0.000   7.204   0.000
  0.000   0.000  -0.000  -0.000  -3.678   0.000   0.000   7.204
  0.000   0.000   7.204  -0.000   0.000 -16.207   0.000  -0.000
  0.000   0.000  -0.000   7.204   0.000   0.000 -16.207  -0.000
 -0.000  -0.000   0.000   0.000   7.204  -0.000  -0.000 -16.207
 total augmentation occupancy for first ion, spin component:           1
  7.482  -3.308   0.007  -0.006   0.006   0.001  -0.001   0.001
 -3.308   1.545  -0.004   0.004  -0.004  -0.001   0.001  -0.001
  0.007  -0.004   1.561  -0.000   0.000   0.128  -0.000   0.000
 -0.006   0.004  -0.000   1.561  -0.003  -0.000   0.128  -0.000
  0.006  -0.004   0.000  -0.003   1.561   0.000  -0.000   0.128
  0.001  -0.001   0.128  -0.000   0.000   0.012  -0.000   0.000
 -0.001   0.001  -0.000   0.128  -0.000  -0.000   0.012  -0.000
  0.001  -0.001   0.000  -0.000   0.128   0.000  -0.000   0.012
 total augmentation occupancy for first ion, spin component:           2
 -0.000   0.000  -0.000  -0.000   0.000   0.000  -0.000   0.000
  0.000   0.000   0.000   0.000  -0.000  -0.000   0.000  -0.000
 -0.000   0.000   0.000  -0.000   0.000  -0.000  -0.000   0.000
 -0.000   0.000  -0.000   0.001  -0.001  -0.000  -0.000   0.000
  0.000  -0.000   0.000  -0.001   0.001   0.000   0.000  -0.000
  0.000  -0.000  -0.000  -0.000   0.000  -0.000  -0.000   0.000
 -0.000   0.000  -0.000  -0.000   0.000  -0.000  -0.000   0.000
  0.000  -0.000   0.000   0.000  -0.000   0.000   0.000  -0.000


------------------------ aborting loop because EDIFF is reached ----------------------------------------





 total charge

# of ion       s       p       d       tot
------------------------------------------
    1        0.829   1.744   0.000   2.573
    2        0.829   1.745   0.000   2.574
    3        0.829   1.745   0.000   2.574
    4        0.829   1.745   0.000   2.574
    5        0.829   1.744   0.000   2.573
    6        0.829   1.743   0.000   2.572
    7        0.829   1.744   0.000   2.573
    8        0.829   1.742   0.000   2.571
    9        0.829   1.744   0.000   2.574
   10        0.829   1.745   0.000   2.574
   11        0.829   1.743   0.000   2.572
   12        0.830   1.747   0.000   2.576
   13        0.829   1.743   0.000   2.572
   14        0.829   1.736   0.000   2.564
   15        0.832   1.750   0.000   2.582
   16        0.829   1.744   0.000   2.574
   17        0.831   1.735   0.000   2.567
   18        0.829   1.744   0.000   2.573
   19        0.829   1.745   0.000   2.574
   20        0.829   1.744   0.000   2.572
   21        0.829   1.743   0.000   2.572
   22        0.829   1.744   0.000   2.573
   23        0.841   1.743   0.000   2.584
   24        0.829   1.736   0.000   2.564
   25        0.829   1.742   0.000   2.571
   26        0.830   1.743   0.000   2.573
   27        0.831   1.735   0.000   2.567
   28        0.829   1.745   0.000   2.574
   29        0.829   1.743   0.000   2.572
   30        0.830   1.747   0.000   2.576
   31        0.829   1.745   0.000   2.574
   32        0.829   1.744   0.000   2.572
   33        0.829   1.743   0.000   2.572
   34        0.829   1.744   0.000   2.573
   35        0.829   1.745   0.000   2.574
   36        0.829   1.745   0.000   2.574
   37        0.829   1.743   0.000   2.572
   38        0.829   1.736   0.000   2.564
   39        0.832   1.750   0.000   2.582
   40        0.829   1.744   0.000   2.573
   41        0.841   1.743   0.000   2.584
   42        0.829   1.736   0.000   2.564
   43        0.829   1.745   0.000   2.574
   44        0.829   1.744   0.000   2.573
   45        0.829   1.743   0.000   2.572
   46        0.829   1.744   0.000   2.574
   47        0.831   1.735   0.000   2.567
   48        0.829   1.744   0.000   2.573
   49        0.829   1.742   0.000   2.571
   50        0.830   1.743   0.000   2.573
   51        0.831   1.735   0.000   2.567
   52        0.829   1.744   0.000   2.573
   53        0.829   1.742   0.000   2.571
   54        0.829   1.744   0.000   2.574
   55        0.829   1.745   0.000   2.574
   56        0.830   1.747   0.000   2.576
   57        0.829   1.745   0.000   2.574
   58        0.828   1.740   0.000   2.568
   59        0.829   1.744   0.000   2.573
   60        0.830   1.747   0.000   2.576
   61        0.829   1.744   0.000   2.573
   62        0.828   1.740   0.000   2.568
   63        0.829   1.745   0.000   2.574
   64        0.828   1.740   0.000   2.568
   65        0.829   1.744   0.000   2.573
   66        0.830   1.747   0.000   2.576
   67        0.829   1.745   0.000   2.574
   68        0.829   1.744   0.000   2.573
   69        0.832   1.741   0.000   2.573
   70        0.829   1.745   0.000   2.574
   71        0.828   1.740   0.000   2.568
   72        0.829   1.744   0.000   2.573
   73        0.828   1.740   0.000   2.568
   74        0.829   1.745   0.000   2.574
   75        0.832   1.741   0.000   2.573
   76        0.829   1.745   0.000   2.574
   77        0.828   1.740   0.000   2.568
   78        0.829   1.743   0.000   2.572
   79        0.832   1.741   0.000   2.573
   80        0.829   1.744   0.000   2.573
   81        0.829   1.744   0.000   2.574
   82        0.829   1.743   0.000   2.572
   83        0.829   1.745   0.000   2.574
   84        0.829   1.742   0.000   2.571
   85        0.829   1.744   0.000   2.573
   86        0.829   1.745   0.000   2.574
   87        0.829   1.744   0.000   2.573
   88        0.829   1.745   0.000   2.574
   89        0.829   1.744   0.000   2.573
   90        0.829   1.744   0.000   2.573
   91        0.832   1.750   0.000   2.582
   92        0.830   1.747   0.000   2.576
   93        0.831   1.735   0.000   2.567
   94        0.829   1.736   0.000   2.564
   95        0.829   1.743   0.000   2.572
   96        0.829   1.744   0.000   2.574
   97        0.829   1.743   0.000   2.572
   98        0.829   1.745   0.000   2.574
   99        0.831   1.735   0.000   2.567
  100        0.829   1.736   0.000   2.564
  101        0.829   1.743   0.000   2.572
  102        0.830   1.743   0.000   2.573
  103        0.841   1.743   0.000   2.584
  104        0.829   1.744   0.000   2.572
  105        0.829   1.742   0.000   2.571
  106        0.829   1.744   0.000   2.573
  107        0.829   1.745   0.000   2.574
  108        0.829   1.743   0.000   2.572
  109        0.829   1.745   0.000   2.574
  110        0.829   1.742   0.000   2.571
  111        0.829   1.742   0.000   2.571
  112        0.829   1.742   0.000   2.571
  113        0.828   1.742   0.000   2.570
  114        0.829   1.745   0.000   2.574
  115        0.829   1.743   0.000   2.572
  116        0.829   1.742   0.000   2.571
  117        0.829   1.742   0.000   2.571
  118        0.829   1.744   0.000   2.573
  119        0.829   1.745   0.000   2.574
  120        0.829   1.745   0.000   2.574
  121        0.828   1.736   0.000   2.564
  122        0.829   1.746   0.000   2.575
  123        0.829   1.744   0.000   2.573
  124        0.829   1.743   0.000   2.572
  125        0.828   1.736   0.000   2.564
  126        0.830   1.749   0.000   2.579
  127        0.829   1.744   0.000   2.573
  128        0.829   1.744   0.000   2.573
  129        0.829   1.744   0.000   2.573
  130        0.828   1.741   0.000   2.569
  131        0.825   1.710   0.000   2.535
  132        0.829   1.744   0.000   2.573
  133        0.831   1.748   0.000   2.579
  134        0.828   1.741   0.000   2.569
  135        0.829   1.742   0.000   2.571
  136        0.829   1.744   0.000   2.573
  137        0.829   1.745   0.000   2.574
  138        0.830   1.749   0.000   2.579
  139        0.829   1.744   0.000   2.573
  140        0.829   1.744   0.000   2.573
  141        0.829   1.743   0.000   2.572
  142        0.829   1.745   0.000   2.574
  143        0.829   1.742   0.000   2.571
  144        0.829   1.745   0.000   2.574
  145        0.828   1.736   0.000   2.564
  146        0.829   1.746   0.000   2.575
  147        0.829   1.744   0.000   2.573
  148        0.828   1.741   0.000   2.569
  149        0.825   1.710   0.000   2.535
  150        0.829   1.742   0.000   2.571
  151        0.829   1.742   0.000   2.571
  152        0.828   1.742   0.000   2.570
  153        0.829   1.744   0.000   2.573
  154        0.829   1.743   0.000   2.572
  155        0.828   1.736   0.000   2.564
  156        0.829   1.744   0.000   2.573
  157        0.831   1.748   0.000   2.579
  158        0.828   1.741   0.000   2.569
  159        0.829   1.745   0.000   2.574
  160        0.829   1.743   0.000   2.572
  161        0.829   1.742   0.000   2.571
  162        0.829   1.743   0.000   2.572
  163        0.830   1.749   0.000   2.579
  164        0.829   1.742   0.000   2.571
  165        0.829   1.742   0.000   2.571
  166        0.829   1.744   0.000   2.573
  167        0.829   1.745   0.000   2.574
  168        0.829   1.745   0.000   2.574
  169        0.829   1.744   0.000   2.573
  170        0.829   1.744   0.000   2.573
  171        0.829   1.742   0.000   2.571
  172        0.829   1.744   0.000   2.573
  173        0.829   1.745   0.000   2.574
  174        0.828   1.742   0.000   2.570
  175        0.825   1.710   0.000   2.535
  176        0.829   1.746   0.000   2.575
  177        0.829   1.742   0.000   2.571
  178        0.828   1.741   0.000   2.569
  179        0.828   1.736   0.000   2.564
  180        0.829   1.745   0.000   2.574
  181        0.829   1.744   0.000   2.573
  182        0.829   1.744   0.000   2.573
  183        0.829   1.742   0.000   2.571
  184        0.828   1.741   0.000   2.569
  185        0.828   1.736   0.000   2.564
  186        0.829   1.743   0.000   2.572
  187        0.831   1.748   0.000   2.579
  188        0.829   1.743   0.000   2.572
  189        0.829   1.743   0.000   2.572
  190        0.830   1.748   0.000   2.577
  191        0.829   1.742   0.000   2.571
  192        0.830   1.749   0.000   2.579
  193        0.829   1.744   0.000   2.573
  194        0.830   1.748   0.000   2.577
  195        0.829   1.744   0.000   2.573
  196        0.830   1.749   0.000   2.579
  197        0.829   1.743   0.000   2.572
  198        0.829   1.742   0.000   2.571
  199        0.830   1.750   0.000   2.580
  200        0.829   1.744   0.000   2.573
  201        0.830   1.748   0.000   2.577
  202        0.830   1.748   0.000   2.578
  203        0.830   1.750   0.000   2.580
  204        0.829   1.743   0.000   2.572
  205        0.830   1.748   0.000   2.577
  206        0.829   1.742   0.000   2.571
  207        0.830   1.748   0.000   2.577
  208        0.830   1.748   0.000   2.578
  209        0.830   1.750   0.000   2.580
  210        0.829   1.744   0.000   2.573
  211        0.830   1.748   0.000   2.578
  212        0.830   1.749   0.000   2.579
  213        0.829   1.744   0.000   2.573
  214        0.830   1.748   0.000   2.577
  215        1.210   2.659   0.000   3.868
--------------------------------------------------
tot        178.674 375.652   0.000 554.326



 magnetization (x)

# of ion       s       p       d       tot
------------------------------------------
    1        0.000   0.001   0.000   0.001
    2        0.000   0.001   0.000   0.002
    3        0.000   0.000   0.000   0.000
    4        0.000   0.002   0.000   0.002
    5        0.000   0.001   0.000   0.001
    6        0.000   0.000   0.000   0.000
    7        0.000   0.000   0.000   0.001
    8       -0.000   0.000   0.000   0.000
    9        0.000   0.001   0.000   0.002
   10        0.000   0.000   0.000   0.000
   11       -0.000   0.000   0.000   0.000
   12        0.000   0.002   0.000   0.002
   13        0.000   0.000   0.000   0.000
   14        0.001   0.005   0.000   0.005
   15        0.001   0.009   0.000   0.011
   16        0.000   0.001   0.000   0.002
   17        0.003   0.017   0.000   0.020
   18        0.000   0.000   0.000   0.000
   19        0.000   0.001   0.000   0.002
   20        0.000   0.002   0.000   0.002
   21       -0.000   0.000   0.000   0.000
   22        0.000   0.001   0.000   0.001
   23        0.027   0.229   0.000   0.256
   24        0.001   0.005   0.000   0.005
   25       -0.000   0.000   0.000   0.000
   26        0.001   0.005   0.000   0.006
   27        0.003   0.017   0.000   0.020
   28        0.000   0.000   0.000   0.000
   29       -0.000   0.000   0.000   0.000
   30        0.000   0.002   0.000   0.002
   31        0.000   0.001   0.000   0.002
   32        0.000   0.002   0.000   0.002
   33       -0.000   0.000   0.000   0.000
   34        0.000   0.001   0.000   0.001
   35        0.000   0.001   0.000   0.002
   36        0.000   0.000   0.000   0.000
   37        0.000   0.000   0.000   0.000
   38        0.001   0.005   0.000   0.005
   39        0.001   0.009   0.000   0.011
   40        0.000   0.001   0.000   0.001
   41        0.027   0.229   0.000   0.256
   42        0.001   0.005   0.000   0.005
   43        0.000   0.002   0.000   0.002
   44        0.000   0.001   0.000   0.001
   45        0.000   0.000   0.000   0.000
   46        0.000   0.001   0.000   0.002
   47        0.003   0.017   0.000   0.020
   48        0.000   0.000   0.000   0.000
   49       -0.000   0.000   0.000   0.000
   50        0.001   0.005   0.000   0.006
   51        0.003   0.017   0.000   0.020
   52        0.000   0.000   0.000   0.001
   53       -0.000   0.000   0.000   0.000
   54        0.000   0.001   0.000   0.002
   55        0.000   0.000   0.000   0.000
   56        0.000   0.001   0.000   0.001
   57        0.000   0.001   0.000   0.001
   58       -0.000   0.000   0.000   0.000
   59        0.000   0.001   0.000   0.001
   60        0.000   0.001   0.000   0.001
   61        0.000   0.002   0.000   0.002
   62       -0.000   0.000   0.000   0.000
   63        0.000   0.000   0.000   0.000
   64       -0.000   0.000   0.000   0.000
   65        0.000   0.001   0.000   0.001
   66        0.000   0.001   0.000   0.001
   67        0.001   0.005   0.000   0.006
   68        0.000   0.001   0.000   0.001
   69        0.003   0.017   0.000   0.020
   70        0.001   0.005   0.000   0.006
   71       -0.000   0.000   0.000   0.000
   72        0.000   0.002   0.000   0.002
   73       -0.000   0.000   0.000   0.000
   74        0.000   0.000   0.000   0.000
   75        0.003   0.017   0.000   0.020
   76        0.001   0.005   0.000   0.006
   77       -0.000   0.000   0.000   0.000
   78        0.000   0.001   0.000   0.001
   79        0.003   0.017   0.000   0.020
   80        0.000   0.002   0.000   0.002
   81        0.000   0.001   0.000   0.002
   82        0.000   0.000   0.000   0.000
   83        0.000   0.000   0.000   0.000
   84       -0.000   0.000   0.000   0.000
   85        0.000   0.001   0.000   0.001
   86        0.000   0.001   0.000   0.002
   87        0.000   0.000   0.000   0.001
   88        0.000   0.002   0.000   0.002
   89        0.000   0.001   0.000   0.001
   90        0.000   0.000   0.000   0.000
   91        0.001   0.009   0.000   0.011
   92        0.000   0.002   0.000   0.002
   93        0.003   0.017   0.000   0.020
   94        0.001   0.005   0.000   0.005
   95       -0.000   0.000   0.000   0.000
   96        0.000   0.001   0.000   0.002
   97        0.000   0.000   0.000   0.000
   98        0.000   0.000   0.000   0.000
   99        0.003   0.017   0.000   0.020
  100        0.001   0.005   0.000   0.005
  101       -0.000   0.000   0.000   0.000
  102        0.001   0.005   0.000   0.006
  103        0.027   0.229   0.000   0.256
  104        0.000   0.002   0.000   0.002
  105       -0.000   0.000   0.000   0.000
  106        0.000   0.001   0.000   0.001
  107        0.000   0.001   0.000   0.002
  108        0.000   0.000   0.000   0.000
  109       -0.000   0.000   0.000   0.000
  110       -0.000   0.000   0.000   0.000
  111       -0.000   0.000   0.000   0.000
  112       -0.000  -0.001   0.000  -0.001
  113       -0.000  -0.000   0.000  -0.000
  114       -0.000   0.000   0.000   0.000
  115       -0.000  -0.000   0.000  -0.000
  116       -0.000  -0.001   0.000  -0.001
  117       -0.000   0.000   0.000   0.000
  118       -0.000  -0.000   0.000  -0.000
  119       -0.000   0.000   0.000   0.000
  120       -0.000   0.000   0.000   0.000
  121       -0.000  -0.000   0.000  -0.000
  122       -0.000  -0.000   0.000  -0.000
  123       -0.000  -0.000   0.000  -0.000
  124       -0.000  -0.001   0.000  -0.001
  125       -0.000  -0.000   0.000  -0.000
  126        0.000   0.002   0.000   0.002
  127       -0.000  -0.000   0.000  -0.000
  128       -0.000  -0.000   0.000  -0.000
  129       -0.000  -0.000   0.000  -0.000
  130       -0.001  -0.004   0.000  -0.005
  131       -0.001   0.000   0.000  -0.001
  132       -0.000  -0.000   0.000  -0.000
  133       -0.001   0.002   0.000   0.001
  134       -0.001  -0.004   0.000  -0.005
  135       -0.000   0.000   0.000   0.000
  136       -0.000  -0.000   0.000  -0.000
  137       -0.000   0.000   0.000   0.000
  138        0.000   0.002   0.000   0.002
  139       -0.000  -0.000   0.000  -0.000
  140       -0.000  -0.000   0.000  -0.000
  141        0.000   0.000   0.000   0.000
  142       -0.000   0.000   0.000   0.000
  143       -0.000   0.000   0.000   0.000
  144       -0.000   0.000   0.000   0.000
  145       -0.000  -0.000   0.000  -0.000
  146       -0.000  -0.000   0.000  -0.000
  147       -0.000  -0.000   0.000  -0.000
  148       -0.001  -0.004   0.000  -0.005
  149       -0.001   0.000   0.000  -0.001
  150       -0.000   0.000   0.000   0.000
  151       -0.000  -0.001   0.000  -0.001
  152       -0.000  -0.000   0.000  -0.000
  153       -0.000  -0.000   0.000  -0.000
  154       -0.000  -0.001   0.000  -0.001
  155       -0.000  -0.000   0.000  -0.000
  156       -0.000  -0.000   0.000  -0.000
  157       -0.001   0.002   0.000   0.001
  158       -0.001  -0.004   0.000  -0.005
  159       -0.000   0.000   0.000   0.000
  160       -0.000  -0.000   0.000  -0.000
  161       -0.000  -0.001   0.000  -0.001
  162        0.000   0.000   0.000   0.000
  163        0.000   0.002   0.000   0.002
  164       -0.000   0.000   0.000   0.000
  165       -0.000   0.000   0.000   0.000
  166       -0.000  -0.000   0.000  -0.000
  167       -0.000   0.000   0.000   0.000
  168       -0.000   0.000   0.000   0.000
  169       -0.000  -0.000   0.000  -0.000
  170       -0.000  -0.000   0.000  -0.000
  171       -0.000   0.000   0.000   0.000
  172       -0.000  -0.000   0.000  -0.000
  173       -0.000   0.000   0.000   0.000
  174       -0.000  -0.000   0.000  -0.000
  175       -0.001   0.000   0.000  -0.001
  176       -0.000  -0.000   0.000  -0.000
  177       -0.000  -0.001   0.000  -0.001
  178       -0.001  -0.004   0.000  -0.005
  179       -0.000  -0.000   0.000  -0.000
  180       -0.000   0.000   0.000   0.000
  181       -0.000  -0.000   0.000  -0.000
  182       -0.000  -0.000   0.000  -0.000
  183       -0.000  -0.001   0.000  -0.001
  184       -0.001  -0.004   0.000  -0.005
  185       -0.000  -0.000   0.000  -0.000
  186       -0.000  -0.000   0.000  -0.000
  187       -0.001   0.002   0.000   0.001
  188       -0.000  -0.001   0.000  -0.001
  189       -0.000   0.000   0.000   0.000
  190        0.000   0.002   0.000   0.002
  191       -0.000   0.000   0.000   0.000
  192        0.001   0.004   0.000   0.005
  193       -0.000  -0.001   0.000  -0.001
  194        0.000   0.002   0.000   0.002
  195        0.000   0.001   0.000   0.001
  196        0.001   0.004   0.000   0.005
  197       -0.000   0.000   0.000   0.000
  198       -0.000   0.000   0.000   0.000
  199        0.000   0.001   0.000   0.002
  200       -0.000   0.000   0.000   0.000
  201        0.000   0.002   0.000   0.002
  202       -0.000  -0.001   0.000  -0.001
  203        0.000   0.001   0.000   0.002
  204       -0.000   0.000   0.000   0.000
  205        0.000   0.002   0.000   0.002
  206       -0.000   0.000   0.000   0.000
  207        0.000   0.002   0.000   0.002
  208       -0.000  -0.001   0.000  -0.001
  209        0.000   0.001   0.000   0.002
  210       -0.000  -0.001   0.000  -0.001
  211       -0.000  -0.001   0.000  -0.001
  212        0.001   0.004   0.000   0.005
  213       -0.000  -0.001   0.000  -0.001
  214        0.000   0.002   0.000   0.002
  215        0.018   0.137   0.000   0.155
--------------------------------------------------
tot          0.135   1.128   0.000   1.264
 
    CHARGE:  cpu time      0.1119: real time      0.1126
    FORLOC:  cpu time      0.0371: real time      0.0372
    FORNL :  cpu time      0.8544: real time      0.8626
    STRESS:  cpu time      2.5995: real time      2.6242
    FORCOR:  cpu time      0.1192: real time      0.1200
    FORHAR:  cpu time      0.0453: real time      0.0455
    MIXING:  cpu time      0.0057: real time      0.0058
    OFIELD:  cpu time      0.0001: real time      0.0001

  FORCE on cell =-STRESS in cart. coord.  units (eV):
  Direction    XX          YY          ZZ          XY          YZ          ZX
  --------------------------------------------------------------------------------------
  Alpha Z  3085.66645  3085.66645  3085.66645
  Ewald  -12420.08407-12420.08407-12420.08407    -9.34253     9.34253     9.34253
  Hartree   988.92416   988.92416   988.92416    -7.77362     7.77362     7.77362
  E(xc)   -3277.81566 -3277.81566 -3277.81566    -0.01112     0.01112     0.01112
  Local   -1265.01007 -1265.01007 -1265.01007    15.61774   -15.61774   -15.61774
  n-local  -778.53945  -777.92299  -777.92298     0.08341     1.65511    -0.08382
  augment   -76.20062   -76.20062   -76.20062     0.18636    -0.18636    -0.18636
  Kinetic 13767.64253 13763.12584 13763.12575    -0.42599    -8.88212     0.42583
  Fock        0.00000     0.00000     0.00000     0.00000     0.00000     0.00000
  -------------------------------------------------------------------------------------
  Total      21.98311    21.98311    21.98311     0.85764    -0.85764    -0.85764
  in kB      28.58099    28.58099    28.58099     1.11504    -1.11504    -1.11504
  external pressure =       28.58 kB  Pullay stress =        0.00 kB


 VOLUME and BASIS-vectors are now :
 -----------------------------------------------------------------------------
  energy-cutoff  :      500.00
  volume of cell :     1232.32
      direct lattice vectors                 reciprocal lattice vectors
    10.721136093  0.000000000  0.000000000     0.093273697  0.000000000  0.000000000
     0.000000000 10.721136093  0.000000000     0.000000000  0.093273697  0.000000000
     0.000000000  0.000000000 10.721136093     0.000000000  0.000000000  0.093273697

  length of vectors
    10.721136093 10.721136093 10.721136093     0.093273697  0.093273697  0.093273697


 FORCES acting on ions
    electron-ion (+dipol)            ewald-force                    non-local-force                 convergence-correction
 -----------------------------------------------------------------------------------------------
   0.101E+01 0.213E+00 -.101E+01   -.109E+01 -.204E+00 0.109E+01   0.726E-01 -.187E-01 -.726E-01   -.236E-04 -.339E-04 0.236E-04
   0.155E+01 -.902E+00 0.825E-01   -.168E+01 0.964E+00 0.564E-01   0.135E+00 -.742E-01 -.109E+00   0.695E-05 -.644E-05 0.355E-06
   0.169E+01 -.264E-01 -.160E+00   -.176E+01 0.115E-01 0.113E+00   0.743E-01 0.921E-02 0.536E-01   -.135E-04 0.176E-04 -.229E-04
   0.121E+01 0.157E+01 -.121E+01   -.132E+01 -.144E+01 0.132E+01   0.112E+00 -.150E+00 -.112E+00   0.243E-04 0.223E-04 -.243E-04
   0.380E+01 -.176E+01 -.131E+01   -.413E+01 0.192E+01 0.140E+01   0.334E+00 -.161E+00 -.111E+00   0.865E-04 0.273E-05 0.937E-05
   0.359E+01 -.447E+00 0.280E+01   -.382E+01 0.483E+00 -.291E+01   0.224E+00 -.302E-01 0.105E+00   0.346E-04 0.134E-04 0.279E-04
   0.126E+01 0.108E+01 -.126E+01   -.133E+01 -.117E+01 0.133E+01   0.601E-01 0.861E-01 -.601E-01   -.206E-05 0.175E-04 0.207E-05
   0.261E+01 0.317E+01 -.805E+00   -.282E+01 -.330E+01 0.803E+00   0.209E+00 0.135E+00 0.784E-02   0.838E-04 0.137E-04 -.157E-04
   0.127E+01 0.139E+01 0.112E+01   -.147E+01 -.157E+01 -.130E+01   0.188E+00 0.170E+00 0.183E+00   0.310E-04 -.219E-04 0.138E-04
   0.160E+00 -.264E-01 -.169E+01   -.113E+00 0.115E-01 0.176E+01   -.536E-01 0.921E-02 -.743E-01   0.229E-04 0.176E-04 0.135E-04
   -.293E+01 -.144E+01 0.174E+01   0.309E+01 0.140E+01 -.179E+01   -.150E+00 0.191E-01 0.448E-01   0.140E-04 0.523E-04 0.254E-04
   0.790E-01 0.176E+01 -.790E-01   -.853E-01 -.185E+01 0.853E-01   -.160E-01 0.803E-01 0.160E-01   0.276E-04 0.618E-04 -.276E-04
   -.280E+01 -.447E+00 -.359E+01   0.291E+01 0.483E+00 0.382E+01   -.105E+00 -.302E-01 -.224E+00   -.279E-04 0.134E-04 -.346E-04
   -.177E+02 -.523E+01 0.322E+01   0.184E+02 0.604E+01 -.392E+01   -.779E+00 -.795E+00 0.669E+00   0.461E-04 0.149E-03 -.191E-05
   0.166E+01 -.534E+01 -.166E+01   -.163E+01 0.550E+01 0.163E+01   -.127E-01 -.392E+00 0.127E-01   -.244E-04 0.329E-05 0.244E-04
   -.112E+01 0.139E+01 -.127E+01   0.130E+01 -.157E+01 0.147E+01   -.183E+00 0.170E+00 -.188E+00   -.138E-04 -.219E-04 -.310E-04
   -.625E+01 0.567E+01 -.343E+01   0.695E+01 -.638E+01 0.436E+01   -.805E+00 0.742E+00 -.856E+00   0.143E-04 -.112E-03 0.592E-04
   -.325E+01 0.208E+01 0.325E+01   0.342E+01 -.203E+01 -.342E+01   -.163E+00 -.319E-01 0.163E+00   -.392E-05 -.756E-04 0.392E-05
   -.825E-01 -.902E+00 -.155E+01   -.564E-01 0.964E+00 0.168E+01   0.109E+00 -.742E-01 -.135E+00   -.360E-06 -.644E-05 -.695E-05
   0.117E+01 -.362E+01 -.117E+01   -.110E+01 0.372E+01 0.110E+01   -.600E-01 -.101E+00 0.600E-01   -.363E-04 0.584E-04 0.363E-04
   -.174E+01 -.144E+01 0.293E+01   0.179E+01 0.140E+01 -.309E+01   -.448E-01 0.191E-01 0.150E+00   -.254E-04 0.523E-04 -.140E-04
   0.131E+01 -.176E+01 -.380E+01   -.140E+01 0.192E+01 0.413E+01   0.111E+00 -.161E+00 -.334E+00   -.938E-05 0.273E-05 -.864E-04
   0.498E+02 -.527E+02 -.498E+02   -.554E+02 0.579E+02 0.554E+02   0.578E+01 -.672E+01 -.578E+01   -.618E-05 -.126E-03 0.617E-05
   -.322E+01 -.523E+01 0.177E+02   0.392E+01 0.604E+01 -.184E+02   -.669E+00 -.795E+00 0.779E+00   0.190E-05 0.149E-03 -.461E-04
   0.805E+00 0.317E+01 -.261E+01   -.803E+00 -.330E+01 0.282E+01   -.784E-02 0.135E+00 -.209E+00   0.157E-04 0.137E-04 -.838E-04
   0.509E+01 0.189E+02 -.509E+01   -.519E+01 -.200E+02 0.519E+01   0.909E-01 0.117E+01 -.909E-01   -.882E-04 -.178E-03 0.882E-04
   0.343E+01 0.567E+01 0.625E+01   -.436E+01 -.638E+01 -.695E+01   0.856E+00 0.742E+00 0.805E+00   -.592E-04 -.112E-03 -.143E-04
   -.264E-01 0.160E+00 -.169E+01   0.115E-01 -.113E+00 0.176E+01   0.921E-02 -.536E-01 -.743E-01   0.176E-04 0.229E-04 0.135E-04
   -.144E+01 -.293E+01 0.174E+01   0.140E+01 0.309E+01 -.179E+01   0.191E-01 -.150E+00 0.448E-01   0.523E-04 0.140E-04 0.254E-04
   0.176E+01 0.790E-01 -.790E-01   -.185E+01 -.853E-01 0.853E-01   0.803E-01 -.160E-01 0.160E-01   0.618E-04 0.276E-04 -.276E-04
   -.902E+00 -.825E-01 -.155E+01   0.964E+00 -.564E-01 0.168E+01   -.742E-01 0.109E+00 -.135E+00   -.643E-05 -.356E-06 -.695E-05
   -.362E+01 0.117E+01 -.117E+01   0.372E+01 -.110E+01 0.110E+01   -.101E+00 -.600E-01 0.600E-01   0.584E-04 -.363E-04 0.363E-04
   -.144E+01 -.174E+01 0.293E+01   0.140E+01 0.179E+01 -.309E+01   0.191E-01 -.448E-01 0.150E+00   0.523E-04 -.254E-04 -.140E-04
   0.213E+00 0.101E+01 -.101E+01   -.204E+00 -.109E+01 0.109E+01   -.187E-01 0.726E-01 -.726E-01   -.339E-04 -.236E-04 0.236E-04
   -.902E+00 0.155E+01 0.825E-01   0.964E+00 -.168E+01 0.564E-01   -.742E-01 0.135E+00 -.109E+00   -.643E-05 0.695E-05 0.356E-06
   -.264E-01 0.169E+01 -.160E+00   0.115E-01 -.176E+01 0.113E+00   0.921E-02 0.743E-01 0.536E-01   0.176E-04 -.135E-04 -.229E-04
   -.447E+00 -.280E+01 -.359E+01   0.483E+00 0.291E+01 0.382E+01   -.302E-01 -.105E+00 -.224E+00   0.134E-04 -.279E-04 -.346E-04
   -.523E+01 -.177E+02 0.322E+01   0.604E+01 0.184E+02 -.392E+01   -.795E+00 -.779E+00 0.669E+00   0.149E-03 0.461E-04 -.191E-05
   -.534E+01 0.166E+01 -.166E+01   0.550E+01 -.163E+01 0.163E+01   -.392E+00 -.127E-01 0.127E-01   0.328E-05 -.244E-04 0.244E-04
   -.176E+01 0.131E+01 -.380E+01   0.192E+01 -.140E+01 0.413E+01   -.161E+00 0.111E+00 -.334E+00   0.273E-05 -.937E-05 -.864E-04
   -.527E+02 0.498E+02 -.498E+02   0.579E+02 -.554E+02 0.554E+02   -.672E+01 0.578E+01 -.578E+01   -.126E-03 -.617E-05 0.617E-05
   -.523E+01 -.322E+01 0.177E+02   0.604E+01 0.392E+01 -.184E+02   -.795E+00 -.669E+00 0.779E+00   0.149E-03 0.191E-05 -.461E-04
   0.157E+01 0.121E+01 -.121E+01   -.144E+01 -.132E+01 0.132E+01   -.150E+00 0.112E+00 -.112E+00   0.223E-04 0.243E-04 -.243E-04
   -.176E+01 0.380E+01 -.131E+01   0.192E+01 -.413E+01 0.140E+01   -.161E+00 0.334E+00 -.111E+00   0.273E-05 0.864E-04 0.937E-05
   -.447E+00 0.359E+01 0.280E+01   0.483E+00 -.382E+01 -.291E+01   -.302E-01 0.224E+00 0.105E+00   0.134E-04 0.346E-04 0.279E-04
   0.139E+01 -.112E+01 -.127E+01   -.157E+01 0.130E+01 0.147E+01   0.170E+00 -.183E+00 -.188E+00   -.219E-04 -.138E-04 -.310E-04
   0.567E+01 -.625E+01 -.343E+01   -.638E+01 0.695E+01 0.436E+01   0.742E+00 -.805E+00 -.856E+00   -.112E-03 0.143E-04 0.592E-04
   0.208E+01 -.325E+01 0.325E+01   -.203E+01 0.342E+01 -.342E+01   -.319E-01 -.163E+00 0.163E+00   -.756E-04 -.392E-05 0.392E-05
   0.317E+01 0.805E+00 -.261E+01   -.330E+01 -.803E+00 0.282E+01   0.135E+00 -.784E-02 -.209E+00   0.137E-04 0.157E-04 -.838E-04
   0.189E+02 0.509E+01 -.509E+01   -.200E+02 -.519E+01 0.519E+01   0.117E+01 0.909E-01 -.909E-01   -.178E-03 -.882E-04 0.882E-04
   0.567E+01 0.343E+01 0.625E+01   -.638E+01 -.436E+01 -.695E+01   0.742E+00 0.856E+00 0.805E+00   -.112E-03 -.592E-04 -.143E-04
   0.108E+01 0.126E+01 -.126E+01   -.117E+01 -.133E+01 0.133E+01   0.861E-01 0.601E-01 -.601E-01   0.175E-04 -.207E-05 0.207E-05
   0.317E+01 0.261E+01 -.805E+00   -.330E+01 -.282E+01 0.803E+00   0.135E+00 0.209E+00 0.784E-02   0.137E-04 0.838E-04 -.157E-04
   0.139E+01 0.127E+01 0.112E+01   -.157E+01 -.147E+01 -.130E+01   0.170E+00 0.188E+00 0.183E+00   -.219E-04 0.310E-04 0.138E-04
   -.368E+00 -.368E+00 -.559E+00   0.371E+00 0.371E+00 0.631E+00   -.993E-02 -.993E-02 -.679E-01   0.224E-05 0.223E-05 0.341E-04
   0.360E+00 0.360E+00 -.470E+00   -.443E+00 -.443E+00 0.484E+00   0.922E-01 0.922E-01 0.402E-01   0.431E-04 0.431E-04 -.261E-04
   0.902E+00 0.902E+00 -.902E+00   -.939E+00 -.939E+00 0.939E+00   0.257E-01 0.257E-01 -.257E-01   0.178E-04 0.178E-04 -.178E-04
   -.292E+01 0.591E+00 -.287E+01   0.299E+01 -.430E+00 0.290E+01   -.722E-01 -.139E+00 -.345E-01   0.313E-04 0.226E-04 0.569E-04
   -.400E+00 -.314E+01 0.314E+01   0.385E+00 0.332E+01 -.332E+01   -.963E-02 -.168E+00 0.168E+00   0.565E-04 0.237E-04 -.237E-04
   0.360E+00 0.470E+00 -.360E+00   -.443E+00 -.484E+00 0.443E+00   0.922E-01 -.402E-01 -.922E-01   0.431E-04 0.261E-04 -.431E-04
   -.945E+00 0.174E+01 -.174E+01   0.106E+01 -.191E+01 0.191E+01   -.126E+00 0.161E+00 -.161E+00   -.286E-04 -.108E-04 0.108E-04
   -.292E+01 0.287E+01 -.591E+00   0.299E+01 -.290E+01 0.430E+00   -.722E-01 0.345E-01 0.139E+00   0.313E-04 -.569E-04 -.226E-04
   -.368E+00 0.559E+00 0.368E+00   0.371E+00 -.631E+00 -.371E+00   -.993E-02 0.679E-01 0.993E-02   0.224E-05 -.341E-04 -.223E-05
   0.591E+00 -.292E+01 -.287E+01   -.430E+00 0.299E+01 0.290E+01   -.139E+00 -.722E-01 -.345E-01   0.226E-04 0.313E-04 0.569E-04
   -.314E+01 -.400E+00 0.314E+01   0.332E+01 0.385E+00 -.332E+01   -.168E+00 -.963E-02 0.168E+00   0.237E-04 0.565E-04 -.237E-04
   0.470E+00 0.360E+00 -.360E+00   -.484E+00 -.443E+00 0.443E+00   -.402E-01 0.922E-01 -.922E-01   0.261E-04 0.431E-04 -.431E-04
   -.514E+01 -.514E+01 -.169E+02   0.525E+01 0.525E+01 0.179E+02   -.898E-01 -.898E-01 -.940E+00   0.462E-04 0.462E-04 0.235E-03
   -.314E+01 -.314E+01 0.400E+00   0.332E+01 0.332E+01 -.385E+00   -.168E+00 -.168E+00 0.963E-02   0.237E-04 0.237E-04 -.565E-04
   -.231E+01 0.540E+01 -.540E+01   0.317E+01 -.608E+01 0.608E+01   -.970E+00 0.673E+00 -.673E+00   0.751E-06 -.652E-04 0.652E-04
   -.514E+01 0.169E+02 0.514E+01   0.525E+01 -.179E+02 -.525E+01   -.898E-01 0.940E+00 0.898E-01   0.462E-04 -.235E-03 -.462E-04
   0.591E+00 0.287E+01 0.292E+01   -.430E+00 -.290E+01 -.299E+01   -.139E+00 0.345E-01 0.722E-01   0.226E-04 -.569E-04 -.313E-04
   0.174E+01 -.945E+00 -.174E+01   -.191E+01 0.106E+01 0.191E+01   0.161E+00 -.126E+00 -.161E+00   -.108E-04 -.286E-04 0.108E-04
   0.287E+01 -.292E+01 -.591E+00   -.290E+01 0.299E+01 0.430E+00   0.345E-01 -.722E-01 0.139E+00   -.569E-04 0.313E-04 -.226E-04
   0.559E+00 -.368E+00 0.368E+00   -.631E+00 0.371E+00 -.371E+00   0.679E-01 -.993E-02 0.993E-02   -.341E-04 0.223E-05 -.223E-05
   0.540E+01 -.231E+01 -.540E+01   -.608E+01 0.317E+01 0.608E+01   0.673E+00 -.970E+00 -.673E+00   -.652E-04 0.757E-06 0.652E-04
   0.169E+02 -.514E+01 0.514E+01   -.179E+02 0.525E+01 -.525E+01   0.940E+00 -.898E-01 0.898E-01   -.235E-03 0.462E-04 -.462E-04
   0.287E+01 0.591E+00 0.292E+01   -.290E+01 -.430E+00 -.299E+01   0.345E-01 -.139E+00 0.722E-01   -.569E-04 0.226E-04 -.313E-04
   0.380E+01 0.380E+01 -.380E+01   -.396E+01 -.396E+01 0.396E+01   0.140E+00 0.140E+00 -.140E+00   0.575E-04 0.575E-04 -.575E-04
   0.540E+01 0.540E+01 0.231E+01   -.608E+01 -.608E+01 -.317E+01   0.673E+00 0.673E+00 0.970E+00   -.652E-04 -.652E-04 -.757E-06
   0.174E+01 0.174E+01 0.945E+00   -.191E+01 -.191E+01 -.106E+01   0.161E+00 0.161E+00 0.126E+00   -.108E-04 -.108E-04 0.286E-04
   0.127E+01 -.112E+01 -.139E+01   -.147E+01 0.130E+01 0.157E+01   0.188E+00 -.183E+00 -.170E+00   0.310E-04 -.138E-04 0.219E-04
   0.359E+01 -.280E+01 0.447E+00   -.382E+01 0.291E+01 -.483E+00   0.224E+00 -.105E+00 0.302E-01   0.346E-04 -.279E-04 -.134E-04
   0.169E+01 0.160E+00 0.264E-01   -.176E+01 -.113E+00 -.115E-01   0.743E-01 -.536E-01 -.921E-02   -.135E-04 0.229E-04 -.176E-04
   0.261E+01 0.805E+00 -.317E+01   -.282E+01 -.803E+00 0.330E+01   0.209E+00 -.784E-02 -.135E+00   0.838E-04 0.157E-04 -.137E-04
   0.380E+01 0.131E+01 0.176E+01   -.413E+01 -.140E+01 -.192E+01   0.334E+00 0.111E+00 0.161E+00   0.865E-04 -.937E-05 -.273E-05
   0.155E+01 -.825E-01 0.902E+00   -.168E+01 -.564E-01 -.964E+00   0.135E+00 0.109E+00 0.742E-01   0.695E-05 -.355E-06 0.644E-05
   0.126E+01 0.126E+01 -.108E+01   -.133E+01 -.133E+01 0.117E+01   0.601E-01 0.601E-01 -.861E-01   -.206E-05 -.207E-05 -.175E-04
   0.121E+01 0.121E+01 -.157E+01   -.132E+01 -.132E+01 0.144E+01   0.112E+00 0.112E+00 0.150E+00   0.243E-04 0.243E-04 -.223E-04
   0.101E+01 0.101E+01 -.213E+00   -.109E+01 -.109E+01 0.204E+00   0.726E-01 0.726E-01 0.187E-01   -.236E-04 -.236E-04 0.339E-04
   -.325E+01 -.325E+01 -.208E+01   0.342E+01 0.342E+01 0.203E+01   -.163E+00 -.163E+00 0.319E-01   -.392E-05 -.392E-05 0.756E-04
   0.166E+01 0.166E+01 0.534E+01   -.163E+01 -.163E+01 -.550E+01   -.127E-01 -.127E-01 0.392E+00   -.244E-04 -.244E-04 -.329E-05
   0.790E-01 0.790E-01 -.176E+01   -.853E-01 -.853E-01 0.185E+01   -.160E-01 -.160E-01 -.803E-01   0.276E-04 0.276E-04 -.618E-04
   -.625E+01 0.343E+01 -.567E+01   0.695E+01 -.436E+01 0.638E+01   -.805E+00 0.856E+00 -.742E+00   0.143E-04 -.592E-04 0.112E-03
   -.177E+02 -.322E+01 0.523E+01   0.184E+02 0.392E+01 -.604E+01   -.779E+00 -.669E+00 0.795E+00   0.461E-04 0.191E-05 -.149E-03
   -.293E+01 -.174E+01 0.144E+01   0.309E+01 0.179E+01 -.140E+01   -.150E+00 -.448E-01 -.191E-01   0.140E-04 -.254E-04 -.523E-04
   -.112E+01 0.127E+01 -.139E+01   0.130E+01 -.147E+01 0.157E+01   -.183E+00 0.188E+00 -.170E+00   -.138E-04 0.310E-04 0.219E-04
   -.280E+01 0.359E+01 0.447E+00   0.291E+01 -.382E+01 -.483E+00   -.105E+00 0.224E+00 0.302E-01   -.279E-04 0.346E-04 -.134E-04
   0.160E+00 0.169E+01 0.264E-01   -.113E+00 -.176E+01 -.115E-01   -.536E-01 0.743E-01 -.921E-02   0.229E-04 -.135E-04 -.176E-04
   0.343E+01 -.625E+01 -.567E+01   -.436E+01 0.695E+01 0.638E+01   0.856E+00 -.805E+00 -.742E+00   -.592E-04 0.143E-04 0.112E-03
   -.322E+01 -.177E+02 0.523E+01   0.392E+01 0.184E+02 -.604E+01   -.669E+00 -.779E+00 0.795E+00   0.190E-05 0.461E-04 -.149E-03
   -.174E+01 -.293E+01 0.144E+01   0.179E+01 0.309E+01 -.140E+01   -.448E-01 -.150E+00 -.191E-01   -.254E-04 0.140E-04 -.523E-04
   0.509E+01 0.509E+01 -.189E+02   -.519E+01 -.519E+01 0.200E+02   0.909E-01 0.909E-01 -.117E+01   -.882E-04 -.882E-04 0.178E-03
   0.498E+02 0.498E+02 0.527E+02   -.554E+02 -.554E+02 -.579E+02   0.578E+01 0.578E+01 0.672E+01   -.618E-05 -.617E-05 0.126E-03
   0.117E+01 0.117E+01 0.362E+01   -.110E+01 -.110E+01 -.372E+01   -.600E-01 -.600E-01 0.101E+00   -.363E-04 -.363E-04 -.584E-04
   0.805E+00 0.261E+01 -.317E+01   -.803E+00 -.282E+01 0.330E+01   -.784E-02 0.209E+00 -.135E+00   0.157E-04 0.838E-04 -.137E-04
   0.131E+01 0.380E+01 0.176E+01   -.140E+01 -.413E+01 -.192E+01   0.111E+00 0.334E+00 0.161E+00   -.938E-05 0.864E-04 -.273E-05
   -.825E-01 0.155E+01 0.902E+00   -.564E-01 -.168E+01 -.964E+00   0.109E+00 0.135E+00 0.742E-01   -.360E-06 0.695E-05 0.644E-05
   0.429E+00 -.266E+00 0.266E+00   -.480E+00 0.252E+00 -.252E+00   0.571E-01 0.179E-01 -.179E-01   -.216E-04 -.243E-04 0.243E-04
   0.158E+01 0.172E+00 -.340E+00   -.170E+01 -.177E+00 0.400E+00   0.128E+00 0.183E-01 -.648E-01   0.458E-05 -.672E-05 -.113E-04
   0.212E+01 -.259E-01 0.200E+01   -.223E+01 -.316E-01 -.208E+01   0.107E+00 0.629E-01 0.828E-01   -.272E-04 0.447E-04 -.104E-04
   0.212E+01 -.200E+01 0.259E-01   -.223E+01 0.208E+01 0.316E-01   0.107E+00 -.828E-01 -.629E-01   -.272E-04 0.104E-04 -.447E-04
   0.496E+01 -.289E+01 -.314E+01   -.550E+01 0.304E+01 0.326E+01   0.526E+00 -.138E+00 -.111E+00   0.749E-05 -.205E-04 0.288E-04
   0.638E+01 -.337E+01 0.337E+01   -.678E+01 0.378E+01 -.378E+01   0.391E+00 -.402E+00 0.402E+00   -.423E-04 -.214E-04 0.214E-04
   0.158E+01 0.340E+00 -.172E+00   -.170E+01 -.400E+00 0.177E+00   0.128E+00 0.648E-01 -.183E-01   0.458E-05 0.113E-04 0.672E-05
   0.543E+01 0.275E+01 -.275E+01   -.584E+01 -.311E+01 0.311E+01   0.450E+00 0.356E+00 -.356E+00   0.545E-04 0.242E-04 -.242E-04
   0.496E+01 0.314E+01 0.289E+01   -.550E+01 -.326E+01 -.304E+01   0.526E+00 0.111E+00 0.138E+00   0.749E-05 -.288E-04 0.205E-04
   -.127E+01 0.240E+00 -.240E+00   0.135E+01 -.261E+00 0.261E+00   -.617E-01 0.288E-01 -.288E-01   0.165E-06 -.543E-05 0.543E-05
   -.188E+01 0.198E+00 -.183E+00   0.193E+01 -.294E+00 0.195E+00   -.512E-01 0.981E-01 -.868E-02   -.312E-05 0.389E-04 0.186E-04
   -.101E+01 0.198E+01 0.164E+01   0.109E+01 -.209E+01 -.178E+01   -.707E-01 0.117E+00 0.129E+00   0.196E-04 0.506E-04 -.179E-04
   -.101E+01 -.164E+01 -.198E+01   0.109E+01 0.178E+01 0.209E+01   -.707E-01 -.129E+00 -.117E+00   0.196E-04 0.179E-04 -.506E-04
   -.508E+01 -.491E+01 -.205E+01   0.524E+01 0.503E+01 0.213E+01   -.151E+00 -.143E+00 -.582E-01   0.200E-04 0.205E-04 0.525E-04
   0.244E+01 -.230E+01 0.230E+01   -.250E+01 0.239E+01 -.239E+01   0.573E-01 -.741E-01 0.741E-01   0.106E-04 -.487E-05 0.487E-05
   -.188E+01 0.183E+00 -.198E+00   0.193E+01 -.195E+00 0.294E+00   -.512E-01 0.868E-02 -.981E-01   -.312E-05 -.186E-04 -.389E-04
   -.401E+01 0.274E+01 -.274E+01   0.456E+01 -.282E+01 0.282E+01   -.511E+00 0.768E-01 -.768E-01   -.194E-04 -.786E-04 0.786E-04
   -.508E+01 0.205E+01 0.491E+01   0.524E+01 -.213E+01 -.503E+01   -.151E+00 0.582E-01 0.143E+00   0.200E-04 -.525E-04 -.205E-04
   -.111E+01 0.643E+00 -.643E+00   0.124E+01 -.684E+00 0.684E+00   -.755E-01 0.509E-01 -.509E-01   0.897E-05 0.245E-04 -.245E-04
   -.351E+00 0.772E+00 -.154E+01   0.354E+00 -.875E+00 0.165E+01   -.126E-01 0.107E+00 -.100E+00   0.457E-05 0.104E-03 0.433E-04
   -.135E+01 0.214E+01 0.225E+01   0.143E+01 -.232E+01 -.237E+01   -.775E-01 0.178E+00 0.121E+00   0.142E-04 0.764E-04 -.158E-04
   -.135E+01 -.225E+01 -.214E+01   0.143E+01 0.237E+01 0.232E+01   -.775E-01 -.121E+00 -.178E+00   0.142E-04 0.158E-04 -.764E-04
   0.774E+01 -.178E+02 -.179E+02   -.652E+01 0.193E+02 0.188E+02   -.900E+00 -.144E+01 -.908E+00   0.232E-03 0.228E-03 0.348E-03
   -.303E+02 -.847E+01 0.847E+01   0.333E+02 0.658E+01 -.658E+01   -.253E+01 0.192E+01 -.192E+01   -.298E-03 0.351E-03 -.351E-03
   -.351E+00 0.154E+01 -.772E+00   0.354E+00 -.165E+01 0.875E+00   -.126E-01 0.100E+00 -.107E+00   0.457E-05 -.433E-04 -.104E-03
   -.908E+01 0.187E+02 -.187E+02   0.872E+01 -.198E+02 0.198E+02   0.652E+00 0.934E+00 -.934E+00   -.293E-03 -.307E-03 0.307E-03
   0.774E+01 0.179E+02 0.178E+02   -.652E+01 -.188E+02 -.193E+02   -.900E+00 0.908E+00 0.144E+01   0.232E-03 -.348E-03 -.228E-03
   0.240E+00 -.127E+01 -.240E+00   -.261E+00 0.135E+01 0.261E+00   0.288E-01 -.617E-01 -.288E-01   -.542E-05 0.163E-06 0.543E-05
   0.198E+00 -.188E+01 -.183E+00   -.294E+00 0.193E+01 0.195E+00   0.981E-01 -.512E-01 -.868E-02   0.389E-04 -.312E-05 0.186E-04
   0.198E+01 -.101E+01 0.164E+01   -.209E+01 0.109E+01 -.178E+01   0.117E+00 -.707E-01 0.129E+00   0.506E-04 0.196E-04 -.179E-04
   0.643E+00 -.111E+01 -.643E+00   -.684E+00 0.124E+01 0.684E+00   0.509E-01 -.755E-01 -.509E-01   0.245E-04 0.898E-05 -.245E-04
   0.772E+00 -.351E+00 -.154E+01   -.875E+00 0.354E+00 0.165E+01   0.107E+00 -.126E-01 -.100E+00   0.104E-03 0.458E-05 0.433E-04
   0.214E+01 -.135E+01 0.225E+01   -.232E+01 0.143E+01 -.237E+01   0.178E+00 -.775E-01 0.121E+00   0.764E-04 0.142E-04 -.158E-04
   -.266E+00 0.429E+00 0.266E+00   0.252E+00 -.480E+00 -.252E+00   0.179E-01 0.571E-01 -.179E-01   -.243E-04 -.216E-04 0.243E-04
   0.172E+00 0.158E+01 -.340E+00   -.177E+00 -.170E+01 0.400E+00   0.183E-01 0.128E+00 -.648E-01   -.671E-05 0.458E-05 -.113E-04
   -.259E-01 0.212E+01 0.200E+01   -.316E-01 -.223E+01 -.208E+01   0.629E-01 0.107E+00 0.828E-01   0.447E-04 -.272E-04 -.104E-04
   -.164E+01 -.101E+01 -.198E+01   0.178E+01 0.109E+01 0.209E+01   -.129E+00 -.707E-01 -.117E+00   0.179E-04 0.196E-04 -.506E-04
   -.491E+01 -.508E+01 -.205E+01   0.503E+01 0.524E+01 0.213E+01   -.143E+00 -.151E+00 -.582E-01   0.205E-04 0.200E-04 0.525E-04
   -.230E+01 0.244E+01 0.230E+01   0.239E+01 -.250E+01 -.239E+01   -.741E-01 0.573E-01 0.741E-01   -.488E-05 0.106E-04 0.487E-05
   -.225E+01 -.135E+01 -.214E+01   0.237E+01 0.143E+01 0.232E+01   -.121E+00 -.775E-01 -.178E+00   0.158E-04 0.142E-04 -.764E-04
   -.178E+02 0.774E+01 -.179E+02   0.193E+02 -.652E+01 0.188E+02   -.144E+01 -.900E+00 -.908E+00   0.228E-03 0.232E-03 0.348E-03
   -.847E+01 -.303E+02 0.847E+01   0.658E+01 0.333E+02 -.658E+01   0.192E+01 -.253E+01 -.192E+01   0.351E-03 -.298E-03 -.351E-03
   -.200E+01 0.212E+01 0.259E-01   0.208E+01 -.223E+01 0.316E-01   -.828E-01 0.107E+00 -.629E-01   0.104E-04 -.272E-04 -.447E-04
   -.289E+01 0.496E+01 -.314E+01   0.304E+01 -.550E+01 0.326E+01   -.138E+00 0.526E+00 -.111E+00   -.206E-04 0.749E-05 0.289E-04
   -.337E+01 0.638E+01 0.337E+01   0.378E+01 -.678E+01 -.378E+01   -.402E+00 0.391E+00 0.402E+00   -.214E-04 -.423E-04 0.214E-04
   0.183E+00 -.188E+01 -.198E+00   -.195E+00 0.193E+01 0.294E+00   0.868E-02 -.512E-01 -.981E-01   -.186E-04 -.313E-05 -.389E-04
   0.274E+01 -.401E+01 -.274E+01   -.282E+01 0.456E+01 0.282E+01   0.768E-01 -.511E+00 -.768E-01   -.786E-04 -.194E-04 0.786E-04
   0.205E+01 -.508E+01 0.491E+01   -.213E+01 0.524E+01 -.503E+01   0.582E-01 -.151E+00 0.143E+00   -.525E-04 0.200E-04 -.205E-04
   0.154E+01 -.351E+00 -.772E+00   -.165E+01 0.354E+00 0.875E+00   0.100E+00 -.126E-01 -.107E+00   -.433E-04 0.458E-05 -.104E-03
   0.187E+02 -.908E+01 -.187E+02   -.198E+02 0.872E+01 0.198E+02   0.934E+00 0.652E+00 -.934E+00   -.307E-03 -.293E-03 0.307E-03
   0.179E+02 0.774E+01 0.178E+02   -.188E+02 -.652E+01 -.193E+02   0.908E+00 -.900E+00 0.144E+01   -.348E-03 0.232E-03 -.228E-03
   0.340E+00 0.158E+01 -.172E+00   -.400E+00 -.170E+01 0.177E+00   0.648E-01 0.128E+00 -.183E-01   0.113E-04 0.458E-05 0.672E-05
   0.275E+01 0.543E+01 -.275E+01   -.311E+01 -.584E+01 0.311E+01   0.356E+00 0.450E+00 -.356E+00   0.242E-04 0.545E-04 -.242E-04
   0.314E+01 0.496E+01 0.289E+01   -.326E+01 -.550E+01 -.304E+01   0.111E+00 0.526E+00 0.138E+00   -.289E-04 0.749E-05 0.205E-04
   -.266E+00 -.266E+00 -.429E+00   0.252E+00 0.252E+00 0.480E+00   0.179E-01 0.179E-01 -.571E-01   -.243E-04 -.243E-04 0.216E-04
   0.643E+00 0.643E+00 0.111E+01   -.684E+00 -.684E+00 -.124E+01   0.509E-01 0.509E-01 0.755E-01   0.245E-04 0.245E-04 -.898E-05
   0.240E+00 0.240E+00 0.127E+01   -.261E+00 -.261E+00 -.135E+01   0.288E-01 0.288E-01 0.617E-01   -.542E-05 -.543E-05 -.163E-06
   -.259E-01 -.200E+01 -.212E+01   -.316E-01 0.208E+01 0.223E+01   0.629E-01 -.828E-01 -.107E+00   0.447E-04 0.104E-04 0.272E-04
   0.214E+01 -.225E+01 0.135E+01   -.232E+01 0.237E+01 -.143E+01   0.178E+00 -.121E+00 0.775E-01   0.764E-04 0.158E-04 -.142E-04
   0.198E+01 -.164E+01 0.101E+01   -.209E+01 0.178E+01 -.109E+01   0.117E+00 -.129E+00 0.707E-01   0.506E-04 0.179E-04 -.196E-04
   0.172E+00 0.340E+00 -.158E+01   -.177E+00 -.400E+00 0.170E+01   0.183E-01 0.648E-01 -.128E+00   -.671E-05 0.113E-04 -.458E-05
   0.772E+00 0.154E+01 0.351E+00   -.875E+00 -.165E+01 -.354E+00   0.107E+00 0.100E+00 0.126E-01   0.104E-03 -.433E-04 -.458E-05
   0.198E+00 0.183E+00 0.188E+01   -.294E+00 -.195E+00 -.193E+01   0.981E-01 0.868E-02 0.512E-01   0.389E-04 -.186E-04 0.312E-05
   -.200E+01 -.259E-01 -.212E+01   0.208E+01 -.316E-01 0.223E+01   -.828E-01 0.629E-01 -.107E+00   0.104E-04 0.447E-04 0.272E-04
   -.225E+01 0.214E+01 0.135E+01   0.237E+01 -.232E+01 -.143E+01   -.121E+00 0.178E+00 0.775E-01   0.158E-04 0.764E-04 -.142E-04
   -.164E+01 0.198E+01 0.101E+01   0.178E+01 -.209E+01 -.109E+01   -.129E+00 0.117E+00 0.707E-01   0.179E-04 0.506E-04 -.196E-04
   -.337E+01 -.337E+01 -.638E+01   0.378E+01 0.378E+01 0.678E+01   -.402E+00 -.402E+00 -.391E+00   -.214E-04 -.214E-04 0.423E-04
   -.847E+01 -.847E+01 0.303E+02   0.658E+01 0.658E+01 -.333E+02   0.192E+01 0.192E+01 0.253E+01   0.351E-03 0.351E-03 0.298E-03
   -.230E+01 -.230E+01 -.244E+01   0.239E+01 0.239E+01 0.250E+01   -.741E-01 -.741E-01 -.573E-01   -.488E-05 -.487E-05 -.106E-04
   -.289E+01 0.314E+01 -.496E+01   0.304E+01 -.326E+01 0.550E+01   -.138E+00 0.111E+00 -.526E+00   -.206E-04 -.289E-04 -.749E-05
   -.178E+02 0.179E+02 -.774E+01   0.193E+02 -.188E+02 0.652E+01   -.144E+01 0.908E+00 0.900E+00   0.228E-03 -.348E-03 -.232E-03
   -.491E+01 0.205E+01 0.508E+01   0.503E+01 -.213E+01 -.524E+01   -.143E+00 0.582E-01 0.151E+00   0.205E-04 -.525E-04 -.200E-04
   0.340E+00 0.172E+00 -.158E+01   -.400E+00 -.177E+00 0.170E+01   0.648E-01 0.183E-01 -.128E+00   0.113E-04 -.672E-05 -.458E-05
   0.154E+01 0.772E+00 0.351E+00   -.165E+01 -.875E+00 -.354E+00   0.100E+00 0.107E+00 0.126E-01   -.433E-04 0.104E-03 -.458E-05
   0.183E+00 0.198E+00 0.188E+01   -.195E+00 -.294E+00 -.193E+01   0.868E-02 0.981E-01 0.512E-01   -.186E-04 0.389E-04 0.313E-05
   0.314E+01 -.289E+01 -.496E+01   -.326E+01 0.304E+01 0.550E+01   0.111E+00 -.138E+00 -.526E+00   -.289E-04 -.205E-04 -.749E-05
   0.179E+02 -.178E+02 -.774E+01   -.188E+02 0.193E+02 0.652E+01   0.908E+00 -.144E+01 0.900E+00   -.348E-03 0.228E-03 -.232E-03
   0.205E+01 -.491E+01 0.508E+01   -.213E+01 0.503E+01 -.524E+01   0.582E-01 -.143E+00 0.151E+00   -.525E-04 0.205E-04 -.200E-04
   0.275E+01 0.275E+01 -.543E+01   -.311E+01 -.311E+01 0.584E+01   0.356E+00 0.356E+00 -.450E+00   0.242E-04 0.242E-04 -.545E-04
   0.187E+02 0.187E+02 0.908E+01   -.198E+02 -.198E+02 -.872E+01   0.934E+00 0.934E+00 -.652E+00   -.307E-03 -.307E-03 0.293E-03
   0.274E+01 0.274E+01 0.401E+01   -.282E+01 -.282E+01 -.456E+01   0.768E-01 0.768E-01 0.511E+00   -.786E-04 -.786E-04 0.194E-04
   0.113E+01 -.166E+01 -.113E+01   -.123E+01 0.175E+01 0.123E+01   0.966E-01 -.894E-01 -.966E-01   0.408E-05 -.433E-04 -.408E-05
   0.341E+01 -.248E+01 -.750E+00   -.369E+01 0.278E+01 0.394E+00   0.314E+00 -.329E+00 0.317E+00   -.509E-04 -.152E-04 0.847E-06
   0.207E+01 -.213E+01 0.213E+01   -.218E+01 0.222E+01 -.222E+01   0.106E+00 -.881E-01 0.881E-01   -.456E-04 0.856E-05 -.856E-05
   0.280E+01 -.207E+01 -.280E+01   -.305E+01 0.190E+01 0.305E+01   0.263E+00 0.217E+00 -.263E+00   0.294E-04 0.424E-05 -.294E-04
   0.109E+02 -.389E-02 0.389E-02   -.115E+02 0.556E-01 -.556E-01   0.563E+00 -.599E-01 0.599E-01   -.357E-04 -.114E-04 0.114E-04
   0.341E+01 0.750E+00 0.248E+01   -.369E+01 -.394E+00 -.278E+01   0.314E+00 -.317E+00 0.329E+00   -.509E-04 -.847E-06 0.152E-04
   0.139E+01 0.139E+01 -.139E+01   -.151E+01 -.151E+01 0.151E+01   0.128E+00 0.128E+00 -.128E+00   0.224E-04 0.224E-04 -.224E-04
   0.280E+01 0.280E+01 0.207E+01   -.305E+01 -.305E+01 -.190E+01   0.263E+00 0.263E+00 -.217E+00   0.294E-04 0.294E-04 -.424E-05
   0.113E+01 0.113E+01 0.166E+01   -.123E+01 -.123E+01 -.175E+01   0.966E-01 0.966E-01 0.894E-01   0.408E-05 0.408E-05 0.433E-04
   -.213E+01 -.213E+01 -.207E+01   0.222E+01 0.222E+01 0.218E+01   -.881E-01 -.881E-01 -.106E+00   0.857E-05 0.857E-05 0.456E-04
   -.798E+00 -.798E+00 0.380E+01   0.714E+00 0.714E+00 -.402E+01   0.130E+00 0.130E+00 0.120E+00   0.325E-04 0.325E-04 0.116E-04
   -.168E+00 -.168E+00 0.168E+00   0.211E+00 0.211E+00 -.211E+00   -.255E-01 -.255E-01 0.255E-01   0.538E-04 0.538E-04 -.538E-04
   -.248E+01 0.750E+00 -.341E+01   0.278E+01 -.394E+00 0.369E+01   -.329E+00 -.317E+00 -.314E+00   -.152E-04 -.847E-06 0.509E-04
   -.448E+01 -.316E+01 0.316E+01   0.452E+01 0.328E+01 -.328E+01   -.355E-01 -.117E+00 0.117E+00   0.485E-04 0.345E-04 -.345E-04
   -.798E+00 -.380E+01 0.798E+00   0.714E+00 0.402E+01 -.714E+00   0.130E+00 -.120E+00 -.130E+00   0.325E-04 -.116E-04 -.325E-04
   -.166E+01 0.113E+01 -.113E+01   0.175E+01 -.123E+01 0.123E+01   -.894E-01 0.966E-01 -.966E-01   -.433E-04 0.408E-05 -.408E-05
   -.248E+01 0.341E+01 -.750E+00   0.278E+01 -.369E+01 0.394E+00   -.329E+00 0.314E+00 0.317E+00   -.152E-04 -.509E-04 0.847E-06
   -.213E+01 0.207E+01 0.213E+01   0.222E+01 -.218E+01 -.222E+01   -.881E-01 0.106E+00 0.881E-01   0.857E-05 -.456E-04 -.857E-05
   0.750E+00 -.248E+01 -.341E+01   -.394E+00 0.278E+01 0.369E+01   -.317E+00 -.329E+00 -.314E+00   -.852E-06 -.152E-04 0.509E-04
   -.316E+01 -.448E+01 0.316E+01   0.328E+01 0.452E+01 -.328E+01   -.117E+00 -.355E-01 0.117E+00   0.345E-04 0.485E-04 -.345E-04
   -.380E+01 -.798E+00 0.798E+00   0.402E+01 0.714E+00 -.714E+00   -.120E+00 0.130E+00 -.130E+00   -.116E-04 0.325E-04 -.325E-04
   -.389E-02 -.389E-02 -.109E+02   0.556E-01 0.556E-01 0.115E+02   -.599E-01 -.599E-01 -.563E+00   -.114E-04 -.114E-04 0.357E-04
   -.316E+01 -.316E+01 0.448E+01   0.328E+01 0.328E+01 -.452E+01   -.117E+00 -.117E+00 0.355E-01   0.345E-04 0.345E-04 -.485E-04
   -.207E+01 0.280E+01 -.280E+01   0.190E+01 -.305E+01 0.305E+01   0.217E+00 0.263E+00 -.263E+00   0.423E-05 0.294E-04 -.294E-04
   -.389E-02 0.109E+02 0.389E-02   0.556E-01 -.115E+02 -.556E-01   -.599E-01 0.563E+00 0.599E-01   -.114E-04 -.357E-04 0.114E-04
   0.750E+00 0.341E+01 0.248E+01   -.394E+00 -.369E+01 -.278E+01   -.317E+00 0.314E+00 0.329E+00   -.852E-06 -.509E-04 0.152E-04
   -.673E+02 -.673E+02 0.673E+02   0.792E+02 0.792E+02 -.792E+02   -.115E+02 -.115E+02 0.115E+02   0.477E-03 0.477E-03 -.477E-03
 -----------------------------------------------------------------------------------------------
   0.268E+01 0.269E+01 -.269E+01   0.242E-12 -.156E-12 -.654E-12   -.260E+01 -.260E+01 0.260E+01   0.638E-03 0.638E-03 -.638E-03
 
 
 POSITION                                       TOTAL-FORCE (eV/Angst)
 -----------------------------------------------------------------------------------
      0.89221      0.89497      0.89465        -0.007012     -0.010016      0.007012
      0.89508      0.89504      4.46839         0.002131     -0.013016      0.030694
      0.88660      0.89313      8.04098        -0.003632     -0.006050      0.006737
      0.89651      4.46937      0.89035         0.000739     -0.020414     -0.000739
      0.89381      4.47048      4.46733         0.005153      0.005818     -0.015765
      0.88784      4.46665      8.03919        -0.012107      0.005371     -0.002772
      0.89580      8.04174      0.89106        -0.011199     -0.009041      0.011199
      0.89846      8.04327      4.46451        -0.003319      0.001279      0.005806
      0.89513      8.03873      8.03746        -0.008588     -0.004348      0.003906
      4.46701      0.89313      0.90025        -0.006737     -0.006050      0.003632
      4.46820      0.89516      4.47337         0.004317     -0.016723     -0.001838
      4.46041      0.88298      8.04758        -0.022675     -0.009779      0.022675
      4.46880      4.46665      0.89902         0.002772      0.005371      0.012107
      4.48799      4.47548      4.48857        -0.067637      0.010111     -0.025763
      4.44933      4.45731      8.05867         0.021965     -0.225514     -0.021965
      4.47054      8.03873      0.89173        -0.003906     -0.004348      0.008588
      4.46751      8.04420      4.46924        -0.103536      0.031824      0.079200
      4.47309      8.02997      8.03490         0.005692      0.011771     -0.005692
      8.03960      0.89504      0.89178        -0.030694     -0.013016     -0.002131
      8.03989      0.89957      4.46810         0.006737      0.008220     -0.006737
      8.03463      0.89516      8.03979         0.001838     -0.016723     -0.004317
      8.04067      4.47048      0.89304         0.015765      0.005818     -0.005153
      8.10752      4.43191      4.40047         0.249020     -1.461833     -0.249020
      8.01942      4.47548      8.02001         0.025763      0.010111      0.067637
      8.04348      8.04327      0.88840        -0.005806      0.001279      0.003319
      8.04448      8.04015      4.46351        -0.015676      0.057843      0.015676
      8.03876      8.04420      8.04048        -0.079200      0.031824      0.103536
      2.67999      2.68016      0.90025        -0.006050     -0.006737      0.003632
      2.68202      2.68135      4.47337        -0.016723      0.004317     -0.001838
      2.66983      2.67355      8.04758        -0.009779     -0.022675      0.022675
      2.68189      6.25274      0.89178        -0.013016     -0.030694     -0.002131
      2.68643      6.25304      4.46810         0.008220      0.006737     -0.006737
      2.68202      6.24777      8.03979        -0.016723      0.001838     -0.004317
      2.68183      9.82649      0.89465        -0.010016     -0.007012      0.007012
      2.68189      9.82936      4.46839        -0.013016      0.002131      0.030694
      2.67999      9.82088      8.04098        -0.006050     -0.003632      0.006737
      6.25350      2.68195      0.89902         0.005371      0.002772      0.012107
      6.26234      2.70113      4.48857         0.010111     -0.067637     -0.025763
      6.24417      2.66247      8.05867        -0.225514      0.021965     -0.021965
      6.25734      6.25381      0.89304         0.005818      0.015765     -0.005153
      6.21877      6.32066      4.40047        -1.461833      0.249020     -0.249020
      6.26234      6.23256      8.02001         0.010111      0.025763      0.067637
      6.25622      9.83079      0.89035        -0.020414      0.000739     -0.000739
      6.25734      9.82809      4.46733         0.005818      0.005153     -0.015765
      6.25350      9.82212      8.03919         0.005371     -0.012107     -0.002772
      9.82559      2.68368      0.89173        -0.004348     -0.003906      0.008588
      9.83105      2.68066      4.46924         0.031824     -0.103536      0.079200
      9.81683      2.68623      8.03490         0.011771      0.005692     -0.005692
      9.83013      6.25663      0.88840         0.001279     -0.005806      0.003319
      9.82700      6.25763      4.46351         0.057843     -0.015676      0.015676
      9.83105      6.25190      8.04048         0.031824     -0.079200      0.103536
      9.82859      9.83008      0.89106        -0.009041     -0.011199      0.011199
      9.83013      9.83274      4.46451         0.001279     -0.003319      0.005806
      9.82559      9.82941      8.03746        -0.004348     -0.008588      0.003906
      2.68260      0.89574      2.68432        -0.006637     -0.006637      0.004606
      2.67449      0.88763      6.25760         0.009115      0.009115      0.055001
      2.67597      0.88912      9.83202        -0.011608     -0.011608      0.011608
      2.68789      4.46963      2.68776        -0.000444      0.021546     -0.006290
      2.67847      4.46383      6.25731        -0.024710      0.010126     -0.010126
      2.67449      4.46353      9.83350         0.009115     -0.055001     -0.009115
      2.68489      8.04132      2.67981        -0.012490     -0.007388      0.007388
      2.68789      8.03337      6.25150        -0.000444      0.006290     -0.021546
      2.68260      8.03682      9.82540        -0.006637     -0.004606      0.006637
      6.25649      0.90103      2.68776         0.021546     -0.000444     -0.006290
      6.25068      0.89162      6.25731         0.010126     -0.024710     -0.010126
      6.25039      0.88763      9.83350        -0.055001      0.009115     -0.009115
      6.26244      4.47558      2.69122         0.020357      0.020357      0.016001
      6.25068      4.46383      9.82952         0.010126      0.010126      0.024710
      6.26300      8.05329      2.66784        -0.115313     -0.008203      0.008203
      6.26244      8.02991      6.24555         0.020357     -0.016001     -0.020357
      6.25649      8.03337      9.82011         0.021546      0.006290      0.000444
      9.82818      0.89804      2.67981        -0.007388     -0.012490      0.007388
      9.82023      0.90103      6.25150         0.006290     -0.000444     -0.021546
      9.82367      0.89574      9.82540        -0.004606     -0.006637      0.006637
      9.84015      4.47614      2.66784        -0.008203     -0.115313      0.008203
      9.81677      4.47558      6.24555        -0.016001      0.020357     -0.020357
      9.82023      4.46963      9.82011         0.006290      0.021546      0.000444
      9.83067      8.04381      2.67732        -0.022864     -0.022864      0.022864
      9.84015      8.05329      6.24499        -0.008203     -0.008203      0.115313
      9.82818      8.04132      9.82310        -0.007388     -0.007388      0.012490
      0.89513      2.68368      2.68240        -0.008588     -0.003906      0.004348
      0.88784      2.68195      6.25449        -0.012107      0.002772     -0.005371
      0.88660      2.68016      9.82801        -0.003632     -0.006737      0.006050
      0.89846      6.25663      2.67786        -0.003319     -0.005806     -0.001279
      0.89381      6.25381      6.25065         0.005153      0.015765     -0.005818
      0.89508      6.25274      9.82610         0.002131     -0.030694      0.013016
      0.89580      9.83008      2.67940        -0.011199     -0.011199      0.009041
      0.89651      9.83079      6.25177         0.000739      0.000739      0.020414
      0.89221      9.82649      9.82616        -0.007012     -0.007012      0.010016
      4.47309      2.68623      2.69116         0.005692      0.005692     -0.011771
      4.44933      2.66247      6.26383         0.021965      0.021965      0.225514
      4.46041      2.67355      9.83816        -0.022675     -0.022675      0.009779
      4.46751      6.25190      2.67694        -0.103536     -0.079200     -0.031824
      4.48799      6.23256      6.24565        -0.067637      0.025763     -0.010111
      4.46820      6.24777      9.82598         0.004317      0.001838      0.016723
      4.47054      9.82941      2.68240        -0.003906     -0.008588      0.004348
      4.46880      9.82212      6.25449         0.002772     -0.012107     -0.005371
      4.46701      9.82088      9.82801        -0.006737     -0.003632      0.006050
      8.03876      2.68066      2.67694        -0.079200     -0.103536     -0.031824
      8.01942      2.70113      6.24565         0.025763     -0.067637     -0.010111
      8.03463      2.68135      9.82598         0.001838      0.004317      0.016723
      8.04448      6.25763      2.68099        -0.015676     -0.015676     -0.057843
      8.10752      6.32066      6.28923         0.249020      0.249020      1.461833
      8.03989      6.25304      9.82156         0.006737      0.006737     -0.008220
      8.04348      9.83274      2.67786        -0.005806     -0.003319     -0.001279
      8.04067      9.82809      6.25065         0.015765      0.005153     -0.005818
      8.03960      9.82936      9.82610        -0.030694      0.002131      0.013016
     10.72003      0.00179     10.71934         0.005105      0.004192     -0.004192
      0.00166      0.00410      3.57213         0.010749      0.013521     -0.004012
     10.71642      0.00327      7.14584        -0.005605      0.005067     -0.001145
     10.71642      3.57530     10.71787        -0.005605      0.001145     -0.005067
      0.00129      3.57869      3.57252        -0.012375      0.016285      0.015167
     10.71049      3.58004      7.14110        -0.007856      0.002254     -0.002254
      0.00166      7.14901     10.71704         0.010749      0.004012     -0.013521
      0.00206      7.14890      3.57224         0.039544     -0.002298      0.002298
      0.00129      7.14862      7.14244        -0.012375     -0.015167     -0.016285
      3.57348     10.71787      0.00327         0.010223      0.006975     -0.006975
      3.57684      0.00192      3.57626        -0.003026      0.001597      0.003054
      3.57109     10.71330      7.15016         0.009376      0.001402     -0.015397
      3.57109      3.57097      0.00784         0.009376      0.015397     -0.001402
      3.58690      3.57768      3.58887         0.008020     -0.026695      0.018444
      3.56118      3.56412      7.15702        -0.009141      0.014331     -0.014331
      3.57684      7.14488     10.71921        -0.003026     -0.003054     -0.001597
      3.57940      7.14716      3.57397         0.036828     -0.003734      0.003734
      3.58690      7.13226      7.14345         0.008020     -0.018444      0.026695
      7.14671      0.00012     10.72101         0.053546      0.009638     -0.009638
      7.14927      0.00453      3.57555        -0.010394      0.003747      0.012174
      7.14539     10.71910      7.14623        -0.001882      0.000189      0.006364
      7.14539      3.57490      0.00203        -0.001882     -0.006364     -0.000189
      7.15970      3.59766      3.59044         0.313624      0.094393      0.060275
      7.09915      3.57342      7.14772         0.431650      0.029901     -0.029901
      7.14927      7.14559     10.71661        -0.010394     -0.012174     -0.003747
      7.14549      7.14814      3.57300         0.293502     -0.214260      0.214260
      7.15970      7.13069      7.12348         0.313624     -0.060275     -0.094393
      1.78359      1.78662      0.00327         0.006975      0.010223     -0.006975
      1.78878      1.78998      3.57626         0.001597     -0.003026      0.003054
      1.77902      1.78424      7.15016         0.001402      0.009376     -0.015397
      1.78698      5.35985     10.72101         0.009638      0.053546     -0.009638
      1.79138      5.36241      3.57555         0.003747     -0.010394      0.012174
      1.78482      5.35853      7.14623         0.000189     -0.001882      0.006364
      1.78865      8.93317     10.71934         0.004192      0.005105     -0.004192
      1.79095      8.93594      3.57213         0.013521      0.010749     -0.004012
      1.79013      8.92956      7.14584         0.005067     -0.005605     -0.001145
      5.35783      1.78424      0.00784         0.015397      0.009376     -0.001402
      5.36454      1.80004      3.58887        -0.026695      0.008020      0.018444
      5.35098      1.77433      7.15702         0.014331     -0.009141     -0.014331
      5.36176      5.35853      0.00203        -0.006364     -0.001882     -0.000189
      5.38451      5.37284      3.59044         0.094393      0.313624      0.060275
      5.36027      5.31229      7.14772         0.029901      0.431650     -0.029901
      5.36216      8.92956     10.71787         0.001145     -0.005605     -0.005067
      5.36555      8.93557      3.57252         0.016285     -0.012375      0.015167
      5.36689      8.92363      7.14110         0.002254     -0.007856     -0.002254
      8.93173      1.78998     10.71921        -0.003054     -0.003026     -0.001597
      8.93402      1.79255      3.57397        -0.003734      0.036828      0.003734
      8.91912      1.80004      7.14345        -0.018444      0.008020      0.026695
      8.93245      5.36241     10.71661        -0.012174     -0.010394     -0.003747
      8.93499      5.35863      3.57300        -0.214260      0.293502      0.214260
      8.91755      5.37284      7.12348        -0.060275      0.313624     -0.094393
      8.93586      8.93594     10.71704         0.004012      0.010749     -0.013521
      8.93576      8.93634      3.57224        -0.002298      0.039544      0.002298
      8.93547      8.93557      7.14244        -0.015167     -0.012375     -0.016285
      1.78865      0.00179      1.78796         0.004192      0.004192     -0.005105
      1.78698      0.00012      5.36129         0.009638      0.009638     -0.053546
      1.78359     10.71787      8.93452         0.006975      0.006975     -0.010223
      1.79013      3.57530      1.79157         0.005067      0.001145      0.005605
      1.78482      3.57490      5.36261         0.000189     -0.006364      0.001882
      1.77902      3.57097      8.93690         0.001402      0.015397     -0.009376
      1.79095      7.14901      1.78519         0.013521      0.004012     -0.010749
      1.79138      7.14559      5.35873         0.003747     -0.012174      0.010394
      1.78878      7.14488      8.93116         0.001597     -0.003054      0.003026
      5.36216      0.00327      1.79157         0.001145      0.005067      0.005605
      5.36176     10.71910      5.36261        -0.006364      0.000189      0.001882
      5.35783     10.71330      8.93690         0.015397      0.001402     -0.009376
      5.36689      3.58004      1.79750         0.002254      0.002254      0.007856
      5.36027      3.57342      5.40884         0.029901      0.029901     -0.431650
      5.35098      3.56412      8.94681         0.014331      0.014331      0.009141
      5.36555      7.14862      1.78556         0.016285     -0.015167      0.012375
      5.38451      7.13069      5.34830         0.094393     -0.060275     -0.313624
      5.36454      7.13226      8.92109        -0.026695     -0.018444     -0.008020
      8.93586      0.00410      1.78519         0.004012      0.013521     -0.010749
      8.93245      0.00453      5.35873        -0.012174      0.003747      0.010394
      8.93173      0.00192      8.93116        -0.003054      0.001597      0.003026
      8.93547      3.57869      1.78556        -0.015167      0.016285      0.012375
      8.91755      3.59766      5.34830        -0.060275      0.094393     -0.313624
      8.91912      3.57768      8.92109        -0.018444     -0.026695     -0.008020
      8.93576      7.14890      1.78480        -0.002298     -0.002298     -0.039544
      8.93499      7.14814      5.36250        -0.214260     -0.214260     -0.293502
      8.93402      7.14716      8.92859        -0.003734     -0.003734     -0.036828
     10.72070      1.79118      1.78730         0.002587      0.004221     -0.002587
     10.72038      1.78848      5.35898         0.034151     -0.030220     -0.037886
     10.71291      1.78947      8.93166        -0.000719      0.001422     -0.001422
      0.00814      5.36291      1.77871         0.013662      0.046789     -0.013662
     10.71702      5.36479      5.35634        -0.033217     -0.008596      0.008596
     10.72038      5.36216      8.93266         0.034151      0.037886      0.030220
      0.00250      8.93678      1.78436         0.004300      0.004300     -0.004300
      0.00814      8.94242      5.35822         0.013662      0.013662     -0.046789
     10.72070      8.93384      8.92996         0.002587      0.002587     -0.004221
      3.57633      1.78947      1.79508         0.001422      0.001422      0.000719
      3.56568      1.77882      5.36812         0.045081      0.045081     -0.096592
      3.56698      1.78012      8.94102         0.017303      0.017303     -0.017303
      3.57533      5.36216      1.78762        -0.030220      0.037886     -0.034151
      3.58101      5.35733      5.36381         0.008235      0.000895     -0.000895
      3.56568      5.35302      8.94231         0.045081      0.096592     -0.045081
      3.57803      8.93384      1.78730         0.004221      0.002587     -0.002587
      3.57533      8.93352      5.35898        -0.030220      0.034151     -0.037886
      3.57633      8.92606      8.93166         0.001422     -0.000719     -0.001422
      7.14902      1.78848      1.78762         0.037886     -0.030220     -0.034151
      7.14418      1.79415      5.36381         0.000895      0.008235     -0.000895
      7.13987      1.77882      8.94231         0.096592      0.045081     -0.045081
      7.15165      5.36479      1.79097        -0.008596     -0.008596      0.033217
      7.14418      5.35733      8.92698         0.000895      0.000895     -0.008235
      7.14977      8.94242      1.77871         0.046789      0.013662     -0.013662
      7.15165      8.93016      5.35634        -0.008596     -0.033217      0.008596
      7.14902      8.93352      8.93266         0.037886      0.034151      0.030220
      6.16599      4.37913      6.34200         0.352189      0.352189     -0.352189
 -----------------------------------------------------------------------------------
    total drift:                                0.084472      0.084852     -0.084851


--------------------------------------------------------------------------------------------------------



  FREE ENERGIE OF THE ION-ELECTRON SYSTEM (eV)
  ---------------------------------------------------
  free  energy   TOTEN  =     -1933.07121253 eV

  energy  without entropy=    -1933.07121253  energy(sigma->0) =    -1933.07121253
 


--------------------------------------------------------------------------------------------------------


    POTLOK:  cpu time      0.1138: real time      0.1146


--------------------------------------------------------------------------------------------------------


     LOOP+:  cpu time    127.8316: real time    128.9178
    4ORBIT:  cpu time      0.0000: real time      0.0000



 total charge

# of ion       s       p       d       tot
------------------------------------------
    1        0.829   1.744   0.000   2.573
    2        0.829   1.745   0.000   2.574
    3        0.829   1.745   0.000   2.574
    4        0.829   1.745   0.000   2.574
    5        0.829   1.744   0.000   2.573
    6        0.829   1.743   0.000   2.572
    7        0.829   1.744   0.000   2.573
    8        0.829   1.742   0.000   2.571
    9        0.829   1.744   0.000   2.574
   10        0.829   1.745   0.000   2.574
   11        0.829   1.743   0.000   2.572
   12        0.830   1.747   0.000   2.576
   13        0.829   1.743   0.000   2.572
   14        0.829   1.736   0.000   2.564
   15        0.832   1.750   0.000   2.582
   16        0.829   1.744   0.000   2.574
   17        0.831   1.735   0.000   2.567
   18        0.829   1.744   0.000   2.573
   19        0.829   1.745   0.000   2.574
   20        0.829   1.744   0.000   2.572
   21        0.829   1.743   0.000   2.572
   22        0.829   1.744   0.000   2.573
   23        0.841   1.743   0.000   2.584
   24        0.829   1.736   0.000   2.564
   25        0.829   1.742   0.000   2.571
   26        0.830   1.743   0.000   2.573
   27        0.831   1.735   0.000   2.567
   28        0.829   1.745   0.000   2.574
   29        0.829   1.743   0.000   2.572
   30        0.830   1.747   0.000   2.576
   31        0.829   1.745   0.000   2.574
   32        0.829   1.744   0.000   2.572
   33        0.829   1.743   0.000   2.572
   34        0.829   1.744   0.000   2.573
   35        0.829   1.745   0.000   2.574
   36        0.829   1.745   0.000   2.574
   37        0.829   1.743   0.000   2.572
   38        0.829   1.736   0.000   2.564
   39        0.832   1.750   0.000   2.582
   40        0.829   1.744   0.000   2.573
   41        0.841   1.743   0.000   2.584
   42        0.829   1.736   0.000   2.564
   43        0.829   1.745   0.000   2.574
   44        0.829   1.744   0.000   2.573
   45        0.829   1.743   0.000   2.572
   46        0.829   1.744   0.000   2.574
   47        0.831   1.735   0.000   2.567
   48        0.829   1.744   0.000   2.573
   49        0.829   1.742   0.000   2.571
   50        0.830   1.743   0.000   2.573
   51        0.831   1.735   0.000   2.567
   52        0.829   1.744   0.000   2.573
   53        0.829   1.742   0.000   2.571
   54        0.829   1.744   0.000   2.574
   55        0.829   1.745   0.000   2.574
   56        0.830   1.747   0.000   2.576
   57        0.829   1.745   0.000   2.574
   58        0.828   1.740   0.000   2.568
   59        0.829   1.744   0.000   2.573
   60        0.830   1.747   0.000   2.576
   61        0.829   1.744   0.000   2.573
   62        0.828   1.740   0.000   2.568
   63        0.829   1.745   0.000   2.574
   64        0.828   1.740   0.000   2.568
   65        0.829   1.744   0.000   2.573
   66        0.830   1.747   0.000   2.576
   67        0.829   1.745   0.000   2.574
   68        0.829   1.744   0.000   2.573
   69        0.832   1.741   0.000   2.573
   70        0.829   1.745   0.000   2.574
   71        0.828   1.740   0.000   2.568
   72        0.829   1.744   0.000   2.573
   73        0.828   1.740   0.000   2.568
   74        0.829   1.745   0.000   2.574
   75        0.832   1.741   0.000   2.573
   76        0.829   1.745   0.000   2.574
   77        0.828   1.740   0.000   2.568
   78        0.829   1.743   0.000   2.572
   79        0.832   1.741   0.000   2.573
   80        0.829   1.744   0.000   2.573
   81        0.829   1.744   0.000   2.574
   82        0.829   1.743   0.000   2.572
   83        0.829   1.745   0.000   2.574
   84        0.829   1.742   0.000   2.571
   85        0.829   1.744   0.000   2.573
   86        0.829   1.745   0.000   2.574
   87        0.829   1.744   0.000   2.573
   88        0.829   1.745   0.000   2.574
   89        0.829   1.744   0.000   2.573
   90        0.829   1.744   0.000   2.573
   91        0.832   1.750   0.000   2.582
   92        0.830   1.747   0.000   2.576
   93        0.831   1.735   0.000   2.567
   94        0.829   1.736   0.000   2.564
   95        0.829   1.743   0.000   2.572
   96        0.829   1.744   0.000   2.574
   97        0.829   1.743   0.000   2.572
   98        0.829   1.745   0.000   2.574
   99        0.831   1.735   0.000   2.567
  100        0.829   1.736   0.000   2.564
  101        0.829   1.743   0.000   2.572
  102        0.830   1.743   0.000   2.573
  103        0.841   1.743   0.000   2.584
  104        0.829   1.744   0.000   2.572
  105        0.829   1.742   0.000   2.571
  106        0.829   1.744   0.000   2.573
  107        0.829   1.745   0.000   2.574
  108        0.829   1.743   0.000   2.572
  109        0.829   1.745   0.000   2.574
  110        0.829   1.742   0.000   2.571
  111        0.829   1.742   0.000   2.571
  112        0.829   1.742   0.000   2.571
  113        0.828   1.742   0.000   2.570
  114        0.829   1.745   0.000   2.574
  115        0.829   1.743   0.000   2.572
  116        0.829   1.742   0.000   2.571
  117        0.829   1.742   0.000   2.571
  118        0.829   1.744   0.000   2.573
  119        0.829   1.745   0.000   2.574
  120        0.829   1.745   0.000   2.574
  121        0.828   1.736   0.000   2.564
  122        0.829   1.746   0.000   2.575
  123        0.829   1.744   0.000   2.573
  124        0.829   1.743   0.000   2.572
  125        0.828   1.736   0.000   2.564
  126        0.830   1.749   0.000   2.579
  127        0.829   1.744   0.000   2.573
  128        0.829   1.744   0.000   2.573
  129        0.829   1.744   0.000   2.573
  130        0.828   1.741   0.000   2.569
  131        0.825   1.710   0.000   2.535
  132        0.829   1.744   0.000   2.573
  133        0.831   1.748   0.000   2.579
  134        0.828   1.741   0.000   2.569
  135        0.829   1.742   0.000   2.571
  136        0.829   1.744   0.000   2.573
  137        0.829   1.745   0.000   2.574
  138        0.830   1.749   0.000   2.579
  139        0.829   1.744   0.000   2.573
  140        0.829   1.744   0.000   2.573
  141        0.829   1.743   0.000   2.572
  142        0.829   1.745   0.000   2.574
  143        0.829   1.742   0.000   2.571
  144        0.829   1.745   0.000   2.574
  145        0.828   1.736   0.000   2.564
  146        0.829   1.746   0.000   2.575
  147        0.829   1.744   0.000   2.573
  148        0.828   1.741   0.000   2.569
  149        0.825   1.710   0.000   2.535
  150        0.829   1.742   0.000   2.571
  151        0.829   1.742   0.000   2.571
  152        0.828   1.742   0.000   2.570
  153        0.829   1.744   0.000   2.573
  154        0.829   1.743   0.000   2.572
  155        0.828   1.736   0.000   2.564
  156        0.829   1.744   0.000   2.573
  157        0.831   1.748   0.000   2.579
  158        0.828   1.741   0.000   2.569
  159        0.829   1.745   0.000   2.574
  160        0.829   1.743   0.000   2.572
  161        0.829   1.742   0.000   2.571
  162        0.829   1.743   0.000   2.572
  163        0.830   1.749   0.000   2.579
  164        0.829   1.742   0.000   2.571
  165        0.829   1.742   0.000   2.571
  166        0.829   1.744   0.000   2.573
  167        0.829   1.745   0.000   2.574
  168        0.829   1.745   0.000   2.574
  169        0.829   1.744   0.000   2.573
  170        0.829   1.744   0.000   2.573
  171        0.829   1.742   0.000   2.571
  172        0.829   1.744   0.000   2.573
  173        0.829   1.745   0.000   2.574
  174        0.828   1.742   0.000   2.570
  175        0.825   1.710   0.000   2.535
  176        0.829   1.746   0.000   2.575
  177        0.829   1.742   0.000   2.571
  178        0.828   1.741   0.000   2.569
  179        0.828   1.736   0.000   2.564
  180        0.829   1.745   0.000   2.574
  181        0.829   1.744   0.000   2.573
  182        0.829   1.744   0.000   2.573
  183        0.829   1.742   0.000   2.571
  184        0.828   1.741   0.000   2.569
  185        0.828   1.736   0.000   2.564
  186        0.829   1.743   0.000   2.572
  187        0.831   1.748   0.000   2.579
  188        0.829   1.743   0.000   2.572
  189        0.829   1.743   0.000   2.572
  190        0.830   1.748   0.000   2.577
  191        0.829   1.742   0.000   2.571
  192        0.830   1.749   0.000   2.579
  193        0.829   1.744   0.000   2.573
  194        0.830   1.748   0.000   2.577
  195        0.829   1.744   0.000   2.573
  196        0.830   1.749   0.000   2.579
  197        0.829   1.743   0.000   2.572
  198        0.829   1.742   0.000   2.571
  199        0.830   1.750   0.000   2.580
  200        0.829   1.744   0.000   2.573
  201        0.830   1.748   0.000   2.577
  202        0.830   1.748   0.000   2.578
  203        0.830   1.750   0.000   2.580
  204        0.829   1.743   0.000   2.572
  205        0.830   1.748   0.000   2.577
  206        0.829   1.742   0.000   2.571
  207        0.830   1.748   0.000   2.577
  208        0.830   1.748   0.000   2.578
  209        0.830   1.750   0.000   2.580
  210        0.829   1.744   0.000   2.573
  211        0.830   1.748   0.000   2.578
  212        0.830   1.749   0.000   2.579
  213        0.829   1.744   0.000   2.573
  214        0.830   1.748   0.000   2.577
  215        1.210   2.659   0.000   3.868
--------------------------------------------------
tot        178.674 375.652   0.000 554.326



 magnetization (x)

# of ion       s       p       d       tot
------------------------------------------
    1        0.000   0.001   0.000   0.001
    2        0.000   0.001   0.000   0.002
    3        0.000   0.000   0.000   0.000
    4        0.000   0.002   0.000   0.002
    5        0.000   0.001   0.000   0.001
    6        0.000   0.000   0.000   0.000
    7        0.000   0.000   0.000   0.001
    8       -0.000   0.000   0.000   0.000
    9        0.000   0.001   0.000   0.002
   10        0.000   0.000   0.000   0.000
   11       -0.000   0.000   0.000   0.000
   12        0.000   0.002   0.000   0.002
   13        0.000   0.000   0.000   0.000
   14        0.001   0.005   0.000   0.005
   15        0.001   0.009   0.000   0.011
   16        0.000   0.001   0.000   0.002
   17        0.003   0.017   0.000   0.020
   18        0.000   0.000   0.000   0.000
   19        0.000   0.001   0.000   0.002
   20        0.000   0.002   0.000   0.002
   21       -0.000   0.000   0.000   0.000
   22        0.000   0.001   0.000   0.001
   23        0.027   0.229   0.000   0.256
   24        0.001   0.005   0.000   0.005
   25       -0.000   0.000   0.000   0.000
   26        0.001   0.005   0.000   0.006
   27        0.003   0.017   0.000   0.020
   28        0.000   0.000   0.000   0.000
   29       -0.000   0.000   0.000   0.000
   30        0.000   0.002   0.000   0.002
   31        0.000   0.001   0.000   0.002
   32        0.000   0.002   0.000   0.002
   33       -0.000   0.000   0.000   0.000
   34        0.000   0.001   0.000   0.001
   35        0.000   0.001   0.000   0.002
   36        0.000   0.000   0.000   0.000
   37        0.000   0.000   0.000   0.000
   38        0.001   0.005   0.000   0.005
   39        0.001   0.009   0.000   0.011
   40        0.000   0.001   0.000   0.001
   41        0.027   0.229   0.000   0.256
   42        0.001   0.005   0.000   0.005
   43        0.000   0.002   0.000   0.002
   44        0.000   0.001   0.000   0.001
   45        0.000   0.000   0.000   0.000
   46        0.000   0.001   0.000   0.002
   47        0.003   0.017   0.000   0.020
   48        0.000   0.000   0.000   0.000
   49       -0.000   0.000   0.000   0.000
   50        0.001   0.005   0.000   0.006
   51        0.003   0.017   0.000   0.020
   52        0.000   0.000   0.000   0.001
   53       -0.000   0.000   0.000   0.000
   54        0.000   0.001   0.000   0.002
   55        0.000   0.000   0.000   0.000
   56        0.000   0.001   0.000   0.001
   57        0.000   0.001   0.000   0.001
   58       -0.000   0.000   0.000   0.000
   59        0.000   0.001   0.000   0.001
   60        0.000   0.001   0.000   0.001
   61        0.000   0.002   0.000   0.002
   62       -0.000   0.000   0.000   0.000
   63        0.000   0.000   0.000   0.000
   64       -0.000   0.000   0.000   0.000
   65        0.000   0.001   0.000   0.001
   66        0.000   0.001   0.000   0.001
   67        0.001   0.005   0.000   0.006
   68        0.000   0.001   0.000   0.001
   69        0.003   0.017   0.000   0.020
   70        0.001   0.005   0.000   0.006
   71       -0.000   0.000   0.000   0.000
   72        0.000   0.002   0.000   0.002
   73       -0.000   0.000   0.000   0.000
   74        0.000   0.000   0.000   0.000
   75        0.003   0.017   0.000   0.020
   76        0.001   0.005   0.000   0.006
   77       -0.000   0.000   0.000   0.000
   78        0.000   0.001   0.000   0.001
   79        0.003   0.017   0.000   0.020
   80        0.000   0.002   0.000   0.002
   81        0.000   0.001   0.000   0.002
   82        0.000   0.000   0.000   0.000
   83        0.000   0.000   0.000   0.000
   84       -0.000   0.000   0.000   0.000
   85        0.000   0.001   0.000   0.001
   86        0.000   0.001   0.000   0.002
   87        0.000   0.000   0.000   0.001
   88        0.000   0.002   0.000   0.002
   89        0.000   0.001   0.000   0.001
   90        0.000   0.000   0.000   0.000
   91        0.001   0.009   0.000   0.011
   92        0.000   0.002   0.000   0.002
   93        0.003   0.017   0.000   0.020
   94        0.001   0.005   0.000   0.005
   95       -0.000   0.000   0.000   0.000
   96        0.000   0.001   0.000   0.002
   97        0.000   0.000   0.000   0.000
   98        0.000   0.000   0.000   0.000
   99        0.003   0.017   0.000   0.020
  100        0.001   0.005   0.000   0.005
  101       -0.000   0.000   0.000   0.000
  102        0.001   0.005   0.000   0.006
  103        0.027   0.229   0.000   0.256
  104        0.000   0.002   0.000   0.002
  105       -0.000   0.000   0.000   0.000
  106        0.000   0.001   0.000   0.001
  107        0.000   0.001   0.000   0.002
  108        0.000   0.000   0.000   0.000
  109       -0.000   0.000   0.000   0.000
  110       -0.000   0.000   0.000   0.000
  111       -0.000   0.000   0.000   0.000
  112       -0.000  -0.001   0.000  -0.001
  113       -0.000  -0.000   0.000  -0.000
  114       -0.000   0.000   0.000   0.000
  115       -0.000  -0.000   0.000  -0.000
  116       -0.000  -0.001   0.000  -0.001
  117       -0.000   0.000   0.000   0.000
  118       -0.000  -0.000   0.000  -0.000
  119       -0.000   0.000   0.000   0.000
  120       -0.000   0.000   0.000   0.000
  121       -0.000  -0.000   0.000  -0.000
  122       -0.000  -0.000   0.000  -0.000
  123       -0.000  -0.000   0.000  -0.000
  124       -0.000  -0.001   0.000  -0.001
  125       -0.000  -0.000   0.000  -0.000
  126        0.000   0.002   0.000   0.002
  127       -0.000  -0.000   0.000  -0.000
  128       -0.000  -0.000   0.000  -0.000
  129       -0.000  -0.000   0.000  -0.000
  130       -0.001  -0.004   0.000  -0.005
  131       -0.001   0.000   0.000  -0.001
  132       -0.000  -0.000   0.000  -0.000
  133       -0.001   0.002   0.000   0.001
  134       -0.001  -0.004   0.000  -0.005
  135       -0.000   0.000   0.000   0.000
  136       -0.000  -0.000   0.000  -0.000
  137       -0.000   0.000   0.000   0.000
  138        0.000   0.002   0.000   0.002
  139       -0.000  -0.000   0.000  -0.000
  140       -0.000  -0.000   0.000  -0.000
  141        0.000   0.000   0.000   0.000
  142       -0.000   0.000   0.000   0.000
  143       -0.000   0.000   0.000   0.000
  144       -0.000   0.000   0.000   0.000
  145       -0.000  -0.000   0.000  -0.000
  146       -0.000  -0.000   0.000  -0.000
  147       -0.000  -0.000   0.000  -0.000
  148       -0.001  -0.004   0.000  -0.005
  149       -0.001   0.000   0.000  -0.001
  150       -0.000   0.000   0.000   0.000
  151       -0.000  -0.001   0.000  -0.001
  152       -0.000  -0.000   0.000  -0.000
  153       -0.000  -0.000   0.000  -0.000
  154       -0.000  -0.001   0.000  -0.001
  155       -0.000  -0.000   0.000  -0.000
  156       -0.000  -0.000   0.000  -0.000
  157       -0.001   0.002   0.000   0.001
  158       -0.001  -0.004   0.000  -0.005
  159       -0.000   0.000   0.000   0.000
  160       -0.000  -0.000   0.000  -0.000
  161       -0.000  -0.001   0.000  -0.001
  162        0.000   0.000   0.000   0.000
  163        0.000   0.002   0.000   0.002
  164       -0.000   0.000   0.000   0.000
  165       -0.000   0.000   0.000   0.000
  166       -0.000  -0.000   0.000  -0.000
  167       -0.000   0.000   0.000   0.000
  168       -0.000   0.000   0.000   0.000
  169       -0.000  -0.000   0.000  -0.000
  170       -0.000  -0.000   0.000  -0.000
  171       -0.000   0.000   0.000   0.000
  172       -0.000  -0.000   0.000  -0.000
  173       -0.000   0.000   0.000   0.000
  174       -0.000  -0.000   0.000  -0.000
  175       -0.001   0.000   0.000  -0.001
  176       -0.000  -0.000   0.000  -0.000
  177       -0.000  -0.001   0.000  -0.001
  178       -0.001  -0.004   0.000  -0.005
  179       -0.000  -0.000   0.000  -0.000
  180       -0.000   0.000   0.000   0.000
  181       -0.000  -0.000   0.000  -0.000
  182       -0.000  -0.000   0.000  -0.000
  183       -0.000  -0.001   0.000  -0.001
  184       -0.001  -0.004   0.000  -0.005
  185       -0.000  -0.000   0.000  -0.000
  186       -0.000  -0.000   0.000  -0.000
  187       -0.001   0.002   0.000   0.001
  188       -0.000  -0.001   0.000  -0.001
  189       -0.000   0.000   0.000   0.000
  190        0.000   0.002   0.000   0.002
  191       -0.000   0.000   0.000   0.000
  192        0.001   0.004   0.000   0.005
  193       -0.000  -0.001   0.000  -0.001
  194        0.000   0.002   0.000   0.002
  195        0.000   0.001   0.000   0.001
  196        0.001   0.004   0.000   0.005
  197       -0.000   0.000   0.000   0.000
  198       -0.000   0.000   0.000   0.000
  199        0.000   0.001   0.000   0.002
  200       -0.000   0.000   0.000   0.000
  201        0.000   0.002   0.000   0.002
  202       -0.000  -0.001   0.000  -0.001
  203        0.000   0.001   0.000   0.002
  204       -0.000   0.000   0.000   0.000
  205        0.000   0.002   0.000   0.002
  206       -0.000   0.000   0.000   0.000
  207        0.000   0.002   0.000   0.002
  208       -0.000  -0.001   0.000  -0.001
  209        0.000   0.001   0.000   0.002
  210       -0.000  -0.001   0.000  -0.001
  211       -0.000  -0.001   0.000  -0.001
  212        0.001   0.004   0.000   0.005
  213       -0.000  -0.001   0.000  -0.001
  214        0.000   0.002   0.000   0.002
  215        0.018   0.137   0.000   0.155
--------------------------------------------------
tot          0.135   1.128   0.000   1.264
 

 total amount of memory used by VASP MPI-rank0    69876. kBytes
=======================================================================

   base                                    :      30000. kBytes
   nonlr-proj                              :       7389. kBytes
   fftplans                                :       3375. kBytes
   grid                                    :       8446. kBytes
   one-center                              :        190. kBytes
   wavefun                                 :      20476. kBytes
 
  
  
 General timing and accounting informations for this job:
 ========================================================
  
                  Total CPU time used (sec):      132.134
                            User time (sec):      130.923
                          System time (sec):        1.211
                         Elapsed time (sec):      133.807
  
                   Maximum memory used (kb):      278624.
                   Average memory used (kb):          N/A
  
                          Minor page faults:        35758
                          Major page faults:           48
                 Voluntary context switches:         1005
