
     Program PWSCF v.7.4.1 starts on  5Aug2026 at 14:33:44 

     This program is part of the open-source Quantum ESPRESSO suite
     for quantum simulation of materials; please cite
         "P. Giannozzi et al., J. Phys.:Condens. Matter 21 395502 (2009);
         "P. Giannozzi et al., J. Phys.:Condens. Matter 29 465901 (2017);
         "P. Giannozzi et al., J. Chem. Phys. 152 154105 (2020);
          URL http://www.quantum-espresso.org", 
     in publications or presentations arising from this work. More details at
     http://www.quantum-espresso.org/quote

     Parallel version (MPI), running on    28 processors

     MPI processes distributed on     1 nodes
     49417 MiB available memory on the printing compute node when the environment starts
 
     Reading input from diamond_pd_scf.in

     Current dimensions of program PWSCF are:
     Max number of different atomic species (ntypx) = 10
     Max number of k-points (npk) =  40000
     Max angular momentum in pseudopotentials (lmaxx) =  4
     file C.pbe-n-kjpaw_psl.1.0.0.UPF: wavefunction(s)  2S 2P renormalized
     file N.pbe-n-kjpaw_psl.1.0.0.UPF: wavefunction(s)  2S renormalized
     Message from routine setup:
     the system is metallic, specify occupations
 
     R & G space division:  proc/nbgrp/npool/nimage =      28
     Subspace diagonalization in iterative solution of the eigenvalue problem:
     one sub-group per band group will be used
     scalapack distributed-memory algorithm (size of sub-group:  5*  5 procs)

 
     Parallelization info
     --------------------
     sticks:   dense  smooth     PW     G-vecs:    dense   smooth      PW
     Min         209     209     52                12095    12095    1512
     Max         210     210     53                12100    12100    1515
     Sum        5877    5877   1473               338755   338755   42379
 
     Using Slab Decomposition
 


     bravais-lattice index     =            0
     lattice parameter (alat)  =      20.2515  a.u.
     unit-cell volume          =    8305.5769 (a.u.)^3
     number of atoms/cell      =          215
     number of atomic types    =            2
     number of electrons       =       863.00 (up: 432.00, down: 431.00)
     number of Kohn-Sham states=          863
     kinetic-energy cutoff     =      45.0000  Ry
     charge density cutoff     =     180.0000  Ry
     scf convergence threshold =      1.0E-08
     mixing beta               =       0.7000
     number of iterations used =            8  plain     mixing
     Exchange-correlation= SLA  PW   PBX  PBC
                           (   1   4   3   4   0   0   0)

     celldm(1)=  20.251472  celldm(2)=   0.000000  celldm(3)=   0.000000
     celldm(4)=   0.000000  celldm(5)=   0.000000  celldm(6)=   0.000000

     crystal axes: (cart. coord. in units of alat)
               a(1) = (  -0.707107   0.000000   0.707107 )  
               a(2) = (   0.408248   0.816497   0.408248 )  
               a(3) = (  -0.577350   0.577350  -0.577350 )  

     reciprocal axes: (cart. coord. in units 2 pi/alat)
               b(1) = ( -0.707107  0.000000  0.707107 )  
               b(2) = (  0.408248  0.816497  0.408248 )  
               b(3) = ( -0.577350  0.577350 -0.577350 )  


     PseudoPot. # 1 for C  read from file:
     ../../../pseudos/C.pbe-n-kjpaw_psl.1.0.0.UPF
     MD5 check sum: 5f16ad9a65e90284d1d834d4ab3b0f7d
     Pseudo is Projector augmented-wave + core cor, Zval =  4.0
     Generated using &quot;atomic&quot; code by A. Dal Corso  v.6.3
     Shape of augmentation charge: PSQ
     Using radial grid of 1073 points,  4 beta functions with: 
                l(1) =   0
                l(2) =   0
                l(3) =   1
                l(4) =   1
     Q(r) pseudized with 0 coefficients 


     PseudoPot. # 2 for N  read from file:
     ../../../pseudos/N.pbe-n-kjpaw_psl.1.0.0.UPF
     MD5 check sum: a6186d50559fdcbe4b2d0187dd61a119
     Pseudo is Projector augmented-wave + core cor, Zval =  5.0
     Generated using &quot;atomic&quot; code by A. Dal Corso  v.6.3
     Shape of augmentation charge: PSQ
     Using radial grid of 1085 points,  4 beta functions with: 
                l(1) =   0
                l(2) =   0
                l(3) =   1
                l(4) =   1
     Q(r) pseudized with 0 coefficients 


     atomic species   valence    mass     pseudopotential
     C                 4.00    12.01070     C ( 1.00)
     N                 5.00    14.00670     N ( 1.00)

     Starting magnetic structure 
     atomic species   magnetization
     C               0.000
     N               0.000

     No symmetry found


                                    s                        frac. trans.

      isym =  1     identity                                     

 cryst.   s( 1) = (     1          0          0      )
                  (     0          1          0      )
                  (     0          0          1      )

 cart.    s( 1) = (  1.0000000  0.0000000  0.0000000 )
                  (  0.0000000  1.0000000  0.0000000 )
                  (  0.0000000  0.0000000  1.0000000 )


   Cartesian axes

     site n.     atom                  positions (alat units)
         1        C      tau(   1) = (   0.0000000   0.0000000   0.0000000  )
         2        C      tau(   2) = (  -0.1924501   0.1924501  -0.1924501  )
         3        C      tau(   3) = (  -0.3849002   0.3849002  -0.3849002  )
         4        C      tau(   4) = (   0.1360828   0.2721655   0.1360828  )
         5        C      tau(   5) = (  -0.0563673   0.4646156  -0.0563673  )
         6        C      tau(   6) = (  -0.2488174   0.6570657  -0.2488174  )
         7        C      tau(   7) = (   0.2721655   0.5443311   0.2721655  )
         8        C      tau(   8) = (   0.0797154   0.7367811   0.0797154  )
         9        C      tau(   9) = (  -0.1127347   0.9292312  -0.1127347  )
        10        C      tau(  10) = (  -0.2357023   0.0000000   0.2357023  )
        11        C      tau(  11) = (  -0.4281523   0.1924501   0.0432522  )
        12        C      tau(  12) = (  -0.6206024   0.3849002  -0.1491979  )
        13        C      tau(  13) = (  -0.0996195   0.2721655   0.3717850  )
        14        C      tau(  14) = (  -0.2920696   0.4646156   0.1793349  )
        15        C      tau(  15) = (  -0.4845197   0.6570657  -0.0131152  )
        16        C      tau(  16) = (   0.0364633   0.5443311   0.5078678  )
        17        C      tau(  17) = (  -0.1559868   0.7367811   0.3154177  )
        18        C      tau(  18) = (  -0.3484369   0.9292312   0.1229676  )
        19        C      tau(  19) = (  -0.4714045   0.0000000   0.4714045  )
        20        C      tau(  20) = (  -0.6638546   0.1924501   0.2789544  )
        21        C      tau(  21) = (  -0.8563047   0.3849002   0.0865043  )
        22        C      tau(  22) = (  -0.3353218   0.2721655   0.6074873  )
        23        C      tau(  23) = (  -0.5277718   0.4646156   0.4150372  )
        24        C      tau(  24) = (  -0.7202219   0.6570657   0.2225871  )
        25        C      tau(  25) = (  -0.1992390   0.5443311   0.7435700  )
        26        C      tau(  26) = (  -0.3916891   0.7367811   0.5511200  )
        27        C      tau(  27) = (  -0.5841392   0.9292312   0.3586699  )
        28        C      tau(  28) = (  -0.0498097   0.1360828   0.1858925  )
        29        C      tau(  29) = (  -0.2422598   0.3285329  -0.0065576  )
        30        C      tau(  30) = (  -0.4347099   0.5209829  -0.1990077  )
        31        C      tau(  31) = (   0.0862730   0.4082483   0.3219753  )
        32        C      tau(  32) = (  -0.1061771   0.6006984   0.1295252  )
        33        C      tau(  33) = (  -0.2986272   0.7931485  -0.0629249  )
        34        C      tau(  34) = (   0.2223558   0.6804138   0.4580580  )
        35        C      tau(  35) = (   0.0299057   0.8728639   0.2656079  )
        36        C      tau(  36) = (  -0.1625444   1.0653140   0.0731579  )
        37        C      tau(  37) = (  -0.2855120   0.1360828   0.4215948  )
        38        C      tau(  38) = (  -0.4779621   0.3285329   0.2291447  )
        39        C      tau(  39) = (  -0.6704122   0.5209829   0.0366946  )
        40        C      tau(  40) = (  -0.1494292   0.4082483   0.5576775  )
        41        C      tau(  41) = (  -0.3418793   0.6006984   0.3652274  )
        42        C      tau(  42) = (  -0.5343294   0.7931485   0.1727774  )
        43        C      tau(  43) = (  -0.0133465   0.6804138   0.6937603  )
        44        C      tau(  44) = (  -0.2057966   0.8728639   0.5013102  )
        45        C      tau(  45) = (  -0.3982467   1.0653140   0.3088601  )
        46        C      tau(  46) = (  -0.5212143   0.1360828   0.6572970  )
        47        C      tau(  47) = (  -0.7136644   0.3285329   0.4648469  )
        48        C      tau(  48) = (  -0.9061144   0.5209829   0.2723969  )
        49        C      tau(  49) = (  -0.3851315   0.4082483   0.7933798  )
        50        C      tau(  50) = (  -0.5775816   0.6006984   0.6009297  )
        51        C      tau(  51) = (  -0.7700317   0.7931485   0.4084796  )
        52        C      tau(  52) = (  -0.2490487   0.6804138   0.9294626  )
        53        C      tau(  53) = (  -0.4414988   0.8728639   0.7370125  )
        54        C      tau(  54) = (  -0.6339489   1.0653140   0.5445624  )
        55        C      tau(  55) = (  -0.2140762   0.0962250   0.0216261  )
        56        C      tau(  56) = (  -0.4065263   0.2886751  -0.1708240  )
        57        C      tau(  57) = (  -0.5989764   0.4811252  -0.3632741  )
        58        C      tau(  58) = (  -0.0779934   0.3683906   0.1577088  )
        59        C      tau(  59) = (  -0.2704435   0.5608407  -0.0347412  )
        60        C      tau(  60) = (  -0.4628936   0.7532908  -0.2271913  )
        61        C      tau(  61) = (   0.0580894   0.6405561   0.2937916  )
        62        C      tau(  62) = (  -0.1343607   0.8330062   0.1013415  )
        63        C      tau(  63) = (  -0.3268108   1.0254563  -0.0911086  )
        64        C      tau(  64) = (  -0.4497784   0.0962250   0.2573283  )
        65        C      tau(  65) = (  -0.6422285   0.2886751   0.0648783  )
        66        C      tau(  66) = (  -0.8346786   0.4811252  -0.1275718  )
        67        C      tau(  67) = (  -0.3136957   0.3683906   0.3934111  )
        68        C      tau(  68) = (  -0.5061458   0.5608407   0.2009610  )
        69        C      tau(  69) = (  -0.6985959   0.7532908   0.0085109  )
        70        C      tau(  70) = (  -0.1776129   0.6405561   0.5294939  )
        71        C      tau(  71) = (  -0.3700630   0.8330062   0.3370438  )
        72        C      tau(  72) = (  -0.5625131   1.0254563   0.1445937  )
        73        C      tau(  73) = (  -0.6854807   0.0962250   0.4930306  )
        74        C      tau(  74) = (  -0.8779308   0.2886751   0.3005805  )
        75        C      tau(  75) = (  -1.0703809   0.4811252   0.1081304  )
        76        C      tau(  76) = (  -0.5493979   0.3683906   0.6291134  )
        77        C      tau(  77) = (  -0.7418480   0.5608407   0.4366633  )
        78        C      tau(  78) = (  -0.9342981   0.7532908   0.2442132  )
        79        C      tau(  79) = (  -0.4133152   0.6405561   0.7651961  )
        80        C      tau(  80) = (  -0.6057653   0.8330062   0.5727460  )
        81        C      tau(  81) = (  -0.7982153   1.0254563   0.3802960  )
        82        C      tau(  82) = (  -0.0281837   0.2323078  -0.0281837  )
        83        C      tau(  83) = (  -0.2206338   0.4247579  -0.2206338  )
        84        C      tau(  84) = (  -0.4130838   0.6172080  -0.4130838  )
        85        C      tau(  85) = (   0.1078991   0.5044733   0.1078991  )
        86        C      tau(  86) = (  -0.0845510   0.6969234  -0.0845510  )
        87        C      tau(  87) = (  -0.2770011   0.8893735  -0.2770011  )
        88        C      tau(  88) = (   0.2439819   0.7766389   0.2439819  )
        89        C      tau(  89) = (   0.0515318   0.9690890   0.0515318  )
        90        C      tau(  90) = (  -0.1409183   1.1615390  -0.1409183  )
        91        C      tau(  91) = (  -0.2638859   0.2323078   0.2075186  )
        92        C      tau(  92) = (  -0.4563360   0.4247579   0.0150685  )
        93        C      tau(  93) = (  -0.6487861   0.6172080  -0.1773816  )
        94        C      tau(  94) = (  -0.1278032   0.5044733   0.3436014  )
        95        C      tau(  95) = (  -0.5127033   0.8893735  -0.0412988  )
        96        C      tau(  96) = (   0.0082796   0.7766389   0.4796841  )
        97        C      tau(  97) = (  -0.1841705   0.9690890   0.2872340  )
        98        C      tau(  98) = (  -0.3766206   1.1615390   0.0947839  )
        99        C      tau(  99) = (  -0.4995882   0.2323078   0.4432209  )
       100        C      tau( 100) = (  -0.6920383   0.4247579   0.2507708  )
       101        C      tau( 101) = (  -0.8844884   0.6172080   0.0583207  )
       102        C      tau( 102) = (  -0.3635054   0.5044733   0.5793036  )
       103        C      tau( 103) = (  -0.5559555   0.6969234   0.3868535  )
       104        C      tau( 104) = (  -0.7484056   0.8893735   0.1944034  )
       105        C      tau( 105) = (  -0.2274227   0.7766389   0.7153864  )
       106        C      tau( 106) = (  -0.4198727   0.9690890   0.5229363  )
       107        C      tau( 107) = (  -0.6123228   1.1615390   0.3304862  )
       108        C      tau( 108) = (  -0.0731310   0.1163347   0.0449035  )
       109        C      tau( 109) = (  -0.2655811   0.3087848  -0.1475466  )
       110        C      tau( 110) = (  -0.4580312   0.5012348  -0.3399967  )
       111        C      tau( 111) = (   0.0629517   0.3885002   0.1809863  )
       112        C      tau( 112) = (  -0.1294984   0.5809503  -0.0114638  )
       113        C      tau( 113) = (  -0.3219484   0.7734004  -0.2039139  )
       114        C      tau( 114) = (   0.1990345   0.6606657   0.3170690  )
       115        C      tau( 115) = (   0.0065844   0.8531158   0.1246189  )
       116        C      tau( 116) = (  -0.1858657   1.0455659  -0.0678311  )
       117        C      tau( 117) = (  -0.3088333   0.1163347   0.2806058  )
       118        C      tau( 118) = (  -0.5012834   0.3087848   0.0881557  )
       119        C      tau( 119) = (  -0.6937335   0.5012348  -0.1042944  )
       120        C      tau( 120) = (  -0.1727505   0.3885002   0.4166885  )
       121        C      tau( 121) = (  -0.5576507   0.7734004   0.0317883  )
       122        C      tau( 122) = (  -0.0366678   0.6606657   0.5527713  )
       123        C      tau( 123) = (  -0.2291178   0.8531158   0.3603212  )
       124        C      tau( 124) = (  -0.4215679   1.0455659   0.1678711  )
       125        C      tau( 125) = (  -0.5445355   0.1163347   0.5163080  )
       126        C      tau( 126) = (  -0.7369856   0.3087848   0.3238579  )
       127        C      tau( 127) = (  -0.9294357   0.5012348   0.1314078  )
       128        C      tau( 128) = (  -0.4084528   0.3885002   0.6523908  )
       129        C      tau( 129) = (  -0.6009029   0.5809503   0.4599407  )
       130        C      tau( 130) = (  -0.7933530   0.7734004   0.2674906  )
       131        C      tau( 131) = (  -0.2723700   0.6606657   0.7884736  )
       132        C      tau( 132) = (  -0.4648201   0.8531158   0.5960235  )
       133        C      tau( 133) = (  -0.6572702   1.0455659   0.4035734  )
       134        C      tau( 134) = (  -0.1229408   0.2524174   0.2307960  )
       135        C      tau( 135) = (  -0.3153909   0.4448675   0.0383459  )
       136        C      tau( 136) = (  -0.5078410   0.6373176  -0.1541042  )
       137        C      tau( 137) = (   0.0131420   0.5245830   0.3668788  )
       138        C      tau( 138) = (  -0.1793081   0.7170330   0.1744287  )
       139        C      tau( 139) = (  -0.3717582   0.9094831  -0.0180214  )
       140        C      tau( 140) = (   0.1492248   0.7967485   0.5029615  )
       141        C      tau( 141) = (  -0.0432253   0.9891986   0.3105115  )
       142        C      tau( 142) = (  -0.2356754   1.1816487   0.1180614  )
       143        C      tau( 143) = (  -0.3586430   0.2524174   0.4664983  )
       144        C      tau( 144) = (  -0.5510931   0.4448675   0.2740482  )
       145        C      tau( 145) = (  -0.7435432   0.6373176   0.0815981  )
       146        C      tau( 146) = (  -0.2225603   0.5245830   0.6025810  )
       147        C      tau( 147) = (  -0.4150104   0.7170330   0.4101309  )
       148        C      tau( 148) = (  -0.6074605   0.9094831   0.2176809  )
       149        C      tau( 149) = (  -0.0864775   0.7967485   0.7386638  )
       150        C      tau( 150) = (  -0.2789276   0.9891986   0.5462137  )
       151        C      tau( 151) = (  -0.4713777   1.1816487   0.3537636  )
       152        C      tau( 152) = (  -0.5943453   0.2524174   0.7022005  )
       153        C      tau( 153) = (  -0.7867954   0.4448675   0.5097504  )
       154        C      tau( 154) = (  -0.9792455   0.6373176   0.3173004  )
       155        C      tau( 155) = (  -0.4582625   0.5245830   0.8382833  )
       156        C      tau( 156) = (  -0.6507126   0.7170330   0.6458332  )
       157        C      tau( 157) = (  -0.8431627   0.9094831   0.4533831  )
       158        C      tau( 158) = (  -0.3221798   0.7967485   0.9743661  )
       159        C      tau( 159) = (  -0.5146299   0.9891986   0.7819160  )
       160        C      tau( 160) = (  -0.7070799   1.1816487   0.5894659  )
       161        C      tau( 161) = (  -0.2872072   0.2125597   0.0665296  )
       162        C      tau( 162) = (  -0.4796573   0.4050098  -0.1259205  )
       163        C      tau( 163) = (  -0.6721074   0.5974599  -0.3183706  )
       164        C      tau( 164) = (  -0.1511244   0.4847252   0.2026124  )
       165        C      tau( 165) = (  -0.3435745   0.6771753   0.0101623  )
       166        C      tau( 166) = (  -0.5360246   0.8696254  -0.1822878  )
       167        C      tau( 167) = (  -0.0150417   0.7568908   0.3386951  )
       168        C      tau( 168) = (  -0.2074918   0.9493408   0.1462450  )
       169        C      tau( 169) = (  -0.3999419   1.1417909  -0.0462051  )
       170        C      tau( 170) = (  -0.5229095   0.2125597   0.3022318  )
       171        C      tau( 171) = (  -0.7153596   0.4050098   0.1097818  )
       172        C      tau( 172) = (  -0.9078096   0.5974599  -0.0826683  )
       173        C      tau( 173) = (  -0.3868267   0.4847252   0.4383146  )
       174        C      tau( 174) = (  -0.5792768   0.6771753   0.2458645  )
       175        C      tau( 175) = (  -0.7717269   0.8696254   0.0534144  )
       176        C      tau( 176) = (  -0.2507439   0.7568908   0.5743974  )
       177        C      tau( 177) = (  -0.4431940   0.9493408   0.3819473  )
       178        C      tau( 178) = (  -0.6356441   1.1417909   0.1894972  )
       179        C      tau( 179) = (  -0.7586117   0.2125597   0.5379341  )
       180        C      tau( 180) = (  -0.9510618   0.4050098   0.3454840  )
       181        C      tau( 181) = (  -1.1435119   0.5974599   0.1530339  )
       182        C      tau( 182) = (  -0.6225290   0.4847252   0.6740169  )
       183        C      tau( 183) = (  -0.8149790   0.6771753   0.4815668  )
       184        C      tau( 184) = (  -1.0074291   0.8696254   0.2891167  )
       185        C      tau( 185) = (  -0.4864462   0.7568908   0.8100996  )
       186        C      tau( 186) = (  -0.6788963   0.9493408   0.6176495  )
       187        C      tau( 187) = (  -0.8713464   1.1417909   0.4251995  )
       188        C      tau( 188) = (  -0.1013147   0.3486425   0.0167198  )
       189        C      tau( 189) = (  -0.2937648   0.5410926  -0.1757302  )
       190        C      tau( 190) = (  -0.4862149   0.7335426  -0.3681803  )
       191        C      tau( 191) = (   0.0347681   0.6208080   0.1528026  )
       192        C      tau( 192) = (  -0.1576820   0.8132581  -0.0396475  )
       193        C      tau( 193) = (  -0.3501321   1.0057082  -0.2320976  )
       194        C      tau( 194) = (   0.1708508   0.8929735   0.2888854  )
       195        C      tau( 195) = (  -0.0215993   1.0854236   0.0964353  )
       196        C      tau( 196) = (  -0.2140493   1.2778737  -0.0960148  )
       197        C      tau( 197) = (  -0.3370169   0.3486425   0.2524221  )
       198        C      tau( 198) = (  -0.5294670   0.5410926   0.0599720  )
       199        C      tau( 199) = (  -0.7219171   0.7335426  -0.1324781  )
       200        C      tau( 200) = (  -0.2009342   0.6208080   0.3885049  )
       201        C      tau( 201) = (  -0.3933843   0.8132581   0.1960548  )
       202        C      tau( 202) = (  -0.5858344   1.0057082   0.0036047  )
       203        C      tau( 203) = (  -0.0648514   0.8929735   0.5245876  )
       204        C      tau( 204) = (  -0.2573015   1.0854236   0.3321375  )
       205        C      tau( 205) = (  -0.4497516   1.2778737   0.1396874  )
       206        C      tau( 206) = (  -0.5727192   0.3486425   0.4881244  )
       207        C      tau( 207) = (  -0.7651693   0.5410926   0.2956743  )
       208        C      tau( 208) = (  -0.9576194   0.7335426   0.1032242  )
       209        C      tau( 209) = (  -0.4366364   0.6208080   0.6242071  )
       210        C      tau( 210) = (  -0.6290865   0.8132581   0.4317570  )
       211        C      tau( 211) = (  -0.8215366   1.0057082   0.2393069  )
       212        C      tau( 212) = (  -0.3005537   0.8929735   0.7602899  )
       213        C      tau( 213) = (  -0.4930038   1.0854236   0.5678398  )
       214        C      tau( 214) = (  -0.6854539   1.2778737   0.3753897  )
       215        N      tau( 215) = (  -0.3652004   0.5809501   0.2242386  )

   Crystallographic axes

     site n.     atom                  positions (cryst. coord.)
         1        C      tau(   1) = (  0.0000000  0.0000000  0.0000000  )
         2        C      tau(   2) = (  0.0000000  0.0000000  0.3333333  )
         3        C      tau(   3) = (  0.0000000  0.0000000  0.6666667  )
         4        C      tau(   4) = (  0.0000000  0.3333333  0.0000000  )
         5        C      tau(   5) = (  0.0000000  0.3333333  0.3333333  )
         6        C      tau(   6) = (  0.0000000  0.3333333  0.6666667  )
         7        C      tau(   7) = (  0.0000000  0.6666667  0.0000000  )
         8        C      tau(   8) = (  0.0000000  0.6666667  0.3333333  )
         9        C      tau(   9) = (  0.0000000  0.6666667  0.6666667  )
        10        C      tau(  10) = (  0.3333333  0.0000000  0.0000000  )
        11        C      tau(  11) = (  0.3333333  0.0000000  0.3333333  )
        12        C      tau(  12) = (  0.3333333 -0.0000000  0.6666667  )
        13        C      tau(  13) = (  0.3333333  0.3333333  0.0000000  )
        14        C      tau(  14) = (  0.3333333  0.3333333  0.3333333  )
        15        C      tau(  15) = (  0.3333333  0.3333333  0.6666667  )
        16        C      tau(  16) = (  0.3333333  0.6666667  0.0000000  )
        17        C      tau(  17) = (  0.3333333  0.6666667  0.3333333  )
        18        C      tau(  18) = (  0.3333333  0.6666667  0.6666667  )
        19        C      tau(  19) = (  0.6666667  0.0000000  0.0000000  )
        20        C      tau(  20) = (  0.6666667  0.0000000  0.3333333  )
        21        C      tau(  21) = (  0.6666667  0.0000000  0.6666667  )
        22        C      tau(  22) = (  0.6666667  0.3333333  0.0000000  )
        23        C      tau(  23) = (  0.6666667  0.3333333  0.3333333  )
        24        C      tau(  24) = (  0.6666667  0.3333333  0.6666667  )
        25        C      tau(  25) = (  0.6666667  0.6666667 -0.0000000  )
        26        C      tau(  26) = (  0.6666667  0.6666667  0.3333333  )
        27        C      tau(  27) = (  0.6666667  0.6666667  0.6666667  )
        28        C      tau(  28) = (  0.1666667  0.1666667  0.0000000  )
        29        C      tau(  29) = (  0.1666667  0.1666667  0.3333333  )
        30        C      tau(  30) = (  0.1666667  0.1666667  0.6666667  )
        31        C      tau(  31) = (  0.1666667  0.5000000  0.0000000  )
        32        C      tau(  32) = (  0.1666667  0.5000000  0.3333333  )
        33        C      tau(  33) = (  0.1666667  0.5000000  0.6666667  )
        34        C      tau(  34) = (  0.1666667  0.8333333  0.0000000  )
        35        C      tau(  35) = (  0.1666667  0.8333333  0.3333333  )
        36        C      tau(  36) = (  0.1666667  0.8333333  0.6666667  )
        37        C      tau(  37) = (  0.5000000  0.1666667  0.0000000  )
        38        C      tau(  38) = (  0.5000000  0.1666667  0.3333333  )
        39        C      tau(  39) = (  0.5000000  0.1666667  0.6666667  )
        40        C      tau(  40) = (  0.5000000  0.5000000  0.0000000  )
        41        C      tau(  41) = (  0.5000000  0.5000000  0.3333333  )
        42        C      tau(  42) = (  0.5000000  0.5000000  0.6666667  )
        43        C      tau(  43) = (  0.5000000  0.8333333  0.0000000  )
        44        C      tau(  44) = (  0.5000000  0.8333333  0.3333333  )
        45        C      tau(  45) = (  0.5000000  0.8333333  0.6666667  )
        46        C      tau(  46) = (  0.8333333  0.1666667  0.0000000  )
        47        C      tau(  47) = (  0.8333333  0.1666667  0.3333333  )
        48        C      tau(  48) = (  0.8333333  0.1666667  0.6666667  )
        49        C      tau(  49) = (  0.8333333  0.5000000  0.0000000  )
        50        C      tau(  50) = (  0.8333333  0.5000000  0.3333333  )
        51        C      tau(  51) = (  0.8333333  0.5000000  0.6666667  )
        52        C      tau(  52) = (  0.8333333  0.8333333  0.0000000  )
        53        C      tau(  53) = (  0.8333333  0.8333333  0.3333333  )
        54        C      tau(  54) = (  0.8333333  0.8333333  0.6666667  )
        55        C      tau(  55) = (  0.1666667  0.0000000  0.1666667  )
        56        C      tau(  56) = (  0.1666667  0.0000000  0.5000000  )
        57        C      tau(  57) = (  0.1666667  0.0000000  0.8333333  )
        58        C      tau(  58) = (  0.1666667  0.3333333  0.1666667  )
        59        C      tau(  59) = (  0.1666667  0.3333333  0.5000000  )
        60        C      tau(  60) = (  0.1666667  0.3333333  0.8333333  )
        61        C      tau(  61) = (  0.1666667  0.6666667  0.1666667  )
        62        C      tau(  62) = (  0.1666667  0.6666667  0.5000000  )
        63        C      tau(  63) = (  0.1666667  0.6666667  0.8333333  )
        64        C      tau(  64) = (  0.5000000  0.0000000  0.1666667  )
        65        C      tau(  65) = (  0.5000000  0.0000000  0.5000000  )
        66        C      tau(  66) = (  0.5000000  0.0000000  0.8333333  )
        67        C      tau(  67) = (  0.5000000  0.3333333  0.1666667  )
        68        C      tau(  68) = (  0.5000000  0.3333333  0.5000000  )
        69        C      tau(  69) = (  0.5000000  0.3333333  0.8333333  )
        70        C      tau(  70) = (  0.5000000  0.6666667  0.1666667  )
        71        C      tau(  71) = (  0.5000000  0.6666667  0.5000000  )
        72        C      tau(  72) = (  0.5000000  0.6666667  0.8333333  )
        73        C      tau(  73) = (  0.8333333  0.0000000  0.1666667  )
        74        C      tau(  74) = (  0.8333333  0.0000000  0.5000000  )
        75        C      tau(  75) = (  0.8333333  0.0000000  0.8333333  )
        76        C      tau(  76) = (  0.8333333  0.3333333  0.1666667  )
        77        C      tau(  77) = (  0.8333333  0.3333333  0.5000000  )
        78        C      tau(  78) = (  0.8333333  0.3333333  0.8333333  )
        79        C      tau(  79) = (  0.8333333  0.6666667  0.1666667  )
        80        C      tau(  80) = (  0.8333333  0.6666667  0.5000000  )
        81        C      tau(  81) = (  0.8333333  0.6666667  0.8333333  )
        82        C      tau(  82) = (  0.0000000  0.1666667  0.1666667  )
        83        C      tau(  83) = (  0.0000000  0.1666667  0.5000000  )
        84        C      tau(  84) = (  0.0000000  0.1666667  0.8333333  )
        85        C      tau(  85) = (  0.0000000  0.5000000  0.1666667  )
        86        C      tau(  86) = (  0.0000000  0.5000000  0.5000000  )
        87        C      tau(  87) = (  0.0000000  0.5000000  0.8333333  )
        88        C      tau(  88) = (  0.0000000  0.8333333  0.1666667  )
        89        C      tau(  89) = (  0.0000000  0.8333333  0.5000000  )
        90        C      tau(  90) = (  0.0000000  0.8333333  0.8333333  )
        91        C      tau(  91) = (  0.3333333  0.1666667  0.1666667  )
        92        C      tau(  92) = (  0.3333333  0.1666667  0.5000000  )
        93        C      tau(  93) = (  0.3333333  0.1666667  0.8333333  )
        94        C      tau(  94) = (  0.3333333  0.5000000  0.1666667  )
        95        C      tau(  95) = (  0.3333333  0.5000000  0.8333333  )
        96        C      tau(  96) = (  0.3333333  0.8333333  0.1666667  )
        97        C      tau(  97) = (  0.3333333  0.8333333  0.5000000  )
        98        C      tau(  98) = (  0.3333333  0.8333333  0.8333333  )
        99        C      tau(  99) = (  0.6666667  0.1666667  0.1666667  )
       100        C      tau( 100) = (  0.6666667  0.1666667  0.5000000  )
       101        C      tau( 101) = (  0.6666667  0.1666667  0.8333333  )
       102        C      tau( 102) = (  0.6666667  0.5000000  0.1666667  )
       103        C      tau( 103) = (  0.6666667  0.5000000  0.5000000  )
       104        C      tau( 104) = (  0.6666667  0.5000000  0.8333333  )
       105        C      tau( 105) = (  0.6666667  0.8333333  0.1666667  )
       106        C      tau( 106) = (  0.6666667  0.8333333  0.5000000  )
       107        C      tau( 107) = (  0.6666667  0.8333333  0.8333333  )
       108        C      tau( 108) = (  0.0834630  0.0834630  0.0834630  )
       109        C      tau( 109) = (  0.0834630  0.0834630  0.4167963  )
       110        C      tau( 110) = (  0.0834630  0.0834630  0.7501297  )
       111        C      tau( 111) = (  0.0834630  0.4167963  0.0834630  )
       112        C      tau( 112) = (  0.0834630  0.4167963  0.4167963  )
       113        C      tau( 113) = (  0.0834630  0.4167963  0.7501297  )
       114        C      tau( 114) = (  0.0834630  0.7501297  0.0834630  )
       115        C      tau( 115) = (  0.0834630  0.7501297  0.4167963  )
       116        C      tau( 116) = (  0.0834630  0.7501297  0.7501297  )
       117        C      tau( 117) = (  0.4167963  0.0834630  0.0834630  )
       118        C      tau( 118) = (  0.4167963  0.0834630  0.4167963  )
       119        C      tau( 119) = (  0.4167963  0.0834630  0.7501297  )
       120        C      tau( 120) = (  0.4167963  0.4167963  0.0834630  )
       121        C      tau( 121) = (  0.4167963  0.4167963  0.7501297  )
       122        C      tau( 122) = (  0.4167963  0.7501297  0.0834630  )
       123        C      tau( 123) = (  0.4167963  0.7501297  0.4167963  )
       124        C      tau( 124) = (  0.4167963  0.7501297  0.7501297  )
       125        C      tau( 125) = (  0.7501297  0.0834630  0.0834630  )
       126        C      tau( 126) = (  0.7501297  0.0834630  0.4167963  )
       127        C      tau( 127) = (  0.7501297  0.0834630  0.7501297  )
       128        C      tau( 128) = (  0.7501297  0.4167963  0.0834630  )
       129        C      tau( 129) = (  0.7501297  0.4167963  0.4167963  )
       130        C      tau( 130) = (  0.7501297  0.4167963  0.7501297  )
       131        C      tau( 131) = (  0.7501297  0.7501297  0.0834630  )
       132        C      tau( 132) = (  0.7501297  0.7501297  0.4167963  )
       133        C      tau( 133) = (  0.7501297  0.7501297  0.7501297  )
       134        C      tau( 134) = (  0.2501297  0.2501297  0.0834630  )
       135        C      tau( 135) = (  0.2501297  0.2501297  0.4167963  )
       136        C      tau( 136) = (  0.2501297  0.2501297  0.7501297  )
       137        C      tau( 137) = (  0.2501297  0.5834630  0.0834630  )
       138        C      tau( 138) = (  0.2501297  0.5834630  0.4167963  )
       139        C      tau( 139) = (  0.2501297  0.5834630  0.7501297  )
       140        C      tau( 140) = (  0.2501297  0.9167963  0.0834630  )
       141        C      tau( 141) = (  0.2501297  0.9167963  0.4167963  )
       142        C      tau( 142) = (  0.2501297  0.9167963  0.7501297  )
       143        C      tau( 143) = (  0.5834630  0.2501297  0.0834630  )
       144        C      tau( 144) = (  0.5834630  0.2501297  0.4167963  )
       145        C      tau( 145) = (  0.5834630  0.2501297  0.7501297  )
       146        C      tau( 146) = (  0.5834630  0.5834630  0.0834630  )
       147        C      tau( 147) = (  0.5834630  0.5834630  0.4167963  )
       148        C      tau( 148) = (  0.5834630  0.5834630  0.7501297  )
       149        C      tau( 149) = (  0.5834630  0.9167963  0.0834630  )
       150        C      tau( 150) = (  0.5834630  0.9167963  0.4167963  )
       151        C      tau( 151) = (  0.5834630  0.9167963  0.7501297  )
       152        C      tau( 152) = (  0.9167963  0.2501297  0.0834630  )
       153        C      tau( 153) = (  0.9167963  0.2501297  0.4167963  )
       154        C      tau( 154) = (  0.9167963  0.2501297  0.7501297  )
       155        C      tau( 155) = (  0.9167963  0.5834630  0.0834630  )
       156        C      tau( 156) = (  0.9167963  0.5834630  0.4167963  )
       157        C      tau( 157) = (  0.9167963  0.5834630  0.7501297  )
       158        C      tau( 158) = (  0.9167963  0.9167963  0.0834630  )
       159        C      tau( 159) = (  0.9167963  0.9167963  0.4167963  )
       160        C      tau( 160) = (  0.9167963  0.9167963  0.7501297  )
       161        C      tau( 161) = (  0.2501297  0.0834630  0.2501297  )
       162        C      tau( 162) = (  0.2501297  0.0834630  0.5834630  )
       163        C      tau( 163) = (  0.2501297  0.0834630  0.9167963  )
       164        C      tau( 164) = (  0.2501297  0.4167963  0.2501297  )
       165        C      tau( 165) = (  0.2501297  0.4167963  0.5834630  )
       166        C      tau( 166) = (  0.2501297  0.4167963  0.9167963  )
       167        C      tau( 167) = (  0.2501297  0.7501297  0.2501297  )
       168        C      tau( 168) = (  0.2501297  0.7501297  0.5834630  )
       169        C      tau( 169) = (  0.2501297  0.7501297  0.9167963  )
       170        C      tau( 170) = (  0.5834630  0.0834630  0.2501297  )
       171        C      tau( 171) = (  0.5834630  0.0834630  0.5834630  )
       172        C      tau( 172) = (  0.5834630  0.0834630  0.9167963  )
       173        C      tau( 173) = (  0.5834630  0.4167963  0.2501297  )
       174        C      tau( 174) = (  0.5834630  0.4167963  0.5834630  )
       175        C      tau( 175) = (  0.5834630  0.4167963  0.9167963  )
       176        C      tau( 176) = (  0.5834630  0.7501297  0.2501297  )
       177        C      tau( 177) = (  0.5834630  0.7501297  0.5834630  )
       178        C      tau( 178) = (  0.5834630  0.7501297  0.9167963  )
       179        C      tau( 179) = (  0.9167963  0.0834630  0.2501297  )
       180        C      tau( 180) = (  0.9167963  0.0834630  0.5834630  )
       181        C      tau( 181) = (  0.9167963  0.0834630  0.9167963  )
       182        C      tau( 182) = (  0.9167963  0.4167963  0.2501297  )
       183        C      tau( 183) = (  0.9167963  0.4167963  0.5834630  )
       184        C      tau( 184) = (  0.9167963  0.4167963  0.9167963  )
       185        C      tau( 185) = (  0.9167963  0.7501297  0.2501297  )
       186        C      tau( 186) = (  0.9167963  0.7501297  0.5834630  )
       187        C      tau( 187) = (  0.9167963  0.7501297  0.9167963  )
       188        C      tau( 188) = (  0.0834630  0.2501297  0.2501297  )
       189        C      tau( 189) = (  0.0834630  0.2501297  0.5834630  )
       190        C      tau( 190) = (  0.0834630  0.2501297  0.9167963  )
       191        C      tau( 191) = (  0.0834630  0.5834630  0.2501297  )
       192        C      tau( 192) = (  0.0834630  0.5834630  0.5834630  )
       193        C      tau( 193) = (  0.0834630  0.5834630  0.9167963  )
       194        C      tau( 194) = (  0.0834630  0.9167963  0.2501297  )
       195        C      tau( 195) = (  0.0834630  0.9167963  0.5834630  )
       196        C      tau( 196) = (  0.0834630  0.9167963  0.9167963  )
       197        C      tau( 197) = (  0.4167963  0.2501297  0.2501297  )
       198        C      tau( 198) = (  0.4167963  0.2501297  0.5834630  )
       199        C      tau( 199) = (  0.4167963  0.2501297  0.9167963  )
       200        C      tau( 200) = (  0.4167963  0.5834630  0.2501297  )
       201        C      tau( 201) = (  0.4167963  0.5834630  0.5834630  )
       202        C      tau( 202) = (  0.4167963  0.5834630  0.9167963  )
       203        C      tau( 203) = (  0.4167963  0.9167963  0.2501297  )
       204        C      tau( 204) = (  0.4167963  0.9167963  0.5834630  )
       205        C      tau( 205) = (  0.4167963  0.9167963  0.9167963  )
       206        C      tau( 206) = (  0.7501297  0.2501297  0.2501297  )
       207        C      tau( 207) = (  0.7501297  0.2501297  0.5834630  )
       208        C      tau( 208) = (  0.7501297  0.2501297  0.9167963  )
       209        C      tau( 209) = (  0.7501297  0.5834630  0.2501297  )
       210        C      tau( 210) = (  0.7501297  0.5834630  0.5834630  )
       211        C      tau( 211) = (  0.7501297  0.5834630  0.9167963  )
       212        C      tau( 212) = (  0.7501297  0.9167963  0.2501297  )
       213        C      tau( 213) = (  0.7501297  0.9167963  0.5834630  )
       214        C      tau( 214) = (  0.7501297  0.9167963  0.9167963  )
       215        N      tau( 215) = (  0.4167963  0.4167963  0.4167960  )

     number of k points=     1
                       cart. coord. in units 2pi/alat
        k(    1) = (   0.0000000   0.0000000   0.0000000), wk =   1.0000000

                       cryst. coord.
        k(    1) = (   0.0000000   0.0000000   0.0000000), wk =   1.0000000

     Dense  grid:   338755 G-vectors     FFT dimensions: (  90,  90,  90)

     Dynamical RAM for                 wfc:      19.91 MB

     Dynamical RAM for     wfc (w. buffer):      59.73 MB

     Dynamical RAM for           str. fact:       0.37 MB

     Dynamical RAM for           local pot:       0.00 MB

     Dynamical RAM for          nlocal pot:      39.68 MB

     Dynamical RAM for                qrad:       0.62 MB

     Dynamical RAM for          rho,v,vnew:       2.59 MB

     Dynamical RAM for               rhoin:       0.86 MB

     Dynamical RAM for            rho*nmix:       5.91 MB

     Dynamical RAM for           G-vectors:       0.78 MB

     Dynamical RAM for          h,s,v(r/c):       5.45 MB

     Dynamical RAM for          <psi|beta>:      22.65 MB

     Dynamical RAM for                 psi:      39.82 MB

     Dynamical RAM for                hpsi:      39.82 MB

     Dynamical RAM for                spsi:      39.82 MB

     Dynamical RAM for      wfcinit/wfcrot:      56.87 MB

     Dynamical RAM for           addusdens:      47.63 MB

     Dynamical RAM for          addusforce:     126.64 MB

     Dynamical RAM for         addusstress:       9.51 MB

     Estimated static dynamical RAM per process >     106.68 MB

     Estimated max dynamical RAM per process >     260.14 MB

     Estimated total dynamical RAM >       7.11 GB

     Check: negative core charge=   -0.000075
     Generating pointlists ...
     new r_m :   0.0595 (alat units)  1.2051 (a.u.) for type    1
     new r_m :   0.0595 (alat units)  1.2051 (a.u.) for type    2

     Initial potential from superposition of free atoms

     starting charge     860.9911, renormalised to     863.0000
     Starting wfcs are random
     Checking if some PAW data can be deallocated... 
       PAW data deallocated on   27 nodes for type:  2

     total cpu time spent up to now is        8.0 secs

     per-process dynamical memory:   156.8 Mb

     Self-consistent Calculation

     iteration #  1     ecut=    45.00 Ry     beta= 0.70
     Davidson diagonalization with overlap

---- Real-time Memory Report at c_bands before calling an iterative solver
           395 MiB given to the printing process from OS
           153 MiB allocation reported by mallinfo(arena+hblkhd)
         44515 MiB available memory on the node where the printing process lives
------------------
     ethr =  1.00E-02,  avg # of iterations =  8.0

     total cpu time spent up to now is       97.8 secs

     total energy              =   -3968.78203871 Ry
     estimated scf accuracy    <      12.91197192 Ry

     total magnetization       =     1.00 Bohr mag/cell
     absolute magnetization    =     1.21 Bohr mag/cell

     iteration #  2     ecut=    45.00 Ry     beta= 0.70
     Davidson diagonalization with overlap

---- Real-time Memory Report at c_bands before calling an iterative solver
           660 MiB given to the printing process from OS
           175 MiB allocation reported by mallinfo(arena+hblkhd)
         43815 MiB available memory on the node where the printing process lives
------------------
     ethr =  1.50E-03,  avg # of iterations =  3.0

     total cpu time spent up to now is      121.7 secs

     total energy              =   -3964.64938425 Ry
     estimated scf accuracy    <      11.76869870 Ry

     total magnetization       =     1.00 Bohr mag/cell
     absolute magnetization    =     1.29 Bohr mag/cell

     iteration #  3     ecut=    45.00 Ry     beta= 0.70
     Davidson diagonalization with overlap

---- Real-time Memory Report at c_bands before calling an iterative solver
           684 MiB given to the printing process from OS
           181 MiB allocation reported by mallinfo(arena+hblkhd)
         43748 MiB available memory on the node where the printing process lives
------------------
     ethr =  1.36E-03,  avg # of iterations =  3.0

     total cpu time spent up to now is      149.9 secs

     total energy              =   -3968.22259054 Ry
     estimated scf accuracy    <      21.12365684 Ry

     total magnetization       =     1.00 Bohr mag/cell
     absolute magnetization    =     1.10 Bohr mag/cell

     iteration #  4     ecut=    45.00 Ry     beta= 0.70
     Davidson diagonalization with overlap

---- Real-time Memory Report at c_bands before calling an iterative solver
           695 MiB given to the printing process from OS
           182 MiB allocation reported by mallinfo(arena+hblkhd)
         43706 MiB available memory on the node where the printing process lives
------------------
     ethr =  1.36E-03,  avg # of iterations =  6.5

     total cpu time spent up to now is      176.0 secs

     total energy              =   -3970.06185663 Ry
     estimated scf accuracy    <       1.43486510 Ry

     total magnetization       =     1.00 Bohr mag/cell
     absolute magnetization    =     1.09 Bohr mag/cell

     iteration #  5     ecut=    45.00 Ry     beta= 0.70
     Davidson diagonalization with overlap

---- Real-time Memory Report at c_bands before calling an iterative solver
           707 MiB given to the printing process from OS
           183 MiB allocation reported by mallinfo(arena+hblkhd)
         43676 MiB available memory on the node where the printing process lives
------------------
     ethr =  1.66E-04,  avg # of iterations = 10.0

     total cpu time spent up to now is      204.8 secs

     total energy              =   -3970.12584978 Ry
     estimated scf accuracy    <       0.61887813 Ry

     total magnetization       =     1.00 Bohr mag/cell
     absolute magnetization    =     1.10 Bohr mag/cell

     iteration #  6     ecut=    45.00 Ry     beta= 0.70
     Davidson diagonalization with overlap

---- Real-time Memory Report at c_bands before calling an iterative solver
           713 MiB given to the printing process from OS
           184 MiB allocation reported by mallinfo(arena+hblkhd)
         43623 MiB available memory on the node where the printing process lives
------------------
     ethr =  7.17E-05,  avg # of iterations =  2.0

     total cpu time spent up to now is      227.7 secs

     total energy              =   -3970.09683785 Ry
     estimated scf accuracy    <       0.43196201 Ry

     total magnetization       =     1.00 Bohr mag/cell
     absolute magnetization    =     1.10 Bohr mag/cell

     iteration #  7     ecut=    45.00 Ry     beta= 0.70
     Davidson diagonalization with overlap

---- Real-time Memory Report at c_bands before calling an iterative solver
           719 MiB given to the printing process from OS
           185 MiB allocation reported by mallinfo(arena+hblkhd)
         43597 MiB available memory on the node where the printing process lives
------------------
     ethr =  5.01E-05,  avg # of iterations =  3.0

     total cpu time spent up to now is      251.1 secs

     total energy              =   -3970.08188585 Ry
     estimated scf accuracy    <       0.22297251 Ry

     total magnetization       =     1.00 Bohr mag/cell
     absolute magnetization    =     1.10 Bohr mag/cell

     iteration #  8     ecut=    45.00 Ry     beta= 0.70
     Davidson diagonalization with overlap

---- Real-time Memory Report at c_bands before calling an iterative solver
           723 MiB given to the printing process from OS
           186 MiB allocation reported by mallinfo(arena+hblkhd)
         43560 MiB available memory on the node where the printing process lives
------------------
     ethr =  2.58E-05,  avg # of iterations =  2.5

     total cpu time spent up to now is      274.3 secs

     total energy              =   -3970.07118486 Ry
     estimated scf accuracy    <       0.21151858 Ry

     total magnetization       =     1.00 Bohr mag/cell
     absolute magnetization    =     1.11 Bohr mag/cell

     iteration #  9     ecut=    45.00 Ry     beta= 0.70
     Davidson diagonalization with overlap

---- Real-time Memory Report at c_bands before calling an iterative solver
           728 MiB given to the printing process from OS
           187 MiB allocation reported by mallinfo(arena+hblkhd)
         43527 MiB available memory on the node where the printing process lives
------------------
     ethr =  2.45E-05,  avg # of iterations =  2.0

     total cpu time spent up to now is      297.2 secs

     total energy              =   -3970.07049824 Ry
     estimated scf accuracy    <       0.08372018 Ry

     total magnetization       =     1.00 Bohr mag/cell
     absolute magnetization    =     1.13 Bohr mag/cell

     iteration # 10     ecut=    45.00 Ry     beta= 0.70
     Davidson diagonalization with overlap

---- Real-time Memory Report at c_bands before calling an iterative solver
           731 MiB given to the printing process from OS
           188 MiB allocation reported by mallinfo(arena+hblkhd)
         43463 MiB available memory on the node where the printing process lives
------------------
     ethr =  9.70E-06,  avg # of iterations = 13.5

     total cpu time spent up to now is      328.5 secs

     total energy              =   -3970.07271527 Ry
     estimated scf accuracy    <       0.02910314 Ry

     total magnetization       =     1.00 Bohr mag/cell
     absolute magnetization    =     1.15 Bohr mag/cell

     iteration # 11     ecut=    45.00 Ry     beta= 0.70
     Davidson diagonalization with overlap

---- Real-time Memory Report at c_bands before calling an iterative solver
           736 MiB given to the printing process from OS
           189 MiB allocation reported by mallinfo(arena+hblkhd)
         43484 MiB available memory on the node where the printing process lives
------------------
     ethr =  3.37E-06,  avg # of iterations = 10.5

     total cpu time spent up to now is      357.9 secs

     total energy              =   -3970.07344727 Ry
     estimated scf accuracy    <       0.04943042 Ry

     total magnetization       =     1.00 Bohr mag/cell
     absolute magnetization    =     1.17 Bohr mag/cell

     iteration # 12     ecut=    45.00 Ry     beta= 0.70
     Davidson diagonalization with overlap

---- Real-time Memory Report at c_bands before calling an iterative solver
           738 MiB given to the printing process from OS
           189 MiB allocation reported by mallinfo(arena+hblkhd)
         43449 MiB available memory on the node where the printing process lives
------------------
     ethr =  3.37E-06,  avg # of iterations =  1.5

     total cpu time spent up to now is      378.7 secs

     total energy              =   -3970.07317030 Ry
     estimated scf accuracy    <       0.02891640 Ry

     total magnetization       =     1.00 Bohr mag/cell
     absolute magnetization    =     1.17 Bohr mag/cell

     iteration # 13     ecut=    45.00 Ry     beta= 0.70
     Davidson diagonalization with overlap

---- Real-time Memory Report at c_bands before calling an iterative solver
           739 MiB given to the printing process from OS
           189 MiB allocation reported by mallinfo(arena+hblkhd)
         43404 MiB available memory on the node where the printing process lives
------------------
     ethr =  3.35E-06,  avg # of iterations =  1.0

     total cpu time spent up to now is      397.4 secs

     total energy              =   -3970.07399362 Ry
     estimated scf accuracy    <       0.04435193 Ry

     total magnetization       =     1.00 Bohr mag/cell
     absolute magnetization    =     1.18 Bohr mag/cell

     iteration # 14     ecut=    45.00 Ry     beta= 0.70
     Davidson diagonalization with overlap

---- Real-time Memory Report at c_bands before calling an iterative solver
           740 MiB given to the printing process from OS
           189 MiB allocation reported by mallinfo(arena+hblkhd)
         43386 MiB available memory on the node where the printing process lives
------------------
     ethr =  3.35E-06,  avg # of iterations =  1.0

     total cpu time spent up to now is      416.2 secs

     total energy              =   -3970.07374614 Ry
     estimated scf accuracy    <       0.04278493 Ry

     total magnetization       =     1.00 Bohr mag/cell
     absolute magnetization    =     1.18 Bohr mag/cell

     iteration # 15     ecut=    45.00 Ry     beta= 0.70
     Davidson diagonalization with overlap

---- Real-time Memory Report at c_bands before calling an iterative solver
           740 MiB given to the printing process from OS
           189 MiB allocation reported by mallinfo(arena+hblkhd)
         43373 MiB available memory on the node where the printing process lives
------------------
     ethr =  3.35E-06,  avg # of iterations =  1.0

     total cpu time spent up to now is      434.9 secs

     total energy              =   -3970.07381709 Ry
     estimated scf accuracy    <       0.03901675 Ry

     total magnetization       =     1.00 Bohr mag/cell
     absolute magnetization    =     1.18 Bohr mag/cell

     iteration # 16     ecut=    45.00 Ry     beta= 0.70
     Davidson diagonalization with overlap

---- Real-time Memory Report at c_bands before calling an iterative solver
           740 MiB given to the printing process from OS
           189 MiB allocation reported by mallinfo(arena+hblkhd)
         43379 MiB available memory on the node where the printing process lives
------------------
     ethr =  3.35E-06,  avg # of iterations =  1.0

     total cpu time spent up to now is      453.7 secs

     total energy              =   -3970.07353991 Ry
     estimated scf accuracy    <       0.04076402 Ry

     total magnetization       =     1.00 Bohr mag/cell
     absolute magnetization    =     1.18 Bohr mag/cell

     iteration # 17     ecut=    45.00 Ry     beta= 0.70
     Davidson diagonalization with overlap

---- Real-time Memory Report at c_bands before calling an iterative solver
           740 MiB given to the printing process from OS
           189 MiB allocation reported by mallinfo(arena+hblkhd)
         43404 MiB available memory on the node where the printing process lives
------------------
     ethr =  3.35E-06,  avg # of iterations =  1.0

     total cpu time spent up to now is      472.4 secs

     total energy              =   -3970.07368511 Ry
     estimated scf accuracy    <       0.03170391 Ry

     total magnetization       =     1.00 Bohr mag/cell
     absolute magnetization    =     1.18 Bohr mag/cell

     iteration # 18     ecut=    45.00 Ry     beta= 0.70
     Davidson diagonalization with overlap

---- Real-time Memory Report at c_bands before calling an iterative solver
           740 MiB given to the printing process from OS
           189 MiB allocation reported by mallinfo(arena+hblkhd)
         43377 MiB available memory on the node where the printing process lives
------------------
     ethr =  3.35E-06,  avg # of iterations =  1.0

     total cpu time spent up to now is      491.2 secs

     total energy              =   -3970.07370544 Ry
     estimated scf accuracy    <       0.03531151 Ry

     total magnetization       =     1.00 Bohr mag/cell
     absolute magnetization    =     1.18 Bohr mag/cell

     iteration # 19     ecut=    45.00 Ry     beta= 0.70
     Davidson diagonalization with overlap

---- Real-time Memory Report at c_bands before calling an iterative solver
           740 MiB given to the printing process from OS
           189 MiB allocation reported by mallinfo(arena+hblkhd)
         43374 MiB available memory on the node where the printing process lives
------------------
     ethr =  3.35E-06,  avg # of iterations =  1.0

     total cpu time spent up to now is      509.9 secs

     total energy              =   -3970.07367568 Ry
     estimated scf accuracy    <       0.03210443 Ry

     total magnetization       =     1.00 Bohr mag/cell
     absolute magnetization    =     1.18 Bohr mag/cell

     iteration # 20     ecut=    45.00 Ry     beta= 0.70
     Davidson diagonalization with overlap

---- Real-time Memory Report at c_bands before calling an iterative solver
           740 MiB given to the printing process from OS
           189 MiB allocation reported by mallinfo(arena+hblkhd)
         43374 MiB available memory on the node where the printing process lives
------------------
     ethr =  3.35E-06,  avg # of iterations =  1.0

     total cpu time spent up to now is      528.6 secs

     total energy              =   -3970.07369566 Ry
     estimated scf accuracy    <       0.03671166 Ry

     total magnetization       =     1.00 Bohr mag/cell
     absolute magnetization    =     1.19 Bohr mag/cell

     iteration # 21     ecut=    45.00 Ry     beta= 0.70
     Davidson diagonalization with overlap

---- Real-time Memory Report at c_bands before calling an iterative solver
           740 MiB given to the printing process from OS
           189 MiB allocation reported by mallinfo(arena+hblkhd)
         43399 MiB available memory on the node where the printing process lives
------------------
     ethr =  3.35E-06,  avg # of iterations =  1.0

     total cpu time spent up to now is      547.3 secs

     total energy              =   -3970.07367594 Ry
     estimated scf accuracy    <       0.03597026 Ry

     total magnetization       =     1.00 Bohr mag/cell
     absolute magnetization    =     1.18 Bohr mag/cell

     iteration # 22     ecut=    45.00 Ry     beta= 0.70
     Davidson diagonalization with overlap

---- Real-time Memory Report at c_bands before calling an iterative solver
           740 MiB given to the printing process from OS
           189 MiB allocation reported by mallinfo(arena+hblkhd)
         43402 MiB available memory on the node where the printing process lives
------------------
     ethr =  3.35E-06,  avg # of iterations =  1.0

     total cpu time spent up to now is      566.1 secs

     total energy              =   -3970.07367431 Ry
     estimated scf accuracy    <       0.03521841 Ry

     total magnetization       =     1.00 Bohr mag/cell
     absolute magnetization    =     1.18 Bohr mag/cell

     iteration # 23     ecut=    45.00 Ry     beta= 0.70
     Davidson diagonalization with overlap

---- Real-time Memory Report at c_bands before calling an iterative solver
           740 MiB given to the printing process from OS
           189 MiB allocation reported by mallinfo(arena+hblkhd)
         43385 MiB available memory on the node where the printing process lives
------------------
     ethr =  3.35E-06,  avg # of iterations =  1.0

     total cpu time spent up to now is      584.8 secs

     total energy              =   -3970.07369059 Ry
     estimated scf accuracy    <       0.03178981 Ry

     total magnetization       =     1.00 Bohr mag/cell
     absolute magnetization    =     1.18 Bohr mag/cell

     iteration # 24     ecut=    45.00 Ry     beta= 0.70
     Davidson diagonalization with overlap

---- Real-time Memory Report at c_bands before calling an iterative solver
           740 MiB given to the printing process from OS
           189 MiB allocation reported by mallinfo(arena+hblkhd)
         43381 MiB available memory on the node where the printing process lives
------------------
     ethr =  3.35E-06,  avg # of iterations =  1.0

     total cpu time spent up to now is      603.6 secs

     total energy              =   -3970.07368733 Ry
     estimated scf accuracy    <       0.03256313 Ry

     total magnetization       =     1.00 Bohr mag/cell
     absolute magnetization    =     1.19 Bohr mag/cell

     iteration # 25     ecut=    45.00 Ry     beta= 0.70
     Davidson diagonalization with overlap

---- Real-time Memory Report at c_bands before calling an iterative solver
           740 MiB given to the printing process from OS
           189 MiB allocation reported by mallinfo(arena+hblkhd)
         43397 MiB available memory on the node where the printing process lives
------------------
     ethr =  3.35E-06,  avg # of iterations =  1.0

     total cpu time spent up to now is      622.4 secs

     total energy              =   -3970.07367768 Ry
     estimated scf accuracy    <       0.03175732 Ry

     total magnetization       =     1.00 Bohr mag/cell
     absolute magnetization    =     1.18 Bohr mag/cell

     iteration # 26     ecut=    45.00 Ry     beta= 0.70
     Davidson diagonalization with overlap

---- Real-time Memory Report at c_bands before calling an iterative solver
           740 MiB given to the printing process from OS
           189 MiB allocation reported by mallinfo(arena+hblkhd)
         43386 MiB available memory on the node where the printing process lives
------------------
     ethr =  3.35E-06,  avg # of iterations =  1.0

     total cpu time spent up to now is      641.1 secs

     total energy              =   -3970.07368593 Ry
     estimated scf accuracy    <       0.03501685 Ry

     total magnetization       =     1.00 Bohr mag/cell
     absolute magnetization    =     1.18 Bohr mag/cell

     iteration # 27     ecut=    45.00 Ry     beta= 0.70
     Davidson diagonalization with overlap

---- Real-time Memory Report at c_bands before calling an iterative solver
           740 MiB given to the printing process from OS
           189 MiB allocation reported by mallinfo(arena+hblkhd)
         43370 MiB available memory on the node where the printing process lives
------------------
     ethr =  3.35E-06,  avg # of iterations =  1.0

     total cpu time spent up to now is      659.9 secs

     total energy              =   -3970.07368317 Ry
     estimated scf accuracy    <       0.03195660 Ry

     total magnetization       =     1.00 Bohr mag/cell
     absolute magnetization    =     1.18 Bohr mag/cell

     iteration # 28     ecut=    45.00 Ry     beta= 0.70
     Davidson diagonalization with overlap

---- Real-time Memory Report at c_bands before calling an iterative solver
           740 MiB given to the printing process from OS
           189 MiB allocation reported by mallinfo(arena+hblkhd)
         43372 MiB available memory on the node where the printing process lives
------------------
     ethr =  3.35E-06,  avg # of iterations =  1.0

     total cpu time spent up to now is      678.6 secs

     total energy              =   -3970.07368179 Ry
     estimated scf accuracy    <       0.03596155 Ry

     total magnetization       =     1.00 Bohr mag/cell
     absolute magnetization    =     1.19 Bohr mag/cell

     iteration # 29     ecut=    45.00 Ry     beta= 0.70
     Davidson diagonalization with overlap

---- Real-time Memory Report at c_bands before calling an iterative solver
           741 MiB given to the printing process from OS
           189 MiB allocation reported by mallinfo(arena+hblkhd)
         43388 MiB available memory on the node where the printing process lives
------------------
     ethr =  3.35E-06,  avg # of iterations =  1.0

     total cpu time spent up to now is      697.3 secs

     total energy              =   -3970.07368513 Ry
     estimated scf accuracy    <       0.03280628 Ry

     total magnetization       =     1.00 Bohr mag/cell
     absolute magnetization    =     1.19 Bohr mag/cell

     iteration # 30     ecut=    45.00 Ry     beta= 0.70
     Davidson diagonalization with overlap

---- Real-time Memory Report at c_bands before calling an iterative solver
           741 MiB given to the printing process from OS
           189 MiB allocation reported by mallinfo(arena+hblkhd)
         43402 MiB available memory on the node where the printing process lives
------------------
     ethr =  3.35E-06,  avg # of iterations =  1.0

     total cpu time spent up to now is      716.1 secs

     total energy              =   -3970.07368683 Ry
     estimated scf accuracy    <       0.03591579 Ry

     total magnetization       =     1.00 Bohr mag/cell
     absolute magnetization    =     1.19 Bohr mag/cell

     iteration # 31     ecut=    45.00 Ry     beta= 0.70
     Davidson diagonalization with overlap

---- Real-time Memory Report at c_bands before calling an iterative solver
           741 MiB given to the printing process from OS
           189 MiB allocation reported by mallinfo(arena+hblkhd)
         43378 MiB available memory on the node where the printing process lives
------------------
     ethr =  3.35E-06,  avg # of iterations =  1.0

     total cpu time spent up to now is      734.8 secs

     total energy              =   -3970.07368493 Ry
     estimated scf accuracy    <       0.03593217 Ry

     total magnetization       =     1.00 Bohr mag/cell
     absolute magnetization    =     1.19 Bohr mag/cell

     iteration # 32     ecut=    45.00 Ry     beta= 0.70
     Davidson diagonalization with overlap

---- Real-time Memory Report at c_bands before calling an iterative solver
           741 MiB given to the printing process from OS
           189 MiB allocation reported by mallinfo(arena+hblkhd)
         43376 MiB available memory on the node where the printing process lives
------------------
     ethr =  3.35E-06,  avg # of iterations =  1.0

     total cpu time spent up to now is      753.6 secs

     total energy              =   -3970.07368507 Ry
     estimated scf accuracy    <       0.03241309 Ry

     total magnetization       =     1.00 Bohr mag/cell
     absolute magnetization    =     1.19 Bohr mag/cell

     iteration # 33     ecut=    45.00 Ry     beta= 0.70
     Davidson diagonalization with overlap

---- Real-time Memory Report at c_bands before calling an iterative solver
           741 MiB given to the printing process from OS
           189 MiB allocation reported by mallinfo(arena+hblkhd)
         43404 MiB available memory on the node where the printing process lives
------------------
     ethr =  3.35E-06,  avg # of iterations =  1.0

     total cpu time spent up to now is      772.3 secs

     total energy              =   -3970.07368605 Ry
     estimated scf accuracy    <       0.03268287 Ry

     total magnetization       =     1.00 Bohr mag/cell
     absolute magnetization    =     1.19 Bohr mag/cell

     iteration # 34     ecut=    45.00 Ry     beta= 0.70
     Davidson diagonalization with overlap

---- Real-time Memory Report at c_bands before calling an iterative solver
           741 MiB given to the printing process from OS
           189 MiB allocation reported by mallinfo(arena+hblkhd)
         43398 MiB available memory on the node where the printing process lives
------------------
     ethr =  3.35E-06,  avg # of iterations =  1.0

     total cpu time spent up to now is      791.1 secs

     total energy              =   -3970.07368550 Ry
     estimated scf accuracy    <       0.03458822 Ry

     total magnetization       =     1.00 Bohr mag/cell
     absolute magnetization    =     1.18 Bohr mag/cell

     iteration # 35     ecut=    45.00 Ry     beta= 0.70
     Davidson diagonalization with overlap

---- Real-time Memory Report at c_bands before calling an iterative solver
           741 MiB given to the printing process from OS
           189 MiB allocation reported by mallinfo(arena+hblkhd)
         43380 MiB available memory on the node where the printing process lives
------------------
     ethr =  3.35E-06,  avg # of iterations =  1.0

     total cpu time spent up to now is      809.9 secs

     total energy              =   -3970.07368524 Ry
     estimated scf accuracy    <       0.03598653 Ry

     total magnetization       =     1.00 Bohr mag/cell
     absolute magnetization    =     1.19 Bohr mag/cell

     iteration # 36     ecut=    45.00 Ry     beta= 0.70
     Davidson diagonalization with overlap

---- Real-time Memory Report at c_bands before calling an iterative solver
           741 MiB given to the printing process from OS
           189 MiB allocation reported by mallinfo(arena+hblkhd)
         43380 MiB available memory on the node where the printing process lives
------------------
     ethr =  3.35E-06,  avg # of iterations =  1.0

     total cpu time spent up to now is      828.7 secs

     total energy              =   -3970.07368547 Ry
     estimated scf accuracy    <       0.03270605 Ry

     total magnetization       =     1.00 Bohr mag/cell
     absolute magnetization    =     1.19 Bohr mag/cell

     iteration # 37     ecut=    45.00 Ry     beta= 0.70
     Davidson diagonalization with overlap

---- Real-time Memory Report at c_bands before calling an iterative solver
           741 MiB given to the printing process from OS
           189 MiB allocation reported by mallinfo(arena+hblkhd)
         43397 MiB available memory on the node where the printing process lives
------------------
     ethr =  3.35E-06,  avg # of iterations =  1.0

     total cpu time spent up to now is      847.4 secs

     total energy              =   -3970.07368550 Ry
     estimated scf accuracy    <       0.03164271 Ry

     total magnetization       =     1.00 Bohr mag/cell
     absolute magnetization    =     1.18 Bohr mag/cell

     iteration # 38     ecut=    45.00 Ry     beta= 0.70
     Davidson diagonalization with overlap

---- Real-time Memory Report at c_bands before calling an iterative solver
           741 MiB given to the printing process from OS
           189 MiB allocation reported by mallinfo(arena+hblkhd)
         43378 MiB available memory on the node where the printing process lives
------------------
     ethr =  3.35E-06,  avg # of iterations =  1.0

     total cpu time spent up to now is      866.1 secs

     total energy              =   -3970.07368544 Ry
     estimated scf accuracy    <       0.03224482 Ry

     total magnetization       =     1.00 Bohr mag/cell
     absolute magnetization    =     1.19 Bohr mag/cell

     iteration # 39     ecut=    45.00 Ry     beta= 0.70
     Davidson diagonalization with overlap

---- Real-time Memory Report at c_bands before calling an iterative solver
           741 MiB given to the printing process from OS
           189 MiB allocation reported by mallinfo(arena+hblkhd)
         43371 MiB available memory on the node where the printing process lives
------------------
     ethr =  3.35E-06,  avg # of iterations =  1.0

     total cpu time spent up to now is      884.9 secs

     total energy              =   -3970.07368573 Ry
     estimated scf accuracy    <       0.03205343 Ry

     total magnetization       =     1.00 Bohr mag/cell
     absolute magnetization    =     1.19 Bohr mag/cell

     iteration # 40     ecut=    45.00 Ry     beta= 0.70
     Davidson diagonalization with overlap

---- Real-time Memory Report at c_bands before calling an iterative solver
           741 MiB given to the printing process from OS
           189 MiB allocation reported by mallinfo(arena+hblkhd)
         43374 MiB available memory on the node where the printing process lives
------------------
     ethr =  3.35E-06,  avg # of iterations =  1.0

     total cpu time spent up to now is      903.6 secs

     total energy              =   -3970.07368547 Ry
     estimated scf accuracy    <       0.03199973 Ry

     total magnetization       =     1.00 Bohr mag/cell
     absolute magnetization    =     1.19 Bohr mag/cell

     iteration # 41     ecut=    45.00 Ry     beta= 0.70
     Davidson diagonalization with overlap

---- Real-time Memory Report at c_bands before calling an iterative solver
           741 MiB given to the printing process from OS
           189 MiB allocation reported by mallinfo(arena+hblkhd)
         43394 MiB available memory on the node where the printing process lives
------------------
     ethr =  3.35E-06,  avg # of iterations =  1.0

     total cpu time spent up to now is      922.3 secs

     total energy              =   -3970.07368543 Ry
     estimated scf accuracy    <       0.03196338 Ry

     total magnetization       =     1.00 Bohr mag/cell
     absolute magnetization    =     1.18 Bohr mag/cell

     iteration # 42     ecut=    45.00 Ry     beta= 0.70
     Davidson diagonalization with overlap

---- Real-time Memory Report at c_bands before calling an iterative solver
           741 MiB given to the printing process from OS
           189 MiB allocation reported by mallinfo(arena+hblkhd)
         43406 MiB available memory on the node where the printing process lives
------------------
     ethr =  3.35E-06,  avg # of iterations =  1.0

     total cpu time spent up to now is      941.1 secs

     total energy              =   -3970.07368538 Ry
     estimated scf accuracy    <       0.03595856 Ry

     total magnetization       =     1.00 Bohr mag/cell
     absolute magnetization    =     1.19 Bohr mag/cell

     iteration # 43     ecut=    45.00 Ry     beta= 0.70
     Davidson diagonalization with overlap

---- Real-time Memory Report at c_bands before calling an iterative solver
           741 MiB given to the printing process from OS
           189 MiB allocation reported by mallinfo(arena+hblkhd)
         43366 MiB available memory on the node where the printing process lives
------------------
     ethr =  3.35E-06,  avg # of iterations =  1.0

     total cpu time spent up to now is      959.9 secs

     total energy              =   -3970.07368533 Ry
     estimated scf accuracy    <       0.03268818 Ry

     total magnetization       =     1.00 Bohr mag/cell
     absolute magnetization    =     1.19 Bohr mag/cell

     iteration # 44     ecut=    45.00 Ry     beta= 0.70
     Davidson diagonalization with overlap

---- Real-time Memory Report at c_bands before calling an iterative solver
           741 MiB given to the printing process from OS
           189 MiB allocation reported by mallinfo(arena+hblkhd)
         43373 MiB available memory on the node where the printing process lives
------------------
     ethr =  3.35E-06,  avg # of iterations =  1.0

     total cpu time spent up to now is      978.7 secs

     total energy              =   -3970.07368536 Ry
     estimated scf accuracy    <       0.03228052 Ry

     total magnetization       =     1.00 Bohr mag/cell
     absolute magnetization    =     1.19 Bohr mag/cell

     iteration # 45     ecut=    45.00 Ry     beta= 0.70
     Davidson diagonalization with overlap

---- Real-time Memory Report at c_bands before calling an iterative solver
           741 MiB given to the printing process from OS
           189 MiB allocation reported by mallinfo(arena+hblkhd)
         43396 MiB available memory on the node where the printing process lives
------------------
     ethr =  3.35E-06,  avg # of iterations =  1.0

     total cpu time spent up to now is      997.4 secs

     total energy              =   -3970.07368477 Ry
     estimated scf accuracy    <       0.03391450 Ry

     total magnetization       =     1.00 Bohr mag/cell
     absolute magnetization    =     1.18 Bohr mag/cell

     iteration # 46     ecut=    45.00 Ry     beta= 0.70
     Davidson diagonalization with overlap

---- Real-time Memory Report at c_bands before calling an iterative solver
           741 MiB given to the printing process from OS
           189 MiB allocation reported by mallinfo(arena+hblkhd)
         43385 MiB available memory on the node where the printing process lives
------------------
     ethr =  3.35E-06,  avg # of iterations =  1.0

     total cpu time spent up to now is     1016.1 secs

     total energy              =   -3970.07368307 Ry
     estimated scf accuracy    <       0.03298062 Ry

     total magnetization       =     1.00 Bohr mag/cell
     absolute magnetization    =     1.19 Bohr mag/cell

     iteration # 47     ecut=    45.00 Ry     beta= 0.70
     Davidson diagonalization with overlap

---- Real-time Memory Report at c_bands before calling an iterative solver
           741 MiB given to the printing process from OS
           189 MiB allocation reported by mallinfo(arena+hblkhd)
         43364 MiB available memory on the node where the printing process lives
------------------
     ethr =  3.35E-06,  avg # of iterations =  1.0

     total cpu time spent up to now is     1034.9 secs

     total energy              =   -3970.07368381 Ry
     estimated scf accuracy    <       0.03367760 Ry

     total magnetization       =     1.00 Bohr mag/cell
     absolute magnetization    =     1.18 Bohr mag/cell

     iteration # 48     ecut=    45.00 Ry     beta= 0.70
     Davidson diagonalization with overlap

---- Real-time Memory Report at c_bands before calling an iterative solver
           741 MiB given to the printing process from OS
           189 MiB allocation reported by mallinfo(arena+hblkhd)
         43356 MiB available memory on the node where the printing process lives
------------------
     ethr =  3.35E-06,  avg # of iterations =  1.0

     total cpu time spent up to now is     1053.6 secs

     total energy              =   -3970.07369101 Ry
     estimated scf accuracy    <       0.03363253 Ry

     total magnetization       =     1.00 Bohr mag/cell
     absolute magnetization    =     1.18 Bohr mag/cell

     iteration # 49     ecut=    45.00 Ry     beta= 0.70
     Davidson diagonalization with overlap

---- Real-time Memory Report at c_bands before calling an iterative solver
           742 MiB given to the printing process from OS
           189 MiB allocation reported by mallinfo(arena+hblkhd)
         43374 MiB available memory on the node where the printing process lives
------------------
     ethr =  3.35E-06,  avg # of iterations =  1.0

     total cpu time spent up to now is     1072.4 secs

     total energy              =   -3970.07369031 Ry
     estimated scf accuracy    <       0.03402176 Ry

     total magnetization       =     1.00 Bohr mag/cell
     absolute magnetization    =     1.18 Bohr mag/cell

     iteration # 50     ecut=    45.00 Ry     beta= 0.70
     Davidson diagonalization with overlap

---- Real-time Memory Report at c_bands before calling an iterative solver
           742 MiB given to the printing process from OS
           189 MiB allocation reported by mallinfo(arena+hblkhd)
         43389 MiB available memory on the node where the printing process lives
------------------
     ethr =  3.35E-06,  avg # of iterations =  1.0

     total cpu time spent up to now is     1091.1 secs

     total energy              =   -3970.07368754 Ry
     estimated scf accuracy    <       0.03307735 Ry

     total magnetization       =     1.00 Bohr mag/cell
     absolute magnetization    =     1.19 Bohr mag/cell

     iteration # 51     ecut=    45.00 Ry     beta= 0.70
     Davidson diagonalization with overlap

---- Real-time Memory Report at c_bands before calling an iterative solver
           742 MiB given to the printing process from OS
           189 MiB allocation reported by mallinfo(arena+hblkhd)
         43364 MiB available memory on the node where the printing process lives
------------------
     ethr =  3.35E-06,  avg # of iterations =  1.0

     total cpu time spent up to now is     1109.8 secs

     total energy              =   -3970.07368356 Ry
     estimated scf accuracy    <       0.03371079 Ry

     total magnetization       =     1.00 Bohr mag/cell
     absolute magnetization    =     1.18 Bohr mag/cell

     iteration # 52     ecut=    45.00 Ry     beta= 0.70
     Davidson diagonalization with overlap

---- Real-time Memory Report at c_bands before calling an iterative solver
           742 MiB given to the printing process from OS
           189 MiB allocation reported by mallinfo(arena+hblkhd)
         43380 MiB available memory on the node where the printing process lives
------------------
     ethr =  3.35E-06,  avg # of iterations =  1.0

     total cpu time spent up to now is     1128.6 secs

     total energy              =   -3970.07368396 Ry
     estimated scf accuracy    <       0.03475155 Ry

     total magnetization       =     1.00 Bohr mag/cell
     absolute magnetization    =     1.18 Bohr mag/cell

     iteration # 53     ecut=    45.00 Ry     beta= 0.70
     Davidson diagonalization with overlap

---- Real-time Memory Report at c_bands before calling an iterative solver
           742 MiB given to the printing process from OS
           189 MiB allocation reported by mallinfo(arena+hblkhd)
         43402 MiB available memory on the node where the printing process lives
------------------
     ethr =  3.35E-06,  avg # of iterations =  1.0

     total cpu time spent up to now is     1147.3 secs

     total energy              =   -3970.07368675 Ry
     estimated scf accuracy    <       0.03317571 Ry

     total magnetization       =     1.00 Bohr mag/cell
     absolute magnetization    =     1.19 Bohr mag/cell

     iteration # 54     ecut=    45.00 Ry     beta= 0.70
     Davidson diagonalization with overlap

---- Real-time Memory Report at c_bands before calling an iterative solver
           742 MiB given to the printing process from OS
           189 MiB allocation reported by mallinfo(arena+hblkhd)
         43379 MiB available memory on the node where the printing process lives
------------------
     ethr =  3.35E-06,  avg # of iterations =  1.0

     total cpu time spent up to now is     1166.0 secs

     total energy              =   -3970.07368324 Ry
     estimated scf accuracy    <       0.03411670 Ry

     total magnetization       =     1.00 Bohr mag/cell
     absolute magnetization    =     1.18 Bohr mag/cell

     iteration # 55     ecut=    45.00 Ry     beta= 0.70
     Davidson diagonalization with overlap

---- Real-time Memory Report at c_bands before calling an iterative solver
           742 MiB given to the printing process from OS
           189 MiB allocation reported by mallinfo(arena+hblkhd)
         43379 MiB available memory on the node where the printing process lives
------------------
     ethr =  3.35E-06,  avg # of iterations =  1.0

     total cpu time spent up to now is     1184.7 secs

     total energy              =   -3970.07368813 Ry
     estimated scf accuracy    <       0.03512274 Ry

     total magnetization       =     1.00 Bohr mag/cell
     absolute magnetization    =     1.18 Bohr mag/cell

     iteration # 56     ecut=    45.00 Ry     beta= 0.70
     Davidson diagonalization with overlap

---- Real-time Memory Report at c_bands before calling an iterative solver
           742 MiB given to the printing process from OS
           189 MiB allocation reported by mallinfo(arena+hblkhd)
         43373 MiB available memory on the node where the printing process lives
------------------
     ethr =  3.35E-06,  avg # of iterations =  1.0

     total cpu time spent up to now is     1203.5 secs

     total energy              =   -3970.07368505 Ry
     estimated scf accuracy    <       0.03385277 Ry

     total magnetization       =     1.00 Bohr mag/cell
     absolute magnetization    =     1.18 Bohr mag/cell

     iteration # 57     ecut=    45.00 Ry     beta= 0.70
     Davidson diagonalization with overlap

---- Real-time Memory Report at c_bands before calling an iterative solver
           743 MiB given to the printing process from OS
           189 MiB allocation reported by mallinfo(arena+hblkhd)
         43398 MiB available memory on the node where the printing process lives
------------------
     ethr =  3.35E-06,  avg # of iterations =  1.0

     total cpu time spent up to now is     1222.2 secs

     total energy              =   -3970.07368563 Ry
     estimated scf accuracy    <       0.03162404 Ry

     total magnetization       =     1.00 Bohr mag/cell
     absolute magnetization    =     1.18 Bohr mag/cell

     iteration # 58     ecut=    45.00 Ry     beta= 0.70
     Davidson diagonalization with overlap

---- Real-time Memory Report at c_bands before calling an iterative solver
           743 MiB given to the printing process from OS
           189 MiB allocation reported by mallinfo(arena+hblkhd)
         43366 MiB available memory on the node where the printing process lives
------------------
     ethr =  3.35E-06,  avg # of iterations =  1.0

     total cpu time spent up to now is     1241.0 secs

     total energy              =   -3970.07368534 Ry
     estimated scf accuracy    <       0.03153654 Ry

     total magnetization       =     1.00 Bohr mag/cell
     absolute magnetization    =     1.18 Bohr mag/cell

     iteration # 59     ecut=    45.00 Ry     beta= 0.70
     Davidson diagonalization with overlap

---- Real-time Memory Report at c_bands before calling an iterative solver
           743 MiB given to the printing process from OS
           189 MiB allocation reported by mallinfo(arena+hblkhd)
         43371 MiB available memory on the node where the printing process lives
------------------
     ethr =  3.35E-06,  avg # of iterations =  1.0

     total cpu time spent up to now is     1259.7 secs

     total energy              =   -3970.07368551 Ry
     estimated scf accuracy    <       0.03422281 Ry

     total magnetization       =     1.00 Bohr mag/cell
     absolute magnetization    =     1.18 Bohr mag/cell

     iteration # 60     ecut=    45.00 Ry     beta= 0.70
     Davidson diagonalization with overlap

---- Real-time Memory Report at c_bands before calling an iterative solver
           744 MiB given to the printing process from OS
           189 MiB allocation reported by mallinfo(arena+hblkhd)
         43380 MiB available memory on the node where the printing process lives
------------------
     ethr =  3.35E-06,  avg # of iterations =  1.0

     total cpu time spent up to now is     1278.5 secs

     total energy              =   -3970.07368550 Ry
     estimated scf accuracy    <       0.03194387 Ry

     total magnetization       =     1.00 Bohr mag/cell
     absolute magnetization    =     1.18 Bohr mag/cell

     iteration # 61     ecut=    45.00 Ry     beta= 0.70
     Davidson diagonalization with overlap

---- Real-time Memory Report at c_bands before calling an iterative solver
           744 MiB given to the printing process from OS
           189 MiB allocation reported by mallinfo(arena+hblkhd)
         43379 MiB available memory on the node where the printing process lives
------------------
     ethr =  3.35E-06,  avg # of iterations =  1.0

     total cpu time spent up to now is     1297.2 secs

     total energy              =   -3970.07368391 Ry
     estimated scf accuracy    <       0.03173620 Ry

     total magnetization       =     1.00 Bohr mag/cell
     absolute magnetization    =     1.18 Bohr mag/cell

     iteration # 62     ecut=    45.00 Ry     beta= 0.70
     Davidson diagonalization with overlap

---- Real-time Memory Report at c_bands before calling an iterative solver
           747 MiB given to the printing process from OS
           189 MiB allocation reported by mallinfo(arena+hblkhd)
         43354 MiB available memory on the node where the printing process lives
------------------
     ethr =  3.35E-06,  avg # of iterations =  1.0

     total cpu time spent up to now is     1315.9 secs

     total energy              =   -3970.07368523 Ry
     estimated scf accuracy    <       0.03383725 Ry

     total magnetization       =     1.00 Bohr mag/cell
     absolute magnetization    =     1.18 Bohr mag/cell

     iteration # 63     ecut=    45.00 Ry     beta= 0.70
     Davidson diagonalization with overlap

---- Real-time Memory Report at c_bands before calling an iterative solver
           747 MiB given to the printing process from OS
           189 MiB allocation reported by mallinfo(arena+hblkhd)
         43372 MiB available memory on the node where the printing process lives
------------------
     ethr =  3.35E-06,  avg # of iterations =  1.0

     total cpu time spent up to now is     1334.7 secs

     total energy              =   -3970.07368577 Ry
     estimated scf accuracy    <       0.03177904 Ry

     total magnetization       =     1.00 Bohr mag/cell
     absolute magnetization    =     1.18 Bohr mag/cell

     iteration # 64     ecut=    45.00 Ry     beta= 0.70
     Davidson diagonalization with overlap

---- Real-time Memory Report at c_bands before calling an iterative solver
           747 MiB given to the printing process from OS
           189 MiB allocation reported by mallinfo(arena+hblkhd)
         43375 MiB available memory on the node where the printing process lives
------------------
     ethr =  3.35E-06,  avg # of iterations =  1.0

     total cpu time spent up to now is     1353.4 secs

     total energy              =   -3970.07368587 Ry
     estimated scf accuracy    <       0.03187900 Ry

     total magnetization       =     1.00 Bohr mag/cell
     absolute magnetization    =     1.18 Bohr mag/cell

     iteration # 65     ecut=    45.00 Ry     beta= 0.70
     Davidson diagonalization with overlap

---- Real-time Memory Report at c_bands before calling an iterative solver
           747 MiB given to the printing process from OS
           189 MiB allocation reported by mallinfo(arena+hblkhd)
         43396 MiB available memory on the node where the printing process lives
------------------
     ethr =  3.35E-06,  avg # of iterations =  1.0

     total cpu time spent up to now is     1372.1 secs

     total energy              =   -3970.07368545 Ry
     estimated scf accuracy    <       0.03241120 Ry

     total magnetization       =     1.00 Bohr mag/cell
     absolute magnetization    =     1.19 Bohr mag/cell

     iteration # 66     ecut=    45.00 Ry     beta= 0.70
     Davidson diagonalization with overlap

---- Real-time Memory Report at c_bands before calling an iterative solver
           747 MiB given to the printing process from OS
           189 MiB allocation reported by mallinfo(arena+hblkhd)
         43356 MiB available memory on the node where the printing process lives
------------------
     ethr =  3.35E-06,  avg # of iterations =  1.0

     total cpu time spent up to now is     1390.9 secs

     total energy              =   -3970.07368580 Ry
     estimated scf accuracy    <       0.03142913 Ry

     total magnetization       =     1.00 Bohr mag/cell
     absolute magnetization    =     1.18 Bohr mag/cell

     iteration # 67     ecut=    45.00 Ry     beta= 0.70
     Davidson diagonalization with overlap

---- Real-time Memory Report at c_bands before calling an iterative solver
           747 MiB given to the printing process from OS
           189 MiB allocation reported by mallinfo(arena+hblkhd)
         43383 MiB available memory on the node where the printing process lives
------------------
     ethr =  3.35E-06,  avg # of iterations =  1.0

     total cpu time spent up to now is     1409.6 secs

     total energy              =   -3970.07368521 Ry
     estimated scf accuracy    <       0.03251764 Ry

     total magnetization       =     1.00 Bohr mag/cell
     absolute magnetization    =     1.19 Bohr mag/cell

     iteration # 68     ecut=    45.00 Ry     beta= 0.70
     Davidson diagonalization with overlap

---- Real-time Memory Report at c_bands before calling an iterative solver
           747 MiB given to the printing process from OS
           189 MiB allocation reported by mallinfo(arena+hblkhd)
         43377 MiB available memory on the node where the printing process lives
------------------
     ethr =  3.35E-06,  avg # of iterations =  1.0

     total cpu time spent up to now is     1428.3 secs

     total energy              =   -3970.07368693 Ry
     estimated scf accuracy    <       0.03252501 Ry

     total magnetization       =     1.00 Bohr mag/cell
     absolute magnetization    =     1.19 Bohr mag/cell

     iteration # 69     ecut=    45.00 Ry     beta= 0.70
     Davidson diagonalization with overlap

---- Real-time Memory Report at c_bands before calling an iterative solver
           747 MiB given to the printing process from OS
           189 MiB allocation reported by mallinfo(arena+hblkhd)
         43386 MiB available memory on the node where the printing process lives
------------------
     ethr =  3.35E-06,  avg # of iterations =  1.0

     total cpu time spent up to now is     1447.0 secs

     total energy              =   -3970.07368736 Ry
     estimated scf accuracy    <       0.03357402 Ry

     total magnetization       =     1.00 Bohr mag/cell
     absolute magnetization    =     1.18 Bohr mag/cell

     iteration # 70     ecut=    45.00 Ry     beta= 0.70
     Davidson diagonalization with overlap

---- Real-time Memory Report at c_bands before calling an iterative solver
           747 MiB given to the printing process from OS
           189 MiB allocation reported by mallinfo(arena+hblkhd)
         43357 MiB available memory on the node where the printing process lives
------------------
     ethr =  3.35E-06,  avg # of iterations =  1.0

     total cpu time spent up to now is     1465.7 secs

     total energy              =   -3970.07368542 Ry
     estimated scf accuracy    <       0.03476459 Ry

     total magnetization       =     1.00 Bohr mag/cell
     absolute magnetization    =     1.18 Bohr mag/cell

     iteration # 71     ecut=    45.00 Ry     beta= 0.70
     Davidson diagonalization with overlap

---- Real-time Memory Report at c_bands before calling an iterative solver
           747 MiB given to the printing process from OS
           189 MiB allocation reported by mallinfo(arena+hblkhd)
         43384 MiB available memory on the node where the printing process lives
------------------
     ethr =  3.35E-06,  avg # of iterations =  1.0

     total cpu time spent up to now is     1484.4 secs

     total energy              =   -3970.07368523 Ry
     estimated scf accuracy    <       0.03577488 Ry

     total magnetization       =     1.00 Bohr mag/cell
     absolute magnetization    =     1.18 Bohr mag/cell

     iteration # 72     ecut=    45.00 Ry     beta= 0.70
     Davidson diagonalization with overlap

---- Real-time Memory Report at c_bands before calling an iterative solver
           747 MiB given to the printing process from OS
           189 MiB allocation reported by mallinfo(arena+hblkhd)
         43379 MiB available memory on the node where the printing process lives
------------------
     ethr =  3.35E-06,  avg # of iterations =  1.0

     total cpu time spent up to now is     1503.1 secs

     total energy              =   -3970.07368471 Ry
     estimated scf accuracy    <       0.03287924 Ry

     total magnetization       =     1.00 Bohr mag/cell
     absolute magnetization    =     1.19 Bohr mag/cell

     iteration # 73     ecut=    45.00 Ry     beta= 0.70
     Davidson diagonalization with overlap

---- Real-time Memory Report at c_bands before calling an iterative solver
           747 MiB given to the printing process from OS
           189 MiB allocation reported by mallinfo(arena+hblkhd)
         43354 MiB available memory on the node where the printing process lives
------------------
     ethr =  3.35E-06,  avg # of iterations =  1.0

     total cpu time spent up to now is     1521.9 secs

     total energy              =   -3970.07368485 Ry
     estimated scf accuracy    <       0.03484690 Ry

     total magnetization       =     1.00 Bohr mag/cell
     absolute magnetization    =     1.18 Bohr mag/cell

     iteration # 74     ecut=    45.00 Ry     beta= 0.70
     Davidson diagonalization with overlap

---- Real-time Memory Report at c_bands before calling an iterative solver
           747 MiB given to the printing process from OS
           189 MiB allocation reported by mallinfo(arena+hblkhd)
         43367 MiB available memory on the node where the printing process lives
------------------
     ethr =  3.35E-06,  avg # of iterations =  1.0

     total cpu time spent up to now is     1540.6 secs

     total energy              =   -3970.07368569 Ry
     estimated scf accuracy    <       0.03462650 Ry

     total magnetization       =     1.00 Bohr mag/cell
     absolute magnetization    =     1.18 Bohr mag/cell

     iteration # 75     ecut=    45.00 Ry     beta= 0.70
     Davidson diagonalization with overlap

---- Real-time Memory Report at c_bands before calling an iterative solver
           747 MiB given to the printing process from OS
           189 MiB allocation reported by mallinfo(arena+hblkhd)
         43391 MiB available memory on the node where the printing process lives
------------------
     ethr =  3.35E-06,  avg # of iterations =  1.0

     total cpu time spent up to now is     1559.3 secs

     total energy              =   -3970.07369222 Ry
     estimated scf accuracy    <       0.03196368 Ry

     total magnetization       =     1.00 Bohr mag/cell
     absolute magnetization    =     1.18 Bohr mag/cell

     iteration # 76     ecut=    45.00 Ry     beta= 0.70
     Davidson diagonalization with overlap

---- Real-time Memory Report at c_bands before calling an iterative solver
           747 MiB given to the printing process from OS
           189 MiB allocation reported by mallinfo(arena+hblkhd)
         43359 MiB available memory on the node where the printing process lives
------------------
     ethr =  3.35E-06,  avg # of iterations =  1.0

     total cpu time spent up to now is     1578.0 secs

     total energy              =   -3970.07368617 Ry
     estimated scf accuracy    <       0.03184200 Ry

     total magnetization       =     1.00 Bohr mag/cell
     absolute magnetization    =     1.18 Bohr mag/cell

     iteration # 77     ecut=    45.00 Ry     beta= 0.70
     Davidson diagonalization with overlap

---- Real-time Memory Report at c_bands before calling an iterative solver
           747 MiB given to the printing process from OS
           189 MiB allocation reported by mallinfo(arena+hblkhd)
         43365 MiB available memory on the node where the printing process lives
------------------
     ethr =  3.35E-06,  avg # of iterations =  1.0

     total cpu time spent up to now is     1596.7 secs

     total energy              =   -3970.07368554 Ry
     estimated scf accuracy    <       0.03405033 Ry

     total magnetization       =     1.00 Bohr mag/cell
     absolute magnetization    =     1.18 Bohr mag/cell

     iteration # 78     ecut=    45.00 Ry     beta= 0.70
     Davidson diagonalization with overlap

---- Real-time Memory Report at c_bands before calling an iterative solver
           747 MiB given to the printing process from OS
           189 MiB allocation reported by mallinfo(arena+hblkhd)
         43367 MiB available memory on the node where the printing process lives
------------------
     ethr =  3.35E-06,  avg # of iterations =  1.0

     total cpu time spent up to now is     1615.4 secs

     total energy              =   -3970.07368566 Ry
     estimated scf accuracy    <       0.03143370 Ry

     total magnetization       =     1.00 Bohr mag/cell
     absolute magnetization    =     1.18 Bohr mag/cell

     iteration # 79     ecut=    45.00 Ry     beta= 0.70
     Davidson diagonalization with overlap

---- Real-time Memory Report at c_bands before calling an iterative solver
           747 MiB given to the printing process from OS
           189 MiB allocation reported by mallinfo(arena+hblkhd)
         43372 MiB available memory on the node where the printing process lives
------------------
     ethr =  3.35E-06,  avg # of iterations =  1.0

     total cpu time spent up to now is     1634.1 secs

     total energy              =   -3970.07368418 Ry
     estimated scf accuracy    <       0.03247663 Ry

     total magnetization       =     1.00 Bohr mag/cell
     absolute magnetization    =     1.19 Bohr mag/cell

     iteration # 80     ecut=    45.00 Ry     beta= 0.70
     Davidson diagonalization with overlap

---- Real-time Memory Report at c_bands before calling an iterative solver
           747 MiB given to the printing process from OS
           189 MiB allocation reported by mallinfo(arena+hblkhd)
         43353 MiB available memory on the node where the printing process lives
------------------
     ethr =  3.35E-06,  avg # of iterations =  1.0

     total cpu time spent up to now is     1652.8 secs

     total energy              =   -3970.07368942 Ry
     estimated scf accuracy    <       0.03593808 Ry

     total magnetization       =     1.00 Bohr mag/cell
     absolute magnetization    =     1.19 Bohr mag/cell

     iteration # 81     ecut=    45.00 Ry     beta= 0.70
     Davidson diagonalization with overlap

---- Real-time Memory Report at c_bands before calling an iterative solver
           747 MiB given to the printing process from OS
           189 MiB allocation reported by mallinfo(arena+hblkhd)
         43377 MiB available memory on the node where the printing process lives
------------------
     ethr =  3.35E-06,  avg # of iterations =  1.0

     total cpu time spent up to now is     1671.6 secs

     total energy              =   -3970.07368612 Ry
     estimated scf accuracy    <       0.03601006 Ry

     total magnetization       =     1.00 Bohr mag/cell
     absolute magnetization    =     1.19 Bohr mag/cell

     iteration # 82     ecut=    45.00 Ry     beta= 0.70
     Davidson diagonalization with overlap

---- Real-time Memory Report at c_bands before calling an iterative solver
           747 MiB given to the printing process from OS
           189 MiB allocation reported by mallinfo(arena+hblkhd)
         43376 MiB available memory on the node where the printing process lives
------------------
     ethr =  3.35E-06,  avg # of iterations =  1.0

     total cpu time spent up to now is     1690.3 secs

     total energy              =   -3970.07368418 Ry
     estimated scf accuracy    <       0.03497541 Ry

     total magnetization       =     1.00 Bohr mag/cell
     absolute magnetization    =     1.18 Bohr mag/cell

     iteration # 83     ecut=    45.00 Ry     beta= 0.70
     Davidson diagonalization with overlap

---- Real-time Memory Report at c_bands before calling an iterative solver
           747 MiB given to the printing process from OS
           189 MiB allocation reported by mallinfo(arena+hblkhd)
         43384 MiB available memory on the node where the printing process lives
------------------
     ethr =  3.35E-06,  avg # of iterations =  1.0

     total cpu time spent up to now is     1709.0 secs

     total energy              =   -3970.07368467 Ry
     estimated scf accuracy    <       0.03189827 Ry

     total magnetization       =     1.00 Bohr mag/cell
     absolute magnetization    =     1.18 Bohr mag/cell

     iteration # 84     ecut=    45.00 Ry     beta= 0.70
     Davidson diagonalization with overlap

---- Real-time Memory Report at c_bands before calling an iterative solver
           747 MiB given to the printing process from OS
           189 MiB allocation reported by mallinfo(arena+hblkhd)
         43360 MiB available memory on the node where the printing process lives
------------------
     ethr =  3.35E-06,  avg # of iterations =  1.0

     total cpu time spent up to now is     1727.7 secs

     total energy              =   -3970.07368577 Ry
     estimated scf accuracy    <       0.03583666 Ry

     total magnetization       =     1.00 Bohr mag/cell
     absolute magnetization    =     1.19 Bohr mag/cell

     iteration # 85     ecut=    45.00 Ry     beta= 0.70
     Davidson diagonalization with overlap

---- Real-time Memory Report at c_bands before calling an iterative solver
           747 MiB given to the printing process from OS
           189 MiB allocation reported by mallinfo(arena+hblkhd)
         43382 MiB available memory on the node where the printing process lives
------------------
     ethr =  3.35E-06,  avg # of iterations =  1.0

     total cpu time spent up to now is     1746.4 secs

     total energy              =   -3970.07368475 Ry
     estimated scf accuracy    <       0.03595009 Ry

     total magnetization       =     1.00 Bohr mag/cell
     absolute magnetization    =     1.19 Bohr mag/cell

     iteration # 86     ecut=    45.00 Ry     beta= 0.70
     Davidson diagonalization with overlap

---- Real-time Memory Report at c_bands before calling an iterative solver
           747 MiB given to the printing process from OS
           189 MiB allocation reported by mallinfo(arena+hblkhd)
         43401 MiB available memory on the node where the printing process lives
------------------
     ethr =  3.35E-06,  avg # of iterations =  1.0

     total cpu time spent up to now is     1765.1 secs

     total energy              =   -3970.07368487 Ry
     estimated scf accuracy    <       0.03154252 Ry

     total magnetization       =     1.00 Bohr mag/cell
     absolute magnetization    =     1.18 Bohr mag/cell

     iteration # 87     ecut=    45.00 Ry     beta= 0.70
     Davidson diagonalization with overlap

---- Real-time Memory Report at c_bands before calling an iterative solver
           747 MiB given to the printing process from OS
           189 MiB allocation reported by mallinfo(arena+hblkhd)
         43366 MiB available memory on the node where the printing process lives
------------------
     ethr =  3.35E-06,  avg # of iterations =  1.0

     total cpu time spent up to now is     1783.7 secs

     total energy              =   -3970.07368513 Ry
     estimated scf accuracy    <       0.03554038 Ry

     total magnetization       =     1.00 Bohr mag/cell
     absolute magnetization    =     1.18 Bohr mag/cell

     iteration # 88     ecut=    45.00 Ry     beta= 0.70
     Davidson diagonalization with overlap

---- Real-time Memory Report at c_bands before calling an iterative solver
           747 MiB given to the printing process from OS
           189 MiB allocation reported by mallinfo(arena+hblkhd)
         43374 MiB available memory on the node where the printing process lives
------------------
     ethr =  3.35E-06,  avg # of iterations =  1.0

     total cpu time spent up to now is     1802.5 secs

     total energy              =   -3970.07368436 Ry
     estimated scf accuracy    <       0.03181189 Ry

     total magnetization       =     1.00 Bohr mag/cell
     absolute magnetization    =     1.18 Bohr mag/cell

     iteration # 89     ecut=    45.00 Ry     beta= 0.70
     Davidson diagonalization with overlap

---- Real-time Memory Report at c_bands before calling an iterative solver
           747 MiB given to the printing process from OS
           189 MiB allocation reported by mallinfo(arena+hblkhd)
         43397 MiB available memory on the node where the printing process lives
------------------
     ethr =  3.35E-06,  avg # of iterations =  1.0

     total cpu time spent up to now is     1821.2 secs

     total energy              =   -3970.07368031 Ry
     estimated scf accuracy    <       0.03599588 Ry

     total magnetization       =     1.00 Bohr mag/cell
     absolute magnetization    =     1.19 Bohr mag/cell

     iteration # 90     ecut=    45.00 Ry     beta= 0.70
     Davidson diagonalization with overlap

---- Real-time Memory Report at c_bands before calling an iterative solver
           747 MiB given to the printing process from OS
           189 MiB allocation reported by mallinfo(arena+hblkhd)
         43362 MiB available memory on the node where the printing process lives
------------------
     ethr =  3.35E-06,  avg # of iterations =  1.0

     total cpu time spent up to now is     1839.9 secs

     total energy              =   -3970.07368446 Ry
     estimated scf accuracy    <       0.03287430 Ry

     total magnetization       =     1.00 Bohr mag/cell
     absolute magnetization    =     1.19 Bohr mag/cell

     iteration # 91     ecut=    45.00 Ry     beta= 0.70
     Davidson diagonalization with overlap

---- Real-time Memory Report at c_bands before calling an iterative solver
           747 MiB given to the printing process from OS
           189 MiB allocation reported by mallinfo(arena+hblkhd)
         43380 MiB available memory on the node where the printing process lives
------------------
     ethr =  3.35E-06,  avg # of iterations =  1.0

     total cpu time spent up to now is     1858.6 secs

     total energy              =   -3970.07368583 Ry
     estimated scf accuracy    <       0.03593324 Ry

     total magnetization       =     1.00 Bohr mag/cell
     absolute magnetization    =     1.19 Bohr mag/cell

     iteration # 92     ecut=    45.00 Ry     beta= 0.70
     Davidson diagonalization with overlap

---- Real-time Memory Report at c_bands before calling an iterative solver
           747 MiB given to the printing process from OS
           189 MiB allocation reported by mallinfo(arena+hblkhd)
         43376 MiB available memory on the node where the printing process lives
------------------
     ethr =  3.35E-06,  avg # of iterations =  1.0

     total cpu time spent up to now is     1877.3 secs

     total energy              =   -3970.07368753 Ry
     estimated scf accuracy    <       0.03595353 Ry

     total magnetization       =     1.00 Bohr mag/cell
     absolute magnetization    =     1.19 Bohr mag/cell

     iteration # 93     ecut=    45.00 Ry     beta= 0.70
     Davidson diagonalization with overlap

---- Real-time Memory Report at c_bands before calling an iterative solver
           747 MiB given to the printing process from OS
           189 MiB allocation reported by mallinfo(arena+hblkhd)
         43392 MiB available memory on the node where the printing process lives
------------------
     ethr =  3.35E-06,  avg # of iterations =  1.0

     total cpu time spent up to now is     1896.1 secs

     total energy              =   -3970.07368415 Ry
     estimated scf accuracy    <       0.03532541 Ry

     total magnetization       =     1.00 Bohr mag/cell
     absolute magnetization    =     1.18 Bohr mag/cell

     iteration # 94     ecut=    45.00 Ry     beta= 0.70
     Davidson diagonalization with overlap

---- Real-time Memory Report at c_bands before calling an iterative solver
           747 MiB given to the printing process from OS
           189 MiB allocation reported by mallinfo(arena+hblkhd)
         43366 MiB available memory on the node where the printing process lives
------------------
     ethr =  3.35E-06,  avg # of iterations =  1.0

     total cpu time spent up to now is     1914.8 secs

     total energy              =   -3970.07368922 Ry
     estimated scf accuracy    <       0.03196083 Ry

     total magnetization       =     1.00 Bohr mag/cell
     absolute magnetization    =     1.18 Bohr mag/cell

     iteration # 95     ecut=    45.00 Ry     beta= 0.70
     Davidson diagonalization with overlap

---- Real-time Memory Report at c_bands before calling an iterative solver
           747 MiB given to the printing process from OS
           189 MiB allocation reported by mallinfo(arena+hblkhd)
         43386 MiB available memory on the node where the printing process lives
------------------
     ethr =  3.35E-06,  avg # of iterations =  1.0

     total cpu time spent up to now is     1933.5 secs

     total energy              =   -3970.07368868 Ry
     estimated scf accuracy    <       0.03166497 Ry

     total magnetization       =     1.00 Bohr mag/cell
     absolute magnetization    =     1.18 Bohr mag/cell

     iteration # 96     ecut=    45.00 Ry     beta= 0.70
     Davidson diagonalization with overlap

---- Real-time Memory Report at c_bands before calling an iterative solver
           747 MiB given to the printing process from OS
           189 MiB allocation reported by mallinfo(arena+hblkhd)
         43385 MiB available memory on the node where the printing process lives
------------------
     ethr =  3.35E-06,  avg # of iterations =  1.0

     total cpu time spent up to now is     1952.2 secs

     total energy              =   -3970.07368492 Ry
     estimated scf accuracy    <       0.03163835 Ry

     total magnetization       =     1.00 Bohr mag/cell
     absolute magnetization    =     1.18 Bohr mag/cell

     iteration # 97     ecut=    45.00 Ry     beta= 0.70
     Davidson diagonalization with overlap

---- Real-time Memory Report at c_bands before calling an iterative solver
           747 MiB given to the printing process from OS
           189 MiB allocation reported by mallinfo(arena+hblkhd)
         43358 MiB available memory on the node where the printing process lives
------------------
     ethr =  3.35E-06,  avg # of iterations =  1.0

     total cpu time spent up to now is     1971.0 secs

     total energy              =   -3970.07368593 Ry
     estimated scf accuracy    <       0.03572082 Ry

     total magnetization       =     1.00 Bohr mag/cell
     absolute magnetization    =     1.18 Bohr mag/cell

     iteration # 98     ecut=    45.00 Ry     beta= 0.70
     Davidson diagonalization with overlap

---- Real-time Memory Report at c_bands before calling an iterative solver
           747 MiB given to the printing process from OS
           189 MiB allocation reported by mallinfo(arena+hblkhd)
         43354 MiB available memory on the node where the printing process lives
------------------
     ethr =  3.35E-06,  avg # of iterations =  1.0

     total cpu time spent up to now is     1989.7 secs

     total energy              =   -3970.07368556 Ry
     estimated scf accuracy    <       0.03591091 Ry

     total magnetization       =     1.00 Bohr mag/cell
     absolute magnetization    =     1.19 Bohr mag/cell

     iteration # 99     ecut=    45.00 Ry     beta= 0.70
     Davidson diagonalization with overlap

---- Real-time Memory Report at c_bands before calling an iterative solver
           747 MiB given to the printing process from OS
           189 MiB allocation reported by mallinfo(arena+hblkhd)
         43385 MiB available memory on the node where the printing process lives
------------------
     ethr =  3.35E-06,  avg # of iterations =  1.0

     total cpu time spent up to now is     2008.4 secs

     total energy              =   -3970.07368555 Ry
     estimated scf accuracy    <       0.03498749 Ry

     total magnetization       =     1.00 Bohr mag/cell
     absolute magnetization    =     1.18 Bohr mag/cell

     iteration #100     ecut=    45.00 Ry     beta= 0.70
     Davidson diagonalization with overlap

---- Real-time Memory Report at c_bands before calling an iterative solver
           747 MiB given to the printing process from OS
           189 MiB allocation reported by mallinfo(arena+hblkhd)
         43382 MiB available memory on the node where the printing process lives
------------------
     ethr =  3.35E-06,  avg # of iterations =  1.0

     total cpu time spent up to now is     2027.1 secs

     total energy              =   -3970.07368572 Ry
     estimated scf accuracy    <       0.03592477 Ry

     total magnetization       =     1.00 Bohr mag/cell
     absolute magnetization    =     1.19 Bohr mag/cell

     End of self-consistent calculation

     convergence NOT achieved after 100 iterations: stopping

     Writing config to output data dir ../tmp/diamond_pd.save/ :
     XML data file, charge density
 
     init_run     :      7.18s CPU      7.76s WALL (       1 calls)
     electrons    :   1966.50s CPU   2021.54s WALL (       1 calls)

     Called by init_run:
     wfcinit      :      6.03s CPU      6.33s WALL (       1 calls)
     wfcinit:wfcr :      5.68s CPU      5.87s WALL (       2 calls)
     potinit      :      0.78s CPU      1.00s WALL (       1 calls)
     hinit0       :      0.14s CPU      0.14s WALL (       1 calls)

     Called by electrons:
     c_bands      :   1666.63s CPU   1707.65s WALL (     100 calls)
     sum_band     :    187.39s CPU    194.69s WALL (     100 calls)
     v_of_rho     :      4.86s CPU      4.93s WALL (     101 calls)
     v_h          :      0.27s CPU      0.28s WALL (     101 calls)
     v_xc         :      4.59s CPU      4.65s WALL (     101 calls)
     newd         :     16.58s CPU     20.12s WALL (     101 calls)
     PAW_pot      :     86.90s CPU     87.77s WALL (     101 calls)
     mix_rho      :      4.44s CPU      4.49s WALL (     100 calls)

     Called by c_bands:
     init_us_2    :     39.41s CPU     40.00s WALL (     402 calls)
     cegterg      :   1621.32s CPU   1659.06s WALL (     200 calls)

     Called by sum_band:
     sum_band:wei :      0.00s CPU      0.00s WALL (     100 calls)
     sum_band:loo :    171.95s CPU    173.82s WALL (     100 calls)
     sum_band:buf :      7.15s CPU      7.25s WALL (     200 calls)
     sum_band:ini :     19.55s CPU     19.81s WALL (     200 calls)
     sum_band:cal :     93.48s CPU     94.13s WALL (     200 calls)
     sum_band:bec :      3.46s CPU      3.48s WALL (     200 calls)
     addusdens    :     13.23s CPU     16.68s WALL (     100 calls)
                                        0.00s GPU  (     100 calls)
     addusd:skk   :      3.16s CPU      6.45s WALL (     200 calls)
                                        0.00s GPU  (     200 calls)

     Called by *egterg:
     cdiaghg      :    221.42s CPU    224.62s WALL (     507 calls)
     cegterg:over :    194.96s CPU    196.53s WALL (     307 calls)
     cegterg:upda :    158.39s CPU    162.47s WALL (     307 calls)
     cegterg:last :    176.43s CPU    177.85s WALL (     233 calls)
     cdiaghg:chol :     13.98s CPU     14.05s WALL (     507 calls)
     cdiaghg:inve :      7.28s CPU      7.32s WALL (     507 calls)
     cdiaghg:para :     84.72s CPU     85.49s WALL (    1014 calls)
     h_psi        :    590.15s CPU    606.15s WALL (     509 calls)
     s_psi        :    190.47s CPU    191.73s WALL (     509 calls)
     g_psi        :      5.10s CPU      5.17s WALL (     307 calls)

     Called by h_psi:
     h_psi:calbec :    195.93s CPU    197.27s WALL (     509 calls)
     vloc_psi     :    177.48s CPU    180.81s WALL (     509 calls)
     add_vuspsi   :    205.88s CPU    211.11s WALL (     509 calls)

     General routines
     calbec       :    289.41s CPU    291.40s WALL (     709 calls)
     fft          :      1.56s CPU      1.59s WALL (    2121 calls)
     ffts         :      0.13s CPU      0.13s WALL (     200 calls)
     fftw         :    192.12s CPU    195.69s WALL (  887176 calls)
     davcio       :      0.00s CPU      0.10s WALL (      20 calls)
 
     Parallel routines

     PAW routines
     PAW_pot      :     86.90s CPU     87.77s WALL (     101 calls)
 
     PWSCF        :  32m53.94s CPU  34m 0.07s WALL

 
   This run was terminated on:  15: 7:44   5Aug2026            

=------------------------------------------------------------------------------=
   JOB DONE.
=------------------------------------------------------------------------------=
