unknown system                          
   1.00000000000000     
     2.517300    0.000000    0.000000
     1.258650    2.180046    0.000000
     1.258650    0.726682    2.055367
   C 
     2
Direct
   0.250000  0.250000  0.250000
   0.000000  0.000000  0.000000
 
   24   24   24
  14.961      15.905      17.902      19.224      18.753      16.672      13.925      11.310      9.2109      7.7440    
  6.8233      6.3294      6.1753      6.3294      6.8233      7.7440      9.2109      11.310      13.925      16.672    
  18.753      19.224      17.902      15.905      15.905      17.593      19.515      20.088      18.834      16.413    
  13.764      11.455      9.7400      8.6037      7.9310      7.6216      7.6218      7.9313      8.6036      9.7395    
  11.455      13.764      16.413      18.833      20.087      19.515      17.594      15.906      17.902      19.515    
  20.524      20.015      18.169      15.786      13.530      11.749      10.512      9.7235      9.2836      9.1415    
  9.2836      9.7235      10.512      11.749      13.530      15.786      18.169      20.015      20.524      19.515    
  17.902      17.130      19.224      20.088      20.015      18.804      16.939      15.018      13.419      12.271    
  11.494      10.992      10.734      10.734      10.991      11.494      12.271      13.419      15.018      16.939    
  18.804      20.015      20.087      19.223      18.348      18.349      18.753      18.834      18.169      16.939    
  15.561      14.376      13.530      12.943      12.500      12.190      12.074      12.190      12.500      12.943    
  13.530      14.376      15.561      16.939      18.169      18.834      18.753      18.262      17.992      18.262    
  16.672      16.413      15.786      15.018      14.376      13.989      13.764      13.548      13.308      13.133    
  13.133      13.308      13.548      13.764      13.989      14.376      15.018      15.786      16.413      16.673    
  16.563      16.360      16.360      16.562      13.925      13.764      13.530      13.419      13.530      13.764    
  13.925      13.916      13.797      13.728      13.797      13.916      13.925      13.764      13.530      13.419    
  13.530      13.764      13.925      13.916      13.797      13.728      13.797      13.916      11.310      11.455    
  11.749      12.271      12.943      13.548      13.916      14.020      13.994      13.995      14.020      13.916    
  13.548      12.943      12.271      11.749      11.455      11.309      11.184      11.033      10.920      10.920    
  11.033      11.184      9.2109      9.7400      10.512      11.494      12.500      13.308      13.797      13.994    
  14.035      13.995      13.797      13.308      12.500      11.494      10.512      9.7399      9.2109      8.8522    
  8.5863      8.3996      8.3293      8.3997      8.5864      8.8522      7.7440      8.6037      9.7235      10.992    
  12.190      13.133      13.728      13.995      13.995      13.728      13.133      12.190      10.991      9.7232    
  8.6036      7.7442      7.1314      6.6982      6.4005      6.2414      6.2416      6.4008      6.6981      7.1310    
  6.8233      7.9310      9.2836      10.734      12.074      13.133      13.797      14.020      13.797      13.133    
  12.074      10.734      9.2836      7.9310      6.8232      5.9932      5.3973      4.9820      4.7261      4.6381    
  4.7261      4.9820      5.3972      5.9932      6.3294      7.6216      9.1415      10.734      12.190      13.308    
  13.916      13.916      13.308      12.190      10.734      9.1417      7.6219      6.3293      5.3215      4.5783    
  4.0502      3.7016      3.5244      3.5242      3.7013      4.0502      4.5787      5.3220      6.1753      7.6218    
  9.2836      10.991      12.500      13.548      13.925      13.548      12.500      10.991      9.2836      7.6219    
  6.1754      5.0148      4.1344      3.4931      3.0507      2.7870      2.6987      2.7870      3.0508      3.4931    
  4.1344      5.0148      6.3294      7.9313      9.7235      11.494      12.943      13.764      13.764      12.943    
  11.494      9.7232      7.9310      6.3293      5.0148      3.9949      3.2335      2.6894      2.3351      2.1592    
  2.1594      2.3355      2.6896      3.2333      3.9944      5.0145      6.8233      8.6036      10.512      12.271    
  13.530      13.989      13.530      12.271      10.512      8.6036      6.8232      5.3215      4.1344      3.2335    
  2.5735      2.1190      1.8511      1.7623      1.8511      2.1190      2.5735      3.2335      4.1345      5.3216    
  7.7440      9.7395      11.749      13.419      14.376      14.376      13.419      11.749      9.7399      7.7442    
  5.9932      4.5783      3.4931      2.6894      2.1190      1.7504      1.5685      1.5684      1.7501      2.1188    
  2.6895      3.4934      4.5787      5.9933      9.2109      11.455      13.530      15.018      15.561      15.018    
  13.530      11.455      9.2109      7.1314      5.3973      4.0502      3.0507      2.3351      1.8511      1.5685    
  1.4752      1.5685      1.8511      2.3352      3.0507      4.0502      5.3972      7.1314      11.310      13.764    
  15.786      16.939      16.939      15.786      13.764      11.309      8.8522      6.6982      4.9820      3.7016    
  2.7870      2.1592      1.7623      1.5684      1.5685      1.7625      2.1594      2.7869      3.7013      4.9816    
  6.6981      8.8524      13.925      16.413      18.169      18.804      18.169      16.413      13.925      11.184    
  8.5863      6.4005      4.7261      3.5244      2.6987      2.1594      1.8511      1.7501      1.8511      2.1594    
  2.6987      3.5244      4.7262      6.4005      8.5864      11.184      16.672      18.833      20.015      20.015    
  18.834      16.673      13.916      11.033      8.3996      6.2414      4.6381      3.5242      2.7870      2.3355    
  2.1190      2.1188      2.3352      2.7869      3.5244      4.6383      6.2416      8.3997      11.033      13.916    
  18.753      20.087      20.524      20.087      18.753      16.563      13.797      10.920      8.3293      6.2416    
  4.7261      3.7013      3.0508      2.6896      2.5735      2.6895      3.0507      3.7013      4.7262      6.2416    
  8.3292      10.920      13.797      16.563      19.224      19.515      19.515      19.223      18.262      16.360    
  13.728      10.920      8.3997      6.4008      4.9820      4.0502      3.4931      3.2333      3.2335      3.4934    
  4.0502      4.9816      6.4005      8.3997      10.920      13.728      16.360      18.263      17.902      17.594    
  17.902      18.348      17.992      16.360      13.797      11.033      8.5864      6.6981      5.3972      4.5787    
  4.1344      3.9944      4.1345      4.5787      5.3972      6.6981      8.5864      11.033      13.797      16.360    
  17.992      18.348      15.905      15.906      17.130      18.349      18.262      16.562      13.916      11.184    
  8.8522      7.1310      5.9932      5.3220      5.0148      5.0145      5.3216      5.9933      7.1314      8.8524    
  11.184      13.916      16.563      18.263      18.348      17.129      15.905      17.593      19.515      20.088    
  18.834      16.413      13.764      11.455      9.7399      8.6037      7.9310      7.6216      7.6219      7.9313    
  8.6036      9.7395      11.455      13.764      16.413      18.833      20.087      19.515      17.594      15.906    
  17.593      19.527      20.863      20.549      18.746      16.316      13.989      12.140      10.854      10.036    
  9.5830      9.4373      9.5833      10.037      10.854      12.140      13.989      16.316      18.745      20.549    
  20.863      19.528      17.594      16.686      19.515      20.863      21.149      20.061      18.141      16.102    
  14.376      13.127      12.281      11.735      11.458      11.458      11.736      12.281      13.127      14.376    
  16.101      18.141      20.061      21.149      20.863      19.515      18.286      18.286      20.088      20.549    
  20.061      18.807      17.313      15.988      15.018      14.329      13.809      13.448      13.314      13.449    
  13.809      14.330      15.018      15.988      17.313      18.807      20.061      20.549      20.087      19.190    
  18.744      19.190      18.834      18.746      18.141      17.313      16.578      16.102      15.786      15.477    
  15.141      14.899      14.900      15.141      15.477      15.786      16.101      16.578      17.313      18.141    
  18.746      18.834      18.447      18.028      18.028      18.447      16.413      16.316      16.102      15.988    
  16.102      16.316      16.413      16.274      16.009      15.875      16.009      16.275      16.413      16.316    
  16.101      15.988      16.101      16.316      16.413      16.275      16.009      15.875      16.009      16.274    
  13.764      13.989      14.376      15.018      15.786      16.413      16.672      16.562      16.360      16.360    
  16.563      16.673      16.413      15.786      15.018      14.376      13.989      13.764      13.548      13.308    
  13.133      13.133      13.308      13.548      11.455      12.140      13.127      14.329      15.477      16.274    
  16.562      16.492      16.408      16.492      16.563      16.275      15.477      14.329      13.127      12.140    
  11.455      10.990      10.643      10.397      10.304      10.397      10.643      10.990      9.7399      10.854    
  12.281      13.809      15.141      16.009      16.360      16.408      16.408      16.359      16.009      15.141    
  13.809      12.281      10.854      9.7399      8.9538      8.4125      8.0500      7.8590      7.8591      8.0502    
  8.4125      8.9536      8.6037      10.036      11.735      13.448      14.899      15.875      16.360      16.492    
  16.359      15.875      14.899      13.449      11.736      10.036      8.6036      7.5343      6.7848      6.2779    
  5.9730      5.8693      5.9730      6.2778      6.7845      7.5342      7.9310      9.5830      11.458      13.314    
  14.900      16.009      16.563      16.563      16.009      14.899      13.314      11.459      9.5834      7.9311    
  6.6410      5.7088      5.0646      4.6487      4.4399      4.4398      4.6486      5.0646      5.7090      6.6412    
  7.6216      9.4373      11.458      13.449      15.141      16.275      16.673      16.275      15.141      13.449    
  11.459      9.4378      7.6219      6.1592      5.0698      4.2978      3.7774      3.4705      3.3680      3.4704    
  3.7774      4.2980      5.0701      6.1593      7.6219      9.5833      11.736      13.809      15.477      16.413    
  16.413      15.477      13.809      11.736      9.5834      7.6219      6.0082      4.7750      3.8777      3.2515    
  2.8489      2.6495      2.6496      2.8490      3.2515      3.8775      4.7748      6.0081      7.9313      10.037    
  12.281      14.330      15.786      16.316      15.786      14.329      12.281      10.036      7.9311      6.1592    
  4.7750      3.7442      3.0034      2.4995      2.2035      2.1054      2.2037      2.4997      3.0033      3.7438    
  4.7746      6.1592      8.6036      10.854      13.127      15.018      16.101      16.101      15.018      13.127    
  10.854      8.6036      6.6410      5.0698      3.8777      3.0034      2.3864      1.9879      1.7911      1.7911    
  1.9879      2.3864      3.0035      3.8777      5.0698      6.6410      9.7395      12.140      14.376      15.988    
  16.578      15.988      14.376      12.140      9.7399      7.5343      5.7088      4.2978      3.2515      2.4995    
  1.9879      1.6878      1.5884      1.6876      1.9878      2.4995      3.2517      4.2982      5.7090      7.5342    
  11.455      13.989      16.101      17.313      17.313      16.101      13.989      11.455      8.9538      6.7848    
  5.0646      3.7774      2.8489      2.2035      1.7911      1.5884      1.5884      1.7911      2.2035      2.8488    
  3.7773      5.0646      6.7849      8.9538      13.764      16.316      18.141      18.807      18.141      16.316    
  13.764      10.990      8.4125      6.2779      4.6487      3.4705      2.6495      2.1054      1.7911      1.6876    
  1.7911      2.1056      2.6496      3.4704      4.6483      6.2776      8.4127      10.990      16.413      18.745    
  20.061      20.061      18.746      16.413      13.548      10.643      8.0500      5.9730      4.4399      3.3680    
  2.6496      2.2037      1.9879      1.9878      2.2035      2.6496      3.3682      4.4400      5.9729      8.0500    
  10.643      13.548      18.833      20.549      21.149      20.549      18.834      16.275      13.308      10.397    
  7.8590      5.8693      4.4398      3.4704      2.8490      2.4997      2.3864      2.4995      2.8488      3.4704    
  4.4400      5.8697      7.8594      10.397      13.308      16.274      20.087      20.863      20.863      20.087    
  18.447      16.009      13.133      10.304      7.8591      5.9730      4.6486      3.7774      3.2515      3.0033    
  3.0035      3.2517      3.7773      4.6483      5.9729      7.8594      10.305      13.133      16.009      18.447    
  19.515      19.528      19.515      19.190      18.028      15.875      13.133      10.397      8.0502      6.2778    
  5.0646      4.2980      3.8775      3.7438      3.8777      4.2982      5.0646      6.2776      8.0500      10.397    
  13.133      15.875      18.028      19.190      17.594      17.594      18.286      18.744      18.028      16.009    
  13.308      10.643      8.4125      6.7845      5.7090      5.0701      4.7748      4.7746      5.0698      5.7090    
  6.7849      8.4127      10.643      13.308      16.009      18.028      18.744      18.286      15.906      16.686    
  18.286      19.190      18.447      16.274      13.548      10.990      8.9536      7.5342      6.6412      6.1593    
  6.0081      6.1592      6.6410      7.5342      8.9538      10.990      13.548      16.274      18.447      19.190    
  18.286      16.686      17.902      19.515      20.524      20.015      18.169      15.786      13.530      11.749    
  10.512      9.7236      9.2836      9.1415      9.2836      9.7236      10.512      11.749      13.530      15.786    
  18.169      20.015      20.524      19.515      17.902      17.130      19.515      20.863      21.149      20.061    
  18.141      16.102      14.376      13.127      12.281      11.735      11.458      11.458      11.736      12.281    
  13.127      14.376      16.101      18.141      20.061      21.149      20.863      19.515      18.286      18.286    
  20.524      21.149      20.743      19.488      17.953      16.578      15.561      14.833      14.284      13.903    
  13.761      13.903      14.284      14.833      15.561      16.578      17.953      19.488      20.743      21.149    
  20.524      19.456      18.937      19.457      20.015      20.061      19.488      18.631      17.845      17.313    
  16.939      16.568      16.167      15.880      15.880      16.167      16.568      16.939      17.313      17.845    
  18.631      19.488      20.061      20.015      19.428      18.855      18.856      19.428      18.169      18.141    
  17.953      17.845      17.953      18.141      18.169      17.901      17.495      17.298      17.495      17.901    
  18.169      18.141      17.953      17.845      17.953      18.141      18.169      17.901      17.495      17.298    
  17.495      17.901      15.786      16.102      16.578      17.313      18.141      18.746      18.834      18.447    
  18.028      18.028      18.447      18.834      18.746      18.141      17.313      16.578      16.101      15.786    
  15.477      15.141      14.899      14.899      15.141      15.477      13.530      14.376      15.561      16.939    
  18.169      18.834      18.753      18.262      17.992      18.262      18.753      18.834      18.169      16.939    
  15.561      14.376      13.530      12.943      12.500      12.190      12.074      12.190      12.500      12.943    
  11.749      13.127      14.833      16.568      17.901      18.447      18.262      17.892      17.892      18.262    
  18.447      17.901      16.568      14.833      13.127      11.749      10.772      10.108      9.6723      9.4467    
  9.4470      9.6729      10.108      10.772      10.512      12.281      14.284      16.167      17.495      18.028    
  17.992      17.892      17.992      18.028      17.495      16.167      14.284      12.281      10.512      9.1735    
  8.2451      7.6344      7.2780      7.1590      7.2780      7.6344      8.2452      9.1735      9.7236      11.735    
  13.903      15.880      17.298      18.028      18.262      18.262      18.028      17.298      15.880      13.903    
  11.735      9.7234      8.1128      6.9537      6.1700      5.6786      5.4376      5.4374      5.6782      6.1698    
  6.9537      8.1130      9.2836      11.458      13.761      15.880      17.495      18.447      18.753      18.447    
  17.495      15.880      13.761      11.458      9.2836      7.4786      6.1348      5.2005      4.5866      4.2326    
  4.1158      4.2325      4.5866      5.2005      6.1348      7.4786      9.1415      11.458      13.903      16.167    
  17.901      18.834      18.834      17.901      16.167      13.903      11.458      9.1416      7.1831      5.6859    
  4.6168      3.8896      3.4321      3.2082      3.2082      3.4322      3.8898      4.6169      5.6858      7.1829    
  9.2836      11.736      14.284      16.568      18.169      18.746      18.169      16.568      14.284      11.735    
  9.2836      7.1831      5.5432      4.3426      3.5011      2.9412      2.6162      2.5090      2.6162      2.9412    
  3.5011      4.3425      5.5431      7.1830      9.7236      12.281      14.833      16.939      18.141      18.141    
  16.939      14.833      12.281      9.7234      7.4786      5.6859      4.3426      3.3759      2.7059      2.2782    
  2.0679      2.0678      2.2782      2.7058      3.3758      4.3425      5.6858      7.4786      10.512      13.127    
  15.561      17.313      17.953      17.313      15.561      13.127      10.512      8.1128      6.1348      4.6168    
  3.5011      2.7059      2.1676      1.8523      1.7479      1.8523      2.1676      2.7059      3.5012      4.6168    
  6.1349      8.1128      11.749      14.376      16.578      17.845      17.845      16.578      14.376      11.749    
  9.1735      6.9537      5.2005      3.8896      2.9412      2.2782      1.8523      1.6422      1.6422      1.8523    
  2.2782      2.9412      3.8898      5.2007      6.9537      9.1733      13.530      16.101      17.953      18.631    
  17.953      16.101      13.530      10.772      8.2451      6.1700      4.5866      3.4321      2.6162      2.0679    
  1.7479      1.6422      1.7479      2.0679      2.6162      3.4320      4.5865      6.1700      8.2452      10.772    
  15.786      18.141      19.488      19.488      18.141      15.786      12.943      10.108      7.6344      5.6786    
  4.2326      3.2082      2.5090      2.0678      1.8523      1.8523      2.0679      2.5091      3.2083      4.2323    
  5.6781      7.6342      10.108      12.943      18.169      20.061      20.743      20.061      18.169      15.477    
  12.500      9.6723      7.2780      5.4376      4.1158      3.2082      2.6162      2.2782      2.1676      2.2782    
  2.6162      3.2083      4.1158      5.4377      7.2780      9.6723      12.500      15.477      20.015      21.149    
  21.149      20.015      17.901      15.141      12.190      9.4467      7.1590      5.4374      4.2325      3.4322    
  2.9412      2.7058      2.7059      2.9412      3.4320      4.2323      5.4377      7.1596      9.4470      12.189    
  15.141      17.901      20.524      20.863      20.524      19.428      17.495      14.899      12.074      9.4470    
  7.2780      5.6782      4.5866      3.8898      3.5011      3.3758      3.5012      3.8898      4.5865      5.6781    
  7.2780      9.4470      12.074      14.899      17.495      19.428      19.515      19.515      19.456      18.855    
  17.298      14.899      12.190      9.6729      7.6344      6.1698      5.2005      4.6169      4.3425      4.3425    
  4.6168      5.2007      6.1700      7.6342      9.6723      12.189      14.899      17.299      18.856      19.456    
  17.902      18.286      18.937      18.856      17.495      15.141      12.500      10.108      8.2452      6.9537    
  6.1348      5.6858      5.5431      5.6858      6.1349      6.9537      8.2452      10.108      12.500      15.141    
  17.495      18.856      18.937      18.286      17.130      18.286      19.457      19.428      17.901      15.477    
  12.943      10.772      9.1735      8.1130      7.4786      7.1829      7.1830      7.4786      8.1128      9.1733    
  10.772      12.943      15.477      17.901      19.428      19.456      18.286      17.130      19.224      20.088    
  20.015      18.804      16.939      15.018      13.419      12.271      11.494      10.992      10.734      10.734    
  10.991      11.495      12.271      13.419      15.018      16.939      18.804      20.015      20.087      19.223    
  18.348      18.349      20.088      20.549      20.061      18.807      17.313      15.988      15.018      14.329    
  13.809      13.448      13.314      13.449      13.809      14.330      15.018      15.988      17.313      18.807    
  20.061      20.549      20.087      19.190      18.744      19.190      20.015      20.061      19.488      18.631    
  17.845      17.313      16.939      16.569      16.167      15.880      15.880      16.167      16.568      16.939    
  17.313      17.845      18.631      19.488      20.061      20.015      19.428      18.855      18.856      19.428    
  18.804      18.807      18.631      18.526      18.631      18.807      18.804      18.480      18.015      17.793    
  18.015      18.480      18.804      18.807      18.631      18.527      18.631      18.807      18.804      18.480    
  18.015      17.793      18.015      18.480      16.939      17.313      17.845      18.631      19.488      20.061    
  20.015      19.428      18.856      18.855      19.428      20.015      20.061      19.488      18.631      17.845    
  17.313      16.939      16.568      16.167      15.880      15.880      16.167      16.569      15.018      15.988    
  17.313      18.807      20.061      20.549      20.088      19.190      18.744      19.190      20.087      20.549    
  20.061      18.807      17.313      15.988      15.018      14.330      13.809      13.449      13.314      13.448    
  13.809      14.329      13.419      15.018      16.939      18.804      20.015      20.088      19.224      18.349    
  18.348      19.223      20.087      20.015      18.804      16.939      15.018      13.419      12.271      11.495    
  10.991      10.734      10.734      10.992      11.494      12.271      12.271      14.329      16.569      18.480    
  19.428      19.190      18.349      17.902      18.348      19.190      19.428      18.480      16.569      14.330    
  12.272      10.676      9.5718      8.8593      8.4548      8.3224      8.4550      8.8596      9.5719      10.676    
  11.494      13.809      16.167      18.015      18.856      18.744      18.348      18.348      18.744      18.856    
  18.015      16.167      13.809      11.495      9.5718      8.1754      7.2434      6.6747      6.4033      6.4031    
  6.6744      7.2434      8.1757      9.5719      10.992      13.448      15.880      17.793      18.855      19.190    
  19.223      19.190      18.856      17.793      15.880      13.448      10.991      8.8592      7.2434      6.1266    
  5.4083      5.0049      4.8741      5.0047      5.4080      6.1265      7.2434      8.8596      10.734      13.314    
  15.880      18.015      19.428      20.087      20.087      19.428      18.015      15.880      13.314      10.734    
  8.4548      6.6745      5.4082      4.5628      4.0432      3.7939      3.7940      4.0434      4.5628      5.4080    
  6.6744      8.4550      10.734      13.449      16.167      18.480      20.015      20.549      20.015      18.480    
  16.167      13.448      10.734      8.3227      6.4035      5.0047      4.0431      3.4183      3.0626      2.9463    
  3.0626      3.4185      4.0434      5.0047      6.4031      8.3224      10.991      13.809      16.568      18.804    
  20.061      20.061      18.804      16.569      13.809      10.991      8.4548      6.4035      4.8742      3.7939    
  3.0626      2.6047      2.3819      2.3818      2.6046      3.0626      3.7940      4.8741      6.4033      8.4548    
  11.495      14.330      16.939      18.807      19.488      18.807      16.939      14.330      11.495      8.8592    
  6.6745      5.0047      3.7939      2.9464      2.3819      2.0545      1.9466      2.0545      2.3818      2.9463    
  3.7939      5.0049      6.6747      8.8593      12.271      15.018      17.313      18.631      18.631      17.313    
  15.018      12.272      9.5718      7.2434      5.4082      4.0431      3.0626      2.3819      1.9466      1.7323    
  1.7323      1.9466      2.3819      3.0626      4.0432      5.4083      7.2434      9.5718      13.419      15.988    
  17.845      18.527      17.845      15.988      13.419      10.676      8.1754      6.1266      4.5628      3.4183    
  2.6047      2.0545      1.7323      1.6256      1.7323      2.0545      2.6047      3.4183      4.5628      6.1266    
  8.1754      10.676      15.018      17.313      18.631      18.631      17.313      15.018      12.271      9.5718    
  7.2434      5.4083      4.0432      3.0626      2.3819      1.9466      1.7323      1.7323      1.9466      2.3819    
  3.0626      4.0431      5.4082      7.2434      9.5718      12.272      16.939      18.807      19.488      18.807    
  16.939      14.330      11.495      8.8593      6.6747      5.0049      3.7939      2.9463      2.3818      2.0545    
  1.9466      2.0545      2.3819      2.9464      3.7939      5.0047      6.6745      8.8592      11.495      14.330    
  18.804      20.061      20.061      18.804      16.568      13.809      10.991      8.4548      6.4033      4.8741    
  3.7940      3.0626      2.6046      2.3818      2.3819      2.6047      3.0626      3.7939      4.8742      6.4035    
  8.4548      10.991      13.809      16.569      20.015      20.549      20.015      18.480      16.167      13.449    
  10.734      8.3224      6.4031      5.0047      4.0434      3.4185      3.0626      2.9463      3.0626      3.4183    
  4.0431      5.0047      6.4035      8.3227      10.734      13.448      16.167      18.480      20.087      20.087    
  19.428      18.015      15.880      13.314      10.734      8.4550      6.6744      5.4080      4.5628      4.0434    
  3.7940      3.7939      4.0432      4.5628      5.4082      6.6745      8.4548      10.734      13.314      15.880    
  18.015      19.428      19.223      19.190      18.855      17.793      15.880      13.448      10.992      8.8596    
  7.2434      6.1265      5.4080      5.0047      4.8741      5.0049      5.4083      6.1266      7.2434      8.8592    
  10.991      13.448      15.880      17.793      18.856      19.190      18.348      18.744      18.856      18.015    
  16.167      13.809      11.494      9.5719      8.1757      7.2434      6.6744      6.4031      6.4033      6.6747    
  7.2434      8.1754      9.5718      11.495      13.809      16.167      18.015      18.856      18.744      18.348    
  18.349      19.190      19.428      18.480      16.569      14.329      12.271      10.676      9.5719      8.8596    
  8.4550      8.3224      8.4548      8.8593      9.5718      10.676      12.272      14.330      16.569      18.480    
  19.428      19.190      18.348      17.902      18.753      18.834      18.169      16.939      15.561      14.376    
  13.530      12.943      12.500      12.190      12.074      12.190      12.500      12.943      13.530      14.376    
  15.561      16.939      18.169      18.834      18.753      18.262      17.992      18.262      18.834      18.746    
  18.141      17.313      16.578      16.102      15.786      15.477      15.141      14.899      14.899      15.141    
  15.477      15.786      16.101      16.578      17.313      18.141      18.746      18.834      18.447      18.028    
  18.028      18.447      18.169      18.141      17.953      17.845      17.953      18.141      18.169      17.901    
  17.495      17.298      17.495      17.901      18.169      18.141      17.953      17.845      17.953      18.141    
  18.169      17.901      17.495      17.298      17.495      17.901      16.939      17.313      17.845      18.631    
  19.488      20.061      20.015      19.428      18.856      18.855      19.428      20.015      20.061      19.488    
  18.631      17.845      17.313      16.939      16.568      16.167      15.880      15.880      16.167      16.568    
  15.561      16.578      17.953      19.488      20.743      21.149      20.524      19.457      18.937      19.456    
  20.524      21.149      20.743      19.488      17.953      16.578      15.561      14.833      14.284      13.903    
  13.761      13.903      14.284      14.833      14.376      16.102      18.141      20.061      21.149      20.863    
  19.515      18.286      18.286      19.515      20.863      21.149      20.061      18.141      16.101      14.376    
  13.127      12.281      11.736      11.458      11.458      11.735      12.281      13.127      13.530      15.786    
  18.169      20.015      20.524      19.515      17.902      17.130      17.902      19.515      20.524      20.015    
  18.169      15.786      13.530      11.749      10.512      9.7236      9.2836      9.1415      9.2836      9.7236    
  10.512      11.749      12.943      15.477      17.901      19.428      19.457      18.286      17.130      17.130    
  18.286      19.456      19.428      17.901      15.477      12.943      10.772      9.1733      8.1128      7.4786    
  7.1830      7.1829      7.4786      8.1130      9.1735      10.772      12.500      15.141      17.495      18.856    
  18.937      18.286      17.902      18.286      18.937      18.856      17.495      15.141      12.500      10.108    
  8.2452      6.9537      6.1349      5.6858      5.5431      5.6858      6.1348      6.9537      8.2452      10.108    
  12.190      14.899      17.298      18.855      19.456      19.515      19.515      19.456      18.856      17.299    
  14.899      12.189      9.6723      7.6342      6.1700      5.2007      4.6168      4.3425      4.3425      4.6169    
  5.2005      6.1698      7.6344      9.6729      12.074      14.899      17.495      19.428      20.524      20.863    
  20.524      19.428      17.495      14.899      12.074      9.4470      7.2780      5.6781      4.5865      3.8898    
  3.5012      3.3758      3.5011      3.8898      4.5866      5.6782      7.2780      9.4470      12.190      15.141    
  17.901      20.015      21.149      21.149      20.015      17.901      15.141      12.189      9.4470      7.1596    
  5.4377      4.2323      3.4320      2.9412      2.7059      2.7058      2.9412      3.4322      4.2325      5.4374    
  7.1590      9.4467      12.500      15.477      18.169      20.061      20.743      20.061      18.169      15.477    
  12.500      9.6723      7.2780      5.4377      4.1158      3.2083      2.6162      2.2782      2.1676      2.2782    
  2.6162      3.2082      4.1158      5.4376      7.2780      9.6723      12.943      15.786      18.141      19.488    
  19.488      18.141      15.786      12.943      10.108      7.6342      5.6781      4.2323      3.2083      2.5091    
  2.0679      1.8523      1.8523      2.0678      2.5090      3.2082      4.2326      5.6786      7.6344      10.108    
  13.530      16.101      17.953      18.631      17.953      16.101      13.530      10.772      8.2452      6.1700    
  4.5865      3.4320      2.6162      2.0679      1.7479      1.6422      1.7479      2.0679      2.6162      3.4321    
  4.5866      6.1700      8.2451      10.772      14.376      16.578      17.845      17.845      16.578      14.376    
  11.749      9.1733      6.9537      5.2007      3.8898      2.9412      2.2782      1.8523      1.6422      1.6422    
  1.8523      2.2782      2.9412      3.8896      5.2005      6.9537      9.1735      11.749      15.561      17.313    
  17.953      17.313      15.561      13.127      10.512      8.1128      6.1349      4.6168      3.5012      2.7059    
  2.1676      1.8523      1.7479      1.8523      2.1676      2.7059      3.5011      4.6168      6.1348      8.1128    
  10.512      13.127      16.939      18.141      18.141      16.939      14.833      12.281      9.7236      7.4786    
  5.6858      4.3425      3.3758      2.7058      2.2782      2.0678      2.0679      2.2782      2.7059      3.3759    
  4.3426      5.6859      7.4786      9.7234      12.281      14.833      18.169      18.746      18.169      16.568    
  14.284      11.736      9.2836      7.1830      5.5431      4.3425      3.5011      2.9412      2.6162      2.5090    
  2.6162      2.9412      3.5011      4.3426      5.5432      7.1831      9.2836      11.735      14.284      16.568    
  18.834      18.834      17.901      16.167      13.903      11.458      9.1415      7.1829      5.6858      4.6169    
  3.8898      3.4322      3.2082      3.2082      3.4321      3.8896      4.6168      5.6859      7.1831      9.1416    
  11.458      13.903      16.167      17.901      18.753      18.447      17.495      15.880      13.761      11.458    
  9.2836      7.4786      6.1348      5.2005      4.5866      4.2325      4.1158      4.2326      4.5866      5.2005    
  6.1348      7.4786      9.2836      11.458      13.761      15.880      17.495      18.447      18.262      18.028    
  17.298      15.880      13.903      11.735      9.7236      8.1130      6.9537      6.1698      5.6782      5.4374    
  5.4376      5.6786      6.1700      6.9537      8.1128      9.7234      11.735      13.903      15.880      17.298    
  18.028      18.262      17.992      18.028      17.495      16.167      14.284      12.281      10.512      9.1735    
  8.2452      7.6344      7.2780      7.1590      7.2780      7.6344      8.2451      9.1735      10.512      12.281    
  14.284      16.167      17.495      18.028      17.992      17.892      18.262      18.447      17.901      16.568    
  14.833      13.127      11.749      10.772      10.108      9.6729      9.4470      9.4467      9.6723      10.108    
  10.772      11.749      13.127      14.833      16.568      17.901      18.447      18.262      17.892      17.892    
  16.672      16.413      15.786      15.018      14.376      13.989      13.764      13.548      13.308      13.133    
  13.133      13.308      13.548      13.764      13.989      14.376      15.018      15.786      16.413      16.673    
  16.563      16.360      16.360      16.562      16.413      16.316      16.102      15.988      16.102      16.316    
  16.413      16.274      16.009      15.875      16.009      16.275      16.413      16.316      16.101      15.988    
  16.101      16.316      16.413      16.275      16.009      15.875      16.009      16.274      15.786      16.102    
  16.578      17.313      18.141      18.746      18.834      18.447      18.028      18.028      18.447      18.834    
  18.746      18.141      17.313      16.578      16.101      15.786      15.477      15.141      14.900      14.899    
  15.141      15.477      15.018      15.988      17.313      18.807      20.061      20.549      20.088      19.190    
  18.744      19.190      20.087      20.549      20.061      18.807      17.313      15.988      15.018      14.330    
  13.809      13.449      13.314      13.448      13.809      14.329      14.376      16.102      18.141      20.061    
  21.149      20.863      19.515      18.286      18.286      19.515      20.863      21.149      20.061      18.141    
  16.101      14.376      13.127      12.281      11.736      11.458      11.458      11.735      12.281      13.127    
  13.989      16.316      18.746      20.549      20.863      19.527      17.593      16.686      17.594      19.528    
  20.863      20.549      18.745      16.316      13.989      12.140      10.854      10.037      9.5833      9.4373    
  9.5830      10.036      10.854      12.140      13.764      16.413      18.834      20.088      19.515      17.593    
  15.905      15.906      17.594      19.515      20.087      18.833      16.413      13.764      11.455      9.7395    
  8.6036      7.9313      7.6219      7.6216      7.9310      8.6037      9.7399      11.455      13.548      16.274    
  18.447      19.190      18.286      16.686      15.906      16.686      18.286      19.190      18.447      16.274    
  13.548      10.990      8.9538      7.5342      6.6410      6.1592      6.0081      6.1593      6.6412      7.5342    
  8.9536      10.990      13.308      16.009      18.028      18.744      18.286      17.594      17.594      18.286    
  18.744      18.028      16.009      13.308      10.643      8.4127      6.7849      5.7090      5.0698      4.7746    
  4.7748      5.0701      5.7090      6.7845      8.4125      10.643      13.133      15.875      18.028      19.190    
  19.515      19.528      19.515      19.190      18.028      15.875      13.133      10.397      8.0500      6.2776    
  5.0646      4.2982      3.8777      3.7438      3.8775      4.2980      5.0646      6.2778      8.0502      10.397    
  13.133      16.009      18.447      20.087      20.863      20.863      20.087      18.447      16.009      13.133    
  10.305      7.8594      5.9729      4.6483      3.7773      3.2517      3.0035      3.0033      3.2515      3.7774    
  4.6486      5.9730      7.8591      10.304      13.308      16.275      18.834      20.549      21.149      20.549    
  18.833      16.274      13.308      10.397      7.8594      5.8697      4.4400      3.4704      2.8488      2.4995    
  2.3864      2.4997      2.8490      3.4704      4.4398      5.8693      7.8590      10.397      13.548      16.413    
  18.746      20.061      20.061      18.745      16.413      13.548      10.643      8.0500      5.9729      4.4400    
  3.3682      2.6496      2.2035      1.9878      1.9879      2.2037      2.6496      3.3680      4.4399      5.9730    
  8.0500      10.643      13.764      16.316      18.141      18.807      18.141      16.316      13.764      10.990    
  8.4127      6.2776      4.6483      3.4704      2.6496      2.1056      1.7911      1.6876      1.7911      2.1054    
  2.6495      3.4705      4.6487      6.2779      8.4125      10.990      13.989      16.101      17.313      17.313    
  16.101      13.989      11.455      8.9538      6.7849      5.0646      3.7773      2.8488      2.2035      1.7911    
  1.5884      1.5884      1.7911      2.2035      2.8489      3.7774      5.0646      6.7848      8.9538      11.455    
  14.376      15.988      16.578      15.988      14.376      12.140      9.7395      7.5342      5.7090      4.2982    
  3.2517      2.4995      1.9878      1.6876      1.5884      1.6878      1.9879      2.4995      3.2515      4.2978    
  5.7088      7.5343      9.7399      12.140      15.018      16.101      16.101      15.018      13.127      10.854    
  8.6036      6.6410      5.0698      3.8777      3.0035      2.3864      1.9879      1.7911      1.7911      1.9879    
  2.3864      3.0034      3.8777      5.0698      6.6410      8.6036      10.854      13.127      15.786      16.316    
  15.786      14.330      12.281      10.037      7.9313      6.1592      4.7746      3.7438      3.0033      2.4997    
  2.2037      2.1054      2.2035      2.4995      3.0034      3.7442      4.7750      6.1592      7.9311      10.036    
  12.281      14.329      16.413      16.413      15.477      13.809      11.736      9.5833      7.6219      6.0081    
  4.7748      3.8775      3.2515      2.8490      2.6496      2.6495      2.8489      3.2515      3.8777      4.7750    
  6.0082      7.6219      9.5834      11.736      13.809      15.477      16.673      16.275      15.141      13.449    
  11.458      9.4373      7.6216      6.1593      5.0701      4.2980      3.7774      3.4704      3.3680      3.4705    
  3.7774      4.2978      5.0698      6.1592      7.6219      9.4378      11.459      13.449      15.141      16.275    
  16.563      16.009      14.900      13.314      11.458      9.5830      7.9310      6.6412      5.7090      5.0646    
  4.6486      4.4398      4.4399      4.6487      5.0646      5.7088      6.6410      7.9311      9.5834      11.459    
  13.314      14.899      16.009      16.563      16.360      15.875      14.899      13.448      11.735      10.036    
  8.6037      7.5342      6.7845      6.2778      5.9730      5.8693      5.9730      6.2779      6.7848      7.5343    
  8.6036      10.036      11.736      13.449      14.899      15.875      16.359      16.492      16.360      16.009    
  15.141      13.809      12.281      10.854      9.7399      8.9536      8.4125      8.0502      7.8591      7.8590    
  8.0500      8.4125      8.9538      9.7399      10.854      12.281      13.809      15.141      16.009      16.359    
  16.408      16.408      16.562      16.274      15.477      14.329      13.127      12.140      11.455      10.990    
  10.643      10.397      10.304      10.397      10.643      10.990      11.455      12.140      13.127      14.329    
  15.477      16.275      16.563      16.492      16.408      16.492      13.925      13.764      13.530      13.419    
  13.530      13.764      13.925      13.916      13.797      13.728      13.797      13.916      13.925      13.764    
  13.530      13.419      13.530      13.764      13.925      13.916      13.797      13.728      13.797      13.916    
  13.764      13.989      14.376      15.018      15.786      16.413      16.672      16.562      16.360      16.360    
  16.563      16.673      16.413      15.786      15.018      14.376      13.989      13.764      13.548      13.308    
  13.133      13.133      13.308      13.548      13.530      14.376      15.561      16.939      18.169      18.834    
  18.753      18.262      17.992      18.262      18.753      18.834      18.169      16.939      15.561      14.376    
  13.530      12.943      12.500      12.190      12.074      12.190      12.500      12.943      13.419      15.018    
  16.939      18.804      20.015      20.088      19.224      18.349      18.348      19.223      20.087      20.015    
  18.804      16.939      15.018      13.419      12.271      11.494      10.991      10.734      10.734      10.992    
  11.494      12.271      13.530      15.786      18.169      20.015      20.524      19.515      17.902      17.130    
  17.902      19.515      20.524      20.015      18.169      15.786      13.530      11.749      10.512      9.7235    
  9.2836      9.1415      9.2836      9.7235      10.512      11.749      13.764      16.413      18.834      20.088    
  19.515      17.593      15.905      15.906      17.594      19.515      20.087      18.833      16.413      13.764    
  11.455      9.7395      8.6036      7.9313      7.6218      7.6216      7.9310      8.6037      9.7400      11.455    
  13.925      16.672      18.753      19.224      17.902      15.905      14.961      15.905      17.902      19.224    
  18.753      16.672      13.925      11.310      9.2109      7.7440      6.8233      6.3294      6.1753      6.3294    
  6.8233      7.7440      9.2109      11.310      13.916      16.562      18.262      18.349      17.130      15.906    
  15.905      17.129      18.348      18.263      16.563      13.916      11.184      8.8524      7.1314      5.9933    
  5.3216      5.0145      5.0148      5.3220      5.9932      7.1310      8.8522      11.184      13.797      16.360    
  17.992      18.348      17.902      17.594      17.902      18.348      17.992      16.360      13.797      11.033    
  8.5864      6.6981      5.3972      4.5787      4.1345      3.9944      4.1344      4.5787      5.3972      6.6981    
  8.5864      11.033      13.728      16.360      18.262      19.223      19.515      19.515      19.224      18.263    
  16.360      13.728      10.920      8.3997      6.4005      4.9816      4.0502      3.4934      3.2335      3.2333    
  3.4931      4.0502      4.9820      6.4008      8.3997      10.920      13.797      16.563      18.753      20.087    
  20.524      20.087      18.753      16.563      13.797      10.920      8.3292      6.2416      4.7262      3.7013    
  3.0507      2.6895      2.5735      2.6896      3.0508      3.7013      4.7261      6.2416      8.3293      10.920    
  13.916      16.673      18.834      20.015      20.015      18.833      16.672      13.916      11.033      8.3997    
  6.2416      4.6383      3.5244      2.7869      2.3352      2.1188      2.1190      2.3355      2.7870      3.5242    
  4.6381      6.2414      8.3996      11.033      13.925      16.413      18.169      18.804      18.169      16.413    
  13.925      11.184      8.5864      6.4005      4.7262      3.5244      2.6987      2.1594      1.8511      1.7501    
  1.8511      2.1594      2.6987      3.5244      4.7261      6.4005      8.5863      11.184      13.764      15.786    
  16.939      16.939      15.786      13.764      11.310      8.8524      6.6981      4.9816      3.7013      2.7869    
  2.1594      1.7625      1.5685      1.5684      1.7623      2.1592      2.7870      3.7016      4.9820      6.6982    
  8.8522      11.309      13.530      15.018      15.561      15.018      13.530      11.455      9.2109      7.1314    
  5.3972      4.0502      3.0507      2.3352      1.8511      1.5685      1.4752      1.5685      1.8511      2.3351    
  3.0507      4.0502      5.3973      7.1314      9.2109      11.455      13.419      14.376      14.376      13.419    
  11.749      9.7395      7.7440      5.9933      4.5787      3.4934      2.6895      2.1188      1.7501      1.5684    
  1.5685      1.7504      2.1190      2.6894      3.4931      4.5783      5.9932      7.7442      9.7399      11.749    
  13.530      13.989      13.530      12.271      10.512      8.6036      6.8233      5.3216      4.1345      3.2335    
  2.5735      2.1190      1.8511      1.7623      1.8511      2.1190      2.5735      3.2335      4.1344      5.3215    
  6.8232      8.6036      10.512      12.271      13.764      13.764      12.943      11.494      9.7235      7.9313    
  6.3294      5.0145      3.9944      3.2333      2.6896      2.3355      2.1594      2.1592      2.3351      2.6894    
  3.2335      3.9949      5.0148      6.3293      7.9310      9.7232      11.494      12.943      13.925      13.548    
  12.500      10.991      9.2836      7.6218      6.1753      5.0148      4.1344      3.4931      3.0508      2.7870    
  2.6987      2.7870      3.0507      3.4931      4.1344      5.0148      6.1754      7.6219      9.2836      10.991    
  12.500      13.548      13.916      13.308      12.190      10.734      9.1415      7.6216      6.3294      5.3220    
  4.5787      4.0502      3.7013      3.5242      3.5244      3.7016      4.0502      4.5783      5.3215      6.3293    
  7.6219      9.1417      10.734      12.190      13.308      13.916      13.797      13.133      12.074      10.734    
  9.2836      7.9310      6.8233      5.9932      5.3972      4.9820      4.7261      4.6381      4.7261      4.9820    
  5.3973      5.9932      6.8232      7.9310      9.2836      10.734      12.074      13.133      13.797      14.020    
  13.728      13.133      12.190      10.992      9.7235      8.6037      7.7440      7.1310      6.6981      6.4008    
  6.2416      6.2414      6.4005      6.6982      7.1314      7.7442      8.6036      9.7232      10.991      12.190    
  13.133      13.728      13.995      13.995      13.797      13.308      12.500      11.494      10.512      9.7400    
  9.2109      8.8522      8.5864      8.3997      8.3293      8.3996      8.5863      8.8522      9.2109      9.7399    
  10.512      11.494      12.500      13.308      13.797      13.995      14.035      13.994      13.916      13.548    
  12.943      12.271      11.749      11.455      11.310      11.184      11.033      10.920      10.920      11.033    
  11.184      11.309      11.455      11.749      12.271      12.943      13.548      13.916      14.020      13.995    
  13.994      14.020      11.310      11.455      11.749      12.271      12.943      13.548      13.916      14.020    
  13.994      13.995      14.020      13.916      13.548      12.943      12.271      11.749      11.455      11.309    
  11.184      11.033      10.920      10.920      11.033      11.184      11.455      12.140      13.127      14.329    
  15.477      16.274      16.562      16.492      16.408      16.492      16.562      16.275      15.477      14.329    
  13.127      12.140      11.455      10.990      10.643      10.397      10.304      10.397      10.643      10.990    
  11.749      13.127      14.833      16.569      17.901      18.447      18.262      17.893      17.892      18.262    
  18.447      17.901      16.568      14.833      13.127      11.749      10.772      10.108      9.6723      9.4468    
  9.4471      9.6729      10.108      10.772      12.271      14.329      16.569      18.481      19.428      19.190    
  18.349      17.902      18.348      19.190      19.428      18.480      16.569      14.330      12.272      10.676    
  9.5718      8.8592      8.4548      8.3224      8.4550      8.8595      9.5719      10.676      12.943      15.477    
  17.901      19.428      19.457      18.286      17.130      17.130      18.286      19.456      19.428      17.901    
  15.477      12.943      10.772      9.1733      8.1128      7.4786      7.1830      7.1829      7.4786      8.1130    
  9.1736      10.772      13.548      16.274      18.447      19.190      18.286      16.686      15.906      16.686    
  18.286      19.190      18.447      16.274      13.548      10.990      8.9538      7.5342      6.6410      6.1591    
  6.0081      6.1593      6.6412      7.5342      8.9537      10.990      13.916      16.562      18.262      18.349    
  17.130      15.906      15.905      17.129      18.348      18.263      16.563      13.916      11.184      8.8523    
  7.1314      5.9933      5.3216      5.0145      5.0148      5.3220      5.9932      7.1310      8.8522      11.184    
  14.020      16.492      17.893      17.902      17.130      16.686      17.129      17.901      17.892      16.493    
  14.021      11.258      8.7789      6.8499      5.5169      4.6791      4.2259      4.0836      4.2259      4.6789    
  5.5168      6.8500      8.7791      11.257      13.994      16.408      17.892      18.348      18.286      18.286    
  18.348      17.892      16.408      13.995      11.239      8.6945      6.6399      5.1688      4.2021      3.6266    
  3.3596      3.3594      3.6262      4.2020      5.1691      6.6403      8.6943      11.238      13.995      16.492    
  18.262      19.190      19.456      19.190      18.263      16.493      13.995      11.216      8.6279      6.4947    
  4.9261      3.8624      3.1896      2.8186      2.7001      2.8187      3.1896      3.8623      4.9261      6.4949    
  8.6282      11.216      14.020      16.562      18.447      19.428      19.428      18.447      16.563      14.021    
  11.239      8.6279      6.4402      4.7956      3.6522      2.8990      2.4409      2.2230      2.2232      2.4412    
  2.8990      3.6519      4.7956      6.4406      8.6281      11.238      13.916      16.275      17.901      18.480    
  17.901      16.274      13.916      11.258      8.6945      6.4947      4.7956      3.5797      2.7517      2.2162    
  1.9123      1.8131      1.9123      2.2163      2.7518      3.5797      4.7956      6.4944      8.6943      11.258    
  13.548      15.477      16.568      16.569      15.477      13.548      11.184      8.7789      6.6399      4.9261    
  3.6522      2.7517      2.1412      1.7588      1.5727      1.5727      1.7587      2.1412      2.7518      3.6522    
  4.9260      6.6399      8.7790      11.184      12.943      14.329      14.833      14.330      12.943      10.990    
  8.8523      6.8499      5.1688      3.8624      2.8990      2.2162      1.7588      1.4934      1.4061      1.4934    
  1.7587      2.2160      2.8990      3.8627      5.1692      6.8501      8.8522      10.990      12.271      13.127    
  13.127      12.272      10.772      8.9538      7.1314      5.5169      4.2021      3.1896      2.4409      1.9123    
  1.5727      1.4061      1.4061      1.5728      1.9123      2.4408      3.1896      4.2021      5.5170      7.1315    
  8.9538      10.772      11.749      12.140      11.749      10.676      9.1733      7.5342      5.9933      4.6791    
  3.6266      2.8186      2.2230      1.8131      1.5727      1.4934      1.5728      1.8134      2.2232      2.8186    
  3.6262      4.6786      5.9932      7.5345      9.1737      10.676      11.455      11.455      10.772      9.5718    
  8.1128      6.6410      5.3216      4.2259      3.3596      2.7001      2.2232      1.9123      1.7587      1.7587    
  1.9123      2.2232      2.7002      3.3596      4.2259      5.3215      6.6410      8.1129      9.5718      10.772    
  11.309      10.990      10.108      8.8592      7.4786      6.1591      5.0145      4.0836      3.3594      2.8187    
  2.4412      2.2163      2.1412      2.2160      2.4408      2.8186      3.3596      4.0840      5.0147      6.1591    
  7.4783      8.8590      10.108      10.990      11.184      10.643      9.6723      8.4548      7.1830      6.0081    
  5.0148      4.2259      3.6262      3.1896      2.8990      2.7518      2.7518      2.8990      3.1896      3.6262    
  4.2259      5.0147      6.0081      7.1830      8.4548      9.6724      10.643      11.184      11.033      10.397    
  9.4468      8.3224      7.1829      6.1593      5.3220      4.6789      4.2020      3.8623      3.6519      3.5797    
  3.6522      3.8627      4.2021      4.6786      5.3215      6.1591      7.1830      8.3227      9.4471      10.397    
  11.033      11.258      10.920      10.304      9.4471      8.4550      7.4786      6.6412      5.9932      5.5168    
  5.1691      4.9261      4.7956      4.7956      4.9260      5.1692      5.5170      5.9932      6.6410      7.4783    
  8.4548      9.4471      10.305      10.920      11.239      11.238      10.920      10.397      9.6729      8.8595    
  8.1130      7.5342      7.1310      6.8500      6.6403      6.4949      6.4406      6.4944      6.6399      6.8501    
  7.1315      7.5345      8.1129      8.8590      9.6724      10.397      10.920      11.216      11.308      11.216    
  11.033      10.643      10.108      9.5719      9.1736      8.9537      8.8522      8.7791      8.6943      8.6282    
  8.6281      8.6943      8.7790      8.8522      8.9538      9.1737      9.5718      10.108      10.643      11.033    
  11.239      11.308      11.308      11.238      11.184      10.990      10.772      10.676      10.772      10.990    
  11.184      11.257      11.238      11.216      11.238      11.258      11.184      10.990      10.772      10.676    
  10.772      10.990      11.184      11.258      11.238      11.216      11.238      11.257      9.2109      9.7400    
  10.512      11.494      12.500      13.308      13.797      13.994      14.035      13.995      13.797      13.308    
  12.500      11.494      10.512      9.7399      9.2109      8.8522      8.5863      8.3996      8.3293      8.3997    
  8.5864      8.8522      9.7400      10.854      12.281      13.809      15.141      16.009      16.360      16.408    
  16.408      16.359      16.009      15.141      13.809      12.281      10.854      9.7399      8.9538      8.4125    
  8.0500      7.8590      7.8592      8.0502      8.4125      8.9537      10.512      12.281      14.284      16.167    
  17.495      18.028      17.992      17.893      17.992      18.028      17.495      16.167      14.284      12.281    
  10.512      9.1736      8.2451      7.6344      7.2780      7.1590      7.2780      7.6344      8.2451      9.1736    
  11.494      13.809      16.167      18.015      18.856      18.744      18.348      18.348      18.744      18.856    
  18.015      16.167      13.809      11.495      9.5718      8.1754      7.2434      6.6747      6.4033      6.4032    
  6.6744      7.2434      8.1757      9.5719      12.500      15.141      17.495      18.856      18.937      18.286    
  17.902      18.286      18.937      18.856      17.495      15.141      12.500      10.108      8.2452      6.9538    
  6.1349      5.6858      5.5431      5.6858      6.1348      6.9537      8.2452      10.108      13.308      16.009    
  18.028      18.744      18.286      17.594      17.594      18.286      18.744      18.028      16.009      13.308    
  10.643      8.4127      6.7849      5.7091      5.0698      4.7746      4.7749      5.0702      5.7090      6.7845    
  8.4126      10.643      13.797      16.360      17.992      18.348      17.902      17.594      17.902      18.348    
  17.992      16.360      13.797      11.033      8.5863      6.6980      5.3972      4.5787      4.1345      3.9944    
  4.1345      4.5787      5.3972      6.6981      8.5864      11.033      13.994      16.408      17.893      18.348    
  18.286      18.286      18.348      17.892      16.408      13.995      11.239      8.6945      6.6399      5.1688    
  4.2021      3.6266      3.3596      3.3594      3.6263      4.2020      5.1691      6.6402      8.6943      11.238    
  14.035      16.408      17.992      18.744      18.937      18.744      17.992      16.408      14.035      11.308    
  8.7296      6.5847      4.9981      3.9204      3.2393      2.8645      2.7450      2.8645      3.2393      3.9203    
  4.9981      6.5848      8.7297      11.308      13.995      16.359      18.028      18.856      18.856      18.028    
  16.360      13.995      11.308      8.7328      6.5447      4.8834      3.7249      2.9625      2.5000      2.2808    
  2.2810      2.5003      2.9624      3.7245      4.8831      6.5449      8.7333      11.308      13.797      16.009    
  17.495      18.015      17.495      16.009      13.797      11.239      8.7296      6.5447      4.8414      3.6214    
  2.7932      2.2596      1.9578      1.8595      1.9578      2.2596      2.7932      3.6214      4.8414      6.5447    
  8.7296      11.239      13.308      15.141      16.167      16.167      15.141      13.308      11.033      8.6945    
  6.5847      4.8834      3.6214      2.7355      2.1394      1.7678      1.5873      1.5872      1.7676      2.1394    
  2.7358      3.6216      4.8832      6.5842      8.6942      11.033      12.500      13.809      14.284      13.809    
  12.500      10.643      8.5863      6.6399      4.9981      3.7249      2.7932      2.1394      1.7049      1.4538    
  1.3713      1.4539      1.7049      2.1393      2.7932      3.7249      4.9981      6.6399      8.5863      10.643    
  11.494      12.281      12.281      11.495      10.108      8.4127      6.6980      5.1688      3.9204      2.9625    
  2.2596      1.7678      1.4538      1.3002      1.3002      1.4539      1.7676      2.2593      2.9624      3.9207    
  5.1692      6.6982      8.4125      10.108      10.512      10.854      10.512      9.5718      8.2452      6.7849    
  5.3972      4.2021      3.2393      2.5000      1.9578      1.5873      1.3713      1.3002      1.3713      1.5873    
  1.9578      2.5000      3.2392      4.2021      5.3972      6.7849      8.2451      9.5718      9.7399      9.7399    
  9.1736      8.1754      6.9538      5.7091      4.5787      3.6266      2.8645      2.2808      1.8595      1.5872    
  1.4539      1.4539      1.5873      1.8598      2.2810      2.8644      3.6262      4.5784      5.7090      6.9540    
  8.1757      9.1737      9.2109      8.9538      8.2451      7.2434      6.1349      5.0698      4.1345      3.3596    
  2.7450      2.2810      1.9578      1.7676      1.7049      1.7676      1.9578      2.2810      2.7450      3.3596    
  4.1345      5.0697      6.1348      7.2434      8.2452      8.9538      8.8522      8.4125      7.6344      6.6747    
  5.6858      4.7746      3.9944      3.3594      2.8645      2.5003      2.2596      2.1394      2.1393      2.2593    
  2.5000      2.8644      3.3596      3.9948      4.7749      5.6857      6.6744      7.6342      8.4125      8.8522    
  8.5863      8.0500      7.2780      6.4033      5.5431      4.7749      4.1345      3.6263      3.2393      2.9624    
  2.7932      2.7358      2.7932      2.9624      3.2392      3.6262      4.1345      4.7749      5.5431      6.4034    
  7.2780      8.0500      8.5864      8.7790      8.3996      7.8590      7.1590      6.4032      5.6858      5.0702    
  4.5787      4.2020      3.9203      3.7245      3.6214      3.6216      3.7249      3.9207      4.2021      4.5784    
  5.0697      5.6857      6.4034      7.1593      7.8591      8.3996      8.6942      8.6943      8.3293      7.8592    
  7.2780      6.6744      6.1348      5.7090      5.3972      5.1691      4.9981      4.8831      4.8414      4.8832    
  4.9981      5.1692      5.3972      5.7090      6.1348      6.6744      7.2780      7.8591      8.3293      8.6282    
  8.7297      8.6282      8.3997      8.0502      7.6344      7.2434      6.9537      6.7845      6.6981      6.6402    
  6.5848      6.5449      6.5447      6.5842      6.6399      6.6982      6.7849      6.9540      7.2434      7.6342    
  8.0500      8.3996      8.6282      8.7333      8.7333      8.6281      8.5864      8.4125      8.2451      8.1757    
  8.2452      8.4126      8.5864      8.6943      8.7297      8.7333      8.7296      8.6942      8.5863      8.4125    
  8.2451      8.1757      8.2452      8.4125      8.5864      8.6942      8.7297      8.7333      8.7297      8.6943    
  8.8522      8.9537      9.1736      9.5719      10.108      10.643      11.033      11.238      11.308      11.308    
  11.239      11.033      10.643      10.108      9.5718      9.1737      8.9538      8.8522      8.7790      8.6943    
  8.6282      8.6281      8.6943      8.7791      7.7440      8.6038      9.7235      10.992      12.190      13.133    
  13.728      13.995      13.995      13.728      13.133      12.190      10.991      9.7232      8.6036      7.7443    
  7.1314      6.6982      6.4005      6.2414      6.2416      6.4008      6.6981      7.1310      8.6038      10.036    
  11.735      13.448      14.899      15.875      16.360      16.492      16.359      15.875      14.899      13.449    
  11.736      10.036      8.6035      7.5343      6.7848      6.2779      5.9730      5.8693      5.9730      6.2778    
  6.7845      7.5342      9.7235      11.735      13.903      15.880      17.298      18.028      18.262      18.262    
  18.028      17.298      15.880      13.903      11.735      9.7234      8.1128      6.9537      6.1700      5.6786    
  5.4376      5.4374      5.6782      6.1697      6.9537      8.1130      10.992      13.448      15.880      17.793    
  18.855      19.190      19.223      19.190      18.856      17.793      15.880      13.448      10.991      8.8592    
  7.2434      6.1267      5.4083      5.0049      4.8742      5.0047      5.4080      6.1264      7.2434      8.8596    
  12.190      14.899      17.298      18.855      19.456      19.515      19.515      19.456      18.856      17.299    
  14.899      12.189      9.6723      7.6342      6.1700      5.2008      4.6168      4.3424      4.3425      4.6169    
  5.2005      6.1697      7.6344      9.6729      13.133      15.875      18.028      19.190      19.515      19.528    
  19.515      19.190      18.028      15.875      13.133      10.397      8.0500      6.2776      5.0646      4.2982    
  3.8777      3.7438      3.8776      4.2981      5.0646      6.2778      8.0503      10.397      13.728      16.360    
  18.262      19.223      19.515      19.515      19.224      18.263      16.360      13.728      10.920      8.3997    
  6.4005      4.9816      4.0502      3.4935      3.2335      3.2333      3.4931      4.0502      4.9819      6.4008    
  8.3997      10.920      13.995      16.492      18.262      19.190      19.456      19.190      18.263      16.493    
  13.995      11.215      8.6279      6.4947      4.9260      3.8624      3.1896      2.8186      2.7001      2.8187    
  3.1896      3.8623      4.9260      6.4948      8.6281      11.216      13.995      16.359      18.028      18.856    
  18.856      18.028      16.360      13.995      11.308      8.7328      6.5447      4.8834      3.7249      2.9625    
  2.5001      2.2808      2.2810      2.5003      2.9624      3.7245      4.8831      6.5449      8.7332      11.308    
  13.728      15.875      17.298      17.793      17.299      15.875      13.728      11.215      8.7328      6.5591    
  4.8575      3.6371      2.8089      2.2758      1.9746      1.8766      1.9746      2.2759      2.8088      3.6368    
  4.8571      6.5591      8.7333      11.216      13.133      14.899      15.880      15.880      14.899      13.133    
  10.920      8.6279      6.5447      4.8575      3.6064      2.7304      2.1424      1.7763      1.5987      1.5986    
  1.7762      2.1425      2.7306      3.6063      4.8571      6.5445      8.6281      10.920      12.190      13.449    
  13.903      13.448      12.189      10.397      8.3997      6.4947      4.8834      3.6371      2.7304      2.0980    
  1.6793      1.4375      1.3578      1.4374      1.6793      2.0982      2.7306      3.6371      4.8831      6.4943    
  8.3996      10.397      10.991      11.736      11.735      10.991      9.6723      8.0500      6.4005      4.9260    
  3.7249      2.8089      2.1424      1.6793      1.3848      1.2406      1.2406      1.3848      1.6793      2.1423    
  2.8088      3.7249      4.9260      6.4005      8.0500      9.6724      9.7232      10.036      9.7234      8.8592    
  7.6342      6.2776      4.9816      3.8624      2.9625      2.2758      1.7763      1.4375      1.2406      1.1759    
  1.2406      1.4374      1.7762      2.2756      2.9624      3.8625      4.9819      6.2778      7.6342      8.8590    
  8.6036      8.6035      8.1128      7.2434      6.1700      5.0646      4.0502      3.1896      2.5001      1.9746    
  1.5987      1.3578      1.2406      1.2406      1.3578      1.5987      1.9746      2.5000      3.1896      4.0502    
  5.0646      6.1700      7.2434      8.1129      7.7443      7.5343      6.9537      6.1267      5.2008      4.2982    
  3.4935      2.8186      2.2808      1.8766      1.5986      1.4374      1.3848      1.4374      1.5987      1.8769    
  2.2810      2.8186      3.4932      4.2979      5.2006      6.1268      6.9540      7.5345      7.1314      6.7848    
  6.1700      5.4083      4.6168      3.8777      3.2335      2.7001      2.2810      1.9746      1.7762      1.6793    
  1.6793      1.7762      1.9746      2.2810      2.7002      3.2336      3.8777      4.6167      5.4082      6.1700    
  6.7849      7.1315      6.6982      6.2779      5.6786      5.0049      4.3424      3.7438      3.2333      2.8187    
  2.5003      2.2759      2.1425      2.0982      2.1423      2.2756      2.5000      2.8186      3.2336      3.7442    
  4.3426      5.0047      5.6783      6.2778      6.6982      6.8501      6.4005      5.9730      5.4376      4.8742    
  4.3425      3.8776      3.4931      3.1896      2.9624      2.8088      2.7306      2.7306      2.8088      2.9624    
  3.1896      3.4932      3.8777      4.3426      4.8741      5.4375      5.9729      6.4005      6.6399      6.6399    
  6.2414      5.8693      5.4374      5.0047      4.6169      4.2981      4.0502      3.8623      3.7245      3.6368    
  3.6063      3.6371      3.7249      3.8625      4.0502      4.2979      4.6167      5.0047      5.4375      5.8693    
  6.2412      6.4943      6.5842      6.4945      6.2416      5.9730      5.6782      5.4080      5.2005      5.0646    
  4.9819      4.9260      4.8831      4.8571      4.8571      4.8831      4.9260      4.9819      5.0646      5.2006    
  5.4082      5.6783      5.9729      6.2412      6.4402      6.5445      6.5447      6.4405      6.4008      6.2778    
  6.1697      6.1264      6.1697      6.2778      6.4008      6.4948      6.5449      6.5591      6.5445      6.4943    
  6.4005      6.2778      6.1700      6.1268      6.1700      6.2778      6.4005      6.4943      6.5445      6.5591    
  6.5449      6.4948      6.6981      6.7845      6.9537      7.2434      7.6344      8.0503      8.3997      8.6281    
  8.7332      8.7333      8.6281      8.3996      8.0500      7.6342      7.2434      6.9540      6.7849      6.6982    
  6.6399      6.5842      6.5447      6.5449      6.5847      6.6402      7.1310      7.5342      8.1130      8.8596    
  9.6729      10.397      10.920      11.216      11.308      11.216      10.920      10.397      9.6724      8.8590    
  8.1129      7.5345      7.1315      6.8501      6.6399      6.4945      6.4405      6.4948      6.6402      6.8500    
  6.8234      7.9310      9.2836      10.734      12.074      13.133      13.797      14.020      13.797      13.133    
  12.074      10.734      9.2836      7.9310      6.8232      5.9932      5.3973      4.9820      4.7261      4.6381    
  4.7261      4.9819      5.3972      5.9932      7.9310      9.5830      11.458      13.314      14.899      16.009    
  16.563      16.563      16.009      14.899      13.314      11.459      9.5834      7.9311      6.6410      5.7088    
  5.0646      4.6487      4.4399      4.4398      4.6486      5.0646      5.7090      6.6412      9.2836      11.458    
  13.761      15.880      17.495      18.447      18.753      18.447      17.495      15.880      13.761      11.458    
  9.2836      7.4785      6.1348      5.2005      4.5866      4.2325      4.1158      4.2326      4.5866      5.2005    
  6.1348      7.4786      10.734      13.314      15.880      18.015      19.428      20.087      20.087      19.428    
  18.015      15.880      13.314      10.734      8.4548      6.6745      5.4082      4.5628      4.0432      3.7938    
  3.7940      4.0434      4.5628      5.4080      6.6744      8.4550      12.074      14.899      17.495      19.428    
  20.524      20.863      20.524      19.428      17.495      14.899      12.074      9.4471      7.2780      5.6781    
  4.5866      3.8899      3.5011      3.3757      3.5011      3.8898      4.5865      5.6781      7.2780      9.4471    
  13.133      16.009      18.447      20.087      20.863      20.863      20.087      18.447      16.009      13.133    
  10.305      7.8595      5.9729      4.6483      3.7774      3.2518      3.0034      3.0033      3.2515      3.7774    
  4.6485      5.9730      7.8592      10.304      13.797      16.563      18.753      20.087      20.524      20.087    
  18.753      16.563      13.797      10.920      8.3293      6.2416      4.7261      3.7013      3.0508      2.6895    
  2.5734      2.6896      3.0508      3.7013      4.7261      6.2416      8.3293      10.920      14.020      16.563    
  18.447      19.428      19.428      18.447      16.563      14.021      11.238      8.6279      6.4402      4.7956    
  3.6522      2.8990      2.4409      2.2230      2.2232      2.4412      2.8990      3.6519      4.7956      6.4405    
  8.6282      11.238      13.797      16.009      17.495      18.015      17.495      16.009      13.797      11.238    
  8.7296      6.5447      4.8414      3.6214      2.7932      2.2596      1.9578      1.8595      1.9578      2.2596    
  2.7932      3.6214      4.8414      6.5447      8.7297      11.239      13.133      14.899      15.880      15.880    
  14.899      13.133      10.920      8.6279      6.5447      4.8575      3.6065      2.7304      2.1424      1.7763    
  1.5987      1.5985      1.7762      2.1424      2.7306      3.6063      4.8571      6.5445      8.6282      10.920    
  12.074      13.314      13.761      13.314      12.074      10.305      8.3293      6.4402      4.8414      3.6065    
  2.7098      2.0854      1.6721      1.4333      1.3547      1.4333      1.6721      2.0854      2.7098      3.6064    
  4.8414      6.4402      8.3293      10.305      10.734      11.459      11.458      10.734      9.4471      7.8595    
  6.2416      4.7956      3.6214      2.7304      2.0854      1.6385      1.3542      1.2148      1.2148      1.3542    
  1.6385      2.0855      2.7306      3.6216      4.7956      6.2412      7.8591      9.4471      9.2836      9.5834    
  9.2836      8.4548      7.2780      5.9729      4.7261      3.6522      2.7932      2.1424      1.6721      1.3542    
  1.1695      1.1087      1.1694      1.3542      1.6721      2.1424      2.7932      3.6522      4.7261      5.9729    
  7.2780      8.4548      7.9310      7.9311      7.4785      6.6745      5.6781      4.6483      3.7013      2.8990    
  2.2596      1.7763      1.4333      1.2148      1.1087      1.1088      1.2148      1.4333      1.7762      2.2594    
  2.8989      3.7015      4.6486      5.6783      6.6744      7.4783      6.8232      6.6410      6.1348      5.4082    
  4.5866      3.7774      3.0508      2.4409      1.9578      1.5987      1.3547      1.2148      1.1694      1.2148    
  1.3547      1.5987      1.9578      2.4409      3.0507      3.7774      4.5866      5.4082      6.1348      6.6410    
  5.9932      5.7088      5.2005      4.5628      3.8899      3.2518      2.6895      2.2230      1.8595      1.5985    
  1.4333      1.3542      1.3542      1.4333      1.5987      1.8598      2.2232      2.6895      3.2514      3.8896    
  4.5627      5.2006      5.7090      5.9932      5.3973      5.0646      4.5866      4.0432      3.5011      3.0034    
  2.5734      2.2232      1.9578      1.7762      1.6721      1.6385      1.6721      1.7762      1.9578      2.2232    
  2.5735      3.0035      3.5011      4.0431      4.5865      5.0646      5.3972      5.5170      4.9820      4.6487    
  4.2325      3.7938      3.3757      3.0033      2.6896      2.4412      2.2596      2.1424      2.0854      2.0855    
  2.1424      2.2594      2.4409      2.6895      3.0035      3.3761      3.7940      4.2325      4.6486      4.9819    
  5.1692      5.1692      4.7261      4.4399      4.1158      3.7940      3.5011      3.2515      3.0508      2.8990    
  2.7932      2.7306      2.7098      2.7306      2.7932      2.8989      3.0507      3.2514      3.5011      3.7940    
  4.1158      4.4399      4.7261      4.9260      4.9981      4.9260      4.6381      4.4398      4.2326      4.0434    
  3.8898      3.7774      3.7013      3.6519      3.6214      3.6063      3.6064      3.6216      3.6522      3.7015    
  3.7774      3.8896      4.0431      4.2325      4.4399      4.6382      4.7956      4.8831      4.8831      4.7955    
  4.7261      4.6486      4.5866      4.5628      4.5865      4.6485      4.7261      4.7956      4.8414      4.8571    
  4.8414      4.7956      4.7261      4.6486      4.5866      4.5627      4.5865      4.6486      4.7261      4.7956    
  4.8413      4.8571      4.8414      4.7956      4.9819      5.0646      5.2005      5.4080      5.6781      5.9730    
  6.2416      6.4405      6.5447      6.5445      6.4402      6.2412      5.9729      5.6783      5.4082      5.2006    
  5.0646      4.9819      4.9260      4.8831      4.8571      4.8571      4.8832      4.9260      5.3972      5.7090    
  6.1348      6.6744      7.2780      7.8592      8.3293      8.6282      8.7297      8.6282      8.3293      7.8591    
  7.2780      6.6744      6.1348      5.7090      5.3972      5.1692      4.9981      4.8831      4.8414      4.8832    
  4.9981      5.1691      5.9932      6.6412      7.4786      8.4550      9.4471      10.304      10.920      11.238    
  11.239      10.920      10.305      9.4471      8.4548      7.4783      6.6410      5.9932      5.5170      5.1692    
  4.9260      4.7955      4.7956      4.9260      5.1691      5.5168      6.3294      7.6216      9.1414      10.734    
  12.190      13.308      13.916      13.916      13.308      12.190      10.734      9.1418      7.6219      6.3293    
  5.3215      4.5783      4.0502      3.7016      3.5243      3.5241      3.7013      4.0502      4.5787      5.3220    
  7.6216      9.4373      11.458      13.449      15.141      16.275      16.673      16.275      15.141      13.449    
  11.459      9.4378      7.6219      6.1592      5.0698      4.2978      3.7774      3.4705      3.3680      3.4704    
  3.7774      4.2981      5.0701      6.1593      9.1414      11.458      13.903      16.167      17.901      18.834    
  18.834      17.901      16.167      13.903      11.458      9.1416      7.1831      5.6858      4.6168      3.8897    
  3.4321      3.2081      3.2082      3.4323      3.8899      4.6169      5.6858      7.1829      10.734      13.449    
  16.167      18.480      20.015      20.549      20.015      18.480      16.167      13.448      10.734      8.3227    
  6.4035      5.0047      4.0432      3.4183      3.0625      2.9463      3.0626      3.4185      4.0434      5.0046    
  6.4031      8.3224      12.190      15.141      17.901      20.015      21.149      21.149      20.015      17.901    
  15.141      12.189      9.4471      7.1597      5.4376      4.2323      3.4320      2.9412      2.7059      2.7058    
  2.9412      3.4323      4.2325      5.4374      7.1590      9.4468      13.308      16.275      18.834      20.549    
  21.149      20.549      18.833      16.274      13.308      10.397      7.8595      5.8697      4.4399      3.4703    
  2.8489      2.4995      2.3863      2.4996      2.8490      3.4704      4.4398      5.8693      7.8590      10.397    
  13.916      16.673      18.834      20.015      20.015      18.833      16.672      13.916      11.033      8.3997    
  6.2416      4.6383      3.5243      2.7869      2.3352      2.1188      2.1190      2.3355      2.7871      3.5242    
  4.6381      6.2414      8.3996      11.033      13.916      16.275      17.901      18.480      17.901      16.274    
  13.916      11.258      8.6944      6.4947      4.7956      3.5796      2.7516      2.2162      1.9123      1.8131    
  1.9123      2.2163      2.7518      3.5797      4.7955      6.4945      8.6943      11.258      13.308      15.141    
  16.167      16.167      15.141      13.308      11.033      8.6944      6.5847      4.8834      3.6214      2.7355    
  2.1393      1.7678      1.5873      1.5872      1.7676      2.1395      2.7358      3.6215      4.8831      6.5843    
  8.6943      11.033      12.190      13.449      13.903      13.448      12.189      10.397      8.3997      6.4947    
  4.8834      3.6372      2.7304      2.0980      1.6793      1.4375      1.3578      1.4374      1.6793      2.0982    
  2.7306      3.6371      4.8832      6.4944      8.3996      10.397      10.734      11.459      11.458      10.734    
  9.4471      7.8595      6.2416      4.7956      3.6214      2.7304      2.0854      1.6384      1.3542      1.2148    
  1.2148      1.3542      1.6385      2.0855      2.7306      3.6216      4.7956      6.2413      7.8591      9.4471    
  9.1418      9.4378      9.1416      8.3227      7.1597      5.8697      4.6383      3.5796      2.7355      2.0980    
  1.6384      1.3279      1.1472      1.0878      1.1472      1.3278      1.6385      2.0983      2.7358      3.5799    
  4.6382      5.8693      7.1593      8.3227      7.6219      7.6219      7.1831      6.4035      5.4376      4.4399    
  3.5243      2.7516      2.1393      1.6793      1.3542      1.1472      1.0467      1.0467      1.1472      1.3541    
  1.6793      2.1394      2.7518      3.5244      4.4399      5.4375      6.4033      7.1830      6.3293      6.1592    
  5.6858      5.0047      4.2323      3.4703      2.7869      2.2162      1.7678      1.4375      1.2148      1.0878    
  1.0467      1.0878      1.2148      1.4373      1.7676      2.2161      2.7870      3.4706      4.2325      5.0047    
  5.6857      6.1591      5.3215      5.0698      4.6168      4.0432      3.4320      2.8489      2.3352      1.9123    
  1.5873      1.3578      1.2148      1.1472      1.1472      1.2148      1.3578      1.5873      1.9123      2.3352    
  2.8489      3.4321      4.0432      4.6167      5.0697      5.3215      4.5783      4.2978      3.8897      3.4183    
  2.9412      2.4995      2.1188      1.8131      1.5872      1.4374      1.3542      1.3278      1.3541      1.4373    
  1.5873      1.8133      2.1190      2.4995      2.9410      3.4181      3.8896      4.2978      4.5783      4.6786    
  4.0502      3.7774      3.4321      3.0625      2.7059      2.3863      2.1190      1.9123      1.7676      1.6793    
  1.6385      1.6385      1.6793      1.7676      1.9123      2.1190      2.3864      2.7060      3.0626      3.4320    
  3.7773      4.0501      4.2020      4.2021      3.7016      3.4705      3.2081      2.9463      2.7058      2.4996    
  2.3355      2.2163      2.1395      2.0982      2.0855      2.0983      2.1394      2.2161      2.3352      2.4995    
  2.7060      2.9466      3.2084      3.4706      3.7015      3.8626      3.9207      3.8627      3.5243      3.3680    
  3.2082      3.0626      2.9412      2.8490      2.7871      2.7518      2.7358      2.7306      2.7306      2.7358    
  2.7518      2.7870      2.8489      2.9410      3.0626      3.2084      3.3682      3.5245      3.6522      3.7249    
  3.7250      3.6522      3.5241      3.4704      3.4323      3.4185      3.4323      3.4704      3.5242      3.5797    
  3.6215      3.6371      3.6216      3.5799      3.5244      3.4706      3.4321      3.4181      3.4320      3.4706    
  3.5245      3.5799      3.6216      3.6371      3.6216      3.5797      3.7013      3.7774      3.8899      4.0434    
  4.2325      4.4398      4.6381      4.7955      4.8831      4.8832      4.7956      4.6382      4.4399      4.2325    
  4.0432      3.8896      3.7773      3.7015      3.6522      3.6216      3.6064      3.6064      3.6214      3.6519    
  4.0502      4.2981      4.6169      5.0046      5.4374      5.8693      6.2414      6.4945      6.5843      6.4944    
  6.2413      5.8693      5.4375      5.0047      4.6167      4.2978      4.0501      3.8626      3.7249      3.6371    
  3.6064      3.6369      3.7246      3.8623      4.5787      5.0701      5.6858      6.4031      7.1590      7.8590    
  8.3996      8.6943      8.6943      8.3996      7.8591      7.1593      6.4033      5.6857      5.0697      4.5783    
  4.2020      3.9207      3.7250      3.6216      3.6214      3.7246      3.9204      4.2020      5.3220      6.1593    
  7.1829      8.3224      9.4468      10.397      11.033      11.258      11.033      10.397      9.4471      8.3227    
  7.1830      6.1591      5.3215      4.6786      4.2021      3.8627      3.6522      3.5797      3.6519      3.8623    
  4.2020      4.6789      6.1753      7.6218      9.2836      10.991      12.500      13.548      13.925      13.548    
  12.500      10.991      9.2836      7.6219      6.1754      5.0148      4.1344      3.4931      3.0507      2.7870    
  2.6987      2.7870      3.0508      3.4931      4.1344      5.0148      7.6218      9.5832      11.735      13.809    
  15.477      16.413      16.413      15.477      13.809      11.736      9.5833      7.6219      6.0082      4.7749    
  3.8777      3.2515      2.8489      2.6495      2.6496      2.8490      3.2515      3.8776      4.7748      6.0081    
  9.2836      11.735      14.284      16.568      18.169      18.746      18.169      16.569      14.284      11.735    
  9.2836      7.1831      5.5431      4.3426      3.5011      2.9412      2.6163      2.5090      2.6163      2.9412    
  3.5011      4.3425      5.5430      7.1830      10.991      13.809      16.568      18.804      20.061      20.061    
  18.804      16.569      13.809      10.991      8.4548      6.4035      4.8742      3.7938      3.0626      2.6047    
  2.3819      2.3818      2.6046      3.0626      3.7940      4.8741      6.4033      8.4548      12.500      15.477    
  18.169      20.061      20.743      20.061      18.169      15.477      12.500      9.6722      7.2780      5.4377    
  4.1158      3.2082      2.6163      2.2782      2.1676      2.2782      2.6163      3.2083      4.1157      5.4376    
  7.2780      9.6723      13.548      16.413      18.746      20.061      20.061      18.745      16.413      13.548    
  10.643      8.0500      5.9730      4.4400      3.3681      2.6496      2.2035      1.9878      1.9878      2.2036    
  2.6496      3.3680      4.4399      5.9730      8.0500      10.643      13.925      16.413      18.169      18.804    
  18.169      16.413      13.925      11.184      8.5864      6.4005      4.7262      3.5243      2.6986      2.1594    
  1.8511      1.7501      1.8511      2.1594      2.6987      3.5244      4.7261      6.4005      8.5864      11.184    
  13.548      15.477      16.569      16.569      15.477      13.548      11.184      8.7789      6.6399      4.9261    
  3.6522      2.7516      2.1412      1.7588      1.5728      1.5727      1.7587      2.1412      2.7518      3.6522    
  4.9260      6.6399      8.7790      11.184      12.500      13.809      14.284      13.809      12.500      10.643    
  8.5864      6.6399      4.9981      3.7250      2.7932      2.1393      1.7049      1.4539      1.3713      1.4538    
  1.7049      2.1393      2.7932      3.7249      4.9981      6.6400      8.5864      10.643      10.991      11.736    
  11.735      10.991      9.6722      8.0500      6.4005      4.9261      3.7250      2.8089      2.1424      1.6793    
  1.3848      1.2406      1.2406      1.3848      1.6793      2.1424      2.8088      3.7249      4.9260      6.4005    
  8.0500      9.6724      9.2836      9.5833      9.2836      8.4548      7.2780      5.9730      4.7262      3.6522    
  2.7932      2.1424      1.6721      1.3541      1.1695      1.1087      1.1694      1.3541      1.6721      2.1424    
  2.7932      3.6522      4.7262      5.9729      7.2780      8.4548      7.6219      7.6219      7.1831      6.4035    
  5.4377      4.4400      3.5243      2.7516      2.1393      1.6793      1.3541      1.1472      1.0467      1.0467    
  1.1472      1.3541      1.6793      2.1394      2.7518      3.5244      4.4399      5.4375      6.4033      7.1830    
  6.1754      6.0082      5.5431      4.8742      4.1158      3.3681      2.6986      2.1412      1.7049      1.3848    
  1.1695      1.0467      1.0070      1.0467      1.1694      1.3847      1.7049      2.1412      2.6987      3.3682    
  4.1158      4.8741      5.5431      6.0082      5.0148      4.7749      4.3426      3.7938      3.2082      2.6496    
  2.1594      1.7588      1.4539      1.2406      1.1087      1.0467      1.0467      1.1087      1.2406      1.4538    
  1.7587      2.1593      2.6496      3.2084      3.7941      4.3427      4.7749      5.0148      4.1344      3.8777    
  3.5011      3.0626      2.6163      2.2035      1.8511      1.5728      1.3713      1.2406      1.1694      1.1472    
  1.1694      1.2406      1.3713      1.5728      1.8511      2.2035      2.6163      3.0626      3.5011      3.8777    
  4.1345      4.2258      3.4931      3.2515      2.9412      2.6047      2.2782      1.9878      1.7501      1.5727    
  1.4538      1.3848      1.3541      1.3541      1.3847      1.4538      1.5728      1.7503      1.9879      2.2782    
  2.6046      2.9410      3.2514      3.4931      3.6262      3.6262      3.0507      2.8489      2.6163      2.3819    
  2.1676      1.9878      1.8511      1.7587      1.7049      1.6793      1.6721      1.6793      1.7049      1.7587    
  1.8511      1.9879      2.1676      2.3819      2.6162      2.8489      3.0507      3.1896      3.2392      3.1896    
  2.7870      2.6495      2.5090      2.3818      2.2782      2.2036      2.1594      2.1412      2.1393      2.1424    
  2.1424      2.1394      2.1412      2.1593      2.2035      2.2782      2.3819      2.5091      2.6496      2.7870    
  2.8990      2.9624      2.9624      2.8990      2.6987      2.6496      2.6163      2.6046      2.6163      2.6496    
  2.6987      2.7518      2.7932      2.8088      2.7932      2.7518      2.6987      2.6496      2.6163      2.6046    
  2.6162      2.6496      2.6987      2.7518      2.7932      2.8089      2.7932      2.7518      2.7870      2.8490    
  2.9412      3.0626      3.2083      3.3680      3.5244      3.6522      3.7249      3.7249      3.6522      3.5244    
  3.3682      3.2084      3.0626      2.9410      2.8489      2.7870      2.7518      2.7358      2.7306      2.7306    
  2.7358      2.7517      3.0508      3.2515      3.5011      3.7940      4.1157      4.4399      4.7261      4.9260    
  4.9981      4.9260      4.7262      4.4399      4.1158      3.7941      3.5011      3.2514      3.0507      2.8990    
  2.7932      2.7306      2.7098      2.7306      2.7932      2.8990      3.4931      3.8776      4.3425      4.8741    
  5.4376      5.9730      6.4005      6.6399      6.6400      6.4005      5.9729      5.4375      4.8741      4.3427    
  3.8777      3.4931      3.1896      2.9624      2.8089      2.7306      2.7306      2.8089      2.9624      3.1896    
  4.1344      4.7748      5.5430      6.4033      7.2780      8.0500      8.5864      8.7790      8.5864      8.0500    
  7.2780      6.4033      5.5431      4.7749      4.1345      3.6262      3.2392      2.9624      2.7932      2.7358    
  2.7932      2.9624      3.2393      3.6262      5.0148      6.0081      7.1830      8.4548      9.6723      10.643    
  11.184      11.184      10.643      9.6724      8.4548      7.1830      6.0082      5.0148      4.2258      3.6262    
  3.1896      2.8990      2.7518      2.7517      2.8990      3.1896      3.6262      4.2259      6.3294      7.9313    
  9.7235      11.495      12.943      13.764      13.764      12.943      11.494      9.7232      7.9310      6.3293    
  5.0148      3.9949      3.2335      2.6894      2.3352      2.1593      2.1594      2.3354      2.6896      3.2333    
  3.9944      5.0145      7.9313      10.037      12.281      14.330      15.786      16.316      15.786      14.330    
  12.281      10.036      7.9311      6.1592      4.7750      3.7442      3.0034      2.4995      2.2035      2.1054    
  2.2036      2.4997      3.0033      3.7438      4.7746      6.1592      9.7235      12.281      14.833      16.939    
  18.141      18.141      16.939      14.833      12.281      9.7234      7.4785      5.6859      4.3426      3.3759    
  2.7059      2.2782      2.0679      2.0678      2.2782      2.7059      3.3758      4.3424      5.6858      7.4786    
  11.495      14.330      16.939      18.807      19.488      18.807      16.939      14.330      11.495      8.8592    
  6.6745      5.0047      3.7939      2.9464      2.3819      2.0546      1.9466      2.0545      2.3818      2.9463    
  3.7939      5.0048      6.6747      8.8593      12.943      15.786      18.141      19.488      19.488      18.141    
  15.786      12.943      10.108      7.6342      5.6782      4.2324      3.2083      2.5091      2.0679      1.8523    
  1.8523      2.0678      2.5090      3.2082      4.2325      5.6786      7.6344      10.108      13.764      16.316    
  18.141      18.807      18.141      16.316      13.764      10.990      8.4127      6.2776      4.6483      3.4704    
  2.6496      2.1056      1.7912      1.6876      1.7910      2.1054      2.6495      3.4706      4.6487      6.2779    
  8.4125      10.990      13.764      15.786      16.939      16.939      15.786      13.764      11.310      8.8524    
  6.6980      4.9816      3.7013      2.7869      2.1594      1.7625      1.5685      1.5684      1.7623      2.1593    
  2.7870      3.7016      4.9820      6.6982      8.8522      11.309      12.943      14.330      14.833      14.330    
  12.943      10.990      8.8524      6.8498      5.1687      3.8624      2.8990      2.2162      1.7588      1.4934    
  1.4061      1.4934      1.7586      2.2160      2.8990      3.8627      5.1692      6.8501      8.8522      10.990    
  11.494      12.281      12.281      11.495      10.108      8.4127      6.6980      5.1687      3.9204      2.9625    
  2.2596      1.7678      1.4539      1.3002      1.3003      1.4539      1.7676      2.2593      2.9624      3.9207    
  5.1691      6.6982      8.4125      10.108      9.7232      10.036      9.7234      8.8592      7.6342      6.2776    
  4.9816      3.8624      2.9625      2.2759      1.7763      1.4374      1.2406      1.1759      1.2406      1.4374    
  1.7762      2.2756      2.9624      3.8625      4.9819      6.2778      7.6342      8.8590      7.9310      7.9311    
  7.4785      6.6745      5.6782      4.6483      3.7013      2.8990      2.2596      1.7763      1.4333      1.2147    
  1.1087      1.1088      1.2148      1.4333      1.7762      2.2594      2.8989      3.7015      4.6486      5.6783    
  6.6744      7.4783      6.3293      6.1592      5.6859      5.0047      4.2324      3.4704      2.7869      2.2162    
  1.7678      1.4374      1.2147      1.0877      1.0467      1.0878      1.2148      1.4373      1.7676      2.2161    
  2.7870      3.4706      4.2325      5.0047      5.6857      6.1590      5.0148      4.7750      4.3426      3.7939    
  3.2083      2.6496      2.1594      1.7588      1.4539      1.2406      1.1087      1.0467      1.0467      1.1088    
  1.2406      1.4538      1.7587      2.1593      2.6496      3.2084      3.7940      4.3426      4.7749      5.0148    
  3.9949      3.7442      3.3759      2.9464      2.5091      2.1056      1.7625      1.4934      1.3002      1.1759    
  1.1088      1.0878      1.1088      1.1760      1.3003      1.4934      1.7624      2.1054      2.5091      2.9466    
  3.3761      3.7443      3.9949      4.0840      3.2335      3.0034      2.7059      2.3819      2.0679      1.7912    
  1.5685      1.4061      1.3003      1.2406      1.2148      1.2148      1.2406      1.3003      1.4061      1.5685    
  1.7911      2.0678      2.3819      2.7060      3.0035      3.2336      3.3596      3.3596      2.6894      2.4995    
  2.2782      2.0546      1.8523      1.6876      1.5684      1.4934      1.4539      1.4374      1.4333      1.4373    
  1.4538      1.4934      1.5685      1.6877      1.8523      2.0545      2.2782      2.4995      2.6894      2.8186    
  2.8644      2.8185      2.3352      2.2035      2.0679      1.9466      1.8523      1.7910      1.7623      1.7586    
  1.7676      1.7762      1.7762      1.7676      1.7587      1.7624      1.7911      1.8523      1.9465      2.0678    
  2.2035      2.3352      2.4409      2.5000      2.5000      2.4409      2.1593      2.1054      2.0678      2.0545    
  2.0678      2.1054      2.1593      2.2160      2.2593      2.2756      2.2594      2.2161      2.1593      2.1054    
  2.0678      2.0545      2.0678      2.1054      2.1593      2.2161      2.2594      2.2756      2.2594      2.2160    
  2.1594      2.2036      2.2782      2.3818      2.5090      2.6495      2.7870      2.8990      2.9624      2.9624    
  2.8989      2.7870      2.6496      2.5091      2.3819      2.2782      2.2035      2.1593      2.1412      2.1394    
  2.1424      2.1424      2.1393      2.1412      2.3354      2.4997      2.7059      2.9463      3.2082      3.4706    
  3.7016      3.8627      3.9207      3.8625      3.7015      3.4706      3.2084      2.9466      2.7060      2.4995    
  2.3352      2.2161      2.1394      2.0982      2.0854      2.0982      2.1394      2.2162      2.6896      3.0033    
  3.3758      3.7939      4.2325      4.6487      4.9820      5.1692      5.1691      4.9819      4.6486      4.2325    
  3.7940      3.3761      3.0035      2.6894      2.4409      2.2594      2.1424      2.0854      2.0854      2.1424    
  2.2596      2.4412      3.2333      3.7438      4.3424      5.0048      5.6786      6.2779      6.6982      6.8501    
  6.6982      6.2778      5.6783      5.0047      4.3426      3.7443      3.2336      2.8186      2.5000      2.2756    
  2.1424      2.0982      2.1424      2.2759      2.5003      2.8187      3.9944      4.7746      5.6858      6.6747    
  7.6344      8.4125      8.8522      8.8522      8.4125      7.6342      6.6744      5.6857      4.7749      3.9949    
  3.3596      2.8644      2.5000      2.2594      2.1393      2.1394      2.2596      2.5003      2.8645      3.3593    
  5.0145      6.1592      7.4786      8.8593      10.108      10.990      11.309      10.990      10.108      8.8590    
  7.4783      6.1590      5.0148      4.0840      3.3596      2.8185      2.4409      2.2160      2.1412      2.2162    
  2.4412      2.8187      3.3593      4.0835      6.8233      8.6036      10.512      12.271      13.530      13.989    
  13.530      12.271      10.512      8.6036      6.8233      5.3216      4.1345      3.2335      2.5735      2.1190    
  1.8511      1.7623      1.8511      2.1190      2.5735      3.2335      4.1345      5.3216      8.6036      10.854    
  13.127      15.018      16.101      16.101      15.018      13.127      10.854      8.6036      6.6410      5.0698    
  3.8777      3.0034      2.3863      1.9879      1.7911      1.7910      1.9878      2.3864      3.0035      3.8777    
  5.0698      6.6410      10.512      13.127      15.561      17.313      17.953      17.313      15.561      13.127    
  10.512      8.1128      6.1348      4.6168      3.5011      2.7059      2.1676      1.8523      1.7479      1.8523    
  2.1676      2.7059      3.5012      4.6168      6.1348      8.1128      12.271      15.018      17.313      18.631    
  18.631      17.313      15.018      12.272      9.5718      7.2433      5.4082      4.0432      3.0626      2.3819    
  1.9466      1.7323      1.7323      1.9466      2.3819      3.0626      4.0432      5.4083      7.2434      9.5718    
  13.530      16.101      17.953      18.631      17.953      16.101      13.530      10.772      8.2451      6.1700    
  4.5866      3.4321      2.6162      2.0679      1.7480      1.6422      1.7479      2.0678      2.6162      3.4320    
  4.5866      6.1700      8.2452      10.772      13.989      16.101      17.313      17.313      16.101      13.989    
  11.455      8.9538      6.7848      5.0646      3.7774      2.8488      2.2035      1.7911      1.5884      1.5884    
  1.7911      2.2035      2.8489      3.7774      5.0646      6.7848      8.9538      11.455      13.530      15.018    
  15.561      15.018      13.530      11.455      9.2109      7.1314      5.3972      4.0502      3.0508      2.3352    
  1.8511      1.5685      1.4753      1.5685      1.8511      2.3351      3.0508      4.0502      5.3972      7.1314    
  9.2109      11.455      12.271      13.127      13.127      12.272      10.772      8.9538      7.1314      5.5169    
  4.2020      3.1896      2.4409      1.9123      1.5727      1.4061      1.4061      1.5728      1.9123      2.4409    
  3.1896      4.2020      5.5169      7.1315      8.9538      10.772      10.512      10.854      10.512      9.5718    
  8.2451      6.7848      5.3972      4.2020      3.2393      2.5001      1.9578      1.5873      1.3713      1.3003    
  1.3713      1.5873      1.9578      2.5000      3.2392      4.2020      5.3972      6.7849      8.2452      9.5718    
  8.6036      8.6036      8.1128      7.2433      6.1700      5.0646      4.0502      3.1896      2.5001      1.9746    
  1.5987      1.3578      1.2406      1.2406      1.3578      1.5987      1.9746      2.5000      3.1896      4.0501    
  5.0646      6.1700      7.2434      8.1129      6.8233      6.6410      6.1348      5.4082      4.5866      3.7774    
  3.0508      2.4409      1.9578      1.5987      1.3547      1.2148      1.1695      1.2148      1.3547      1.5987    
  1.9578      2.4409      3.0507      3.7774      4.5866      5.4082      6.1348      6.6410      5.3216      5.0698    
  4.6168      4.0432      3.4321      2.8488      2.3352      1.9123      1.5873      1.3578      1.2148      1.1472    
  1.1472      1.2148      1.3578      1.5873      1.9123      2.3352      2.8489      3.4320      4.0432      4.6167    
  5.0697      5.3215      4.1345      3.8777      3.5011      3.0626      2.6162      2.2035      1.8511      1.5727    
  1.3713      1.2406      1.1695      1.1472      1.1695      1.2406      1.3713      1.5728      1.8511      2.2035    
  2.6162      3.0626      3.5011      3.8777      4.1345      4.2259      3.2335      3.0034      2.7059      2.3819    
  2.0679      1.7911      1.5685      1.4061      1.3003      1.2406      1.2148      1.2148      1.2406      1.3003    
  1.4061      1.5685      1.7911      2.0678      2.3819      2.7060      3.0035      3.2336      3.3596      3.3596    
  2.5735      2.3863      2.1676      1.9466      1.7480      1.5884      1.4753      1.4061      1.3713      1.3578    
  1.3547      1.3578      1.3713      1.4061      1.4753      1.5884      1.7479      1.9465      2.1676      2.3864    
  2.5735      2.7002      2.7450      2.7002      2.1190      1.9879      1.8523      1.7323      1.6422      1.5884    
  1.5685      1.5728      1.5873      1.5987      1.5987      1.5873      1.5728      1.5685      1.5884      1.6423    
  1.7323      1.8523      1.9879      2.1190      2.2232      2.2810      2.2810      2.2232      1.8511      1.7911    
  1.7479      1.7323      1.7479      1.7911      1.8511      1.9123      1.9578      1.9746      1.9578      1.9123    
  1.8511      1.7911      1.7479      1.7323      1.7479      1.7911      1.8511      1.9123      1.9578      1.9746    
  1.9578      1.9123      1.7623      1.7910      1.8523      1.9466      2.0678      2.2035      2.3351      2.4409    
  2.5000      2.5000      2.4409      2.3352      2.2035      2.0678      1.9465      1.8523      1.7911      1.7624    
  1.7587      1.7676      1.7762      1.7762      1.7676      1.7587      1.8511      1.9878      2.1676      2.3819    
  2.6162      2.8489      3.0508      3.1896      3.2392      3.1896      3.0507      2.8489      2.6162      2.3819    
  2.1676      1.9879      1.8511      1.7587      1.7049      1.6793      1.6721      1.6793      1.7049      1.7587    
  2.1190      2.3864      2.7059      3.0626      3.4320      3.7774      4.0502      4.2020      4.2020      4.0501    
  3.7774      3.4320      3.0626      2.7060      2.3864      2.1190      1.9123      1.7676      1.6793      1.6385    
  1.6385      1.6793      1.7676      1.9123      2.5735      3.0035      3.5012      4.0432      4.5866      5.0646    
  5.3972      5.5169      5.3972      5.0646      4.5866      4.0432      3.5011      3.0035      2.5735      2.2232    
  1.9578      1.7762      1.6721      1.6385      1.6721      1.7762      1.9578      2.2232      3.2335      3.8777    
  4.6168      5.4083      6.1700      6.7848      7.1314      7.1315      6.7849      6.1700      5.4082      4.6167    
  3.8777      3.2336      2.7002      2.2810      1.9746      1.7762      1.6793      1.6793      1.7762      1.9746    
  2.2810      2.7001      4.1345      5.0698      6.1348      7.2434      8.2452      8.9538      9.2109      8.9538    
  8.2452      7.2434      6.1348      5.0697      4.1345      3.3596      2.7450      2.2810      1.9578      1.7676    
  1.7049      1.7676      1.9578      2.2810      2.7450      3.3595      5.3216      6.6410      8.1128      9.5718    
  10.772      11.455      11.455      10.772      9.5718      8.1129      6.6410      5.3215      4.2259      3.3596    
  2.7002      2.2232      1.9123      1.7587      1.7587      1.9123      2.2232      2.7001      3.3595      4.2259    
  7.7440      9.7395      11.749      13.419      14.376      14.376      13.419      11.749      9.7399      7.7443    
  5.9932      4.5783      3.4931      2.6894      2.1190      1.7504      1.5685      1.5684      1.7501      2.1188    
  2.6895      3.4935      4.5787      5.9933      9.7395      12.140      14.376      15.988      16.578      15.988    
  14.376      12.140      9.7399      7.5343      5.7088      4.2978      3.2515      2.4995      1.9879      1.6878    
  1.5884      1.6876      1.9877      2.4996      3.2518      4.2982      5.7091      7.5342      11.749      14.376    
  16.578      17.845      17.845      16.578      14.376      11.749      9.1736      6.9537      5.2005      3.8896    
  2.9412      2.2782      1.8523      1.6422      1.6422      1.8522      2.2782      2.9412      3.8899      5.2007    
  6.9537      9.1733      13.419      15.988      17.845      18.527      17.845      15.988      13.419      10.676    
  8.1754      6.1266      4.5628      3.4183      2.6047      2.0545      1.7323      1.6256      1.7323      2.0545    
  2.6047      3.4183      4.5628      6.1266      8.1754      10.676      14.376      16.578      17.845      17.845    
  16.578      14.376      11.749      9.1733      6.9537      5.2007      3.8899      2.9412      2.2782      1.8522    
  1.6422      1.6422      1.8523      2.2782      2.9412      3.8896      5.2005      6.9537      9.1736      11.749    
  14.376      15.988      16.578      15.988      14.376      12.140      9.7395      7.5342      5.7091      4.2982    
  3.2518      2.4996      1.9877      1.6876      1.5884      1.6878      1.9879      2.4995      3.2515      4.2978    
  5.7088      7.5343      9.7399      12.140      13.419      14.376      14.376      13.419      11.749      9.7395    
  7.7440      5.9933      4.5787      3.4935      2.6895      2.1188      1.7501      1.5684      1.5685      1.7504    
  2.1190      2.6894      3.4931      4.5783      5.9932      7.7443      9.7399      11.749      11.749      12.140    
  11.749      10.676      9.1733      7.5342      5.9933      4.6790      3.6266      2.8186      2.2230      1.8131    
  1.5727      1.4934      1.5728      1.8133      2.2232      2.8186      3.6262      4.6786      5.9932      7.5345    
  9.1737      10.676      9.7399      9.7399      9.1736      8.1754      6.9537      5.7091      4.5787      3.6266    
  2.8645      2.2808      1.8595      1.5872      1.4539      1.4539      1.5873      1.8597      2.2810      2.8644    
  3.6262      4.5783      5.7090      6.9540      8.1757      9.1737      7.7443      7.5343      6.9537      6.1266    
  5.2007      4.2982      3.4935      2.8186      2.2808      1.8766      1.5986      1.4374      1.3848      1.4374    
  1.5987      1.8768      2.2810      2.8186      3.4931      4.2979      5.2007      6.1268      6.9540      7.5345    
  5.9932      5.7088      5.2005      4.5628      3.8899      3.2518      2.6895      2.2230      1.8595      1.5986    
  1.4333      1.3542      1.3541      1.4333      1.5987      1.8598      2.2232      2.6895      3.2514      3.8896    
  4.5628      5.2007      5.7090      5.9932      4.5783      4.2978      3.8896      3.4183      2.9412      2.4996    
  2.1188      1.8131      1.5872      1.4374      1.3542      1.3278      1.3541      1.4374      1.5873      1.8133    
  2.1190      2.4995      2.9410      3.4181      3.8896      4.2979      4.5783      4.6786      3.4931      3.2515    
  2.9412      2.6047      2.2782      1.9877      1.7501      1.5727      1.4539      1.3848      1.3541      1.3541    
  1.3848      1.4538      1.5727      1.7503      1.9879      2.2781      2.6046      2.9410      3.2514      3.4931    
  3.6262      3.6262      2.6894      2.4995      2.2782      2.0545      1.8522      1.6876      1.5684      1.4934    
  1.4539      1.4374      1.4333      1.4374      1.4538      1.4934      1.5685      1.6877      1.8523      2.0545    
  2.2781      2.4995      2.6895      2.8186      2.8644      2.8186      2.1190      1.9879      1.8523      1.7323    
  1.6422      1.5884      1.5685      1.5728      1.5873      1.5987      1.5987      1.5873      1.5727      1.5685    
  1.5884      1.6423      1.7323      1.8523      1.9879      2.1190      2.2232      2.2810      2.2810      2.2232    
  1.7504      1.6878      1.6422      1.6256      1.6422      1.6878      1.7504      1.8133      1.8597      1.8768    
  1.8598      1.8133      1.7503      1.6877      1.6423      1.6257      1.6423      1.6877      1.7503      1.8133    
  1.8598      1.8768      1.8597      1.8133      1.5685      1.5884      1.6422      1.7323      1.8523      1.9879    
  2.1190      2.2232      2.2810      2.2810      2.2232      2.1190      1.9879      1.8523      1.7323      1.6423    
  1.5884      1.5685      1.5727      1.5873      1.5987      1.5987      1.5873      1.5728      1.5684      1.6876    
  1.8522      2.0545      2.2782      2.4995      2.6894      2.8186      2.8644      2.8186      2.6895      2.4995    
  2.2781      2.0545      1.8523      1.6877      1.5685      1.4934      1.4538      1.4374      1.4333      1.4374    
  1.4539      1.4934      1.7501      1.9877      2.2782      2.6047      2.9412      3.2515      3.4931      3.6262    
  3.6262      3.4931      3.2514      2.9410      2.6046      2.2781      1.9879      1.7503      1.5727      1.4538    
  1.3848      1.3541      1.3541      1.3848      1.4539      1.5727      2.1188      2.4996      2.9412      3.4183    
  3.8896      4.2978      4.5783      4.6786      4.5783      4.2979      3.8896      3.4181      2.9410      2.4995    
  2.1190      1.8133      1.5873      1.4374      1.3541      1.3278      1.3542      1.4374      1.5872      1.8131    
  2.6895      3.2518      3.8899      4.5628      5.2005      5.7088      5.9932      5.9932      5.7090      5.2007    
  4.5628      3.8896      3.2514      2.6895      2.2232      1.8598      1.5987      1.4333      1.3541      1.3542    
  1.4333      1.5986      1.8595      2.2230      3.4935      4.2982      5.2007      6.1266      6.9537      7.5343    
  7.7443      7.5345      6.9540      6.1268      5.2007      4.2979      3.4931      2.8186      2.2810      1.8768    
  1.5987      1.4374      1.3848      1.4374      1.5986      1.8766      2.2808      2.8186      4.5787      5.7091    
  6.9537      8.1754      9.1736      9.7399      9.7399      9.1737      8.1757      6.9540      5.7090      4.5783    
  3.6262      2.8644      2.2810      1.8597      1.5873      1.4539      1.4539      1.5872      1.8595      2.2808    
  2.8645      3.6266      5.9933      7.5342      9.1733      10.676      11.749      12.140      11.749      10.676    
  9.1737      7.5345      5.9932      4.6786      3.6262      2.8186      2.2232      1.8133      1.5728      1.4934    
  1.5727      1.8131      2.2230      2.8186      3.6266      4.6790      9.2109      11.455      13.530      15.018    
  15.561      15.018      13.530      11.455      9.2109      7.1314      5.3972      4.0502      3.0508      2.3351    
  1.8511      1.5685      1.4753      1.5685      1.8511      2.3352      3.0508      4.0502      5.3972      7.1314    
  11.455      13.989      16.101      17.313      17.313      16.101      13.989      11.455      8.9538      6.7848    
  5.0646      3.7774      2.8489      2.2035      1.7911      1.5884      1.5884      1.7911      2.2035      2.8488    
  3.7774      5.0646      6.7848      8.9538      13.530      16.101      17.953      18.631      17.953      16.101    
  13.530      10.772      8.2452      6.1700      4.5866      3.4320      2.6162      2.0678      1.7479      1.6422    
  1.7480      2.0679      2.6162      3.4321      4.5866      6.1700      8.2451      10.772      15.018      17.313    
  18.631      18.631      17.313      15.018      12.271      9.5718      7.2434      5.4083      4.0432      3.0626    
  2.3819      1.9466      1.7323      1.7323      1.9466      2.3819      3.0626      4.0432      5.4082      7.2433    
  9.5718      12.272      15.561      17.313      17.953      17.313      15.561      13.127      10.512      8.1128    
  6.1348      4.6168      3.5012      2.7059      2.1676      1.8523      1.7479      1.8523      2.1676      2.7059    
  3.5011      4.6168      6.1348      8.1128      10.512      13.127      15.018      16.101      16.101      15.018    
  13.127      10.854      8.6036      6.6410      5.0698      3.8777      3.0035      2.3864      1.9878      1.7910    
  1.7911      1.9879      2.3863      3.0034      3.8777      5.0698      6.6410      8.6036      10.854      13.127    
  13.530      13.989      13.530      12.271      10.512      8.6036      6.8233      5.3216      4.1345      3.2335    
  2.5735      2.1190      1.8511      1.7623      1.8511      2.1190      2.5735      3.2335      4.1345      5.3216    
  6.8233      8.6036      10.512      12.271      11.455      11.455      10.772      9.5718      8.1128      6.6410    
  5.3216      4.2259      3.3595      2.7001      2.2232      1.9123      1.7587      1.7587      1.9123      2.2232    
  2.7002      3.3596      4.2259      5.3215      6.6410      8.1129      9.5718      10.772      9.2109      8.9538    
  8.2452      7.2434      6.1348      5.0698      4.1345      3.3595      2.7450      2.2810      1.9578      1.7676    
  1.7049      1.7676      1.9578      2.2810      2.7450      3.3596      4.1345      5.0697      6.1348      7.2434    
  8.2452      8.9538      7.1314      6.7848      6.1700      5.4083      4.6168      3.8777      3.2335      2.7001    
  2.2810      1.9746      1.7762      1.6793      1.6793      1.7762      1.9746      2.2810      2.7002      3.2336    
  3.8777      4.6167      5.4082      6.1700      6.7849      7.1315      5.3972      5.0646      4.5866      4.0432    
  3.5012      3.0035      2.5735      2.2232      1.9578      1.7762      1.6721      1.6385      1.6721      1.7762    
  1.9578      2.2232      2.5735      3.0035      3.5011      4.0432      4.5866      5.0646      5.3972      5.5169    
  4.0502      3.7774      3.4320      3.0626      2.7059      2.3864      2.1190      1.9123      1.7676      1.6793    
  1.6385      1.6385      1.6793      1.7676      1.9123      2.1190      2.3864      2.7060      3.0626      3.4320    
  3.7774      4.0501      4.2020      4.2020      3.0508      2.8489      2.6162      2.3819      2.1676      1.9878    
  1.8511      1.7587      1.7049      1.6793      1.6721      1.6793      1.7049      1.7587      1.8511      1.9879    
  2.1676      2.3819      2.6162      2.8489      3.0507      3.1896      3.2392      3.1896      2.3351      2.2035    
  2.0678      1.9466      1.8523      1.7910      1.7623      1.7587      1.7676      1.7762      1.7762      1.7676    
  1.7587      1.7624      1.7911      1.8523      1.9465      2.0678      2.2035      2.3352      2.4409      2.5000    
  2.5000      2.4409      1.8511      1.7911      1.7479      1.7323      1.7479      1.7911      1.8511      1.9123    
  1.9578      1.9746      1.9578      1.9123      1.8511      1.7911      1.7479      1.7323      1.7479      1.7911    
  1.8511      1.9123      1.9578      1.9746      1.9578      1.9123      1.5685      1.5884      1.6422      1.7323    
  1.8523      1.9879      2.1190      2.2232      2.2810      2.2810      2.2232      2.1190      1.9879      1.8523    
  1.7323      1.6423      1.5884      1.5685      1.5728      1.5873      1.5987      1.5987      1.5873      1.5728    
  1.4753      1.5884      1.7480      1.9466      2.1676      2.3863      2.5735      2.7002      2.7450      2.7002    
  2.5735      2.3864      2.1676      1.9465      1.7479      1.5884      1.4753      1.4061      1.3713      1.3578    
  1.3547      1.3578      1.3713      1.4061      1.5685      1.7911      2.0679      2.3819      2.7059      3.0034    
  3.2335      3.3596      3.3596      3.2336      3.0035      2.7060      2.3819      2.0678      1.7911      1.5685    
  1.4061      1.3003      1.2406      1.2148      1.2148      1.2406      1.3003      1.4061      1.8511      2.2035    
  2.6162      3.0626      3.5011      3.8777      4.1345      4.2259      4.1345      3.8777      3.5011      3.0626    
  2.6162      2.2035      1.8511      1.5728      1.3713      1.2406      1.1695      1.1472      1.1695      1.2406    
  1.3713      1.5727      2.3352      2.8488      3.4321      4.0432      4.6168      5.0698      5.3216      5.3215    
  5.0697      4.6167      4.0432      3.4320      2.8489      2.3352      1.9123      1.5873      1.3578      1.2148    
  1.1472      1.1472      1.2148      1.3578      1.5873      1.9123      3.0508      3.7774      4.5866      5.4082    
  6.1348      6.6410      6.8233      6.6410      6.1348      5.4082      4.5866      3.7774      3.0507      2.4409    
  1.9578      1.5987      1.3547      1.2148      1.1695      1.2148      1.3547      1.5987      1.9578      2.4409    
  4.0502      5.0646      6.1700      7.2433      8.1128      8.6036      8.6036      8.1129      7.2434      6.1700    
  5.0646      4.0501      3.1896      2.5000      1.9746      1.5987      1.3578      1.2406      1.2406      1.3578    
  1.5987      1.9746      2.5001      3.1896      5.3972      6.7848      8.2451      9.5718      10.512      10.854    
  10.512      9.5718      8.2452      6.7849      5.3972      4.2020      3.2392      2.5000      1.9578      1.5873    
  1.3713      1.3003      1.3713      1.5873      1.9578      2.5001      3.2393      4.2020      7.1314      8.9538    
  10.772      12.272      13.127      13.127      12.271      10.772      8.9538      7.1315      5.5169      4.2020    
  3.1896      2.4409      1.9123      1.5728      1.4061      1.4061      1.5727      1.9123      2.4409      3.1896    
  4.2020      5.5169      11.310      13.764      15.786      16.939      16.939      15.786      13.764      11.309    
  8.8522      6.6982      4.9820      3.7016      2.7870      2.1593      1.7623      1.5684      1.5685      1.7625    
  2.1594      2.7869      3.7013      4.9816      6.6980      8.8524      13.764      16.316      18.141      18.807    
  18.141      16.316      13.764      10.990      8.4125      6.2779      4.6487      3.4706      2.6495      2.1054    
  1.7910      1.6876      1.7912      2.1056      2.6496      3.4704      4.6483      6.2776      8.4127      10.990    
  15.786      18.141      19.488      19.488      18.141      15.786      12.943      10.108      7.6344      5.6786    
  4.2325      3.2082      2.5090      2.0678      1.8523      1.8523      2.0679      2.5091      3.2083      4.2324    
  5.6782      7.6342      10.108      12.943      16.939      18.807      19.488      18.807      16.939      14.330    
  11.495      8.8593      6.6747      5.0048      3.7939      2.9463      2.3818      2.0545      1.9466      2.0546    
  2.3819      2.9464      3.7939      5.0047      6.6745      8.8592      11.495      14.330      16.939      18.141    
  18.141      16.939      14.833      12.281      9.7235      7.4786      5.6858      4.3424      3.3758      2.7059    
  2.2782      2.0678      2.0679      2.2782      2.7059      3.3759      4.3426      5.6859      7.4785      9.7234    
  12.281      14.833      15.786      16.316      15.786      14.330      12.281      10.037      7.9313      6.1592    
  4.7746      3.7438      3.0033      2.4997      2.2036      2.1054      2.2035      2.4995      3.0034      3.7442    
  4.7750      6.1592      7.9311      10.036      12.281      14.330      13.764      13.764      12.943      11.495    
  9.7235      7.9313      6.3294      5.0145      3.9944      3.2333      2.6896      2.3354      2.1594      2.1593    
  2.3352      2.6894      3.2335      3.9949      5.0148      6.3293      7.9310      9.7232      11.494      12.943    
  11.309      10.990      10.108      8.8593      7.4786      6.1592      5.0145      4.0835      3.3593      2.8187    
  2.4412      2.2162      2.1412      2.2160      2.4409      2.8185      3.3596      4.0840      5.0148      6.1590    
  7.4783      8.8590      10.108      10.990      8.8522      8.4125      7.6344      6.6747      5.6858      4.7746    
  3.9944      3.3593      2.8645      2.5003      2.2596      2.1394      2.1393      2.2594      2.5000      2.8644    
  3.3596      3.9949      4.7749      5.6857      6.6744      7.6342      8.4125      8.8522      6.6982      6.2779    
  5.6786      5.0048      4.3424      3.7438      3.2333      2.8187      2.5003      2.2759      2.1424      2.0982    
  2.1424      2.2756      2.5000      2.8186      3.2336      3.7443      4.3426      5.0047      5.6783      6.2778    
  6.6982      6.8501      4.9820      4.6487      4.2325      3.7939      3.3758      3.0033      2.6896      2.4412    
  2.2596      2.1424      2.0854      2.0854      2.1424      2.2594      2.4409      2.6894      3.0035      3.3761    
  3.7940      4.2325      4.6486      4.9819      5.1691      5.1692      3.7016      3.4706      3.2082      2.9463    
  2.7059      2.4997      2.3354      2.2162      2.1394      2.0982      2.0854      2.0982      2.1394      2.2161    
  2.3352      2.4995      2.7060      2.9466      3.2084      3.4706      3.7015      3.8625      3.9207      3.8627    
  2.7870      2.6495      2.5090      2.3818      2.2782      2.2036      2.1594      2.1412      2.1393      2.1424    
  2.1424      2.1394      2.1412      2.1593      2.2035      2.2782      2.3819      2.5091      2.6496      2.7870    
  2.8989      2.9624      2.9624      2.8990      2.1593      2.1054      2.0678      2.0545      2.0678      2.1054    
  2.1593      2.2160      2.2594      2.2756      2.2594      2.2161      2.1593      2.1054      2.0678      2.0545    
  2.0678      2.1054      2.1593      2.2161      2.2594      2.2756      2.2593      2.2160      1.7623      1.7910    
  1.8523      1.9466      2.0679      2.2035      2.3352      2.4409      2.5000      2.5000      2.4409      2.3352    
  2.2035      2.0678      1.9465      1.8523      1.7911      1.7624      1.7587      1.7676      1.7762      1.7762    
  1.7676      1.7586      1.5684      1.6876      1.8523      2.0546      2.2782      2.4995      2.6894      2.8185    
  2.8644      2.8186      2.6894      2.4995      2.2782      2.0545      1.8523      1.6877      1.5685      1.4934    
  1.4538      1.4373      1.4333      1.4374      1.4539      1.4934      1.5685      1.7912      2.0679      2.3819    
  2.7059      3.0034      3.2335      3.3596      3.3596      3.2336      3.0035      2.7060      2.3819      2.0678    
  1.7911      1.5685      1.4061      1.3003      1.2406      1.2148      1.2148      1.2406      1.3003      1.4061    
  1.7625      2.1056      2.5091      2.9464      3.3759      3.7442      3.9949      4.0840      3.9949      3.7443    
  3.3761      2.9466      2.5091      2.1054      1.7624      1.4934      1.3003      1.1760      1.1088      1.0878    
  1.1088      1.1759      1.3002      1.4934      2.1594      2.6496      3.2083      3.7939      4.3426      4.7750    
  5.0148      5.0148      4.7749      4.3426      3.7940      3.2084      2.6496      2.1593      1.7587      1.4538    
  1.2406      1.1088      1.0467      1.0467      1.1087      1.2406      1.4539      1.7588      2.7869      3.4704    
  4.2324      5.0047      5.6859      6.1592      6.3293      6.1590      5.6857      5.0047      4.2325      3.4706    
  2.7870      2.2161      1.7676      1.4373      1.2148      1.0878      1.0467      1.0877      1.2147      1.4374    
  1.7678      2.2162      3.7013      4.6483      5.6782      6.6745      7.4785      7.9311      7.9310      7.4783    
  6.6744      5.6783      4.6486      3.7015      2.8989      2.2594      1.7762      1.4333      1.2148      1.1088    
  1.1087      1.2147      1.4333      1.7763      2.2596      2.8990      4.9816      6.2776      7.6342      8.8592    
  9.7234      10.036      9.7232      8.8590      7.6342      6.2778      4.9819      3.8625      2.9624      2.2756    
  1.7762      1.4374      1.2406      1.1759      1.2406      1.4374      1.7763      2.2759      2.9625      3.8624    
  6.6980      8.4127      10.108      11.495      12.281      12.281      11.494      10.108      8.4125      6.6982    
  5.1691      3.9207      2.9624      2.2593      1.7676      1.4539      1.3003      1.3002      1.4539      1.7678    
  2.2596      2.9625      3.9204      5.1687      8.8524      10.990      12.943      14.330      14.833      14.330    
  12.943      10.990      8.8522      6.8501      5.1692      3.8627      2.8990      2.2160      1.7586      1.4934    
  1.4061      1.4934      1.7588      2.2162      2.8990      3.8624      5.1687      6.8498      13.925      16.413    
  18.169      18.804      18.169      16.413      13.925      11.184      8.5864      6.4005      4.7261      3.5244    
  2.6987      2.1594      1.8511      1.7501      1.8511      2.1594      2.6986      3.5243      4.7262      6.4005    
  8.5864      11.184      16.413      18.745      20.061      20.061      18.746      16.413      13.548      10.643    
  8.0500      5.9730      4.4399      3.3680      2.6496      2.2036      1.9878      1.9878      2.2035      2.6496    
  3.3681      4.4400      5.9730      8.0500      10.643      13.548      18.169      20.061      20.743      20.061    
  18.169      15.477      12.500      9.6723      7.2780      5.4376      4.1157      3.2083      2.6163      2.2782    
  2.1676      2.2782      2.6163      3.2082      4.1158      5.4377      7.2780      9.6722      12.500      15.477    
  18.804      20.061      20.061      18.804      16.568      13.809      10.991      8.4548      6.4033      4.8741    
  3.7940      3.0626      2.6046      2.3818      2.3819      2.6047      3.0626      3.7938      4.8742      6.4035    
  8.4548      10.991      13.809      16.569      18.169      18.746      18.169      16.568      14.284      11.735    
  9.2836      7.1830      5.5430      4.3425      3.5011      2.9412      2.6163      2.5090      2.6163      2.9412    
  3.5011      4.3426      5.5431      7.1831      9.2836      11.735      14.284      16.569      16.413      16.413    
  15.477      13.809      11.735      9.5832      7.6218      6.0081      4.7748      3.8776      3.2515      2.8490    
  2.6496      2.6495      2.8489      3.2515      3.8777      4.7749      6.0082      7.6219      9.5833      11.736    
  13.809      15.477      13.925      13.548      12.500      10.991      9.2836      7.6218      6.1753      5.0148    
  4.1344      3.4931      3.0508      2.7870      2.6987      2.7870      3.0507      3.4931      4.1344      5.0148    
  6.1754      7.6219      9.2836      10.991      12.500      13.548      11.184      10.643      9.6723      8.4548    
  7.1830      6.0081      5.0148      4.2259      3.6262      3.1896      2.8990      2.7517      2.7518      2.8990    
  3.1896      3.6262      4.2258      5.0148      6.0082      7.1830      8.4548      9.6724      10.643      11.184    
  8.5864      8.0500      7.2780      6.4033      5.5430      4.7748      4.1344      3.6262      3.2393      2.9624    
  2.7932      2.7358      2.7932      2.9624      3.2392      3.6262      4.1345      4.7749      5.5431      6.4033    
  7.2780      8.0500      8.5864      8.7790      6.4005      5.9730      5.4376      4.8741      4.3425      3.8776    
  3.4931      3.1896      2.9624      2.8089      2.7306      2.7306      2.8089      2.9624      3.1896      3.4931    
  3.8777      4.3427      4.8741      5.4375      5.9729      6.4005      6.6400      6.6399      4.7261      4.4399    
  4.1157      3.7940      3.5011      3.2515      3.0508      2.8990      2.7932      2.7306      2.7098      2.7306    
  2.7932      2.8990      3.0507      3.2514      3.5011      3.7941      4.1158      4.4399      4.7262      4.9260    
  4.9981      4.9260      3.5244      3.3680      3.2083      3.0626      2.9412      2.8490      2.7870      2.7517    
  2.7358      2.7306      2.7306      2.7358      2.7518      2.7870      2.8489      2.9410      3.0626      3.2084    
  3.3682      3.5244      3.6522      3.7249      3.7249      3.6522      2.6987      2.6496      2.6163      2.6046    
  2.6163      2.6496      2.6987      2.7518      2.7932      2.8089      2.7932      2.7518      2.6987      2.6496    
  2.6162      2.6046      2.6163      2.6496      2.6987      2.7518      2.7932      2.8088      2.7932      2.7518    
  2.1594      2.2036      2.2782      2.3818      2.5090      2.6495      2.7870      2.8990      2.9624      2.9624    
  2.8990      2.7870      2.6496      2.5091      2.3819      2.2782      2.2035      2.1593      2.1412      2.1394    
  2.1424      2.1424      2.1393      2.1412      1.8511      1.9878      2.1676      2.3819      2.6163      2.8489    
  3.0507      3.1896      3.2392      3.1896      3.0507      2.8489      2.6162      2.3819      2.1676      1.9879    
  1.8511      1.7587      1.7049      1.6793      1.6721      1.6793      1.7049      1.7587      1.7501      1.9878    
  2.2782      2.6047      2.9412      3.2515      3.4931      3.6262      3.6262      3.4931      3.2514      2.9410    
  2.6046      2.2782      1.9879      1.7503      1.5728      1.4538      1.3847      1.3541      1.3541      1.3848    
  1.4538      1.5727      1.8511      2.2035      2.6163      3.0626      3.5011      3.8777      4.1344      4.2258    
  4.1345      3.8777      3.5011      3.0626      2.6163      2.2035      1.8511      1.5728      1.3713      1.2406    
  1.1694      1.1472      1.1694      1.2406      1.3713      1.5728      2.1594      2.6496      3.2082      3.7938    
  4.3426      4.7749      5.0148      5.0148      4.7749      4.3427      3.7941      3.2084      2.6496      2.1593    
  1.7587      1.4538      1.2406      1.1087      1.0467      1.0467      1.1087      1.2406      1.4539      1.7588    
  2.6986      3.3681      4.1158      4.8742      5.5431      6.0082      6.1754      6.0082      5.5431      4.8741    
  4.1158      3.3682      2.6987      2.1412      1.7049      1.3847      1.1694      1.0467      1.0070      1.0467    
  1.1695      1.3848      1.7049      2.1412      3.5243      4.4400      5.4377      6.4035      7.1831      7.6219    
  7.6219      7.1830      6.4033      5.4375      4.4399      3.5244      2.7518      2.1394      1.6793      1.3541    
  1.1472      1.0467      1.0467      1.1472      1.3541      1.6793      2.1393      2.7516      4.7262      5.9730    
  7.2780      8.4548      9.2836      9.5833      9.2836      8.4548      7.2780      5.9729      4.7262      3.6522    
  2.7932      2.1424      1.6721      1.3541      1.1694      1.1087      1.1695      1.3541      1.6721      2.1424    
  2.7932      3.6522      6.4005      8.0500      9.6722      10.991      11.735      11.736      10.991      9.6724    
  8.0500      6.4005      4.9260      3.7249      2.8088      2.1424      1.6793      1.3848      1.2406      1.2406    
  1.3848      1.6793      2.1424      2.8089      3.7250      4.9261      8.5864      10.643      12.500      13.809    
  14.284      13.809      12.500      10.643      8.5864      6.6400      4.9981      3.7249      2.7932      2.1393    
  1.7049      1.4538      1.3713      1.4539      1.7049      2.1393      2.7932      3.7250      4.9981      6.6399    
  11.184      13.548      15.477      16.569      16.569      15.477      13.548      11.184      8.7790      6.6399    
  4.9260      3.6522      2.7518      2.1412      1.7587      1.5727      1.5728      1.7588      2.1412      2.7516    
  3.6522      4.9261      6.6399      8.7789      16.672      18.833      20.015      20.015      18.834      16.673    
  13.916      11.033      8.3996      6.2414      4.6381      3.5242      2.7871      2.3355      2.1190      2.1188    
  2.3352      2.7869      3.5243      4.6383      6.2416      8.3997      11.033      13.916      18.833      20.549    
  21.149      20.549      18.834      16.275      13.308      10.397      7.8590      5.8693      4.4398      3.4704    
  2.8490      2.4996      2.3863      2.4995      2.8489      3.4703      4.4399      5.8697      7.8595      10.397    
  13.308      16.274      20.015      21.149      21.149      20.015      17.901      15.141      12.190      9.4468    
  7.1590      5.4374      4.2325      3.4323      2.9412      2.7058      2.7059      2.9412      3.4320      4.2323    
  5.4376      7.1597      9.4471      12.189      15.141      17.901      20.015      20.549      20.015      18.480    
  16.167      13.449      10.734      8.3224      6.4031      5.0046      4.0434      3.4185      3.0626      2.9463    
  3.0625      3.4183      4.0432      5.0047      6.4035      8.3227      10.734      13.448      16.167      18.480    
  18.834      18.834      17.901      16.167      13.903      11.458      9.1414      7.1829      5.6858      4.6169    
  3.8899      3.4323      3.2082      3.2081      3.4321      3.8897      4.6168      5.6858      7.1831      9.1416    
  11.458      13.903      16.167      17.901      16.673      16.275      15.141      13.449      11.458      9.4373    
  7.6216      6.1593      5.0701      4.2981      3.7774      3.4704      3.3680      3.4705      3.7774      4.2978    
  5.0698      6.1592      7.6219      9.4378      11.459      13.449      15.141      16.275      13.916      13.308    
  12.190      10.734      9.1414      7.6216      6.3294      5.3220      4.5787      4.0502      3.7013      3.5241    
  3.5243      3.7016      4.0502      4.5783      5.3215      6.3293      7.6219      9.1418      10.734      12.190    
  13.308      13.916      11.033      10.397      9.4468      8.3224      7.1829      6.1593      5.3220      4.6789    
  4.2020      3.8623      3.6519      3.5797      3.6522      3.8627      4.2021      4.6786      5.3215      6.1591    
  7.1830      8.3227      9.4471      10.397      11.033      11.258      8.3996      7.8590      7.1590      6.4031    
  5.6858      5.0701      4.5787      4.2020      3.9204      3.7246      3.6214      3.6216      3.7250      3.9207    
  4.2020      4.5783      5.0697      5.6857      6.4033      7.1593      7.8591      8.3996      8.6943      8.6943    
  6.2414      5.8693      5.4374      5.0046      4.6169      4.2981      4.0502      3.8623      3.7246      3.6369    
  3.6064      3.6371      3.7249      3.8626      4.0501      4.2978      4.6167      5.0047      5.4375      5.8693    
  6.2413      6.4944      6.5843      6.4945      4.6381      4.4398      4.2325      4.0434      3.8899      3.7774    
  3.7013      3.6519      3.6214      3.6064      3.6064      3.6216      3.6522      3.7015      3.7773      3.8896    
  4.0432      4.2325      4.4399      4.6382      4.7956      4.8832      4.8831      4.7955      3.5242      3.4704    
  3.4323      3.4185      3.4323      3.4704      3.5241      3.5797      3.6216      3.6371      3.6216      3.5799    
  3.5245      3.4706      3.4320      3.4181      3.4321      3.4706      3.5244      3.5799      3.6216      3.6371    
  3.6215      3.5797      2.7871      2.8490      2.9412      3.0626      3.2082      3.3680      3.5243      3.6522    
  3.7250      3.7249      3.6522      3.5245      3.3682      3.2084      3.0626      2.9410      2.8489      2.7870    
  2.7518      2.7358      2.7306      2.7306      2.7358      2.7518      2.3355      2.4996      2.7058      2.9463    
  3.2081      3.4705      3.7016      3.8627      3.9207      3.8626      3.7015      3.4706      3.2084      2.9466    
  2.7060      2.4995      2.3352      2.2161      2.1394      2.0983      2.0855      2.0982      2.1395      2.2163    
  2.1190      2.3863      2.7059      3.0625      3.4321      3.7774      4.0502      4.2021      4.2020      4.0501    
  3.7773      3.4320      3.0626      2.7060      2.3864      2.1190      1.9123      1.7676      1.6793      1.6385    
  1.6385      1.6793      1.7676      1.9123      2.1188      2.4995      2.9412      3.4183      3.8897      4.2978    
  4.5783      4.6786      4.5783      4.2978      3.8896      3.4181      2.9410      2.4995      2.1190      1.8133    
  1.5873      1.4373      1.3541      1.3278      1.3542      1.4374      1.5872      1.8131      2.3352      2.8489    
  3.4320      4.0432      4.6168      5.0698      5.3215      5.3215      5.0697      4.6167      4.0432      3.4321    
  2.8489      2.3352      1.9123      1.5873      1.3578      1.2148      1.1472      1.1472      1.2148      1.3578    
  1.5873      1.9123      2.7869      3.4703      4.2323      5.0047      5.6858      6.1592      6.3293      6.1591    
  5.6857      5.0047      4.2325      3.4706      2.7870      2.2161      1.7676      1.4373      1.2148      1.0878    
  1.0467      1.0878      1.2148      1.4375      1.7678      2.2162      3.5243      4.4399      5.4376      6.4035    
  7.1831      7.6219      7.6219      7.1830      6.4033      5.4375      4.4399      3.5244      2.7518      2.1394    
  1.6793      1.3541      1.1472      1.0467      1.0467      1.1472      1.3542      1.6793      2.1393      2.7516    
  4.6383      5.8697      7.1597      8.3227      9.1416      9.4378      9.1418      8.3227      7.1593      5.8693    
  4.6382      3.5799      2.7358      2.0983      1.6385      1.3278      1.1472      1.0878      1.1472      1.3279    
  1.6384      2.0980      2.7355      3.5796      6.2416      7.8595      9.4471      10.734      11.458      11.459    
  10.734      9.4471      7.8591      6.2413      4.7956      3.6216      2.7306      2.0855      1.6385      1.3542    
  1.2148      1.2148      1.3542      1.6384      2.0854      2.7304      3.6214      4.7956      8.3997      10.397    
  12.189      13.448      13.903      13.449      12.190      10.397      8.3996      6.4944      4.8832      3.6371    
  2.7306      2.0982      1.6793      1.4374      1.3578      1.4375      1.6793      2.0980      2.7304      3.6372    
  4.8834      6.4947      11.033      13.308      15.141      16.167      16.167      15.141      13.308      11.033    
  8.6943      6.5843      4.8831      3.6215      2.7358      2.1395      1.7676      1.5872      1.5873      1.7678    
  2.1393      2.7355      3.6214      4.8834      6.5847      8.6944      13.916      16.274      17.901      18.480    
  17.901      16.275      13.916      11.258      8.6943      6.4945      4.7955      3.5797      2.7518      2.2163    
  1.9123      1.8131      1.9123      2.2162      2.7516      3.5796      4.7956      6.4947      8.6944      11.258    
  18.753      20.087      20.524      20.087      18.753      16.563      13.797      10.920      8.3293      6.2416    
  4.7261      3.7013      3.0508      2.6896      2.5734      2.6895      3.0508      3.7013      4.7261      6.2416    
  8.3293      10.920      13.797      16.563      20.087      20.863      20.863      20.087      18.447      16.009    
  13.133      10.304      7.8592      5.9730      4.6485      3.7774      3.2515      3.0033      3.0034      3.2518    
  3.7774      4.6483      5.9729      7.8595      10.305      13.133      16.009      18.447      20.524      20.863    
  20.524      19.428      17.495      14.899      12.074      9.4471      7.2780      5.6781      4.5865      3.8898    
  3.5011      3.3757      3.5011      3.8899      4.5866      5.6781      7.2780      9.4471      12.074      14.899    
  17.495      19.428      20.087      20.087      19.428      18.015      15.880      13.314      10.734      8.4550    
  6.6744      5.4080      4.5628      4.0434      3.7940      3.7938      4.0432      4.5628      5.4082      6.6745    
  8.4548      10.734      13.314      15.880      18.015      19.428      18.753      18.447      17.495      15.880    
  13.761      11.458      9.2836      7.4786      6.1348      5.2005      4.5866      4.2326      4.1158      4.2325    
  4.5866      5.2005      6.1348      7.4785      9.2836      11.458      13.761      15.880      17.495      18.447    
  16.563      16.009      14.899      13.314      11.458      9.5830      7.9310      6.6412      5.7090      5.0646    
  4.6486      4.4398      4.4399      4.6487      5.0646      5.7088      6.6410      7.9311      9.5834      11.459    
  13.314      14.899      16.009      16.563      13.797      13.133      12.074      10.734      9.2836      7.9310    
  6.8234      5.9932      5.3972      4.9819      4.7261      4.6381      4.7261      4.9820      5.3973      5.9932    
  6.8232      7.9310      9.2836      10.734      12.074      13.133      13.797      14.020      10.920      10.304    
  9.4471      8.4550      7.4786      6.6412      5.9932      5.5168      5.1691      4.9260      4.7956      4.7955    
  4.9260      5.1692      5.5170      5.9932      6.6410      7.4783      8.4548      9.4471      10.305      10.920    
  11.239      11.238      8.3293      7.8592      7.2780      6.6744      6.1348      5.7090      5.3972      5.1691    
  4.9981      4.8832      4.8414      4.8831      4.9981      5.1692      5.3972      5.7090      6.1348      6.6744    
  7.2780      7.8591      8.3293      8.6282      8.7297      8.6282      6.2416      5.9730      5.6781      5.4080    
  5.2005      5.0646      4.9819      4.9260      4.8832      4.8571      4.8571      4.8831      4.9260      4.9819    
  5.0646      5.2006      5.4082      5.6783      5.9729      6.2412      6.4402      6.5445      6.5447      6.4405    
  4.7261      4.6485      4.5865      4.5628      4.5866      4.6486      4.7261      4.7956      4.8414      4.8571    
  4.8413      4.7956      4.7261      4.6486      4.5865      4.5627      4.5866      4.6486      4.7261      4.7956    
  4.8414      4.8571      4.8414      4.7956      3.7013      3.7774      3.8898      4.0434      4.2326      4.4398    
  4.6381      4.7955      4.8831      4.8831      4.7956      4.6382      4.4399      4.2325      4.0431      3.8896    
  3.7774      3.7015      3.6522      3.6216      3.6064      3.6063      3.6214      3.6519      3.0508      3.2515    
  3.5011      3.7940      4.1158      4.4399      4.7261      4.9260      4.9981      4.9260      4.7261      4.4399    
  4.1158      3.7940      3.5011      3.2514      3.0507      2.8989      2.7932      2.7306      2.7098      2.7306    
  2.7932      2.8990      2.6896      3.0033      3.3757      3.7938      4.2325      4.6487      4.9820      5.1692    
  5.1692      4.9819      4.6486      4.2325      3.7940      3.3761      3.0035      2.6895      2.4409      2.2594    
  2.1424      2.0855      2.0854      2.1424      2.2596      2.4412      2.5734      3.0034      3.5011      4.0432    
  4.5866      5.0646      5.3973      5.5170      5.3972      5.0646      4.5865      4.0431      3.5011      3.0035    
  2.5735      2.2232      1.9578      1.7762      1.6721      1.6385      1.6721      1.7762      1.9578      2.2232    
  2.6895      3.2518      3.8899      4.5628      5.2005      5.7088      5.9932      5.9932      5.7090      5.2006    
  4.5627      3.8896      3.2514      2.6895      2.2232      1.8598      1.5987      1.4333      1.3542      1.3542    
  1.4333      1.5985      1.8595      2.2230      3.0508      3.7774      4.5866      5.4082      6.1348      6.6410    
  6.8232      6.6410      6.1348      5.4082      4.5866      3.7774      3.0507      2.4409      1.9578      1.5987    
  1.3547      1.2148      1.1694      1.2148      1.3547      1.5987      1.9578      2.4409      3.7013      4.6483    
  5.6781      6.6745      7.4785      7.9311      7.9310      7.4783      6.6744      5.6783      4.6486      3.7015    
  2.8989      2.2594      1.7762      1.4333      1.2148      1.1088      1.1087      1.2148      1.4333      1.7763    
  2.2596      2.8990      4.7261      5.9729      7.2780      8.4548      9.2836      9.5834      9.2836      8.4548    
  7.2780      5.9729      4.7261      3.6522      2.7932      2.1424      1.6721      1.3542      1.1694      1.1087    
  1.1695      1.3542      1.6721      2.1424      2.7932      3.6522      6.2416      7.8595      9.4471      10.734    
  11.458      11.459      10.734      9.4471      7.8591      6.2412      4.7956      3.6216      2.7306      2.0855    
  1.6385      1.3542      1.2148      1.2148      1.3542      1.6385      2.0854      2.7304      3.6214      4.7956    
  8.3293      10.305      12.074      13.314      13.761      13.314      12.074      10.305      8.3293      6.4402    
  4.8414      3.6064      2.7098      2.0854      1.6721      1.4333      1.3547      1.4333      1.6721      2.0854    
  2.7098      3.6065      4.8414      6.4402      10.920      13.133      14.899      15.880      15.880      14.899    
  13.133      10.920      8.6282      6.5445      4.8571      3.6063      2.7306      2.1424      1.7762      1.5985    
  1.5987      1.7763      2.1424      2.7304      3.6065      4.8575      6.5447      8.6279      13.797      16.009    
  17.495      18.015      17.495      16.009      13.797      11.239      8.7297      6.5447      4.8414      3.6214    
  2.7932      2.2596      1.9578      1.8595      1.9578      2.2596      2.7932      3.6214      4.8414      6.5447    
  8.7296      11.238      16.563      18.447      19.428      19.428      18.447      16.563      14.020      11.238    
  8.6282      6.4405      4.7956      3.6519      2.8990      2.4412      2.2232      2.2230      2.4409      2.8990    
  3.6522      4.7956      6.4402      8.6279      11.238      14.021      19.224      19.515      19.515      19.223    
  18.262      16.360      13.728      10.920      8.3997      6.4008      4.9819      4.0502      3.4931      3.2333    
  3.2335      3.4935      4.0502      4.9816      6.4005      8.3997      10.920      13.728      16.360      18.263    
  19.515      19.528      19.515      19.190      18.028      15.875      13.133      10.397      8.0503      6.2778    
  5.0646      4.2981      3.8776      3.7438      3.8777      4.2982      5.0646      6.2776      8.0500      10.397    
  13.133      15.875      18.028      19.190      19.515      19.515      19.456      18.855      17.298      14.899    
  12.190      9.6729      7.6344      6.1697      5.2005      4.6169      4.3425      4.3424      4.6168      5.2008    
  6.1700      7.6342      9.6723      12.189      14.899      17.299      18.856      19.456      19.223      19.190    
  18.855      17.793      15.880      13.448      10.992      8.8596      7.2434      6.1264      5.4080      5.0047    
  4.8742      5.0049      5.4083      6.1267      7.2434      8.8592      10.991      13.448      15.880      17.793    
  18.856      19.190      18.262      18.028      17.298      15.880      13.903      11.735      9.7235      8.1130    
  6.9537      6.1697      5.6782      5.4374      5.4376      5.6786      6.1700      6.9537      8.1128      9.7234    
  11.735      13.903      15.880      17.298      18.028      18.262      16.360      15.875      14.899      13.448    
  11.735      10.036      8.6038      7.5342      6.7845      6.2778      5.9730      5.8693      5.9730      6.2779    
  6.7848      7.5343      8.6035      10.036      11.736      13.449      14.899      15.875      16.359      16.492    
  13.728      13.133      12.190      10.992      9.7235      8.6038      7.7440      7.1310      6.6981      6.4008    
  6.2416      6.2414      6.4005      6.6982      7.1314      7.7443      8.6036      9.7232      10.991      12.190    
  13.133      13.728      13.995      13.995      10.920      10.397      9.6729      8.8596      8.1130      7.5342    
  7.1310      6.8500      6.6402      6.4948      6.4405      6.4945      6.6399      6.8501      7.1315      7.5345    
  8.1129      8.8590      9.6724      10.397      10.920      11.216      11.308      11.216      8.3997      8.0503    
  7.6344      7.2434      6.9537      6.7845      6.6981      6.6402      6.5847      6.5449      6.5447      6.5842    
  6.6399      6.6982      6.7849      6.9540      7.2434      7.6342      8.0500      8.3996      8.6281      8.7333    
  8.7332      8.6281      6.4008      6.2778      6.1697      6.1264      6.1697      6.2778      6.4008      6.4948    
  6.5449      6.5591      6.5445      6.4943      6.4005      6.2778      6.1700      6.1268      6.1700      6.2778    
  6.4005      6.4943      6.5445      6.5591      6.5449      6.4948      4.9819      5.0646      5.2005      5.4080    
  5.6782      5.9730      6.2416      6.4405      6.5447      6.5445      6.4402      6.2412      5.9729      5.6783    
  5.4082      5.2006      5.0646      4.9819      4.9260      4.8831      4.8571      4.8571      4.8831      4.9260    
  4.0502      4.2981      4.6169      5.0047      5.4374      5.8693      6.2414      6.4945      6.5842      6.4943    
  6.2412      5.8693      5.4375      5.0047      4.6167      4.2979      4.0502      3.8625      3.7249      3.6371    
  3.6063      3.6368      3.7245      3.8623      3.4931      3.8776      4.3425      4.8742      5.4376      5.9730    
  6.4005      6.6399      6.6399      6.4005      5.9729      5.4375      4.8741      4.3426      3.8777      3.4932    
  3.1896      2.9624      2.8088      2.7306      2.7306      2.8088      2.9624      3.1896      3.2333      3.7438    
  4.3424      5.0049      5.6786      6.2779      6.6982      6.8501      6.6982      6.2778      5.6783      5.0047    
  4.3426      3.7442      3.2336      2.8186      2.5000      2.2756      2.1423      2.0982      2.1425      2.2759    
  2.5003      2.8187      3.2335      3.8777      4.6168      5.4083      6.1700      6.7848      7.1314      7.1315    
  6.7849      6.1700      5.4082      4.6167      3.8777      3.2336      2.7002      2.2810      1.9746      1.7762    
  1.6793      1.6793      1.7762      1.9746      2.2810      2.7001      3.4935      4.2982      5.2008      6.1267    
  6.9537      7.5343      7.7443      7.5345      6.9540      6.1268      5.2006      4.2979      3.4932      2.8186    
  2.2810      1.8769      1.5987      1.4374      1.3848      1.4374      1.5986      1.8766      2.2808      2.8186    
  4.0502      5.0646      6.1700      7.2434      8.1128      8.6035      8.6036      8.1129      7.2434      6.1700    
  5.0646      4.0502      3.1896      2.5000      1.9746      1.5987      1.3578      1.2406      1.2406      1.3578    
  1.5987      1.9746      2.5001      3.1896      4.9816      6.2776      7.6342      8.8592      9.7234      10.036    
  9.7232      8.8590      7.6342      6.2778      4.9819      3.8625      2.9624      2.2756      1.7762      1.4374    
  1.2406      1.1759      1.2406      1.4375      1.7763      2.2758      2.9625      3.8624      6.4005      8.0500    
  9.6723      10.991      11.735      11.736      10.991      9.6724      8.0500      6.4005      4.9260      3.7249    
  2.8088      2.1423      1.6793      1.3848      1.2406      1.2406      1.3848      1.6793      2.1424      2.8089    
  3.7249      4.9260      8.3997      10.397      12.189      13.448      13.903      13.449      12.190      10.397    
  8.3996      6.4943      4.8831      3.6371      2.7306      2.0982      1.6793      1.4374      1.3578      1.4375    
  1.6793      2.0980      2.7304      3.6371      4.8834      6.4947      10.920      13.133      14.899      15.880    
  15.880      14.899      13.133      10.920      8.6281      6.5445      4.8571      3.6063      2.7306      2.1425    
  1.7762      1.5986      1.5987      1.7763      2.1424      2.7304      3.6064      4.8575      6.5447      8.6279    
  13.728      15.875      17.299      17.793      17.298      15.875      13.728      11.216      8.7333      6.5591    
  4.8571      3.6368      2.8088      2.2759      1.9746      1.8766      1.9746      2.2758      2.8089      3.6371    
  4.8575      6.5591      8.7328      11.215      16.360      18.028      18.856      18.856      18.028      16.359    
  13.995      11.308      8.7332      6.5449      4.8831      3.7245      2.9624      2.5003      2.2810      2.2808    
  2.5001      2.9625      3.7249      4.8834      6.5447      8.7328      11.308      13.995      18.263      19.190    
  19.456      19.190      18.262      16.492      13.995      11.216      8.6281      6.4948      4.9260      3.8623    
  3.1896      2.8187      2.7001      2.8186      3.1896      3.8624      4.9260      6.4947      8.6279      11.215    
  13.995      16.493      17.902      17.594      17.902      18.348      17.992      16.360      13.797      11.033    
  8.5864      6.6981      5.3972      4.5787      4.1345      3.9944      4.1345      4.5787      5.3972      6.6980    
  8.5863      11.033      13.797      16.360      17.992      18.348      17.594      17.594      18.286      18.744    
  18.028      16.009      13.308      10.643      8.4126      6.7845      5.7090      5.0702      4.7749      4.7746    
  5.0698      5.7091      6.7849      8.4127      10.643      13.308      16.009      18.028      18.744      18.286    
  17.902      18.286      18.937      18.856      17.495      15.141      12.500      10.108      8.2452      6.9537    
  6.1348      5.6858      5.5431      5.6858      6.1349      6.9538      8.2452      10.108      12.500      15.141    
  17.495      18.856      18.937      18.286      18.348      18.744      18.856      18.015      16.167      13.809    
  11.494      9.5719      8.1757      7.2434      6.6744      6.4032      6.4033      6.6747      7.2434      8.1754    
  9.5718      11.495      13.809      16.167      18.015      18.856      18.744      18.348      17.992      18.028    
  17.495      16.167      14.284      12.281      10.512      9.1736      8.2451      7.6344      7.2780      7.1590    
  7.2780      7.6344      8.2451      9.1736      10.512      12.281      14.284      16.167      17.495      18.028    
  17.992      17.893      16.360      16.009      15.141      13.809      12.281      10.854      9.7400      8.9537    
  8.4125      8.0502      7.8592      7.8590      8.0500      8.4125      8.9538      9.7399      10.854      12.281    
  13.809      15.141      16.009      16.359      16.408      16.408      13.797      13.308      12.500      11.494    
  10.512      9.7400      9.2109      8.8522      8.5864      8.3997      8.3293      8.3996      8.5863      8.8522    
  9.2109      9.7399      10.512      11.494      12.500      13.308      13.797      13.995      14.035      13.994    
  11.033      10.643      10.108      9.5719      9.1736      8.9537      8.8522      8.7791      8.6943      8.6281    
  8.6282      8.6943      8.7790      8.8522      8.9538      9.1737      9.5718      10.108      10.643      11.033    
  11.239      11.308      11.308      11.238      8.5864      8.4126      8.2452      8.1757      8.2451      8.4125    
  8.5864      8.6943      8.7297      8.7333      8.7297      8.6942      8.5864      8.4125      8.2452      8.1757    
  8.2451      8.4125      8.5863      8.6942      8.7296      8.7333      8.7297      8.6943      6.6981      6.7845    
  6.9537      7.2434      7.6344      8.0502      8.3997      8.6281      8.7333      8.7333      8.6282      8.3996    
  8.0500      7.6342      7.2434      6.9540      6.7849      6.6982      6.6399      6.5842      6.5447      6.5449    
  6.5848      6.6402      5.3972      5.7090      6.1348      6.6744      7.2780      7.8592      8.3293      8.6282    
  8.7297      8.6282      8.3293      7.8591      7.2780      6.6744      6.1348      5.7090      5.3972      5.1692    
  4.9981      4.8832      4.8414      4.8831      4.9981      5.1691      4.5787      5.0702      5.6858      6.4032    
  7.1590      7.8590      8.3996      8.6943      8.6942      8.3996      7.8591      7.1593      6.4034      5.6857    
  5.0697      4.5784      4.2021      3.9207      3.7249      3.6216      3.6214      3.7245      3.9203      4.2020    
  4.1345      4.7749      5.5431      6.4033      7.2780      8.0500      8.5863      8.7790      8.5864      8.0500    
  7.2780      6.4034      5.5431      4.7749      4.1345      3.6262      3.2392      2.9624      2.7932      2.7358    
  2.7932      2.9624      3.2393      3.6263      3.9944      4.7746      5.6858      6.6747      7.6344      8.4125    
  8.8522      8.8522      8.4125      7.6342      6.6744      5.6857      4.7749      3.9948      3.3596      2.8644    
  2.5000      2.2593      2.1393      2.1394      2.2596      2.5003      2.8645      3.3594      4.1345      5.0698    
  6.1349      7.2434      8.2451      8.9538      9.2109      8.9538      8.2452      7.2434      6.1348      5.0697    
  4.1345      3.3596      2.7450      2.2810      1.9578      1.7676      1.7049      1.7676      1.9578      2.2810    
  2.7450      3.3596      4.5787      5.7091      6.9538      8.1754      9.1736      9.7399      9.7399      9.1737    
  8.1757      6.9540      5.7090      4.5784      3.6262      2.8644      2.2810      1.8598      1.5873      1.4539    
  1.4539      1.5872      1.8595      2.2808      2.8645      3.6266      5.3972      6.7849      8.2452      9.5718    
  10.512      10.854      10.512      9.5718      8.2451      6.7849      5.3972      4.2021      3.2392      2.5000    
  1.9578      1.5873      1.3713      1.3002      1.3713      1.5873      1.9578      2.5000      3.2393      4.2021    
  6.6980      8.4127      10.108      11.495      12.281      12.281      11.494      10.108      8.4125      6.6982    
  5.1692      3.9207      2.9624      2.2593      1.7676      1.4539      1.3002      1.3002      1.4538      1.7678    
  2.2596      2.9625      3.9204      5.1688      8.5863      10.643      12.500      13.809      14.284      13.809    
  12.500      10.643      8.5863      6.6399      4.9981      3.7249      2.7932      2.1393      1.7049      1.4539    
  1.3713      1.4538      1.7049      2.1394      2.7932      3.7249      4.9981      6.6399      11.033      13.308    
  15.141      16.167      16.167      15.141      13.308      11.033      8.6942      6.5842      4.8832      3.6216    
  2.7358      2.1394      1.7676      1.5872      1.5873      1.7678      2.1394      2.7355      3.6214      4.8834    
  6.5847      8.6945      13.797      16.009      17.495      18.015      17.495      16.009      13.797      11.239    
  8.7296      6.5447      4.8414      3.6214      2.7932      2.2596      1.9578      1.8595      1.9578      2.2596    
  2.7932      3.6214      4.8414      6.5447      8.7296      11.239      16.360      18.028      18.856      18.856    
  18.028      16.359      13.995      11.308      8.7333      6.5449      4.8831      3.7245      2.9624      2.5003    
  2.2810      2.2808      2.5000      2.9625      3.7249      4.8834      6.5447      8.7328      11.308      13.995    
  17.992      18.744      18.937      18.744      17.992      16.408      14.035      11.308      8.7297      6.5848    
  4.9981      3.9203      3.2393      2.8645      2.7450      2.8645      3.2393      3.9204      4.9981      6.5847    
  8.7296      11.308      14.035      16.408      18.348      18.286      18.286      18.348      17.893      16.408    
  13.994      11.238      8.6943      6.6402      5.1691      4.2020      3.6263      3.3594      3.3596      3.6266    
  4.2021      5.1688      6.6399      8.6945      11.239      13.995      16.408      17.892      15.905      15.906    
  17.130      18.349      18.262      16.562      13.916      11.184      8.8522      7.1310      5.9932      5.3220    
  5.0148      5.0145      5.3216      5.9933      7.1314      8.8523      11.184      13.916      16.563      18.263    
  18.348      17.129      15.906      16.686      18.286      19.190      18.447      16.274      13.548      10.990    
  8.9537      7.5342      6.6412      6.1593      6.0081      6.1591      6.6410      7.5342      8.9538      10.990    
  13.548      16.274      18.447      19.190      18.286      16.686      17.130      18.286      19.457      19.428    
  17.901      15.477      12.943      10.772      9.1736      8.1130      7.4786      7.1829      7.1830      7.4786    
  8.1128      9.1733      10.772      12.943      15.477      17.901      19.428      19.456      18.286      17.130    
  18.349      19.190      19.428      18.481      16.569      14.329      12.271      10.676      9.5719      8.8595    
  8.4550      8.3224      8.4548      8.8592      9.5718      10.676      12.272      14.330      16.569      18.480    
  19.428      19.190      18.348      17.902      18.262      18.447      17.901      16.569      14.833      13.127    
  11.749      10.772      10.108      9.6729      9.4471      9.4468      9.6723      10.108      10.772      11.749    
  13.127      14.833      16.568      17.901      18.447      18.262      17.892      17.893      16.562      16.274    
  15.477      14.329      13.127      12.140      11.455      10.990      10.643      10.397      10.304      10.397    
  10.643      10.990      11.455      12.140      13.127      14.329      15.477      16.275      16.562      16.492    
  16.408      16.492      13.916      13.548      12.943      12.271      11.749      11.455      11.310      11.184    
  11.033      10.920      10.920      11.033      11.184      11.309      11.455      11.749      12.271      12.943    
  13.548      13.916      14.020      13.995      13.994      14.020      11.184      10.990      10.772      10.676    
  10.772      10.990      11.184      11.257      11.238      11.216      11.238      11.258      11.184      10.990    
  10.772      10.676      10.772      10.990      11.184      11.258      11.238      11.216      11.238      11.257    
  8.8522      8.9537      9.1736      9.5719      10.108      10.643      11.033      11.238      11.308      11.308    
  11.239      11.033      10.643      10.108      9.5718      9.1737      8.9538      8.8522      8.7790      8.6943    
  8.6281      8.6282      8.6943      8.7791      7.1310      7.5342      8.1130      8.8595      9.6729      10.397    
  10.920      11.216      11.308      11.216      10.920      10.397      9.6724      8.8590      8.1129      7.5345    
  7.1315      6.8501      6.6399      6.4944      6.4406      6.4949      6.6403      6.8500      5.9932      6.6412    
  7.4786      8.4550      9.4471      10.304      10.920      11.238      11.239      10.920      10.305      9.4471    
  8.4548      7.4783      6.6410      5.9932      5.5170      5.1692      4.9260      4.7956      4.7956      4.9261    
  5.1691      5.5168      5.3220      6.1593      7.1829      8.3224      9.4468      10.397      11.033      11.258    
  11.033      10.397      9.4471      8.3227      7.1830      6.1591      5.3215      4.6786      4.2021      3.8627    
  3.6522      3.5797      3.6519      3.8623      4.2020      4.6789      5.0148      6.0081      7.1830      8.4548    
  9.6723      10.643      11.184      11.184      10.643      9.6724      8.4548      7.1830      6.0081      5.0147    
  4.2259      3.6262      3.1896      2.8990      2.7518      2.7518      2.8990      3.1896      3.6262      4.2259    
  5.0145      6.1591      7.4786      8.8592      10.108      10.990      11.309      10.990      10.108      8.8590    
  7.4783      6.1591      5.0147      4.0840      3.3596      2.8186      2.4408      2.2160      2.1412      2.2163    
  2.4412      2.8187      3.3594      4.0836      5.3216      6.6410      8.1128      9.5718      10.772      11.455    
  11.455      10.772      9.5718      8.1129      6.6410      5.3215      4.2259      3.3596      2.7002      2.2232    
  1.9123      1.7587      1.7587      1.9123      2.2232      2.7001      3.3596      4.2259      5.9933      7.5342    
  9.1733      10.676      11.749      12.140      11.749      10.676      9.1737      7.5345      5.9932      4.6786    
  3.6262      2.8186      2.2232      1.8134      1.5728      1.4934      1.5727      1.8131      2.2230      2.8186    
  3.6266      4.6791      7.1314      8.9538      10.772      12.272      13.127      13.127      12.271      10.772    
  8.9538      7.1315      5.5170      4.2021      3.1896      2.4408      1.9123      1.5728      1.4061      1.4061    
  1.5727      1.9123      2.4409      3.1896      4.2021      5.5169      8.8523      10.990      12.943      14.330    
  14.833      14.329      12.943      10.990      8.8522      6.8501      5.1692      3.8627      2.8990      2.2160    
  1.7587      1.4934      1.4061      1.4934      1.7588      2.2162      2.8990      3.8624      5.1688      6.8499    
  11.184      13.548      15.477      16.569      16.568      15.477      13.548      11.184      8.7790      6.6399    
  4.9260      3.6522      2.7518      2.1412      1.7587      1.5727      1.5727      1.7588      2.1412      2.7517    
  3.6522      4.9261      6.6399      8.7789      13.916      16.274      17.901      18.480      17.901      16.275    
  13.916      11.258      8.6943      6.4944      4.7956      3.5797      2.7518      2.2163      1.9123      1.8131    
  1.9123      2.2162      2.7517      3.5797      4.7956      6.4947      8.6945      11.258      16.563      18.447    
  19.428      19.428      18.447      16.562      14.020      11.238      8.6281      6.4406      4.7956      3.6519    
  2.8990      2.4412      2.2232      2.2230      2.4409      2.8990      3.6522      4.7956      6.4402      8.6279    
  11.239      14.021      18.263      19.190      19.456      19.190      18.262      16.492      13.995      11.216    
  8.6282      6.4949      4.9261      3.8623      3.1896      2.8187      2.7001      2.8186      3.1896      3.8624    
  4.9261      6.4947      8.6279      11.216      13.995      16.493      18.348      18.286      18.286      18.348    
  17.892      16.408      13.994      11.238      8.6943      6.6403      5.1691      4.2020      3.6262      3.3594    
  3.3596      3.6266      4.2021      5.1688      6.6399      8.6945      11.239      13.995      16.408      17.892    
  17.129      16.686      17.130      17.902      17.893      16.492      14.020      11.257      8.7791      6.8500    
  5.5168      4.6789      4.2259      4.0836      4.2259      4.6791      5.5169      6.8499      8.7789      11.258    
  14.021      16.493      17.892      17.901      
