   2   2   0   0
  0.5639752E+01  0.2517300E-09  0.2517300E-09  0.2517300E-09  0.5000000E-15
  1.000000000000000E-004
  CAR 
 unknown system                          
     28.92995486    -13.75246870  301     10.71892641      1.00000000
    -13.752  0.0000E+00  0.0000E+00
    -13.610  0.0000E+00  0.0000E+00
    -13.468  0.0000E+00  0.0000E+00
    -13.326  0.0000E+00  0.0000E+00
    -13.183  0.0000E+00  0.0000E+00
    -13.041  0.0000E+00  0.0000E+00
    -12.899  0.3902E-17  0.5551E-18
    -12.757  0.8772E-14  0.1249E-14
    -12.614  0.7738E-11  0.1102E-11
    -12.472  0.2538E-08  0.3622E-09
    -12.330  0.3116E-06  0.4470E-07
    -12.187  0.1447E-04  0.2103E-05
    -12.045  0.2589E-03  0.3893E-04
    -11.903  0.1895E-02  0.3085E-03
    -11.761  0.7275E-02  0.1344E-02
    -11.618  0.2360E-01  0.4701E-02
    -11.476  0.5786E-01  0.1293E-01
    -11.334  0.7305E-01  0.2333E-01
    -11.192  0.5459E-01  0.3109E-01
    -11.049  0.6366E-01  0.4015E-01
    -10.907  0.1017E+00  0.5461E-01
    -10.765  0.1545E+00  0.7659E-01
    -10.622  0.1722E+00  0.1011E+00
    -10.480  0.1003E+00  0.1154E+00
    -10.338  0.4828E-01  0.1222E+00
    -10.196  0.6980E-01  0.1322E+00
    -10.053  0.1611E+00  0.1551E+00
     -9.911  0.2514E+00  0.1909E+00
     -9.769  0.2027E+00  0.2197E+00
     -9.627  0.1422E+00  0.2399E+00
     -9.484  0.1684E+00  0.2639E+00
     -9.342  0.1990E+00  0.2922E+00
     -9.200  0.1940E+00  0.3198E+00
     -9.057  0.1126E+00  0.3358E+00
     -8.915  0.6757E-01  0.3454E+00
     -8.773  0.1207E+00  0.3626E+00
     -8.631  0.2704E+00  0.4011E+00
     -8.488  0.4136E+00  0.4599E+00
     -8.346  0.3173E+00  0.5051E+00
     -8.204  0.1727E+00  0.5297E+00
     -8.061  0.1781E+00  0.5550E+00
     -7.919  0.2319E+00  0.5880E+00
     -7.777  0.2675E+00  0.6261E+00
     -7.635  0.1972E+00  0.6541E+00
     -7.492  0.1034E+00  0.6688E+00
     -7.350  0.1183E+00  0.6857E+00
     -7.208  0.2689E+00  0.7239E+00
     -7.066  0.3925E+00  0.7797E+00
     -6.923  0.3298E+00  0.8267E+00
     -6.781  0.3281E+00  0.8733E+00
     -6.639  0.4122E+00  0.9320E+00
     -6.496  0.4445E+00  0.9952E+00
     -6.354  0.3311E+00  0.1042E+01
     -6.212  0.1542E+00  0.1064E+01
     -6.070  0.1698E+00  0.1088E+01
     -5.927  0.3027E+00  0.1132E+01
     -5.785  0.3118E+00  0.1176E+01
     -5.643  0.2566E+00  0.1212E+01
     -5.501  0.3184E+00  0.1258E+01
     -5.358  0.5524E+00  0.1336E+01
     -5.216  0.6358E+00  0.1427E+01
     -5.074  0.3605E+00  0.1478E+01
     -4.931  0.1571E+00  0.1500E+01
     -4.789  0.2552E+00  0.1537E+01
     -4.647  0.3855E+00  0.1592E+01
     -4.505  0.3154E+00  0.1636E+01
     -4.362  0.2000E+00  0.1665E+01
     -4.220  0.1355E+00  0.1684E+01
     -4.078  0.1928E+00  0.1712E+01
     -3.936  0.3452E+00  0.1761E+01
     -3.793  0.3513E+00  0.1811E+01
     -3.651  0.2601E+00  0.1848E+01
     -3.509  0.2391E+00  0.1882E+01
     -3.366  0.2107E+00  0.1912E+01
     -3.224  0.1710E+00  0.1936E+01
     -3.082  0.2486E+00  0.1971E+01
     -2.940  0.3716E+00  0.2024E+01
     -2.797  0.3387E+00  0.2072E+01
     -2.655  0.2168E+00  0.2103E+01
     -2.513  0.2108E+00  0.2133E+01
     -2.370  0.3815E+00  0.2188E+01
     -2.228  0.4184E+00  0.2247E+01
     -2.086  0.2894E+00  0.2288E+01
     -1.944  0.3767E+00  0.2342E+01
     -1.801  0.5246E+00  0.2416E+01
     -1.659  0.4716E+00  0.2484E+01
     -1.517  0.4222E+00  0.2544E+01
     -1.375  0.5332E+00  0.2619E+01
     -1.232  0.7384E+00  0.2725E+01
     -1.090  0.7344E+00  0.2829E+01
     -0.948  0.4498E+00  0.2893E+01
     -0.805  0.1566E+00  0.2915E+01
     -0.663  0.8570E-01  0.2927E+01
     -0.521  0.2561E+00  0.2964E+01
     -0.379  0.4354E+00  0.3026E+01
     -0.236  0.3176E+00  0.3071E+01
     -0.094  0.1280E+00  0.3089E+01
      0.048  0.1446E+00  0.3110E+01
      0.190  0.3079E+00  0.3154E+01
      0.333  0.5028E+00  0.3225E+01
      0.475  0.5553E+00  0.3304E+01
      0.617  0.3837E+00  0.3359E+01
      0.760  0.2122E+00  0.3389E+01
      0.902  0.2728E+00  0.3428E+01
      1.044  0.5116E+00  0.3501E+01
      1.186  0.5811E+00  0.3583E+01
      1.329  0.4833E+00  0.3652E+01
      1.471  0.5190E+00  0.3726E+01
      1.613  0.5194E+00  0.3800E+01
      1.755  0.4756E+00  0.3867E+01
      1.898  0.5576E+00  0.3947E+01
      2.040  0.5865E+00  0.4030E+01
      2.182  0.4513E+00  0.4094E+01
      2.325  0.4399E+00  0.4157E+01
      2.467  0.4710E+00  0.4224E+01
      2.609  0.4957E+00  0.4295E+01
      2.751  0.6984E+00  0.4394E+01
      2.894  0.7734E+00  0.4504E+01
      3.036  0.6460E+00  0.4596E+01
      3.178  0.6099E+00  0.4683E+01
      3.321  0.6767E+00  0.4779E+01
      3.463  0.7489E+00  0.4885E+01
      3.605  0.6134E+00  0.4973E+01
      3.747  0.5905E+00  0.5057E+01
      3.890  0.7904E+00  0.5169E+01
      4.032  0.8259E+00  0.5287E+01
      4.174  0.5965E+00  0.5372E+01
      4.316  0.5653E+00  0.5452E+01
      4.459  0.9863E+00  0.5592E+01
      4.601  0.1182E+01  0.5760E+01
      4.743  0.9796E+00  0.5900E+01
      4.886  0.7760E+00  0.6010E+01
      5.028  0.6667E+00  0.6105E+01
      5.170  0.4989E+00  0.6176E+01
      5.312  0.3604E+00  0.6227E+01
      5.455  0.4638E+00  0.6293E+01
      5.597  0.5632E+00  0.6373E+01
      5.739  0.6413E+00  0.6465E+01
      5.881  0.8114E+00  0.6580E+01
      6.024  0.9546E+00  0.6716E+01
      6.166  0.9342E+00  0.6849E+01
      6.308  0.6535E+00  0.6942E+01
      6.451  0.4958E+00  0.7012E+01
      6.593  0.5230E+00  0.7087E+01
      6.735  0.5646E+00  0.7167E+01
      6.877  0.7104E+00  0.7268E+01
      7.020  0.7453E+00  0.7374E+01
      7.162  0.5076E+00  0.7446E+01
      7.304  0.2441E+00  0.7481E+01
      7.446  0.2084E+00  0.7511E+01
      7.589  0.4086E+00  0.7569E+01
      7.731  0.5495E+00  0.7647E+01
      7.873  0.4366E+00  0.7709E+01
      8.016  0.2617E+00  0.7747E+01
      8.158  0.1350E+00  0.7766E+01
      8.300  0.1078E+00  0.7781E+01
      8.442  0.2409E+00  0.7815E+01
      8.585  0.3889E+00  0.7871E+01
      8.727  0.2903E+00  0.7912E+01
      8.869  0.1112E+00  0.7928E+01
      9.011  0.4763E-01  0.7935E+01
      9.154  0.4881E-01  0.7942E+01
      9.296  0.1073E+00  0.7957E+01
      9.438  0.1512E+00  0.7978E+01
      9.581  0.9008E-01  0.7991E+01
      9.723  0.2918E-01  0.7995E+01
      9.865  0.1792E-01  0.7998E+01
     10.007  0.1171E-01  0.7999E+01
     10.150  0.3322E-02  0.8000E+01
     10.292  0.3694E-03  0.8000E+01
     10.434  0.1583E-04  0.8000E+01
     10.577  0.2581E-06  0.8000E+01
     10.719  0.1585E-08  0.8000E+01
     10.861  0.3636E-11  0.8000E+01
     11.003  0.3096E-14  0.8000E+01
     11.146  0.0000E+00  0.8000E+01
     11.288  0.0000E+00  0.8000E+01
     11.430  0.0000E+00  0.8000E+01
     11.572  0.0000E+00  0.8000E+01
     11.715  0.0000E+00  0.8000E+01
     11.857  0.0000E+00  0.8000E+01
     11.999  0.0000E+00  0.8000E+01
     12.142  0.0000E+00  0.8000E+01
     12.284  0.0000E+00  0.8000E+01
     12.426  0.0000E+00  0.8000E+01
     12.568  0.0000E+00  0.8000E+01
     12.711  0.0000E+00  0.8000E+01
     12.853  0.1873E-16  0.8000E+01
     12.995  0.4861E-13  0.8000E+01
     13.137  0.4449E-10  0.8000E+01
     13.280  0.1529E-07  0.8000E+01
     13.422  0.1993E-05  0.8000E+01
     13.564  0.9992E-04  0.8000E+01
     13.707  0.1959E-02  0.8000E+01
     13.849  0.1529E-01  0.8002E+01
     13.991  0.4828E-01  0.8009E+01
     14.133  0.6255E-01  0.8018E+01
     14.276  0.3831E-01  0.8024E+01
     14.418  0.5727E-01  0.8032E+01
     14.560  0.1961E+00  0.8060E+01
     14.702  0.3220E+00  0.8106E+01
     14.845  0.2562E+00  0.8142E+01
     14.987  0.1913E+00  0.8169E+01
     15.129  0.2059E+00  0.8199E+01
     15.272  0.2321E+00  0.8232E+01
     15.414  0.3474E+00  0.8281E+01
     15.556  0.4764E+00  0.8349E+01
     15.698  0.4074E+00  0.8407E+01
     15.841  0.3610E+00  0.8458E+01
     15.983  0.6129E+00  0.8545E+01
     16.125  0.7313E+00  0.8649E+01
     16.268  0.5242E+00  0.8724E+01
     16.410  0.4623E+00  0.8790E+01
     16.552  0.6081E+00  0.8876E+01
     16.694  0.6475E+00  0.8968E+01
     16.837  0.5009E+00  0.9040E+01
     16.979  0.4702E+00  0.9106E+01
     17.121  0.8063E+00  0.9221E+01
     17.263  0.1088E+01  0.9376E+01
     17.406  0.9201E+00  0.9507E+01
     17.548  0.5253E+00  0.9582E+01
     17.690  0.4227E+00  0.9642E+01
     17.833  0.7456E+00  0.9748E+01
     17.975  0.1016E+01  0.9892E+01
     18.117  0.9279E+00  0.1002E+02
     18.259  0.9086E+00  0.1015E+02
     18.402  0.1019E+01  0.1030E+02
     18.544  0.8890E+00  0.1043E+02
     18.686  0.6822E+00  0.1052E+02
     18.828  0.7059E+00  0.1062E+02
     18.971  0.7831E+00  0.1073E+02
     19.113  0.9924E+00  0.1088E+02
     19.255  0.1400E+01  0.1107E+02
     19.398  0.1518E+01  0.1129E+02
     19.540  0.1337E+01  0.1148E+02
     19.682  0.1123E+01  0.1164E+02
     19.824  0.8222E+00  0.1176E+02
     19.967  0.5360E+00  0.1183E+02
     20.109  0.4976E+00  0.1190E+02
     20.251  0.5909E+00  0.1199E+02
     20.393  0.5030E+00  0.1206E+02
     20.536  0.3541E+00  0.1211E+02
     20.678  0.3246E+00  0.1216E+02
     20.820  0.4003E+00  0.1221E+02
     20.963  0.5101E+00  0.1229E+02
     21.105  0.6459E+00  0.1238E+02
     21.247  0.7081E+00  0.1248E+02
     21.389  0.5324E+00  0.1255E+02
     21.532  0.5433E+00  0.1263E+02
     21.674  0.1059E+01  0.1278E+02
     21.816  0.1411E+01  0.1298E+02
     21.958  0.1037E+01  0.1313E+02
     22.101  0.5137E+00  0.1320E+02
     22.243  0.2696E+00  0.1324E+02
     22.385  0.2885E+00  0.1328E+02
     22.528  0.5179E+00  0.1336E+02
     22.670  0.6659E+00  0.1345E+02
     22.812  0.6277E+00  0.1354E+02
     22.954  0.7056E+00  0.1364E+02
     23.097  0.8194E+00  0.1376E+02
     23.239  0.9387E+00  0.1389E+02
     23.381  0.9878E+00  0.1403E+02
     23.524  0.8681E+00  0.1416E+02
     23.666  0.5952E+00  0.1424E+02
     23.808  0.4540E+00  0.1430E+02
     23.950  0.7300E+00  0.1441E+02
     24.093  0.1209E+01  0.1458E+02
     24.235  0.1429E+01  0.1478E+02
     24.377  0.1373E+01  0.1498E+02
     24.519  0.1245E+01  0.1516E+02
     24.662  0.8577E+00  0.1528E+02
     24.804  0.3784E+00  0.1533E+02
     24.946  0.1649E+00  0.1536E+02
     25.089  0.2722E+00  0.1539E+02
     25.231  0.5031E+00  0.1547E+02
     25.373  0.6079E+00  0.1555E+02
     25.515  0.7011E+00  0.1565E+02
     25.658  0.6669E+00  0.1575E+02
     25.800  0.3930E+00  0.1580E+02
     25.942  0.2160E+00  0.1583E+02
     26.084  0.2994E+00  0.1588E+02
     26.227  0.3771E+00  0.1593E+02
     26.369  0.2694E+00  0.1597E+02
     26.511  0.1123E+00  0.1598E+02
     26.654  0.2631E-01  0.1599E+02
     26.796  0.1472E-01  0.1599E+02
     26.938  0.2979E-01  0.1599E+02
     27.080  0.2804E-01  0.1600E+02
     27.223  0.1043E-01  0.1600E+02
     27.365  0.1517E-02  0.1600E+02
     27.507  0.8531E-04  0.1600E+02
     27.649  0.1832E-05  0.1600E+02
     27.792  0.1486E-07  0.1600E+02
     27.934  0.4509E-10  0.1600E+02
     28.076  0.5088E-13  0.1600E+02
     28.219  0.1873E-16  0.1600E+02
     28.361  0.0000E+00  0.1600E+02
     28.503  0.0000E+00  0.1600E+02
     28.645  0.0000E+00  0.1600E+02
     28.788  0.0000E+00  0.1600E+02
     28.930  0.0000E+00  0.1600E+02
