real-time non-blocking time  (microseconds, -R) unlimited
core file size              (blocks, -c) unlimited
data seg size               (kbytes, -d) unlimited
scheduling priority                 (-e) 0
file size                   (blocks, -f) unlimited
pending signals                     (-i) 509951
max locked memory           (kbytes, -l) unlimited
max memory size             (kbytes, -m) 117440512
open files                          (-n) 1024
pipe size                (512 bytes, -p) 8
POSIX message queues         (bytes, -q) 819200
real-time priority                  (-r) 0
stack size                  (kbytes, -s) unlimited
cpu time                   (seconds, -t) unlimited
max user processes                  (-u) 125621
virtual memory              (kbytes, -v) unlimited
file locks                          (-x) unlimited
 running   28 mpi-ranks, with    1 threads/rank, on    1 nodes
 distrk:  each k-point on   28 cores,    1 groups
 distr:  one band on    7 cores,    4 groups
 vasp.6.5.1 10Mar25 (build Feb 13 2026 23:13:13) complex                        
  
 POSCAR found type information on POSCAR C 
 POSCAR found :  1 types and       2 ions
 scaLAPACK will be used
 LDA part: xc-table for (Slater+PW92), standard interpolation
 POSCAR, INCAR and KPOINTS ok, starting setup
 FFT: planning ... GRIDC
 FFT: planning ... GRID_SOFT
 FFT: planning ... GRID
 WAVECAR not read
 entering main loop
       N       E                     dE             d eps       ncg     rms          rms(c)
DAV:   1    -0.818019421065E+01   -0.81802E+01   -0.40472E+03   856   0.719E+02
DAV:   2    -0.187937486637E+02   -0.10614E+02   -0.10215E+02  1184   0.762E+01
DAV:   3    -0.188442078707E+02   -0.50459E-01   -0.50459E-01   776   0.653E+00
DAV:   4    -0.188442689560E+02   -0.61085E-04   -0.61085E-04  1064   0.210E-01
DAV:   5    -0.188442690483E+02   -0.92226E-07   -0.92225E-07   776   0.335E-03    0.558E+00
RMM:   6    -0.183783762047E+02    0.46589E+00   -0.25643E-01   764   0.446E+00    0.333E+00
RMM:   7    -0.182179896702E+02    0.16039E+00   -0.39863E-01   835   0.586E+00    0.737E-01
RMM:   8    -0.182214372750E+02   -0.34476E-02   -0.20595E-02   787   0.166E+00    0.983E-02
RMM:   9    -0.182216063369E+02   -0.16906E-03   -0.28252E-03   831   0.539E-01    0.457E-02
RMM:  10    -0.182216373955E+02   -0.31059E-04   -0.31911E-04   788   0.191E-01    0.217E-02
RMM:  11    -0.182216357838E+02    0.16118E-05   -0.48761E-05   839   0.702E-02    0.586E-03
RMM:  12    -0.182216362048E+02   -0.42103E-06   -0.66034E-06   748   0.281E-02
   1 F= -.18221636E+02 E0= -.18221636E+02  d E =-.475368E-12
