   2   2   0   0
  0.5639752E+01  0.2517300E-09  0.2517300E-09  0.2517300E-09  0.5000000E-15
  1.000000000000000E-004
  CAR 
 unknown system                          
     27.23238145    -13.67659148  301     10.86985761      1.00000000
    -13.677  0.0000E+00  0.0000E+00
    -13.540  0.0000E+00  0.0000E+00
    -13.404  0.0000E+00  0.0000E+00
    -13.268  0.0000E+00  0.0000E+00
    -13.131  0.0000E+00  0.0000E+00
    -12.995  0.0000E+00  0.0000E+00
    -12.858  0.3015E-16  0.4112E-17
    -12.722  0.3911E-13  0.5337E-14
    -12.586  0.3502E-10  0.4780E-11
    -12.449  0.1261E-07  0.1724E-08
    -12.313  0.1835E-05  0.2519E-06
    -12.177  0.1087E-03  0.1507E-04
    -12.040  0.2641E-02  0.3752E-03
    -11.904  0.2659E-01  0.4001E-02
    -11.768  0.1120E+00  0.1927E-01
    -11.631  0.1987E+00  0.4637E-01
    -11.495  0.1492E+00  0.6672E-01
    -11.358  0.4729E-01  0.7317E-01
    -11.222  0.6288E-02  0.7403E-01
    -11.086  0.3475E-03  0.7407E-01
    -10.949  0.7903E-05  0.7407E-01
    -10.813  0.7334E-07  0.7407E-01
    -10.677  0.2757E-09  0.7407E-01
    -10.540  0.4175E-12  0.7407E-01
    -10.404  0.2412E-15  0.7407E-01
    -10.268  0.0000E+00  0.7407E-01
    -10.131  0.0000E+00  0.7407E-01
     -9.995  0.0000E+00  0.7407E-01
     -9.858  0.0000E+00  0.7407E-01
     -9.722  0.5235E-13  0.7407E-01
     -9.586  0.5849E-10  0.7407E-01
     -9.449  0.2626E-07  0.7407E-01
     -9.313  0.4759E-05  0.7407E-01
     -9.177  0.3504E-03  0.7412E-01
     -9.040  0.1056E-01  0.7556E-01
     -8.904  0.1316E+00  0.9351E-01
     -8.768  0.6842E+00  0.1868E+00
     -8.631  0.1497E+01  0.3910E+00
     -8.495  0.1385E+01  0.5798E+00
     -8.358  0.5415E+00  0.6537E+00
     -8.222  0.8902E-01  0.6658E+00
     -8.086  0.8314E-02  0.6670E+00
     -7.949  0.3973E-01  0.6724E+00
     -7.813  0.2925E+00  0.7123E+00
     -7.677  0.9076E+00  0.8360E+00
     -7.540  0.1189E+01  0.9982E+00
     -7.404  0.6588E+00  0.1088E+01
     -7.268  0.1538E+00  0.1109E+01
     -7.131  0.1502E-01  0.1111E+01
     -6.995  0.6077E-03  0.1111E+01
     -6.858  0.1008E-04  0.1111E+01
     -6.722  0.6808E-07  0.1111E+01
     -6.586  0.1858E-09  0.1111E+01
     -6.449  0.2041E-12  0.1111E+01
     -6.313  0.0000E+00  0.1111E+01
     -6.177  0.0000E+00  0.1111E+01
     -6.040  0.0000E+00  0.1111E+01
     -5.904  0.0000E+00  0.1111E+01
     -5.768  0.0000E+00  0.1111E+01
     -5.631  0.0000E+00  0.1111E+01
     -5.495  0.0000E+00  0.1111E+01
     -5.358  0.1086E-14  0.1111E+01
     -5.222  0.1856E-11  0.1111E+01
     -5.086  0.1395E-08  0.1111E+01
     -4.949  0.4219E-06  0.1111E+01
     -4.813  0.5164E-04  0.1111E+01
     -4.677  0.2576E-02  0.1111E+01
     -4.540  0.5284E-01  0.1119E+01
     -4.404  0.4497E+00  0.1180E+01
     -4.268  0.1604E+01  0.1399E+01
     -4.131  0.2413E+01  0.1728E+01
     -3.995  0.1536E+01  0.1937E+01
     -3.858  0.4123E+00  0.1993E+01
     -3.722  0.4635E-01  0.2000E+01
     -3.586  0.2162E-02  0.2000E+01
     -3.449  0.4143E-04  0.2000E+01
     -3.313  0.3234E-06  0.2000E+01
     -3.177  0.1022E-08  0.2000E+01
     -3.040  0.1299E-11  0.2000E+01
     -2.904  0.7237E-15  0.2000E+01
     -2.768  0.0000E+00  0.2000E+01
     -2.631  0.0000E+00  0.2000E+01
     -2.495  0.0000E+00  0.2000E+01
     -2.358  0.0000E+00  0.2000E+01
     -2.222  0.1809E-14  0.2000E+01
     -2.086  0.3269E-11  0.2000E+01
     -1.949  0.2283E-08  0.2000E+01
     -1.813  0.6419E-06  0.2000E+01
     -1.677  0.7309E-04  0.2000E+01
     -1.540  0.3394E-02  0.2000E+01
     -1.404  0.6482E-01  0.2009E+01
     -1.268  0.5143E+00  0.2079E+01
     -1.131  0.1711E+01  0.2313E+01
     -0.995  0.2402E+01  0.2640E+01
     -0.858  0.1427E+01  0.2835E+01
     -0.722  0.3572E+00  0.2884E+01
     -0.586  0.3743E-01  0.2889E+01
     -0.449  0.1626E-02  0.2889E+01
     -0.313  0.2923E-04  0.2889E+01
     -0.177  0.3392E-04  0.2889E+01
     -0.040  0.2001E-02  0.2889E+01
      0.096  0.4905E-01  0.2896E+01
      0.232  0.5011E+00  0.2964E+01
      0.369  0.2155E+01  0.3258E+01
      0.505  0.3934E+01  0.3795E+01
      0.642  0.3060E+01  0.4212E+01
      0.778  0.1012E+01  0.4350E+01
      0.914  0.1417E+00  0.4369E+01
      1.051  0.8309E-02  0.4370E+01
      1.187  0.2024E-03  0.4370E+01
      1.323  0.2028E-05  0.4370E+01
      1.460  0.8301E-08  0.4370E+01
      1.596  0.1380E-10  0.4370E+01
      1.732  0.8075E-11  0.4370E+01
      1.869  0.4561E-08  0.4370E+01
      2.005  0.1040E-05  0.4370E+01
      2.142  0.9615E-04  0.4370E+01
      2.278  0.3632E-02  0.4371E+01
      2.414  0.5657E-01  0.4379E+01
      2.551  0.3668E+00  0.4429E+01
      2.687  0.9989E+00  0.4565E+01
      2.823  0.1149E+01  0.4722E+01
      2.960  0.5592E+00  0.4798E+01
      3.096  0.1146E+00  0.4813E+01
      3.232  0.9801E-02  0.4815E+01
      3.369  0.3468E-03  0.4815E+01
      3.505  0.5027E-05  0.4815E+01
      3.642  0.2991E-07  0.4815E+01
      3.778  0.1117E-06  0.4815E+01
      3.914  0.1709E-04  0.4815E+01
      4.051  0.1064E-02  0.4815E+01
      4.187  0.2716E-01  0.4819E+01
      4.323  0.2872E+00  0.4858E+01
      4.460  0.1269E+01  0.5031E+01
      4.596  0.2363E+01  0.5353E+01
      4.732  0.1865E+01  0.5607E+01
      4.869  0.6898E+00  0.5701E+01
      5.005  0.6318E+00  0.5788E+01
      5.142  0.1763E+01  0.6028E+01
      5.278  0.2393E+01  0.6354E+01
      5.414  0.1377E+01  0.6542E+01
      5.551  0.3343E+00  0.6588E+01
      5.687  0.3393E-01  0.6592E+01
      5.823  0.1427E-02  0.6593E+01
      5.960  0.2464E-04  0.6593E+01
      6.096  0.1732E-06  0.6593E+01
      6.232  0.4921E-09  0.6593E+01
      6.369  0.5630E-12  0.6593E+01
      6.505  0.1365E-12  0.6593E+01
      6.642  0.1476E-09  0.6593E+01
      6.778  0.6416E-07  0.6593E+01
      6.914  0.1126E-04  0.6593E+01
      7.051  0.8031E-03  0.6593E+01
      7.187  0.2346E-01  0.6596E+01
      7.323  0.2833E+00  0.6635E+01
      7.460  0.1428E+01  0.6829E+01
      7.596  0.3030E+01  0.7242E+01
      7.732  0.2719E+01  0.7613E+01
      7.869  0.1031E+01  0.7754E+01
      8.005  0.1642E+00  0.7776E+01
      8.142  0.1089E-01  0.7778E+01
      8.278  0.2981E-03  0.7778E+01
      8.414  0.3333E-05  0.7778E+01
      8.551  0.1512E-07  0.7778E+01
      8.687  0.2766E-10  0.7778E+01
      8.823  0.2768E-13  0.7778E+01
      8.960  0.9320E-11  0.7778E+01
      9.096  0.4706E-08  0.7778E+01
      9.232  0.9588E-06  0.7778E+01
      9.369  0.7927E-04  0.7778E+01
      9.505  0.2681E-02  0.7778E+01
      9.642  0.3742E-01  0.7783E+01
      9.778  0.2177E+00  0.7813E+01
      9.914  0.5326E+00  0.7886E+01
     10.051  0.5507E+00  0.7961E+01
     10.187  0.2407E+00  0.7993E+01
     10.323  0.4426E-01  0.8000E+01
     10.460  0.3394E-02  0.8000E+01
     10.596  0.1075E-03  0.8000E+01
     10.732  0.1394E-05  0.8000E+01
     10.869  0.7342E-08  0.8000E+01
     11.005  0.1560E-10  0.8000E+01
     11.142  0.1339E-13  0.8000E+01
     11.278  0.0000E+00  0.8000E+01
     11.414  0.0000E+00  0.8000E+01
     11.551  0.0000E+00  0.8000E+01
     11.687  0.0000E+00  0.8000E+01
     11.823  0.0000E+00  0.8000E+01
     11.960  0.0000E+00  0.8000E+01
     12.096  0.0000E+00  0.8000E+01
     12.232  0.0000E+00  0.8000E+01
     12.369  0.0000E+00  0.8000E+01
     12.505  0.0000E+00  0.8000E+01
     12.642  0.0000E+00  0.8000E+01
     12.778  0.0000E+00  0.8000E+01
     12.914  0.2352E-14  0.8000E+01
     13.051  0.3724E-11  0.8000E+01
     13.187  0.2334E-08  0.8000E+01
     13.323  0.5894E-06  0.8000E+01
     13.460  0.6033E-04  0.8000E+01
     13.596  0.2520E-02  0.8000E+01
     13.732  0.4336E-01  0.8006E+01
     13.869  0.3102E+00  0.8049E+01
     14.005  0.9314E+00  0.8176E+01
     14.142  0.1181E+01  0.8337E+01
     14.278  0.6334E+00  0.8423E+01
     14.414  0.1431E+00  0.8443E+01
     14.551  0.1352E-01  0.8444E+01
     14.687  0.5288E-03  0.8444E+01
     14.823  0.9943E-05  0.8444E+01
     14.960  0.1118E-03  0.8444E+01
     15.096  0.3496E-02  0.8445E+01
     15.232  0.4519E-01  0.8451E+01
     15.369  0.2437E+00  0.8484E+01
     15.505  0.5528E+00  0.8560E+01
     15.642  0.5302E+00  0.8632E+01
     15.778  0.2183E+00  0.8662E+01
     15.914  0.1014E+00  0.8676E+01
     16.051  0.5166E+00  0.8746E+01
     16.187  0.1710E+01  0.8979E+01
     16.323  0.2402E+01  0.9307E+01
     16.460  0.1427E+01  0.9501E+01
     16.596  0.3575E+00  0.9550E+01
     16.732  0.3747E-01  0.9555E+01
     16.869  0.1628E-02  0.9556E+01
     17.005  0.4805E-04  0.9556E+01
     17.142  0.1009E-02  0.9556E+01
     17.278  0.2201E-01  0.9559E+01
     17.414  0.1992E+00  0.9586E+01
     17.551  0.7546E+00  0.9689E+01
     17.687  0.1207E+01  0.9853E+01
     17.823  0.8496E+00  0.9969E+01
     17.960  0.6029E+00  0.1005E+02
     18.096  0.1693E+01  0.1028E+02
     18.232  0.3204E+01  0.1072E+02
     18.369  0.2944E+01  0.1112E+02
     18.505  0.2116E+01  0.1141E+02
     18.641  0.1684E+01  0.1164E+02
     18.778  0.8230E+00  0.1175E+02
     18.914  0.1794E+00  0.1178E+02
     19.051  0.1646E-01  0.1178E+02
     19.187  0.6257E-03  0.1178E+02
     19.323  0.9750E-05  0.1178E+02
     19.460  0.6179E-07  0.1178E+02
     19.596  0.1582E-09  0.1178E+02
     19.732  0.1631E-12  0.1178E+02
     19.869  0.0000E+00  0.1178E+02
     20.005  0.0000E+00  0.1178E+02
     20.141  0.0000E+00  0.1178E+02
     20.278  0.0000E+00  0.1178E+02
     20.414  0.0000E+00  0.1178E+02
     20.551  0.0000E+00  0.1178E+02
     20.687  0.0000E+00  0.1178E+02
     20.823  0.0000E+00  0.1178E+02
     20.960  0.0000E+00  0.1178E+02
     21.096  0.0000E+00  0.1178E+02
     21.232  0.0000E+00  0.1178E+02
     21.369  0.0000E+00  0.1178E+02
     21.505  0.0000E+00  0.1178E+02
     21.641  0.0000E+00  0.1178E+02
     21.778  0.1303E-13  0.1178E+02
     21.914  0.1787E-10  0.1178E+02
     22.051  0.9970E-08  0.1178E+02
     22.187  0.2242E-05  0.1178E+02
     22.323  0.2045E-03  0.1178E+02
     22.460  0.7622E-02  0.1178E+02
     22.596  0.1171E+00  0.1179E+02
     22.732  0.7496E+00  0.1190E+02
     22.869  0.2015E+01  0.1217E+02
     23.005  0.2291E+01  0.1248E+02
     23.141  0.1148E+01  0.1264E+02
     23.278  0.6061E+00  0.1272E+02
     23.414  0.1472E+01  0.1292E+02
     23.551  0.2521E+01  0.1327E+02
     23.687  0.1969E+01  0.1354E+02
     23.823  0.1029E+01  0.1368E+02
     23.960  0.1591E+01  0.1389E+02
     24.096  0.2416E+01  0.1422E+02
     24.232  0.1636E+01  0.1445E+02
     24.369  0.4686E+00  0.1451E+02
     24.505  0.5751E-01  0.1452E+02
     24.641  0.3425E-01  0.1452E+02
     24.778  0.3198E+00  0.1457E+02
     24.914  0.1389E+01  0.1476E+02
     25.051  0.2762E+01  0.1513E+02
     25.187  0.2989E+01  0.1554E+02
     25.323  0.2161E+01  0.1583E+02
     25.460  0.9719E+00  0.1597E+02
     25.596  0.2169E+00  0.1600E+02
     25.732  0.2122E-01  0.1600E+02
     25.869  0.8703E-03  0.1600E+02
     26.005  0.1468E-04  0.1600E+02
     26.141  0.1009E-06  0.1600E+02
     26.278  0.2801E-09  0.1600E+02
     26.414  0.3131E-12  0.1600E+02
     26.551  0.0000E+00  0.1600E+02
     26.687  0.0000E+00  0.1600E+02
     26.823  0.0000E+00  0.1600E+02
     26.960  0.0000E+00  0.1600E+02
     27.096  0.0000E+00  0.1600E+02
     27.232  0.0000E+00  0.1600E+02
