<?xml version="1.0" encoding="ISO-8859-1"?>
<modeling>
 <generator>
  <i name="program" type="string">vasp </i>
  <i name="version" type="string">6.5.1  </i>
  <i name="subversion" type="string">10Mar25 (build Feb 13 2026 23:13:13) complex                          parallel </i>
  <i name="platform" type="string">LinuxIFC </i>
  <i name="date" type="string">2026 06 23 </i>
  <i name="time" type="string">04:05:28 </i>
 </generator>
 <incar>
  <i type="string" name="PREC">Normal</i>
  <i type="string" name="ALGO">Fast</i>
  <i type="int" name="ISPIN">     1</i>
  <i type="int" name="NELMIN">     4</i>
  <i name="EDIFF">      0.00000100</i>
  <i type="int" name="NSW">     0</i>
  <i name="ENCUT">    500.00000000</i>
  <i type="logical" name="LREAL"> F  </i>
  <i type="int" name="ISMEAR">     0</i>
  <i name="SIGMA">      0.20000000</i>
  <i type="logical" name="LWAVE"> F  </i>
 </incar>
 <primitive_cell>
  <structure name="primitive_cell" >
   <crystal>
    <varray name="basis" >
     <v>       2.51730013       0.00000000       0.00000000 </v>
     <v>       1.25865006       2.18004586       0.00000000 </v>
     <v>       1.25865006       0.72668195       2.05536695 </v>
    </varray>
    <i name="volume">     11.27950384 </i>
    <varray name="rec_basis" >
     <v>       0.39725100      -0.22935297      -0.16217704 </v>
     <v>       0.00000000       0.45870595      -0.16217704 </v>
     <v>       0.00000000       0.00000000       0.48653113 </v>
    </varray>
   </crystal>
   <varray name="positions" >
    <v>       0.25000000       0.25000000       0.25000000 </v>
    <v>       0.00000000       0.00000000       0.00000000 </v>
   </varray>
  </structure>
  <varray name="primitive_index" >
   <v type="int" >        1 </v>
   <v type="int" >        2 </v>
  </varray>
 </primitive_cell>
 <kpoints>
  <generation param="Gamma">
   <v type="int" name="divisions">       3        3        3 </v>
   <v name="usershift">      0.00000000       0.00000000       0.00000000 </v>
   <v name="genvec1">      0.33333333      -0.00000000      -0.00000000 </v>
   <v name="genvec2">      0.00000000       0.33333333      -0.00000000 </v>
   <v name="genvec3">      0.00000000       0.00000000       0.33333333 </v>
   <v name="shift">      0.00000000       0.00000000       0.00000000 </v>
  </generation>
  <varray name="kpointlist" >
   <v>       0.00000000       0.00000000       0.00000000 </v>
   <v>       0.33333333       0.00000000       0.00000000 </v>
   <v>       0.33333333       0.33333333       0.00000000 </v>
   <v>      -0.33333333       0.33333333       0.00000000 </v>
  </varray>
  <varray name="weights" >
   <v>       0.03703704 </v>
   <v>       0.29629630 </v>
   <v>       0.22222222 </v>
   <v>       0.44444444 </v>
  </varray>
 </kpoints>
 <parameters>
  <separator name="general" >
   <i type="string" name="SYSTEM">unknown system</i>
   <i type="logical" name="LCOMPAT"> F  </i>
  </separator>
  <separator name="electronic" >
   <i type="string" name="PREC">normal</i>
   <i name="ENMAX">    500.00000000</i>
   <i name="ENAUG">    644.87300000</i>
   <i name="EDIFF">      0.00000100</i>
   <i type="int" name="IALGO">    68</i>
   <i type="int" name="IWAVPR">    10</i>
   <i type="int" name="NBANDS">     8</i>
   <i type="int" name="NBANDSLOW">    -1</i>
   <i type="int" name="NBANDSHIGH">    -1</i>
   <i name="NELECT">      8.00000000</i>
   <i type="int" name="TURBO">     0</i>
   <i type="int" name="IRESTART">     0</i>
   <i type="int" name="NREBOOT">     0</i>
   <i type="int" name="NMIN">     0</i>
   <i name="EREF">      0.00000000</i>
   <separator name="electronic smearing" >
    <i type="int" name="ISMEAR">     0</i>
    <i name="SIGMA">      0.20000000</i>
    <i name="KSPACING">      0.50000000</i>
    <i type="logical" name="KGAMMA"> T  </i>
    <i type="logical" name="KBLOWUP"> T  </i>
   </separator>
   <separator name="electronic projectors" >
    <i type="logical" name="LREAL"> F  </i>
    <v name="ROPT">      0.00000000</v>
    <i type="int" name="LMAXPAW">  -100</i>
    <i type="int" name="LMAXMIX">     2</i>
    <i type="logical" name="NLSPLINE"> F  </i>
   </separator>
   <separator name="electronic startup" >
    <i type="int" name="ISTART">     0</i>
    <i type="int" name="ICHARG">     2</i>
    <i type="int" name="INIWAV">     1</i>
   </separator>
   <separator name="electronic spin" >
    <i type="int" name="ISPIN">     1</i>
    <i type="logical" name="LNONCOLLINEAR"> F  </i>
    <v name="MAGMOM">      1.00000000      1.00000000</v>
    <i name="NUPDOWN">     -1.00000000</i>
    <i type="logical" name="LSORBIT"> F  </i>
    <v name="SAXIS">      0.00000000      0.00000000      1.00000000</v>
    <i type="logical" name="LSPIRAL"> F  </i>
    <v name="QSPIRAL">      0.00000000      0.00000000      0.00000000</v>
    <i type="logical" name="LZEROZ"> F  </i>
   </separator>
   <separator name="electronic exchange-correlation" >
    <i type="logical" name="LASPH"> F  </i>
   </separator>
   <separator name="electronic convergence" >
    <i type="int" name="NELM">    60</i>
    <i type="int" name="NELMDL">    -5</i>
    <i type="int" name="NELMIN">     4</i>
    <i name="ENINI">    500.00000000</i>
    <separator name="electronic convergence detail" >
     <i type="logical" name="LDIAG"> T  </i>
     <i type="logical" name="LSUBROT"> F  </i>
     <i type="logical" name="LROBUST"> F  </i>
     <i type="int" name="ISEARCH">     0</i>
     <i name="WEIMIN">      0.00000000</i>
     <i name="EBREAK">      0.00000003</i>
     <i name="DEPER">      0.30000000</i>
     <i type="int" name="NRMM">     4</i>
     <i name="TIME">      0.40000000</i>
    </separator>
   </separator>
   <separator name="electronic mixer" >
    <i name="AMIX">      0.40000000</i>
    <i name="BMIX">      1.00000000</i>
    <i name="AMIN">      0.10000000</i>
    <i name="AMIX_MAG">      1.60000000</i>
    <i name="BMIX_MAG">      1.00000000</i>
    <separator name="electronic mixer details" >
     <i type="int" name="IMIX">     4</i>
     <i type="logical" name="MIXFIRST"> F  </i>
     <i type="int" name="MAXMIX">   -45</i>
     <i name="WC">    100.00000000</i>
     <i type="int" name="INIMIX">     1</i>
     <i type="int" name="MIXPRE">     1</i>
     <i type="int" name="MREMOVE">     5</i>
    </separator>
   </separator>
   <separator name="electronic dipolcorrection" >
    <i type="logical" name="LDIPOL"> F  </i>
    <i type="logical" name="LMONO"> F  </i>
    <i type="int" name="IDIPOL">     0</i>
    <i name="EPSILON">      1.00000000</i>
    <v name="DIPOL">   -100.00000000   -100.00000000   -100.00000000</v>
    <i name="EFIELD">      0.00000000</i>
    <i type="logical" name="LVACPOTAV"> F  </i>
   </separator>
  </separator>
  <separator name="grids" >
   <i type="int" name="NGX">    14</i>
   <i type="int" name="NGY">    14</i>
   <i type="int" name="NGZ">    14</i>
   <i type="int" name="NGXF">    28</i>
   <i type="int" name="NGYF">    28</i>
   <i type="int" name="NGZF">    28</i>
   <i type="logical" name="ADDGRID"> F  </i>
  </separator>
  <separator name="ionic" >
   <i type="int" name="NSW">     0</i>
   <i type="int" name="IBRION">    -1</i>
   <i type="int" name="MDALGO">     0</i>
   <i type="int" name="ISIF">     2</i>
   <i name="PSTRESS">      0.00000000</i>
   <i name="EDIFFG">      0.00001000</i>
   <i type="int" name="NFREE">     0</i>
   <i name="POTIM">      0.50000000</i>
   <i name="SMASS">     -3.00000000</i>
   <i name="SCALEE">      1.00000000</i>
  </separator>
  <separator name="ionic md" >
   <i name="TEBEG">      0.00010000</i>
   <i name="TEEND">      0.00010000</i>
   <i type="int" name="NBLOCK">     1</i>
   <i type="int" name="KBLOCK">     1</i>
   <i type="int" name="NPACO">   256</i>
   <i name="APACO">     10.00000000</i>
  </separator>
  <separator name="symmetry" >
   <i type="int" name="ISYM">     2</i>
   <i name="SYMPREC">      0.00001000</i>
  </separator>
  <separator name="dos" >
   <i type="int" name="LORBIT">     0</i>
   <v name="RWIGS">     -1.00000000</v>
   <i type="int" name="NEDOS">   301</i>
   <i name="EMIN">     10.00000000</i>
   <i name="EMAX">    -10.00000000</i>
   <i name="EFERMI">      0.00000000</i>
  </separator>
  <separator name="writing" >
   <i type="int" name="NWRITE">     2</i>
   <i type="logical" name="LWAVE"> F  </i>
   <i type="logical" name="LDOWNSAMPLE"> F  </i>
   <i type="logical" name="LCHARG"> T  </i>
   <i type="logical" name="LPARD"> F  </i>
   <i type="logical" name="LVTOT"> F  </i>
   <i type="logical" name="LVHAR"> F  </i>
   <i type="logical" name="LELF"> F  </i>
   <i type="logical" name="LOPTICS"> F  </i>
   <v name="STM">      0.00000000      0.00000000      0.00000000      0.00000000      0.00000000      0.00000000      0.00000000</v>
  </separator>
  <separator name="performance" >
   <i type="int" name="NPAR">     4</i>
   <i type="int" name="NSIM">     4</i>
   <i type="int" name="NBLK">    -1</i>
   <i type="logical" name="LPLANE"> T  </i>
   <i type="logical" name="LSCALAPACK"> T  </i>
   <i type="logical" name="LSCAAWARE"> F  </i>
   <i type="logical" name="LSCALU"> F  </i>
   <i type="logical" name="LASYNC"> F  </i>
   <i type="logical" name="LORBITALREAL"> F  </i>
  </separator>
  <separator name="miscellaneous" >
   <i type="int" name="IDIOT">     3</i>
   <i type="int" name="PHON_NSTRUCT">    -1</i>
   <i type="logical" name="LMUSIC"> F  </i>
   <v name="POMASS">     12.01100000</v>
   <v name="DARWINR">      0.00000000</v>
   <v name="DARWINV">      1.00000000</v>
   <i type="logical" name="LCORR"> T  </i>
  </separator>
  <i type="logical" name="GGA_COMPAT"> T  </i>
  <i type="logical" name="LBERRY"> F  </i>
  <i type="int" name="ICORELEVEL">     0</i>
  <i type="logical" name="LDAU"> F  </i>
  <i type="int" name="I_CONSTRAINED_M">     0</i>
  <separator name="electronic exchange-correlation" >
   <i type="string" name="GGA    ">PE</i>
   <i type="string" name="XC_C">1</i>
   <i type="int" name="VOSKOWN">     0</i>
   <i type="logical" name="LHFCALC"> F  </i>
   <i type="string" name="PRECFOCK"></i>
   <i type="logical" name="LSYMGRAD"> F  </i>
   <i type="logical" name="LHFONE"> F  </i>
   <i type="logical" name="LRHFCALC"> F  </i>
   <i type="logical" name="LTHOMAS"> F  </i>
   <i type="logical" name="LMODELHF"> F  </i>
   <i type="logical" name="LFOCKACE"> F  </i>
   <i name="ENCUT4O">     -1.00000000</i>
   <i type="int" name="EXXOEP">     0</i>
   <i type="int" name="FOURORBIT">     0</i>
   <i name="AEXX">      0.00000000</i>
   <i name="HFALPHA">      0.00000000</i>
   <i name="MCALPHA">      0.00000000</i>
   <i name="ALDAX">      1.00000000</i>
   <i name="AGGAX">      1.00000000</i>
   <i name="AMGGAX">      1.00000000</i>
   <i name="ALDAC">      1.00000000</i>
   <i name="AGGAC">      1.00000000</i>
   <i name="AMGGAC">      1.00000000</i>
   <i type="int" name="NKREDX">     1</i>
   <i type="int" name="NKREDY">     1</i>
   <i type="int" name="NKREDZ">     1</i>
   <i type="logical" name="SHIFTRED"> F  </i>
   <i type="logical" name="ODDONLY"> F  </i>
   <i type="logical" name="EVENONLY"> F  </i>
   <i type="int" name="LMAXFOCK">     0</i>
   <i type="int" name="NMAXFOCKAE">     0</i>
   <i type="logical" name="LFOCKAEDFT"> F  </i>
   <i name="HFSCREEN">      0.00000000</i>
   <i name="HFSCREENC">      0.00000000</i>
   <i type="int" name="NBANDSGWLOW">     0</i>
  </separator>
  <separator name="vdW DFT" >
   <i type="logical" name="LUSE_VDW"> F  </i>
   <i type="int" name="IVDW_NL">    -1</i>
   <i type="logical" name="LSPIN_VDW"> F  </i>
   <i name="ZAB_VDW">     -0.84910000</i>
   <i name="GAMMA_VDW">      1.39626340</i>
   <i name="ALPHA_VDW">      0.00000000</i>
   <i name="PARAM1">      0.12340000</i>
   <i name="PARAM2">      1.00000000</i>
   <i name="BPARAM">      6.30000000</i>
   <i name="CPARAM">      0.00930000</i>
  </separator>
  <separator name="model GW" >
   <i type="int" name="MODEL_GW">     0</i>
   <i name="MODEL_EPS0">      3.38385115</i>
   <i name="MODEL_ALPHA">      1.00000000</i>
  </separator>
  <separator name="linear response parameters" >
   <i type="logical" name="LEPSILON"> F  </i>
   <i type="logical" name="LRPA"> F  </i>
   <i type="logical" name="LNABLA"> F  </i>
   <i type="logical" name="LVEL"> F  </i>
   <i name="CSHIFT">      0.10000000</i>
   <i name="OMEGAMAX">     -1.00000000</i>
   <i name="DEG_THRESHOLD">      0.00200000</i>
   <i name="RTIME">     -0.10000000</i>
   <i name="WPLASMAI">      0.00000000</i>
   <v name="DFIELD">      0.00000000      0.00000000      0.00000000</v>
   <v name="WPLASMA">      0.00000000      0.00000000      0.00000000      0.00000000      0.00000000      0.00000000      0.00000000      0.00000000      0.00000000</v>
  </separator>
  <separator name="orbital magnetization" >
   <i type="logical" name="NUCIND"> F  </i>
   <v name="MAGPOS">      0.00000000      0.00000000      0.00000000</v>
   <i type="logical" name="LNICSALL"> T  </i>
   <i type="logical" name="ORBITALMAG"> F  </i>
   <i type="logical" name="LMAGBLOCH"> F  </i>
   <i type="logical" name="LCHIMAG"> F  </i>
   <i type="logical" name="LGAUGE"> T  </i>
   <i type="int" name="MAGATOM">     0</i>
   <v name="MAGDIPOL">      0.00000000      0.00000000      0.00000000</v>
   <v name="AVECCONST">      0.00000000      0.00000000      0.00000000</v>
  </separator>
  <separator name="response functions" >
   <i type="logical" name="LALL_IN_ONE"> F  </i>
   <i type="int" name="IALL_IN_ONE">    -1</i>
   <i type="int" name="NBANDS_WAVE">    -1</i>
   <i type="logical" name="LFINITE_TEMPERATURE"> F  </i>
   <i type="logical" name="LADDER"> F  </i>
   <i type="logical" name="LRPAFORCE"> F  </i>
   <i type="logical" name="LFXC"> F  </i>
   <i type="logical" name="LHARTREE"> T  </i>
   <i type="int" name="IBSE">     2</i>
   <v type="int" name="KPOINT">    -1     0     0     0</v>
   <i type="logical" name="LTCTC"> F  </i>
   <i type="logical" name="LTCTE"> F  </i>
   <i type="logical" name="LTETE"> F  </i>
   <i type="logical" name="LTRIPLET"> F  </i>
   <i type="logical" name="LFXCEPS"> F  </i>
   <i type="logical" name="LFXHEG"> F  </i>
   <i type="int" name="NATURALO">     2</i>
   <i type="logical" name="LHOLEGF"> F  </i>
   <i type="logical" name="L2ORDER"> F  </i>
   <i type="logical" name="LDMP1"> F  </i>
   <i type="logical" name="LMP2LT"> F  </i>
   <i type="logical" name="LSMP2LT"> F  </i>
   <i type="logical" name="LGWLF"> F  </i>
   <i name="ENCUTGW">     -1.60000002</i>
   <i name="ENCUTGWSOFT">     -1.60000002</i>
   <i name="ENCUTLF">     -1.00000000</i>
   <i type="logical" name="ESF_SPLINES"> F  </i>
   <i name="ESF_CONV">      0.01000000</i>
   <i type="int" name="ESF_NINTER">    15</i>
   <i type="int" name="LMAXMP2">    -1</i>
   <i name="SCISSOR">      0.00000000</i>
   <i type="int" name="NOMEGA">     0</i>
   <i type="int" name="NOMEGAR">     0</i>
   <i type="int" name="NBANDSGW">    -1</i>
   <i type="int" name="NBANDSO">    -1</i>
   <i type="int" name="NBANDSV">    -1</i>
   <i type="int" name="NELMGW">     1</i>
   <i type="int" name="NELMHF">     1</i>
   <i type="int" name="DIM">     3</i>
   <i type="int" name="IESPILON">     4</i>
   <i type="int" name="ANTIRES">     0</i>
   <i name="OMEGAMAX">    -30.00000000</i>
   <i name="OMEGAMIN">    -30.00000000</i>
   <i name="OMEGATL">   -200.00000000</i>
   <i type="int" name="OMEGAGRID">     0</i>
   <i name="CSHIFT">     -0.10000000</i>
   <i type="logical" name="LSELFENERGY"> F  </i>
   <i type="logical" name="LSPECTRAL"> F  </i>
   <i type="logical" name="LSPECTRALGW"> F  </i>
   <i type="logical" name="LSINGLES"> F  </i>
   <i type="logical" name="LFERMIGW"> F  </i>
   <i type="logical" name="ODDONLYGW"> F  </i>
   <i type="logical" name="EVENONLYGW"> F  </i>
   <i type="int" name="NKREDLFX">     1</i>
   <i type="int" name="NKREDLFY">     1</i>
   <i type="int" name="NKREDLFZ">     1</i>
   <i type="int" name="MAXMEM">  2800</i>
   <i type="int" name="TELESCOPE">     0</i>
   <i type="int" name="NTAUPAR">    -1</i>
   <i type="int" name="NOMEGAPAR">    -1</i>
   <i name="DAMP_NEWTON">      0.80000001</i>
   <i name="LAMBDA">      1.00000000</i>
  </separator>
  <separator name="External order field" >
   <i name="OFIELD_KAPPA">      0.00000000</i>
   <v name="OFIELD_K">      0.00000000      0.00000000      0.00000000</v>
   <i name="OFIELD_Q6_NEAR">      0.00000000</i>
   <i name="OFIELD_Q6_FAR">      0.00000000</i>
   <i name="OFIELD_A">      0.00000000</i>
  </separator>
  <separator name="optional k-points parameters" >
   <i type="int" name="KPOINTS_OPT_MODE">     1</i>
   <i type="logical" name="LKPOINTS_OPT"> F  </i>
  </separator>
 </parameters>
 <atominfo>
  <atoms>       2 </atoms>
  <types>       1 </types>
  <array name="atoms" >
   <dimension dim="1">ion</dimension>
   <field type="string">element</field>
   <field type="int">atomtype</field>
   <set>
    <rc><c>C </c><c>   1</c></rc>
    <rc><c>C </c><c>   1</c></rc>
   </set>
  </array>
  <array name="atomtypes" >
   <dimension dim="1">type</dimension>
   <field type="int">atomspertype</field>
   <field type="string">element</field>
   <field>mass</field>
   <field>valence</field>
   <field type="string">pseudopotential</field>
   <set>
    <rc><c>   2</c><c>C </c><c>     12.01100000</c><c>      4.00000000</c><c>  PAW_PBE C 08Apr2002                   </c></rc>
   </set>
  </array>
 </atominfo>
 <structure name="initialpos" >
  <crystal>
   <varray name="basis" >
    <v>       2.51730013       0.00000000       0.00000000 </v>
    <v>       1.25865006       2.18004586       0.00000000 </v>
    <v>       1.25865006       0.72668195       2.05536695 </v>
   </varray>
   <i name="volume">     11.27950384 </i>
   <varray name="rec_basis" >
    <v>       0.39725100      -0.22935297      -0.16217704 </v>
    <v>       0.00000000       0.45870595      -0.16217704 </v>
    <v>       0.00000000       0.00000000       0.48653113 </v>
   </varray>
  </crystal>
  <varray name="positions" >
   <v>       0.25000000       0.25000000       0.25000000 </v>
   <v>       0.00000000       0.00000000       0.00000000 </v>
  </varray>
 </structure>
 <calculation>
  <scstep>
   <time name="dav">    0.01    0.01</time>
   <time name="total">    0.01    0.01</time>
   <energy>
    <i name="alphaZ">     29.13132251 </i>
    <i name="ewald">   -348.62358043 </i>
    <i name="hartreedc">    -17.48913657 </i>
    <i name="XCdc">     27.44127174 </i>
    <i name="pawpsdc">    217.04409276 </i>
    <i name="pawaedc">   -218.18290438 </i>
    <i name="eentropy">     -0.01570416 </i>
    <i name="bandstr">     22.14689469 </i>
    <i name="atom">    294.29684335 </i>
    <i name="e_fr_energy">      5.74909950 </i>
    <i name="e_wo_entrp">      5.76480367 </i>
    <i name="e_0_energy">      5.75695159 </i>
   </energy>
  </scstep>
  <scstep>
   <time name="dav">    0.01    0.01</time>
   <time name="total">    0.01    0.01</time>
   <energy>
    <i name="e_fr_energy">    -18.15001555 </i>
    <i name="e_wo_entrp">    -18.15001555 </i>
    <i name="e_0_energy">    -18.15001555 </i>
   </energy>
  </scstep>
  <scstep>
   <time name="dav">    0.01    0.01</time>
   <time name="total">    0.01    0.01</time>
   <energy>
    <i name="e_fr_energy">    -18.33809485 </i>
    <i name="e_wo_entrp">    -18.33809485 </i>
    <i name="e_0_energy">    -18.33809485 </i>
   </energy>
  </scstep>
  <scstep>
   <time name="dav">    0.01    0.01</time>
   <time name="total">    0.01    0.01</time>
   <energy>
    <i name="e_fr_energy">    -18.33821955 </i>
    <i name="e_wo_entrp">    -18.33821955 </i>
    <i name="e_0_energy">    -18.33821955 </i>
   </energy>
  </scstep>
  <scstep>
   <time name="dav">    0.00    0.00</time>
   <time name="total">    0.01    0.01</time>
   <energy>
    <i name="e_fr_energy">    -18.33821959 </i>
    <i name="e_wo_entrp">    -18.33821959 </i>
    <i name="e_0_energy">    -18.33821959 </i>
   </energy>
  </scstep>
  <scstep>
   <time name="diag">    0.01    0.01</time>
   <time name="diis">    0.00    0.00</time>
   <time name="orth">    0.00    0.00</time>
   <time name="total">    0.01    0.01</time>
   <energy>
    <i name="e_fr_energy">    -17.78484259 </i>
    <i name="e_wo_entrp">    -17.78484259 </i>
    <i name="e_0_energy">    -17.78484259 </i>
   </energy>
  </scstep>
  <scstep>
   <time name="diag">    0.00    0.00</time>
   <time name="diis">    0.00    0.00</time>
   <time name="orth">    0.00    0.00</time>
   <time name="total">    0.01    0.01</time>
   <energy>
    <i name="e_fr_energy">    -17.59637661 </i>
    <i name="e_wo_entrp">    -17.59637661 </i>
    <i name="e_0_energy">    -17.59637661 </i>
   </energy>
  </scstep>
  <scstep>
   <time name="diag">    0.00    0.00</time>
   <time name="diis">    0.00    0.00</time>
   <time name="orth">    0.00    0.00</time>
   <time name="total">    0.01    0.01</time>
   <energy>
    <i name="e_fr_energy">    -17.60061235 </i>
    <i name="e_wo_entrp">    -17.60061235 </i>
    <i name="e_0_energy">    -17.60061235 </i>
   </energy>
  </scstep>
  <scstep>
   <time name="diag">    0.00    0.00</time>
   <time name="diis">    0.00    0.00</time>
   <time name="orth">    0.00    0.00</time>
   <time name="total">    0.01    0.01</time>
   <energy>
    <i name="e_fr_energy">    -17.60074559 </i>
    <i name="e_wo_entrp">    -17.60074559 </i>
    <i name="e_0_energy">    -17.60074559 </i>
   </energy>
  </scstep>
  <scstep>
   <time name="diag">    0.00    0.00</time>
   <time name="diis">    0.00    0.00</time>
   <time name="orth">    0.00    0.00</time>
   <time name="total">    0.01    0.01</time>
   <energy>
    <i name="e_fr_energy">    -17.60077375 </i>
    <i name="e_wo_entrp">    -17.60077375 </i>
    <i name="e_0_energy">    -17.60077375 </i>
   </energy>
  </scstep>
  <scstep>
   <time name="diag">    0.00    0.00</time>
   <time name="diis">    0.00    0.00</time>
   <time name="orth">    0.00    0.00</time>
   <time name="total">    0.01    0.01</time>
   <energy>
    <i name="e_fr_energy">    -17.60077864 </i>
    <i name="e_wo_entrp">    -17.60077864 </i>
    <i name="e_0_energy">    -17.60077864 </i>
   </energy>
  </scstep>
  <scstep>
   <time name="diag">    0.00    0.00</time>
   <time name="diis">    0.00    0.00</time>
   <time name="orth">    0.00    0.00</time>
   <time name="total">    0.01    0.01</time>
   <energy>
    <i name="e_fr_energy">    -17.60078003 </i>
    <i name="e_wo_entrp">    -17.60078003 </i>
    <i name="e_0_energy">    -17.60078003 </i>
   </energy>
  </scstep>
  <scstep>
   <time name="diag">    0.00    0.00</time>
   <time name="diis">    0.00    0.00</time>
   <time name="orth">    0.00    0.00</time>
   <time name="total">    0.01    0.01</time>
   <energy>
    <i name="alphaZ">     29.13132251 </i>
    <i name="ewald">   -348.62358043 </i>
    <i name="hartreedc">    -27.02105198 </i>
    <i name="XCdc">     28.31135014 </i>
    <i name="pawpsdc">    793.73451050 </i>
    <i name="pawaedc">   -795.10204964 </i>
    <i name="eentropy">     -0.00000000 </i>
    <i name="bandstr">      7.67187585 </i>
    <i name="atom">    294.29684335 </i>
    <i name="e_fr_energy">    -17.60077971 </i>
    <i name="e_wo_entrp">    -17.60077971 </i>
    <i name="e_0_energy">    -17.60077971 </i>
   </energy>
  </scstep>
  <structure>
   <crystal>
    <varray name="basis" >
     <v>       2.51730013       0.00000000       0.00000000 </v>
     <v>       1.25865006       2.18004586       0.00000000 </v>
     <v>       1.25865006       0.72668195       2.05536695 </v>
    </varray>
    <i name="volume">     11.27950384 </i>
    <varray name="rec_basis" >
     <v>       0.39725100      -0.22935297      -0.16217704 </v>
     <v>       0.00000000       0.45870595      -0.16217704 </v>
     <v>       0.00000000       0.00000000       0.48653113 </v>
    </varray>
   </crystal>
   <varray name="positions" >
    <v>       0.25000000       0.25000000       0.25000000 </v>
    <v>       0.00000000       0.00000000       0.00000000 </v>
   </varray>
  </structure>
  <varray name="forces" >
   <v>      -0.00000000      -0.00000000       0.00000000 </v>
   <v>       0.00000000       0.00000000      -0.00000000 </v>
  </varray>
  <varray name="stress" >
   <v>     103.40253713       0.00000000       0.00000000 </v>
   <v>       0.00000000     103.40253714      -0.00000000 </v>
   <v>       0.00000000      -0.00000000     103.40253713 </v>
  </varray>
  <energy>
   <i name="e_fr_energy">    -17.60077971 </i>
   <i name="e_wo_entrp">    -17.60077971 </i>
   <i name="e_0_energy">    -17.60077971 </i>
  </energy>
  <time name="totalsc">    0.14    0.15</time>
  <eigenvalues>
   <array>
    <dimension dim="1">band</dimension>
    <dimension dim="2">kpoint</dimension>
    <dimension dim="3">spin</dimension>
    <field>eigene</field>
    <field>occ</field>
    <set>
     <set comment="spin 1">
      <set comment="kpoint 1">
       <r>  -11.6766    1.0000 </r>
       <r>    9.9195    1.0000 </r>
       <r>    9.9196    1.0000 </r>
       <r>    9.9196    1.0000 </r>
       <r>   15.4985    0.0000 </r>
       <r>   15.4985    0.0000 </r>
       <r>   15.4985    0.0000 </r>
       <r>   23.3821    0.0000 </r>
      </set>
      <set comment="kpoint 2">
       <r>   -8.6435    1.0000 </r>
       <r>    0.4816    1.0000 </r>
       <r>    7.5789    1.0000 </r>
       <r>    7.5789    1.0000 </r>
       <r>   18.1969    0.0000 </r>
       <r>   18.1969    0.0000 </r>
       <r>   18.5384    0.0000 </r>
       <r>   25.2324    0.0000 </r>
      </set>
      <set comment="kpoint 3">
       <r>   -7.6338    1.0000 </r>
       <r>    2.7092    1.0000 </r>
       <r>    4.5582    1.0000 </r>
       <r>    4.5582    1.0000 </r>
       <r>   14.0428    0.0000 </r>
       <r>   17.6249    0.0000 </r>
       <r>   24.0345    0.0000 </r>
       <r>   24.0346    0.0000 </r>
      </set>
      <set comment="kpoint 4">
       <r>   -4.2028    1.0000 </r>
       <r>   -1.0774    1.0000 </r>
       <r>    0.4539    1.0000 </r>
       <r>    5.1904    1.0000 </r>
       <r>   16.2408    0.0000 </r>
       <r>   22.8889    0.0000 </r>
       <r>   23.5138    0.0000 </r>
       <r>   25.0056    0.0000 </r>
      </set>
     </set>
    </set>
   </array>
  </eigenvalues>
  <separator name="orbital magnetization" >
   <v name="MAGDIPOLOUT">      0.00000000      0.00000000      0.00000000</v>
  </separator>
  <dos>
   <i name="efermi">     10.86985761 </i>
   <total>
    <array>
     <dimension dim="1">gridpoints</dimension>
     <dimension dim="2">spin</dimension>
     <field>energy</field>
     <field>total</field>
     <field>integrated</field>
     <set>
      <set comment="spin 1">
       <r>   -13.6766     0.0000     0.0000 </r>
       <r>   -13.5402     0.0000     0.0000 </r>
       <r>   -13.4039     0.0000     0.0000 </r>
       <r>   -13.2675     0.0000     0.0000 </r>
       <r>   -13.1311     0.0000     0.0000 </r>
       <r>   -12.9948     0.0000     0.0000 </r>
       <r>   -12.8584     0.0000     0.0000 </r>
       <r>   -12.7220     0.0000     0.0000 </r>
       <r>   -12.5857     0.0000     0.0000 </r>
       <r>   -12.4493     0.0000     0.0000 </r>
       <r>   -12.3130     0.0000     0.0000 </r>
       <r>   -12.1766     0.0001     0.0000 </r>
       <r>   -12.0402     0.0026     0.0004 </r>
       <r>   -11.9039     0.0266     0.0040 </r>
       <r>   -11.7675     0.1120     0.0193 </r>
       <r>   -11.6311     0.1987     0.0464 </r>
       <r>   -11.4948     0.1492     0.0667 </r>
       <r>   -11.3584     0.0473     0.0732 </r>
       <r>   -11.2221     0.0063     0.0740 </r>
       <r>   -11.0857     0.0003     0.0741 </r>
       <r>   -10.9493     0.0000     0.0741 </r>
       <r>   -10.8130     0.0000     0.0741 </r>
       <r>   -10.6766     0.0000     0.0741 </r>
       <r>   -10.5402     0.0000     0.0741 </r>
       <r>   -10.4039     0.0000     0.0741 </r>
       <r>   -10.2675     0.0000     0.0741 </r>
       <r>   -10.1311     0.0000     0.0741 </r>
       <r>    -9.9948     0.0000     0.0741 </r>
       <r>    -9.8584     0.0000     0.0741 </r>
       <r>    -9.7221     0.0000     0.0741 </r>
       <r>    -9.5857     0.0000     0.0741 </r>
       <r>    -9.4493     0.0000     0.0741 </r>
       <r>    -9.3130     0.0000     0.0741 </r>
       <r>    -9.1766     0.0004     0.0741 </r>
       <r>    -9.0402     0.0106     0.0756 </r>
       <r>    -8.9039     0.1316     0.0935 </r>
       <r>    -8.7675     0.6842     0.1868 </r>
       <r>    -8.6312     1.4972     0.3910 </r>
       <r>    -8.4948     1.3850     0.5798 </r>
       <r>    -8.3584     0.5415     0.6537 </r>
       <r>    -8.2221     0.0890     0.6658 </r>
       <r>    -8.0857     0.0083     0.6670 </r>
       <r>    -7.9493     0.0397     0.6724 </r>
       <r>    -7.8130     0.2925     0.7123 </r>
       <r>    -7.6766     0.9076     0.8360 </r>
       <r>    -7.5402     1.1890     0.9982 </r>
       <r>    -7.4039     0.6588     1.0880 </r>
       <r>    -7.2675     0.1538     1.1090 </r>
       <r>    -7.1312     0.0150     1.1110 </r>
       <r>    -6.9948     0.0006     1.1111 </r>
       <r>    -6.8584     0.0000     1.1111 </r>
       <r>    -6.7221     0.0000     1.1111 </r>
       <r>    -6.5857     0.0000     1.1111 </r>
       <r>    -6.4493     0.0000     1.1111 </r>
       <r>    -6.3130     0.0000     1.1111 </r>
       <r>    -6.1766     0.0000     1.1111 </r>
       <r>    -6.0402     0.0000     1.1111 </r>
       <r>    -5.9039     0.0000     1.1111 </r>
       <r>    -5.7675     0.0000     1.1111 </r>
       <r>    -5.6312     0.0000     1.1111 </r>
       <r>    -5.4948     0.0000     1.1111 </r>
       <r>    -5.3584     0.0000     1.1111 </r>
       <r>    -5.2221     0.0000     1.1111 </r>
       <r>    -5.0857     0.0000     1.1111 </r>
       <r>    -4.9493     0.0000     1.1111 </r>
       <r>    -4.8130     0.0001     1.1111 </r>
       <r>    -4.6766     0.0026     1.1115 </r>
       <r>    -4.5403     0.0528     1.1187 </r>
       <r>    -4.4039     0.4497     1.1800 </r>
       <r>    -4.2675     1.6037     1.3987 </r>
       <r>    -4.1312     2.4130     1.7277 </r>
       <r>    -3.9948     1.5358     1.9372 </r>
       <r>    -3.8584     0.4123     1.9934 </r>
       <r>    -3.7221     0.0464     1.9997 </r>
       <r>    -3.5857     0.0022     2.0000 </r>
       <r>    -3.4493     0.0000     2.0000 </r>
       <r>    -3.3130     0.0000     2.0000 </r>
       <r>    -3.1766     0.0000     2.0000 </r>
       <r>    -3.0403     0.0000     2.0000 </r>
       <r>    -2.9039     0.0000     2.0000 </r>
       <r>    -2.7675     0.0000     2.0000 </r>
       <r>    -2.6312     0.0000     2.0000 </r>
       <r>    -2.4948     0.0000     2.0000 </r>
       <r>    -2.3584     0.0000     2.0000 </r>
       <r>    -2.2221     0.0000     2.0000 </r>
       <r>    -2.0857     0.0000     2.0000 </r>
       <r>    -1.9494     0.0000     2.0000 </r>
       <r>    -1.8130     0.0000     2.0000 </r>
       <r>    -1.6766     0.0001     2.0000 </r>
       <r>    -1.5403     0.0034     2.0005 </r>
       <r>    -1.4039     0.0648     2.0093 </r>
       <r>    -1.2675     0.5143     2.0794 </r>
       <r>    -1.1312     1.7109     2.3127 </r>
       <r>    -0.9948     2.4021     2.6403 </r>
       <r>    -0.8584     1.4266     2.8348 </r>
       <r>    -0.7221     0.3572     2.8836 </r>
       <r>    -0.5857     0.0374     2.8887 </r>
       <r>    -0.4494     0.0016     2.8889 </r>
       <r>    -0.3130     0.0000     2.8889 </r>
       <r>    -0.1766     0.0000     2.8889 </r>
       <r>    -0.0403     0.0020     2.8892 </r>
       <r>     0.0961     0.0491     2.8959 </r>
       <r>     0.2325     0.5011     2.9642 </r>
       <r>     0.3688     2.1555     3.2581 </r>
       <r>     0.5052     3.9344     3.7946 </r>
       <r>     0.6415     3.0596     4.2119 </r>
       <r>     0.7779     1.0123     4.3499 </r>
       <r>     0.9143     0.1417     4.3692 </r>
       <r>     1.0506     0.0083     4.3703 </r>
       <r>     1.1870     0.0002     4.3704 </r>
       <r>     1.3234     0.0000     4.3704 </r>
       <r>     1.4597     0.0000     4.3704 </r>
       <r>     1.5961     0.0000     4.3704 </r>
       <r>     1.7325     0.0000     4.3704 </r>
       <r>     1.8688     0.0000     4.3704 </r>
       <r>     2.0052     0.0000     4.3704 </r>
       <r>     2.1415     0.0001     4.3704 </r>
       <r>     2.2779     0.0036     4.3709 </r>
       <r>     2.4143     0.0566     4.3786 </r>
       <r>     2.5506     0.3668     4.4286 </r>
       <r>     2.6870     0.9989     4.5648 </r>
       <r>     2.8234     1.1494     4.7215 </r>
       <r>     2.9597     0.5592     4.7978 </r>
       <r>     3.0961     0.1146     4.8134 </r>
       <r>     3.2325     0.0098     4.8148 </r>
       <r>     3.3688     0.0003     4.8148 </r>
       <r>     3.5052     0.0000     4.8148 </r>
       <r>     3.6415     0.0000     4.8148 </r>
       <r>     3.7779     0.0000     4.8148 </r>
       <r>     3.9143     0.0000     4.8148 </r>
       <r>     4.0506     0.0011     4.8150 </r>
       <r>     4.1870     0.0272     4.8187 </r>
       <r>     4.3234     0.2872     4.8578 </r>
       <r>     4.4597     1.2690     5.0309 </r>
       <r>     4.5961     2.3630     5.3531 </r>
       <r>     4.7324     1.8647     5.6074 </r>
       <r>     4.8688     0.6898     5.7014 </r>
       <r>     5.0052     0.6318     5.7876 </r>
       <r>     5.1415     1.7633     6.0280 </r>
       <r>     5.2779     2.3930     6.3544 </r>
       <r>     5.4143     1.3775     6.5422 </r>
       <r>     5.5506     0.3343     6.5878 </r>
       <r>     5.6870     0.0339     6.5924 </r>
       <r>     5.8234     0.0014     6.5926 </r>
       <r>     5.9597     0.0000     6.5926 </r>
       <r>     6.0961     0.0000     6.5926 </r>
       <r>     6.2324     0.0000     6.5926 </r>
       <r>     6.3688     0.0000     6.5926 </r>
       <r>     6.5052     0.0000     6.5926 </r>
       <r>     6.6415     0.0000     6.5926 </r>
       <r>     6.7779     0.0000     6.5926 </r>
       <r>     6.9143     0.0000     6.5926 </r>
       <r>     7.0506     0.0008     6.5927 </r>
       <r>     7.1870     0.0235     6.5959 </r>
       <r>     7.3233     0.2833     6.6345 </r>
       <r>     7.4597     1.4281     6.8293 </r>
       <r>     7.5961     3.0304     7.2425 </r>
       <r>     7.7324     2.7191     7.6133 </r>
       <r>     7.8688     1.0309     7.7539 </r>
       <r>     8.0052     0.1642     7.7763 </r>
       <r>     8.1415     0.0109     7.7777 </r>
       <r>     8.2779     0.0003     7.7778 </r>
       <r>     8.4143     0.0000     7.7778 </r>
       <r>     8.5506     0.0000     7.7778 </r>
       <r>     8.6870     0.0000     7.7778 </r>
       <r>     8.8233     0.0000     7.7778 </r>
       <r>     8.9597     0.0000     7.7778 </r>
       <r>     9.0961     0.0000     7.7778 </r>
       <r>     9.2324     0.0000     7.7778 </r>
       <r>     9.3688     0.0001     7.7778 </r>
       <r>     9.5052     0.0027     7.7782 </r>
       <r>     9.6415     0.0374     7.7833 </r>
       <r>     9.7779     0.2177     7.8129 </r>
       <r>     9.9142     0.5326     7.8856 </r>
       <r>    10.0506     0.5507     7.9607 </r>
       <r>    10.1870     0.2407     7.9935 </r>
       <r>    10.3233     0.0443     7.9995 </r>
       <r>    10.4597     0.0034     8.0000 </r>
       <r>    10.5961     0.0001     8.0000 </r>
       <r>    10.7324     0.0000     8.0000 </r>
       <r>    10.8688     0.0000     8.0000 </r>
       <r>    11.0052     0.0000     8.0000 </r>
       <r>    11.1415     0.0000     8.0000 </r>
       <r>    11.2779     0.0000     8.0000 </r>
       <r>    11.4142     0.0000     8.0000 </r>
       <r>    11.5506     0.0000     8.0000 </r>
       <r>    11.6870     0.0000     8.0000 </r>
       <r>    11.8233     0.0000     8.0000 </r>
       <r>    11.9597     0.0000     8.0000 </r>
       <r>    12.0961     0.0000     8.0000 </r>
       <r>    12.2324     0.0000     8.0000 </r>
       <r>    12.3688     0.0000     8.0000 </r>
       <r>    12.5052     0.0000     8.0000 </r>
       <r>    12.6415     0.0000     8.0000 </r>
       <r>    12.7779     0.0000     8.0000 </r>
       <r>    12.9142     0.0000     8.0000 </r>
       <r>    13.0506     0.0000     8.0000 </r>
       <r>    13.1870     0.0000     8.0000 </r>
       <r>    13.3233     0.0000     8.0000 </r>
       <r>    13.4597     0.0001     8.0000 </r>
       <r>    13.5961     0.0025     8.0004 </r>
       <r>    13.7324     0.0434     8.0063 </r>
       <r>    13.8688     0.3102     8.0486 </r>
       <r>    14.0051     0.9314     8.1756 </r>
       <r>    14.1415     1.1811     8.3366 </r>
       <r>    14.2779     0.6334     8.4230 </r>
       <r>    14.4142     0.1431     8.4425 </r>
       <r>    14.5506     0.0135     8.4444 </r>
       <r>    14.6870     0.0005     8.4444 </r>
       <r>    14.8233     0.0000     8.4444 </r>
       <r>    14.9597     0.0001     8.4445 </r>
       <r>    15.0961     0.0035     8.4449 </r>
       <r>    15.2324     0.0452     8.4511 </r>
       <r>    15.3688     0.2437     8.4843 </r>
       <r>    15.5051     0.5528     8.5597 </r>
       <r>    15.6415     0.5302     8.6320 </r>
       <r>    15.7779     0.2183     8.6618 </r>
       <r>    15.9142     0.1014     8.6756 </r>
       <r>    16.0506     0.5166     8.7460 </r>
       <r>    16.1870     1.7104     8.9793 </r>
       <r>    16.3233     2.4022     9.3069 </r>
       <r>    16.4597     1.4271     9.5015 </r>
       <r>    16.5960     0.3575     9.5502 </r>
       <r>    16.7324     0.0375     9.5553 </r>
       <r>    16.8688     0.0016     9.5556 </r>
       <r>    17.0051     0.0000     9.5556 </r>
       <r>    17.1415     0.0010     9.5557 </r>
       <r>    17.2779     0.0220     9.5587 </r>
       <r>    17.4142     0.1992     9.5859 </r>
       <r>    17.5506     0.7546     9.6888 </r>
       <r>    17.6870     1.2071     9.8534 </r>
       <r>    17.8233     0.8496     9.9692 </r>
       <r>    17.9597     0.6029    10.0514 </r>
       <r>    18.0960     1.6927    10.2822 </r>
       <r>    18.2324     3.2035    10.7191 </r>
       <r>    18.3688     2.9442    11.1206 </r>
       <r>    18.5051     2.1157    11.4091 </r>
       <r>    18.6415     1.6844    11.6387 </r>
       <r>    18.7779     0.8230    11.7510 </r>
       <r>    18.9142     0.1794    11.7754 </r>
       <r>    19.0506     0.0165    11.7777 </r>
       <r>    19.1870     0.0006    11.7778 </r>
       <r>    19.3233     0.0000    11.7778 </r>
       <r>    19.4597     0.0000    11.7778 </r>
       <r>    19.5960     0.0000    11.7778 </r>
       <r>    19.7324     0.0000    11.7778 </r>
       <r>    19.8688     0.0000    11.7778 </r>
       <r>    20.0051     0.0000    11.7778 </r>
       <r>    20.1415     0.0000    11.7778 </r>
       <r>    20.2779     0.0000    11.7778 </r>
       <r>    20.4142     0.0000    11.7778 </r>
       <r>    20.5506     0.0000    11.7778 </r>
       <r>    20.6869     0.0000    11.7778 </r>
       <r>    20.8233     0.0000    11.7778 </r>
       <r>    20.9597     0.0000    11.7778 </r>
       <r>    21.0960     0.0000    11.7778 </r>
       <r>    21.2324     0.0000    11.7778 </r>
       <r>    21.3688     0.0000    11.7778 </r>
       <r>    21.5051     0.0000    11.7778 </r>
       <r>    21.6415     0.0000    11.7778 </r>
       <r>    21.7779     0.0000    11.7778 </r>
       <r>    21.9142     0.0000    11.7778 </r>
       <r>    22.0506     0.0000    11.7778 </r>
       <r>    22.1869     0.0000    11.7778 </r>
       <r>    22.3233     0.0002    11.7778 </r>
       <r>    22.4597     0.0076    11.7788 </r>
       <r>    22.5960     0.1171    11.7948 </r>
       <r>    22.7324     0.7496    11.8970 </r>
       <r>    22.8688     2.0150    12.1718 </r>
       <r>    23.0051     2.2915    12.4843 </r>
       <r>    23.1415     1.1477    12.6408 </r>
       <r>    23.2778     0.6061    12.7234 </r>
       <r>    23.4142     1.4724    12.9242 </r>
       <r>    23.5506     2.5213    13.2680 </r>
       <r>    23.6869     1.9692    13.5365 </r>
       <r>    23.8233     1.0295    13.6769 </r>
       <r>    23.9597     1.5914    13.8939 </r>
       <r>    24.0960     2.4163    14.2234 </r>
       <r>    24.2324     1.6364    14.4466 </r>
       <r>    24.3688     0.4686    14.5105 </r>
       <r>    24.5051     0.0575    14.5183 </r>
       <r>    24.6415     0.0343    14.5230 </r>
       <r>    24.7778     0.3198    14.5666 </r>
       <r>    24.9142     1.3893    14.7560 </r>
       <r>    25.0506     2.7621    15.1327 </r>
       <r>    25.1869     2.9886    15.5402 </r>
       <r>    25.3233     2.1607    15.8349 </r>
       <r>    25.4597     0.9719    15.9674 </r>
       <r>    25.5960     0.2169    15.9970 </r>
       <r>    25.7324     0.0212    15.9999 </r>
       <r>    25.8687     0.0009    16.0000 </r>
       <r>    26.0051     0.0000    16.0000 </r>
       <r>    26.1415     0.0000    16.0000 </r>
       <r>    26.2778     0.0000    16.0000 </r>
       <r>    26.4142     0.0000    16.0000 </r>
       <r>    26.5506     0.0000    16.0000 </r>
       <r>    26.6869     0.0000    16.0000 </r>
       <r>    26.8233     0.0000    16.0000 </r>
       <r>    26.9597     0.0000    16.0000 </r>
       <r>    27.0960     0.0000    16.0000 </r>
       <r>    27.2324     0.0000    16.0000 </r>
      </set>
     </set>
    </array>
   </total>
  </dos>
 </calculation>
 <structure name="finalpos" >
  <crystal>
   <varray name="basis" >
    <v>       2.51730013       0.00000000       0.00000000 </v>
    <v>       1.25865006       2.18004586       0.00000000 </v>
    <v>       1.25865006       0.72668195       2.05536695 </v>
   </varray>
   <i name="volume">     11.27950384 </i>
   <varray name="rec_basis" >
    <v>       0.39725100      -0.22935297      -0.16217704 </v>
    <v>       0.00000000       0.45870595      -0.16217704 </v>
    <v>       0.00000000       0.00000000       0.48653113 </v>
   </varray>
  </crystal>
  <varray name="positions" >
   <v>       0.25000000       0.25000000       0.25000000 </v>
   <v>       0.00000000       0.00000000       0.00000000 </v>
  </varray>
 </structure>
</modeling>
