   2   2   0   0
  0.5639752E+01  0.2517300E-09  0.2517300E-09  0.2517300E-09  0.5000000E-15
  1.000000000000000E-004
  CAR 
 unknown system                          
     28.70001423    -13.74248625  301     10.59149034      1.00000000
    -13.742  0.0000E+00  0.0000E+00
    -13.601  0.0000E+00  0.0000E+00
    -13.460  0.0000E+00  0.0000E+00
    -13.318  0.0000E+00  0.0000E+00
    -13.177  0.0000E+00  0.0000E+00
    -13.035  0.0000E+00  0.0000E+00
    -12.894  0.3139E-17  0.4441E-18
    -12.752  0.6619E-14  0.9368E-15
    -12.611  0.5859E-11  0.8299E-12
    -12.469  0.1949E-08  0.2766E-09
    -12.328  0.2454E-06  0.3499E-07
    -12.186  0.1180E-04  0.1704E-05
    -12.045  0.2204E-03  0.3289E-04
    -11.903  0.1690E-02  0.2720E-03
    -11.762  0.6647E-02  0.1212E-02
    -11.620  0.2155E-01  0.4261E-02
    -11.479  0.5486E-01  0.1202E-01
    -11.337  0.7368E-01  0.2245E-01
    -11.196  0.5605E-01  0.3038E-01
    -11.054  0.6079E-01  0.3898E-01
    -10.913  0.9703E-01  0.5270E-01
    -10.772  0.1483E+00  0.7369E-01
    -10.630  0.1755E+00  0.9852E-01
    -10.489  0.1108E+00  0.1142E+00
    -10.347  0.5065E-01  0.1214E+00
    -10.206  0.6303E-01  0.1303E+00
    -10.064  0.1449E+00  0.1508E+00
     -9.923  0.2458E+00  0.1856E+00
     -9.781  0.2167E+00  0.2162E+00
     -9.640  0.1447E+00  0.2367E+00
     -9.498  0.1624E+00  0.2597E+00
     -9.357  0.1949E+00  0.2872E+00
     -9.215  0.2007E+00  0.3156E+00
     -9.074  0.1288E+00  0.3338E+00
     -8.932  0.6792E-01  0.3435E+00
     -8.791  0.1038E+00  0.3581E+00
     -8.649  0.2341E+00  0.3913E+00
     -8.508  0.4002E+00  0.4479E+00
     -8.366  0.3540E+00  0.4980E+00
     -8.225  0.1907E+00  0.5249E+00
     -8.083  0.1690E+00  0.5489E+00
     -7.942  0.2189E+00  0.5798E+00
     -7.801  0.2662E+00  0.6175E+00
     -7.659  0.2225E+00  0.6490E+00
     -7.518  0.1187E+00  0.6657E+00
     -7.376  0.1019E+00  0.6802E+00
     -7.235  0.2225E+00  0.7116E+00
     -7.093  0.3802E+00  0.7654E+00
     -6.952  0.3522E+00  0.8153E+00
     -6.810  0.3120E+00  0.8594E+00
     -6.669  0.3904E+00  0.9146E+00
     -6.527  0.4462E+00  0.9778E+00
     -6.386  0.3817E+00  0.1032E+01
     -6.244  0.1935E+00  0.1059E+01
     -6.103  0.1398E+00  0.1079E+01
     -5.961  0.2671E+00  0.1117E+01
     -5.820  0.3265E+00  0.1163E+01
     -5.678  0.2700E+00  0.1201E+01
     -5.537  0.2771E+00  0.1240E+01
     -5.395  0.4672E+00  0.1306E+01
     -5.254  0.6526E+00  0.1399E+01
     -5.113  0.4739E+00  0.1466E+01
     -4.971  0.1924E+00  0.1493E+01
     -4.830  0.1977E+00  0.1521E+01
     -4.688  0.3593E+00  0.1572E+01
     -4.547  0.3584E+00  0.1623E+01
     -4.405  0.2377E+00  0.1656E+01
     -4.264  0.1501E+00  0.1677E+01
     -4.122  0.1495E+00  0.1699E+01
     -3.981  0.2916E+00  0.1740E+01
     -3.839  0.3746E+00  0.1793E+01
     -3.698  0.2906E+00  0.1834E+01
     -3.556  0.2412E+00  0.1868E+01
     -3.415  0.2284E+00  0.1900E+01
     -3.273  0.1829E+00  0.1926E+01
     -3.132  0.2043E+00  0.1955E+01
     -2.990  0.3343E+00  0.2002E+01
     -2.849  0.3695E+00  0.2055E+01
     -2.707  0.2636E+00  0.2092E+01
     -2.566  0.1900E+00  0.2119E+01
     -2.424  0.3037E+00  0.2162E+01
     -2.283  0.4363E+00  0.2224E+01
     -2.142  0.3377E+00  0.2271E+01
     -2.000  0.3087E+00  0.2315E+01
     -1.859  0.4833E+00  0.2383E+01
     -1.717  0.5098E+00  0.2456E+01
     -1.576  0.4233E+00  0.2515E+01
     -1.434  0.4517E+00  0.2579E+01
     -1.293  0.6454E+00  0.2671E+01
     -1.151  0.7861E+00  0.2782E+01
     -1.010  0.6142E+00  0.2869E+01
     -0.868  0.2793E+00  0.2908E+01
     -0.727  0.8655E-01  0.2920E+01
     -0.585  0.1486E+00  0.2942E+01
     -0.444  0.3704E+00  0.2994E+01
     -0.302  0.4119E+00  0.3052E+01
     -0.161  0.2081E+00  0.3082E+01
     -0.019  0.1098E+00  0.3097E+01
      0.122  0.2093E+00  0.3127E+01
      0.264  0.4006E+00  0.3183E+01
      0.405  0.5635E+00  0.3263E+01
      0.546  0.5013E+00  0.3334E+01
      0.688  0.2883E+00  0.3375E+01
      0.829  0.2077E+00  0.3404E+01
      0.971  0.3824E+00  0.3458E+01
      1.112  0.5813E+00  0.3541E+01
      1.254  0.5391E+00  0.3617E+01
      1.395  0.4946E+00  0.3687E+01
      1.537  0.5362E+00  0.3763E+01
      1.678  0.4808E+00  0.3831E+01
      1.820  0.4955E+00  0.3901E+01
      1.961  0.6002E+00  0.3986E+01
      2.103  0.5327E+00  0.4061E+01
      2.244  0.4260E+00  0.4121E+01
      2.386  0.4605E+00  0.4187E+01
      2.527  0.4680E+00  0.4253E+01
      2.669  0.5726E+00  0.4334E+01
      2.810  0.7736E+00  0.4443E+01
      2.952  0.7163E+00  0.4545E+01
      3.093  0.6138E+00  0.4631E+01
      3.235  0.6295E+00  0.4720E+01
      3.376  0.7283E+00  0.4823E+01
      3.517  0.7119E+00  0.4924E+01
      3.659  0.5622E+00  0.5004E+01
      3.800  0.6644E+00  0.5098E+01
      3.942  0.8443E+00  0.5217E+01
      4.083  0.7543E+00  0.5324E+01
      4.225  0.5295E+00  0.5399E+01
      4.366  0.7020E+00  0.5498E+01
      4.508  0.1124E+01  0.5657E+01
      4.649  0.1127E+01  0.5817E+01
      4.791  0.8906E+00  0.5943E+01
      4.932  0.7331E+00  0.6046E+01
      5.074  0.6219E+00  0.6134E+01
      5.215  0.4275E+00  0.6195E+01
      5.357  0.3759E+00  0.6248E+01
      5.498  0.5156E+00  0.6321E+01
      5.640  0.5880E+00  0.6404E+01
      5.781  0.7050E+00  0.6504E+01
      5.923  0.8724E+00  0.6627E+01
      6.064  0.9759E+00  0.6765E+01
      6.205  0.8530E+00  0.6886E+01
      6.347  0.5696E+00  0.6967E+01
      6.488  0.5062E+00  0.7038E+01
      6.630  0.5361E+00  0.7114E+01
      6.771  0.6105E+00  0.7200E+01
      6.913  0.7541E+00  0.7307E+01
      7.054  0.6899E+00  0.7405E+01
      7.196  0.4034E+00  0.7462E+01
      7.337  0.1946E+00  0.7489E+01
      7.479  0.2518E+00  0.7525E+01
      7.620  0.4831E+00  0.7593E+01
      7.762  0.5414E+00  0.7670E+01
      7.903  0.3794E+00  0.7724E+01
      8.045  0.2121E+00  0.7754E+01
      8.186  0.1118E+00  0.7769E+01
      8.328  0.1313E+00  0.7788E+01
      8.469  0.2978E+00  0.7830E+01
      8.611  0.3880E+00  0.7885E+01
      8.752  0.2336E+00  0.7918E+01
      8.894  0.8182E-01  0.7930E+01
      9.035  0.4339E-01  0.7936E+01
      9.176  0.5685E-01  0.7944E+01
      9.318  0.1233E+00  0.7961E+01
      9.459  0.1460E+00  0.7982E+01
      9.601  0.7360E-01  0.7992E+01
      9.742  0.2430E-01  0.7996E+01
      9.884  0.1730E-01  0.7998E+01
     10.025  0.1003E-01  0.8000E+01
     10.167  0.2443E-02  0.8000E+01
     10.308  0.2345E-03  0.8000E+01
     10.450  0.8748E-05  0.8000E+01
     10.591  0.1253E-06  0.8000E+01
     10.733  0.6819E-09  0.8000E+01
     10.874  0.1400E-11  0.8000E+01
     11.016  0.1078E-14  0.8000E+01
     11.157  0.0000E+00  0.8000E+01
     11.299  0.0000E+00  0.8000E+01
     11.440  0.0000E+00  0.8000E+01
     11.582  0.0000E+00  0.8000E+01
     11.723  0.0000E+00  0.8000E+01
     11.864  0.0000E+00  0.8000E+01
     12.006  0.0000E+00  0.8000E+01
     12.147  0.0000E+00  0.8000E+01
     12.289  0.0000E+00  0.8000E+01
     12.430  0.0000E+00  0.8000E+01
     12.572  0.0000E+00  0.8000E+01
     12.713  0.0000E+00  0.8000E+01
     12.855  0.3767E-16  0.8000E+01
     12.996  0.8244E-13  0.8000E+01
     13.138  0.6753E-10  0.8000E+01
     13.279  0.2100E-07  0.8000E+01
     13.421  0.2506E-05  0.8000E+01
     13.562  0.1165E-03  0.8000E+01
     13.704  0.2145E-02  0.8000E+01
     13.845  0.1596E-01  0.8003E+01
     13.987  0.4877E-01  0.8009E+01
     14.128  0.6226E-01  0.8018E+01
     14.270  0.3898E-01  0.8024E+01
     14.411  0.6127E-01  0.8032E+01
     14.553  0.2014E+00  0.8061E+01
     14.694  0.3218E+00  0.8106E+01
     14.835  0.2565E+00  0.8143E+01
     14.977  0.1951E+00  0.8170E+01
     15.118  0.2073E+00  0.8200E+01
     15.260  0.2380E+00  0.8233E+01
     15.401  0.3677E+00  0.8285E+01
     15.543  0.4922E+00  0.8355E+01
     15.684  0.3955E+00  0.8411E+01
     15.826  0.3505E+00  0.8461E+01
     15.967  0.6170E+00  0.8548E+01
     16.109  0.7305E+00  0.8651E+01
     16.250  0.5230E+00  0.8725E+01
     16.392  0.4659E+00  0.8791E+01
     16.533  0.6176E+00  0.8878E+01
     16.675  0.6507E+00  0.8971E+01
     16.816  0.5035E+00  0.9042E+01
     16.958  0.5035E+00  0.9113E+01
     17.099  0.8497E+00  0.9233E+01
     17.241  0.1083E+01  0.9386E+01
     17.382  0.8863E+00  0.9512E+01
     17.523  0.5153E+00  0.9585E+01
     17.665  0.4323E+00  0.9646E+01
     17.806  0.7658E+00  0.9754E+01
     17.948  0.1049E+01  0.9903E+01
     18.089  0.9728E+00  0.1004E+02
     18.231  0.9404E+00  0.1017E+02
     18.372  0.9906E+00  0.1031E+02
     18.514  0.8378E+00  0.1043E+02
     18.655  0.6948E+00  0.1053E+02
     18.797  0.7401E+00  0.1063E+02
     18.938  0.7665E+00  0.1074E+02
     19.080  0.1007E+01  0.1089E+02
     19.221  0.1456E+01  0.1109E+02
     19.363  0.1514E+01  0.1131E+02
     19.504  0.1281E+01  0.1149E+02
     19.646  0.1100E+01  0.1164E+02
     19.787  0.8533E+00  0.1176E+02
     19.929  0.5411E+00  0.1184E+02
     20.070  0.4858E+00  0.1191E+02
     20.212  0.5987E+00  0.1199E+02
     20.353  0.5083E+00  0.1207E+02
     20.494  0.3488E+00  0.1211E+02
     20.636  0.3374E+00  0.1216E+02
     20.777  0.4328E+00  0.1222E+02
     20.919  0.5248E+00  0.1230E+02
     21.060  0.6652E+00  0.1239E+02
     21.202  0.7132E+00  0.1249E+02
     21.343  0.5197E+00  0.1257E+02
     21.485  0.5757E+00  0.1265E+02
     21.626  0.1113E+01  0.1281E+02
     21.768  0.1375E+01  0.1300E+02
     21.909  0.9550E+00  0.1314E+02
     22.051  0.4966E+00  0.1321E+02
     22.192  0.2797E+00  0.1324E+02
     22.334  0.2819E+00  0.1328E+02
     22.475  0.5130E+00  0.1336E+02
     22.617  0.6815E+00  0.1345E+02
     22.758  0.6746E+00  0.1355E+02
     22.900  0.7781E+00  0.1366E+02
     23.041  0.8850E+00  0.1378E+02
     23.182  0.9272E+00  0.1392E+02
     23.324  0.9228E+00  0.1405E+02
     23.465  0.8203E+00  0.1416E+02
     23.607  0.5857E+00  0.1425E+02
     23.748  0.5455E+00  0.1432E+02
     23.890  0.8989E+00  0.1445E+02
     24.031  0.1332E+01  0.1464E+02
     24.173  0.1422E+01  0.1484E+02
     24.314  0.1316E+01  0.1503E+02
     24.456  0.1150E+01  0.1519E+02
     24.597  0.7417E+00  0.1529E+02
     24.739  0.3330E+00  0.1534E+02
     24.880  0.2257E+00  0.1537E+02
     25.022  0.3734E+00  0.1542E+02
     25.163  0.5099E+00  0.1550E+02
     25.305  0.6084E+00  0.1558E+02
     25.446  0.7474E+00  0.1569E+02
     25.588  0.6157E+00  0.1578E+02
     25.729  0.3246E+00  0.1582E+02
     25.871  0.2909E+00  0.1586E+02
     26.012  0.3811E+00  0.1592E+02
     26.153  0.3064E+00  0.1596E+02
     26.295  0.1500E+00  0.1598E+02
     26.436  0.4382E-01  0.1599E+02
     26.578  0.1910E-01  0.1599E+02
     26.719  0.3086E-01  0.1599E+02
     26.861  0.2696E-01  0.1600E+02
     27.002  0.9452E-02  0.1600E+02
     27.144  0.1308E-02  0.1600E+02
     27.285  0.7064E-04  0.1600E+02
     27.427  0.1471E-05  0.1600E+02
     27.568  0.1169E-07  0.1600E+02
     27.710  0.3513E-10  0.1600E+02
     27.851  0.3968E-13  0.1600E+02
     27.993  0.1883E-16  0.1600E+02
     28.134  0.0000E+00  0.1600E+02
     28.276  0.0000E+00  0.1600E+02
     28.417  0.0000E+00  0.1600E+02
     28.559  0.0000E+00  0.1600E+02
     28.700  0.0000E+00  0.1600E+02
