    2    2    1    1
  0.5639752E+01  0.2517300E-09  0.2517300E-09  0.2517300E-09  0.5000000E-15
  1.000000000000000E-004
  CAR 
 unknown system                          
      8     47      8
 
  0.1276756E-14  0.1276756E-14  0.1276756E-14  0.1000000E-02
      1        -11.742486   1.000000
      2          9.809302   1.000000
      3          9.809310   1.000000
      4          9.809310   1.000000
      5         15.415960   0.000000
      6         15.415960   0.000000
      7         15.415969   0.000000
      8         23.270632   0.000000
 
  0.1000000E+00  0.1257202E-14  0.1278733E-14  0.8000000E-02
      1        -11.464849   1.000000
      2          8.126285   1.000000
      3          9.360139   1.000000
      4          9.360146   1.000000
      5         16.005836   0.000000
      6         16.005844   0.000000
      7         16.368674   0.000000
      8         23.501313   0.000000
 
  0.2000000E+00  0.1255815E-14  0.1296939E-14  0.8000000E-02
      1        -10.636642   1.000000
      2          4.908392   1.000000
      3          8.479218   1.000000
      4          8.479225   1.000000
      5         17.142218   0.000000
      6         17.142226   0.000000
      7         17.594311   0.000000
      8         24.139929   0.000000
 
  0.3000000E+00  0.1203015E-14  0.1309915E-14  0.8000000E-02
      1         -9.277506   1.000000
      2          1.496942   1.000000
      3          7.684598   1.000000
      4          7.684604   1.000000
      5         17.966922   0.000000
      6         17.966931   0.000000
      7         18.302361   0.000000
      8         24.917604   0.000000
 
  0.4000000E+00  0.1224943E-14  0.1342384E-14  0.8000000E-02
      1         -7.458658   1.000000
      2         -1.647936   1.000000
      3          7.170392   1.000000
      4          7.170399   1.000000
      5         18.255896   0.000000
      6         18.255905   0.000000
      7         18.635935   0.000000
      8         25.424323   0.000000
 
  0.5000000E+00  0.1216617E-14  0.1247647E-14  0.4000000E-02
      1         -5.935730   1.000000
      2         -3.626272   1.000000
      3          6.994579   1.000000
      4          6.994588   1.000000
      5         18.292822   0.000000
      6         18.292831   0.000000
      7         18.734214   0.000000
      8         25.559179   0.000000
 
  0.1000000E+00  0.1000000E+00  0.1257559E-14  0.6000000E-02
      1        -11.372388   1.000000
      2          8.575100   1.000000
      3          8.575105   1.000000
      4          8.938482   1.000000
      5         15.140686   0.000000
      6         16.967617   0.000000
      7         16.967624   0.000000
      8         23.367797   0.000000
 
  0.2000000E+00  0.1000000E+00  0.1290028E-14  0.2400000E-01
      1        -10.727800   1.000000
      2          6.027980   1.000000
      3          7.602632   1.000000
      4          8.468944   1.000000
      5         15.568870   0.000000
      6         18.276079   0.000000
      7         18.297374   0.000000
      8         23.269580   0.000000
 
  0.3000000E+00  0.1000000E+00  0.1316497E-14  0.2400000E-01
      1         -9.545133   1.000000
      2          2.743874   1.000000
      3          6.853192   1.000000
      4          7.597167   1.000000
      5         16.611112   0.000000
      6         19.135475   0.000000
      7         19.227709   0.000000
      8         23.456987   0.000000
 
  0.4000000E+00  0.1000000E+00  0.1363612E-14  0.2400000E-01
      1         -7.869124   1.000000
      2         -0.466931   1.000000
      3          6.475737   1.000000
      4          6.723631   1.000000
      5         17.329765   0.000000
      6         19.444476   0.000000
      7         19.541444   0.000000
      8         24.344724   0.000000
 
  0.5000000E+00  0.1000000E+00  0.1297399E-14  0.2400000E-01
      1         -5.991845   1.000000
      2         -3.076286   1.000000
      3          6.086493   1.000000
      4          6.504489   1.000000
      5         17.734499   0.000000
      6         19.195405   0.000000
      7         19.672823   0.000000
      8         25.345871   0.000000
 
 -0.4000000E+00  0.1000000E+00  0.1241531E-14  0.2400000E-01
      1         -6.575696   1.000000
      2         -2.341192   1.000000
      3          5.791340   1.000000
      4          6.918828   1.000000
      5         18.133352   0.000000
      6         18.774690   0.000000
      7         19.610848   0.000000
      8         25.420995   0.000000
 
 -0.3000000E+00  0.1000000E+00  0.1259737E-14  0.2400000E-01
      1         -8.477490   1.000000
      2          0.581042   1.000000
      3          5.891192   1.000000
      4          7.653135   1.000000
      5         18.158743   0.000000
      6         18.461333   0.000000
      7         19.308489   0.000000
      8         24.612963   0.000000
 
 -0.2000000E+00  0.1000000E+00  0.1280036E-14  0.2400000E-01
      1         -9.997901   1.000000
      2          3.865498   1.000000
      3          6.404550   1.000000
      4          8.567369   1.000000
      5         17.182421   0.000000
      6         18.334820   0.000000
      7         18.513956   0.000000
      8         23.913865   0.000000
 
 -0.1000000E+00  0.1000000E+00  0.1258124E-14  0.1200000E-01
      1        -11.003566   1.000000
      2          6.866267   1.000000
      3          7.466403   1.000000
      4          9.332013   1.000000
      5         16.164417   0.000000
      6         17.190530   0.000000
      7         17.507496   0.000000
      8         23.662547   0.000000
 
  0.2000000E+00  0.2000000E+00  0.1282348E-14  0.6000000E-02
      1        -10.269196   1.000000
      2          6.564872   1.000000
      3          6.564878   1.000000
      4          6.718655   1.000000
      5         14.548735   0.000000
      6         19.894820   0.000000
      7         19.894829   0.000000
      8         21.705107   0.000000
 
  0.3000000E+00  0.2000000E+00  0.1309202E-14  0.2400000E-01
      1         -9.270560   1.000000
      2          3.958265   1.000000
      3          5.771740   1.000000
      4          6.149440   1.000000
      5         14.978057   0.000000
      6         20.643644   0.000000
      7         21.135531   0.000000
      8         21.170864   0.000000
 
  0.4000000E+00  0.2000000E+00  0.1328561E-14  0.2400000E-01
      1         -7.764141   1.000000
      2          0.984166   1.000000
      3          5.088324   1.000000
      4          5.384509   1.000000
      5         15.927703   0.000000
      6         21.085373   0.000000
      7         21.645297   0.000000
      8         21.739525   0.000000
 
  0.5000000E+00  0.2000000E+00  0.1290872E-14  0.2400000E-01
      1         -5.891318   1.000000
      2         -1.766282   1.000000
      3          4.085147   1.000000
      4          5.449560   1.000000
      5         16.507751   0.000000
      6         21.385179   0.000000
      7         21.933861   0.000000
      8         23.121452   0.000000
 
 -0.4000000E+00  0.2000000E+00  0.1234619E-14  0.2400000E-01
      1         -5.341299   1.000000
      2         -2.424395   1.000000
      3          3.410873   1.000000
      4          5.948936   1.000000
      5         17.080165   0.000000
      6         20.701302   0.000000
      7         21.907714   0.000000
      8         25.106260   0.000000
 
 -0.3000000E+00  0.2000000E+00  0.1260149E-14  0.2400000E-01
      1         -7.176706   1.000000
      2          0.094287   1.000000
      3          3.188713   1.000000
      4          6.801039   1.000000
      5         17.819401   0.000000
      6         19.678770   0.000000
      7         21.594601   0.000000
      8         24.332462   0.000000
 
 -0.2000000E+00  0.2000000E+00  0.1301415E-14  0.1200000E-01
      1         -8.828048   1.000000
      2          2.808469   1.000000
      3          3.775205   1.000000
      4          7.813695   1.000000
      5         18.328251   0.000000
      6         18.428591   0.000000
      7         20.348888   0.000000
      8         23.550905   0.000000
 
  0.3000000E+00  0.3000000E+00  0.1302674E-14  0.6000000E-02
      1         -8.458945   1.000000
      2          3.716818   1.000000
      3          4.896086   1.000000
      4          4.896093   1.000000
      5         14.058464   0.000000
      6         18.516208   0.000000
      7         22.963742   0.000000
      8         22.963758   0.000000
 
  0.4000000E+00  0.3000000E+00  0.1321265E-14  0.2400000E-01
      1         -7.135044   1.000000
      2          1.733242   1.000000
      3          3.795612   1.000000
      4          4.422774   1.000000
      5         14.617588   0.000000
      6         17.851887   0.000000
      7         23.955464   0.000000
      8         24.016267   0.000000
 
  0.5000000E+00  0.3000000E+00  0.1311331E-14  0.2400000E-01
      1         -5.384762   1.000000
      2         -0.457536   1.000000
      3          2.254012   1.000000
      4          4.419232   1.000000
      5         15.383780   0.000000
      6         19.396306   0.000000
      7         23.933061   0.000000
      8         24.401257   0.000000
 
 -0.4000000E+00  0.3000000E+00  0.1248716E-14  0.2400000E-01
      1         -4.024722   1.000000
      2         -1.899910   1.000000
      3          1.101603   1.000000
      4          4.881226   1.000000
      5         15.964037   0.000000
      6         22.440346   0.000000
      7         23.089604   0.000000
      8         24.483750   0.000000
 
 -0.3000000E+00  0.3000000E+00  0.1270508E-14  0.1200000E-01
      1         -5.468309   1.000000
      2         -0.365270   1.000000
      3          0.901718   1.000000
      4          5.737626   1.000000
      5         16.808425   0.000000
      6         21.582891   0.000000
      7         24.002311   0.000000
      8         24.401450   0.000000
 
  0.4000000E+00  0.4000000E+00  0.1238198E-14  0.6000000E-02
      1         -5.997443   1.000000
      2          0.349249   1.000000
      3          3.837491   1.000000
      4          3.837498   1.000000
      5         13.992274   0.000000
      6         16.034754   0.000000
      7         25.565149   0.000000
      8         25.565173   0.000000
 
  0.5000000E+00  0.4000000E+00  0.1219232E-14  0.2400000E-01
      1         -4.411130   1.000000
      2         -1.289794   1.000000
      3          2.723139   1.000000
      4          3.720696   1.000000
      5         14.664811   0.000000
      6         16.136937   0.000000
      7         25.942537   0.000000
      8         26.133246   0.000000
 
 -0.4000000E+00  0.4000000E+00  0.1231745E-14  0.1200000E-01
      1         -2.939979   1.000000
      2         -2.331248   1.000000
      3          0.985850   1.000000
      4          4.086089   1.000000
      5         15.176403   0.000000
      6         18.839376   0.000000
      7         25.032959   0.000000
      8         25.887172   0.000000
 
  0.5000000E+00  0.5000000E+00  0.1193213E-14  0.3000000E-02
      1         -2.994780   1.000000
      2         -2.994779   1.000000
      3          3.476663   1.000000
      4          3.476670   1.000000
      5         14.581145   0.000000
      6         14.581145   0.000000
      7         26.699984   0.000000
      8         26.700014   0.000000
 
  0.3000000E+00  0.2000000E+00  0.1000000E+00  0.2400000E-01
      1         -9.905865   1.000000
      2          4.757625   1.000000
      3          5.565203   1.000000
      4          7.900555   1.000000
      5         15.962278   0.000000
      6         19.250515   0.000000
      7         19.840066   0.000000
      8         22.507671   0.000000
 
  0.4000000E+00  0.2000000E+00  0.1000000E+00  0.4800000E-01
      1         -8.559888   1.000000
      2          1.919391   1.000000
      3          4.692693   1.000000
      4          7.002028   1.000000
      5         17.092119   0.000000
      6         19.424440   0.000000
      7         21.088169   0.000000
      8         22.573325   0.000000
 
  0.5000000E+00  0.2000000E+00  0.1000000E+00  0.4800000E-01
      1         -6.766499   1.000000
      2         -1.059587   1.000000
      3          4.455272   1.000000
      4          6.130516   1.000000
      5         17.833319   0.000000
      6         19.164176   0.000000
      7         21.636419   0.000000
      8         23.994758   0.000000
 
 -0.4000000E+00  0.2000000E+00  0.1000000E+00  0.2400000E-01
      1         -5.283937   1.000000
      2         -2.960357   1.000000
      3          4.449401   1.000000
      4          5.744752   1.000000
      5         18.022848   0.000000
      6         19.018708   0.000000
      7         21.796191   0.000000
      8         25.144590   0.000000
 
  0.4000000E+00  0.3000000E+00  0.1000000E+00  0.2400000E-01
      1         -8.108612   1.000000
      2          2.718049   1.000000
      3          3.969463   1.000000
      4          5.452292   1.000000
      5         15.531497   0.000000
      6         19.611420   0.000000
      7         21.680957   0.000000
      8         22.992806   0.000000
 
  0.5000000E+00  0.3000000E+00  0.1000000E+00  0.4800000E-01
      1         -6.473089   1.000000
      2          0.370128   1.000000
      3          3.082566   1.000000
      4          4.607886   1.000000
      5         16.669020   0.000000
      6         20.127620   0.000000
      7         21.675230   0.000000
      8         24.078798   0.000000
 
 -0.4000000E+00  0.3000000E+00  0.1000000E+00  0.4800000E-01
      1         -4.675848   1.000000
      2         -1.907054   1.000000
      3          2.438214   1.000000
      4          4.441829   1.000000
      5         17.280275   0.000000
      6         20.863564   0.000000
      7         22.812804   0.000000
      8         24.247542   0.000000
 
 -0.3000000E+00  0.3000000E+00  0.1000000E+00  0.4800000E-01
      1         -5.252909   1.000000
      2         -1.180405   1.000000
      3          1.968183   1.000000
      4          5.017297   1.000000
      5         17.923950   0.000000
      6         20.171835   0.000000
      7         23.360068   0.000000
      8         24.413022   0.000000
 
 -0.2000000E+00  0.3000000E+00  0.1000000E+00  0.2400000E-01
      1         -7.080042   1.000000
      2          1.106590   1.000000
      3          2.273967   1.000000
      4          6.005771   1.000000
      5         18.717079   0.000000
      6         18.770609   0.000000
      7         22.482236   0.000000
      8         23.166604   0.000000
 
  0.5000000E+00  0.4000000E+00  0.1000000E+00  0.2400000E-01
      1         -5.679238   1.000000
      2          0.258654   1.000000
      3          2.989085   1.000000
      4          3.482972   1.000000
      5         15.463758   0.000000
      6         17.335223   0.000000
      7         24.149937   0.000000
      8         25.506996   0.000000
 
 -0.4000000E+00  0.4000000E+00  0.1000000E+00  0.4800000E-01
      1         -3.902044   1.000000
      2         -1.286547   1.000000
      3          1.421417   1.000000
      4          3.358891   1.000000
      5         16.435467   0.000000
      6         19.084513   0.000000
      7         23.794607   0.000000
      8         25.391049   0.000000
 
 -0.3000000E+00  0.4000000E+00  0.1000000E+00  0.2400000E-01
      1         -3.603630   1.000000
      2         -1.459136   1.000000
      3          0.444336   1.000000
      4          3.978119   1.000000
      5         17.057767   0.000000
      6         22.147510   0.000000
      7         22.846127   0.000000
      8         24.172896   0.000000
 
 -0.4000000E+00  0.5000000E+00  0.1000000E+00  0.1200000E-01
      1         -2.767850   1.000000
      2         -2.767849   1.000000
      3          2.763548   1.000000
      4          2.763553   1.000000
      5         15.999157   0.000000
      6         15.999159   0.000000
      7         25.926120   0.000000
      8         25.926147   0.000000
 
 -0.4000000E+00  0.4000000E+00  0.2000000E+00  0.2400000E-01
      1         -4.782734   1.000000
      2         -0.382961   1.000000
      3          1.446672   1.000000
      4          3.392930   1.000000
      5         18.798289   0.000000
      6         19.690302   0.000000
      7         21.633062   0.000000
      8         24.978379   0.000000
 
 -0.3000000E+00  0.4000000E+00  0.2000000E+00  0.2400000E-01
      1         -3.406058   1.000000
      2         -1.596975   1.000000
      3          1.132145   1.000000
      4          2.808137   1.000000
      5         19.284952   0.000000
      6         20.406836   0.000000
      7         22.888519   0.000000
      8         23.115563   0.000000
 
 -0.3000000E+00  0.5000000E+00  0.2000000E+00  0.1200000E-01
      1         -2.296324   1.000000
      2         -2.296323   1.000000
      3          1.639540   1.000000
      4          1.639544   1.000000
      5         19.217028   0.000000
      6         19.217034   0.000000
      7         23.371084   0.000000
      8         23.371100   0.000000
