real-time non-blocking time  (microseconds, -R) unlimited
core file size              (blocks, -c) unlimited
data seg size               (kbytes, -d) unlimited
scheduling priority                 (-e) 0
file size                   (blocks, -f) unlimited
pending signals                     (-i) 509951
max locked memory           (kbytes, -l) unlimited
max memory size             (kbytes, -m) 117440512
open files                          (-n) 1024
pipe size                (512 bytes, -p) 8
POSIX message queues         (bytes, -q) 819200
real-time priority                  (-r) 0
stack size                  (kbytes, -s) unlimited
cpu time                   (seconds, -t) unlimited
max user processes                  (-u) 125621
virtual memory              (kbytes, -v) unlimited
file locks                          (-x) unlimited
 running   28 mpi-ranks, with    1 threads/rank, on    1 nodes
 distrk:  each k-point on   28 cores,    1 groups
 distr:  one band on    7 cores,    4 groups
 vasp.6.5.1 10Mar25 (build Feb 13 2026 23:13:13) complex                        
  
 POSCAR found type information on POSCAR C 
 POSCAR found :  1 types and       2 ions
 scaLAPACK will be used
 LDA part: xc-table for (Slater+PW92), standard interpolation
 POSCAR, INCAR and KPOINTS ok, starting setup
 FFT: planning ... GRIDC
 FFT: planning ... GRID_SOFT
 FFT: planning ... GRID
 WAVECAR not read
 entering main loop
       N       E                     dE             d eps       ncg     rms          rms(c)
DAV:   1     0.278870653481E+01    0.27887E+01   -0.59864E+03   768   0.120E+03
DAV:   2    -0.186816911637E+02   -0.21470E+02   -0.20582E+02  1192   0.125E+02
DAV:   3    -0.188400459513E+02   -0.15835E+00   -0.15835E+00   848   0.139E+01
DAV:   4    -0.188402433491E+02   -0.19740E-03   -0.19740E-03  1032   0.526E-01
DAV:   5    -0.188402434689E+02   -0.11978E-06   -0.11978E-06   816   0.923E-03    0.557E+00
RMM:   6    -0.183521089439E+02    0.48813E+00   -0.27992E-01   764   0.472E+00    0.330E+00
RMM:   7    -0.181881947925E+02    0.16391E+00   -0.43299E-01   837   0.626E+00    0.726E-01
RMM:   8    -0.181919119243E+02   -0.37171E-02   -0.23070E-02   786   0.182E+00    0.117E-01
RMM:   9    -0.181921225592E+02   -0.21063E-03   -0.36374E-03   832   0.666E-01    0.514E-02
RMM:  10    -0.181921489173E+02   -0.26358E-04   -0.41320E-04   786   0.228E-01    0.207E-02
RMM:  11    -0.181921525049E+02   -0.35876E-05   -0.59751E-05   840   0.864E-02    0.509E-03
RMM:  12    -0.181921535292E+02   -0.10243E-05   -0.77978E-06   754   0.331E-02    0.596E-03
RMM:  13    -0.181921538003E+02   -0.27116E-06   -0.60090E-07   534   0.883E-03
   1 F= -.18192154E+02 E0= -.18192154E+02  d E =-.770770E-10
