<?xml version="1.0" encoding="ISO-8859-1"?>
<modeling>
 <generator>
  <i name="program" type="string">vasp </i>
  <i name="version" type="string">6.5.1  </i>
  <i name="subversion" type="string">10Mar25 (build Feb 13 2026 23:13:13) complex                          parallel </i>
  <i name="platform" type="string">LinuxIFC </i>
  <i name="date" type="string">2026 06 23 </i>
  <i name="time" type="string">04:04:22 </i>
 </generator>
 <incar>
  <i type="string" name="PREC">Normal</i>
  <i type="string" name="ALGO">Fast</i>
  <i type="int" name="ISPIN">     1</i>
  <i type="int" name="NELMIN">     4</i>
  <i name="EDIFF">      0.00000100</i>
  <i type="int" name="NSW">     0</i>
  <i name="ENCUT">    650.00000000</i>
  <i type="logical" name="LREAL"> F  </i>
  <i type="int" name="ISMEAR">     0</i>
  <i name="SIGMA">      0.20000000</i>
  <i type="logical" name="LWAVE"> F  </i>
 </incar>
 <primitive_cell>
  <structure name="primitive_cell" >
   <crystal>
    <varray name="basis" >
     <v>       2.51730013       0.00000000       0.00000000 </v>
     <v>       1.25865006       2.18004586       0.00000000 </v>
     <v>       1.25865006       0.72668195       2.05536695 </v>
    </varray>
    <i name="volume">     11.27950384 </i>
    <varray name="rec_basis" >
     <v>       0.39725100      -0.22935297      -0.16217704 </v>
     <v>       0.00000000       0.45870595      -0.16217704 </v>
     <v>       0.00000000       0.00000000       0.48653113 </v>
    </varray>
   </crystal>
   <varray name="positions" >
    <v>       0.25000000       0.25000000       0.25000000 </v>
    <v>       0.00000000       0.00000000       0.00000000 </v>
   </varray>
  </structure>
  <varray name="primitive_index" >
   <v type="int" >        1 </v>
   <v type="int" >        2 </v>
  </varray>
 </primitive_cell>
 <kpoints>
  <generation param="Gamma">
   <v type="int" name="divisions">      10       10       10 </v>
   <v name="usershift">      0.00000000       0.00000000       0.00000000 </v>
   <v name="genvec1">      0.10000000      -0.00000000      -0.00000000 </v>
   <v name="genvec2">      0.00000000       0.10000000      -0.00000000 </v>
   <v name="genvec3">      0.00000000       0.00000000       0.10000000 </v>
   <v name="shift">      0.00000000       0.00000000       0.00000000 </v>
  </generation>
  <varray name="kpointlist" >
   <v>       0.00000000       0.00000000       0.00000000 </v>
   <v>       0.10000000       0.00000000       0.00000000 </v>
   <v>       0.20000000       0.00000000       0.00000000 </v>
   <v>       0.30000000       0.00000000       0.00000000 </v>
   <v>       0.40000000       0.00000000       0.00000000 </v>
   <v>       0.50000000       0.00000000       0.00000000 </v>
   <v>       0.10000000       0.10000000       0.00000000 </v>
   <v>       0.20000000       0.10000000       0.00000000 </v>
   <v>       0.30000000       0.10000000       0.00000000 </v>
   <v>       0.40000000       0.10000000       0.00000000 </v>
   <v>       0.50000000       0.10000000       0.00000000 </v>
   <v>      -0.40000000       0.10000000       0.00000000 </v>
   <v>      -0.30000000       0.10000000       0.00000000 </v>
   <v>      -0.20000000       0.10000000       0.00000000 </v>
   <v>      -0.10000000       0.10000000       0.00000000 </v>
   <v>       0.20000000       0.20000000       0.00000000 </v>
   <v>       0.30000000       0.20000000       0.00000000 </v>
   <v>       0.40000000       0.20000000       0.00000000 </v>
   <v>       0.50000000       0.20000000       0.00000000 </v>
   <v>      -0.40000000       0.20000000       0.00000000 </v>
   <v>      -0.30000000       0.20000000       0.00000000 </v>
   <v>      -0.20000000       0.20000000       0.00000000 </v>
   <v>       0.30000000       0.30000000       0.00000000 </v>
   <v>       0.40000000       0.30000000       0.00000000 </v>
   <v>       0.50000000       0.30000000       0.00000000 </v>
   <v>      -0.40000000       0.30000000       0.00000000 </v>
   <v>      -0.30000000       0.30000000       0.00000000 </v>
   <v>       0.40000000       0.40000000       0.00000000 </v>
   <v>       0.50000000       0.40000000       0.00000000 </v>
   <v>      -0.40000000       0.40000000       0.00000000 </v>
   <v>       0.50000000       0.50000000       0.00000000 </v>
   <v>       0.30000000       0.20000000       0.10000000 </v>
   <v>       0.40000000       0.20000000       0.10000000 </v>
   <v>       0.50000000       0.20000000       0.10000000 </v>
   <v>      -0.40000000       0.20000000       0.10000000 </v>
   <v>       0.40000000       0.30000000       0.10000000 </v>
   <v>       0.50000000       0.30000000       0.10000000 </v>
   <v>      -0.40000000       0.30000000       0.10000000 </v>
   <v>      -0.30000000       0.30000000       0.10000000 </v>
   <v>      -0.20000000       0.30000000       0.10000000 </v>
   <v>       0.50000000       0.40000000       0.10000000 </v>
   <v>      -0.40000000       0.40000000       0.10000000 </v>
   <v>      -0.30000000       0.40000000       0.10000000 </v>
   <v>      -0.40000000       0.50000000       0.10000000 </v>
   <v>      -0.40000000       0.40000000       0.20000000 </v>
   <v>      -0.30000000       0.40000000       0.20000000 </v>
   <v>      -0.30000000       0.50000000       0.20000000 </v>
  </varray>
  <varray name="weights" >
   <v>       0.00100000 </v>
   <v>       0.00800000 </v>
   <v>       0.00800000 </v>
   <v>       0.00800000 </v>
   <v>       0.00800000 </v>
   <v>       0.00400000 </v>
   <v>       0.00600000 </v>
   <v>       0.02400000 </v>
   <v>       0.02400000 </v>
   <v>       0.02400000 </v>
   <v>       0.02400000 </v>
   <v>       0.02400000 </v>
   <v>       0.02400000 </v>
   <v>       0.02400000 </v>
   <v>       0.01200000 </v>
   <v>       0.00600000 </v>
   <v>       0.02400000 </v>
   <v>       0.02400000 </v>
   <v>       0.02400000 </v>
   <v>       0.02400000 </v>
   <v>       0.02400000 </v>
   <v>       0.01200000 </v>
   <v>       0.00600000 </v>
   <v>       0.02400000 </v>
   <v>       0.02400000 </v>
   <v>       0.02400000 </v>
   <v>       0.01200000 </v>
   <v>       0.00600000 </v>
   <v>       0.02400000 </v>
   <v>       0.01200000 </v>
   <v>       0.00300000 </v>
   <v>       0.02400000 </v>
   <v>       0.04800000 </v>
   <v>       0.04800000 </v>
   <v>       0.02400000 </v>
   <v>       0.02400000 </v>
   <v>       0.04800000 </v>
   <v>       0.04800000 </v>
   <v>       0.04800000 </v>
   <v>       0.02400000 </v>
   <v>       0.02400000 </v>
   <v>       0.04800000 </v>
   <v>       0.02400000 </v>
   <v>       0.01200000 </v>
   <v>       0.02400000 </v>
   <v>       0.02400000 </v>
   <v>       0.01200000 </v>
  </varray>
 </kpoints>
 <parameters>
  <separator name="general" >
   <i type="string" name="SYSTEM">unknown system</i>
   <i type="logical" name="LCOMPAT"> F  </i>
  </separator>
  <separator name="electronic" >
   <i type="string" name="PREC">normal</i>
   <i name="ENMAX">    650.00000000</i>
   <i name="ENAUG">    644.87300000</i>
   <i name="EDIFF">      0.00000100</i>
   <i type="int" name="IALGO">    68</i>
   <i type="int" name="IWAVPR">    10</i>
   <i type="int" name="NBANDS">     8</i>
   <i type="int" name="NBANDSLOW">    -1</i>
   <i type="int" name="NBANDSHIGH">    -1</i>
   <i name="NELECT">      8.00000000</i>
   <i type="int" name="TURBO">     0</i>
   <i type="int" name="IRESTART">     0</i>
   <i type="int" name="NREBOOT">     0</i>
   <i type="int" name="NMIN">     0</i>
   <i name="EREF">      0.00000000</i>
   <separator name="electronic smearing" >
    <i type="int" name="ISMEAR">     0</i>
    <i name="SIGMA">      0.20000000</i>
    <i name="KSPACING">      0.50000000</i>
    <i type="logical" name="KGAMMA"> T  </i>
    <i type="logical" name="KBLOWUP"> T  </i>
   </separator>
   <separator name="electronic projectors" >
    <i type="logical" name="LREAL"> F  </i>
    <v name="ROPT">      0.00000000</v>
    <i type="int" name="LMAXPAW">  -100</i>
    <i type="int" name="LMAXMIX">     2</i>
    <i type="logical" name="NLSPLINE"> F  </i>
   </separator>
   <separator name="electronic startup" >
    <i type="int" name="ISTART">     0</i>
    <i type="int" name="ICHARG">     2</i>
    <i type="int" name="INIWAV">     1</i>
   </separator>
   <separator name="electronic spin" >
    <i type="int" name="ISPIN">     1</i>
    <i type="logical" name="LNONCOLLINEAR"> F  </i>
    <v name="MAGMOM">      1.00000000      1.00000000</v>
    <i name="NUPDOWN">     -1.00000000</i>
    <i type="logical" name="LSORBIT"> F  </i>
    <v name="SAXIS">      0.00000000      0.00000000      1.00000000</v>
    <i type="logical" name="LSPIRAL"> F  </i>
    <v name="QSPIRAL">      0.00000000      0.00000000      0.00000000</v>
    <i type="logical" name="LZEROZ"> F  </i>
   </separator>
   <separator name="electronic exchange-correlation" >
    <i type="logical" name="LASPH"> F  </i>
   </separator>
   <separator name="electronic convergence" >
    <i type="int" name="NELM">    60</i>
    <i type="int" name="NELMDL">    -5</i>
    <i type="int" name="NELMIN">     4</i>
    <i name="ENINI">    650.00000000</i>
    <separator name="electronic convergence detail" >
     <i type="logical" name="LDIAG"> T  </i>
     <i type="logical" name="LSUBROT"> F  </i>
     <i type="logical" name="LROBUST"> F  </i>
     <i type="int" name="ISEARCH">     0</i>
     <i name="WEIMIN">      0.00000000</i>
     <i name="EBREAK">      0.00000003</i>
     <i name="DEPER">      0.30000000</i>
     <i type="int" name="NRMM">     4</i>
     <i name="TIME">      0.40000000</i>
    </separator>
   </separator>
   <separator name="electronic mixer" >
    <i name="AMIX">      0.40000000</i>
    <i name="BMIX">      1.00000000</i>
    <i name="AMIN">      0.10000000</i>
    <i name="AMIX_MAG">      1.60000000</i>
    <i name="BMIX_MAG">      1.00000000</i>
    <separator name="electronic mixer details" >
     <i type="int" name="IMIX">     4</i>
     <i type="logical" name="MIXFIRST"> F  </i>
     <i type="int" name="MAXMIX">   -45</i>
     <i name="WC">    100.00000000</i>
     <i type="int" name="INIMIX">     1</i>
     <i type="int" name="MIXPRE">     1</i>
     <i type="int" name="MREMOVE">     5</i>
    </separator>
   </separator>
   <separator name="electronic dipolcorrection" >
    <i type="logical" name="LDIPOL"> F  </i>
    <i type="logical" name="LMONO"> F  </i>
    <i type="int" name="IDIPOL">     0</i>
    <i name="EPSILON">      1.00000000</i>
    <v name="DIPOL">   -100.00000000   -100.00000000   -100.00000000</v>
    <i name="EFIELD">      0.00000000</i>
    <i type="logical" name="LVACPOTAV"> F  </i>
   </separator>
  </separator>
  <separator name="grids" >
   <i type="int" name="NGX">    16</i>
   <i type="int" name="NGY">    16</i>
   <i type="int" name="NGZ">    16</i>
   <i type="int" name="NGXF">    32</i>
   <i type="int" name="NGYF">    32</i>
   <i type="int" name="NGZF">    32</i>
   <i type="logical" name="ADDGRID"> F  </i>
  </separator>
  <separator name="ionic" >
   <i type="int" name="NSW">     0</i>
   <i type="int" name="IBRION">    -1</i>
   <i type="int" name="MDALGO">     0</i>
   <i type="int" name="ISIF">     2</i>
   <i name="PSTRESS">      0.00000000</i>
   <i name="EDIFFG">      0.00001000</i>
   <i type="int" name="NFREE">     0</i>
   <i name="POTIM">      0.50000000</i>
   <i name="SMASS">     -3.00000000</i>
   <i name="SCALEE">      1.00000000</i>
  </separator>
  <separator name="ionic md" >
   <i name="TEBEG">      0.00010000</i>
   <i name="TEEND">      0.00010000</i>
   <i type="int" name="NBLOCK">     1</i>
   <i type="int" name="KBLOCK">     1</i>
   <i type="int" name="NPACO">   256</i>
   <i name="APACO">     10.00000000</i>
  </separator>
  <separator name="symmetry" >
   <i type="int" name="ISYM">     2</i>
   <i name="SYMPREC">      0.00001000</i>
  </separator>
  <separator name="dos" >
   <i type="int" name="LORBIT">     0</i>
   <v name="RWIGS">     -1.00000000</v>
   <i type="int" name="NEDOS">   301</i>
   <i name="EMIN">     10.00000000</i>
   <i name="EMAX">    -10.00000000</i>
   <i name="EFERMI">      0.00000000</i>
  </separator>
  <separator name="writing" >
   <i type="int" name="NWRITE">     2</i>
   <i type="logical" name="LWAVE"> F  </i>
   <i type="logical" name="LDOWNSAMPLE"> F  </i>
   <i type="logical" name="LCHARG"> T  </i>
   <i type="logical" name="LPARD"> F  </i>
   <i type="logical" name="LVTOT"> F  </i>
   <i type="logical" name="LVHAR"> F  </i>
   <i type="logical" name="LELF"> F  </i>
   <i type="logical" name="LOPTICS"> F  </i>
   <v name="STM">      0.00000000      0.00000000      0.00000000      0.00000000      0.00000000      0.00000000      0.00000000</v>
  </separator>
  <separator name="performance" >
   <i type="int" name="NPAR">     4</i>
   <i type="int" name="NSIM">     4</i>
   <i type="int" name="NBLK">    -1</i>
   <i type="logical" name="LPLANE"> T  </i>
   <i type="logical" name="LSCALAPACK"> T  </i>
   <i type="logical" name="LSCAAWARE"> F  </i>
   <i type="logical" name="LSCALU"> F  </i>
   <i type="logical" name="LASYNC"> F  </i>
   <i type="logical" name="LORBITALREAL"> F  </i>
  </separator>
  <separator name="miscellaneous" >
   <i type="int" name="IDIOT">     3</i>
   <i type="int" name="PHON_NSTRUCT">    -1</i>
   <i type="logical" name="LMUSIC"> F  </i>
   <v name="POMASS">     12.01100000</v>
   <v name="DARWINR">      0.00000000</v>
   <v name="DARWINV">      1.00000000</v>
   <i type="logical" name="LCORR"> T  </i>
  </separator>
  <i type="logical" name="GGA_COMPAT"> T  </i>
  <i type="logical" name="LBERRY"> F  </i>
  <i type="int" name="ICORELEVEL">     0</i>
  <i type="logical" name="LDAU"> F  </i>
  <i type="int" name="I_CONSTRAINED_M">     0</i>
  <separator name="electronic exchange-correlation" >
   <i type="string" name="GGA    ">PE</i>
   <i type="string" name="XC_C">1</i>
   <i type="int" name="VOSKOWN">     0</i>
   <i type="logical" name="LHFCALC"> F  </i>
   <i type="string" name="PRECFOCK"></i>
   <i type="logical" name="LSYMGRAD"> F  </i>
   <i type="logical" name="LHFONE"> F  </i>
   <i type="logical" name="LRHFCALC"> F  </i>
   <i type="logical" name="LTHOMAS"> F  </i>
   <i type="logical" name="LMODELHF"> F  </i>
   <i type="logical" name="LFOCKACE"> F  </i>
   <i name="ENCUT4O">     -1.00000000</i>
   <i type="int" name="EXXOEP">     0</i>
   <i type="int" name="FOURORBIT">     0</i>
   <i name="AEXX">      0.00000000</i>
   <i name="HFALPHA">      0.00000000</i>
   <i name="MCALPHA">      0.00000000</i>
   <i name="ALDAX">      1.00000000</i>
   <i name="AGGAX">      1.00000000</i>
   <i name="AMGGAX">      1.00000000</i>
   <i name="ALDAC">      1.00000000</i>
   <i name="AGGAC">      1.00000000</i>
   <i name="AMGGAC">      1.00000000</i>
   <i type="int" name="NKREDX">     1</i>
   <i type="int" name="NKREDY">     1</i>
   <i type="int" name="NKREDZ">     1</i>
   <i type="logical" name="SHIFTRED"> F  </i>
   <i type="logical" name="ODDONLY"> F  </i>
   <i type="logical" name="EVENONLY"> F  </i>
   <i type="int" name="LMAXFOCK">     0</i>
   <i type="int" name="NMAXFOCKAE">     0</i>
   <i type="logical" name="LFOCKAEDFT"> F  </i>
   <i name="HFSCREEN">      0.00000000</i>
   <i name="HFSCREENC">      0.00000000</i>
   <i type="int" name="NBANDSGWLOW">     0</i>
  </separator>
  <separator name="vdW DFT" >
   <i type="logical" name="LUSE_VDW"> F  </i>
   <i type="int" name="IVDW_NL">    -1</i>
   <i type="logical" name="LSPIN_VDW"> F  </i>
   <i name="ZAB_VDW">     -0.84910000</i>
   <i name="GAMMA_VDW">      1.39626340</i>
   <i name="ALPHA_VDW">      0.00000000</i>
   <i name="PARAM1">      0.12340000</i>
   <i name="PARAM2">      1.00000000</i>
   <i name="BPARAM">      6.30000000</i>
   <i name="CPARAM">      0.00930000</i>
  </separator>
  <separator name="model GW" >
   <i type="int" name="MODEL_GW">     0</i>
   <i name="MODEL_EPS0">      3.38385115</i>
   <i name="MODEL_ALPHA">      1.00000000</i>
  </separator>
  <separator name="linear response parameters" >
   <i type="logical" name="LEPSILON"> F  </i>
   <i type="logical" name="LRPA"> F  </i>
   <i type="logical" name="LNABLA"> F  </i>
   <i type="logical" name="LVEL"> F  </i>
   <i name="CSHIFT">      0.10000000</i>
   <i name="OMEGAMAX">     -1.00000000</i>
   <i name="DEG_THRESHOLD">      0.00200000</i>
   <i name="RTIME">     -0.10000000</i>
   <i name="WPLASMAI">      0.00000000</i>
   <v name="DFIELD">      0.00000000      0.00000000      0.00000000</v>
   <v name="WPLASMA">      0.00000000      0.00000000      0.00000000      0.00000000      0.00000000      0.00000000      0.00000000      0.00000000      0.00000000</v>
  </separator>
  <separator name="orbital magnetization" >
   <i type="logical" name="NUCIND"> F  </i>
   <v name="MAGPOS">      0.00000000      0.00000000      0.00000000</v>
   <i type="logical" name="LNICSALL"> T  </i>
   <i type="logical" name="ORBITALMAG"> F  </i>
   <i type="logical" name="LMAGBLOCH"> F  </i>
   <i type="logical" name="LCHIMAG"> F  </i>
   <i type="logical" name="LGAUGE"> T  </i>
   <i type="int" name="MAGATOM">     0</i>
   <v name="MAGDIPOL">      0.00000000      0.00000000      0.00000000</v>
   <v name="AVECCONST">      0.00000000      0.00000000      0.00000000</v>
  </separator>
  <separator name="response functions" >
   <i type="logical" name="LALL_IN_ONE"> F  </i>
   <i type="int" name="IALL_IN_ONE">    -1</i>
   <i type="int" name="NBANDS_WAVE">    -1</i>
   <i type="logical" name="LFINITE_TEMPERATURE"> F  </i>
   <i type="logical" name="LADDER"> F  </i>
   <i type="logical" name="LRPAFORCE"> F  </i>
   <i type="logical" name="LFXC"> F  </i>
   <i type="logical" name="LHARTREE"> T  </i>
   <i type="int" name="IBSE">     2</i>
   <v type="int" name="KPOINT">    -1     0     0     0</v>
   <i type="logical" name="LTCTC"> F  </i>
   <i type="logical" name="LTCTE"> F  </i>
   <i type="logical" name="LTETE"> F  </i>
   <i type="logical" name="LTRIPLET"> F  </i>
   <i type="logical" name="LFXCEPS"> F  </i>
   <i type="logical" name="LFXHEG"> F  </i>
   <i type="int" name="NATURALO">     2</i>
   <i type="logical" name="LHOLEGF"> F  </i>
   <i type="logical" name="L2ORDER"> F  </i>
   <i type="logical" name="LDMP1"> F  </i>
   <i type="logical" name="LMP2LT"> F  </i>
   <i type="logical" name="LSMP2LT"> F  </i>
   <i type="logical" name="LGWLF"> F  </i>
   <i name="ENCUTGW">     -1.60000002</i>
   <i name="ENCUTGWSOFT">     -1.60000002</i>
   <i name="ENCUTLF">     -1.00000000</i>
   <i type="logical" name="ESF_SPLINES"> F  </i>
   <i name="ESF_CONV">      0.01000000</i>
   <i type="int" name="ESF_NINTER">    15</i>
   <i type="int" name="LMAXMP2">    -1</i>
   <i name="SCISSOR">      0.00000000</i>
   <i type="int" name="NOMEGA">     0</i>
   <i type="int" name="NOMEGAR">     0</i>
   <i type="int" name="NBANDSGW">    -1</i>
   <i type="int" name="NBANDSO">    -1</i>
   <i type="int" name="NBANDSV">    -1</i>
   <i type="int" name="NELMGW">     1</i>
   <i type="int" name="NELMHF">     1</i>
   <i type="int" name="DIM">     3</i>
   <i type="int" name="IESPILON">     4</i>
   <i type="int" name="ANTIRES">     0</i>
   <i name="OMEGAMAX">    -30.00000000</i>
   <i name="OMEGAMIN">    -30.00000000</i>
   <i name="OMEGATL">   -200.00000000</i>
   <i type="int" name="OMEGAGRID">     0</i>
   <i name="CSHIFT">     -0.10000000</i>
   <i type="logical" name="LSELFENERGY"> F  </i>
   <i type="logical" name="LSPECTRAL"> F  </i>
   <i type="logical" name="LSPECTRALGW"> F  </i>
   <i type="logical" name="LSINGLES"> F  </i>
   <i type="logical" name="LFERMIGW"> F  </i>
   <i type="logical" name="ODDONLYGW"> F  </i>
   <i type="logical" name="EVENONLYGW"> F  </i>
   <i type="int" name="NKREDLFX">     1</i>
   <i type="int" name="NKREDLFY">     1</i>
   <i type="int" name="NKREDLFZ">     1</i>
   <i type="int" name="MAXMEM">  2800</i>
   <i type="int" name="TELESCOPE">     0</i>
   <i type="int" name="NTAUPAR">    -1</i>
   <i type="int" name="NOMEGAPAR">    -1</i>
   <i name="DAMP_NEWTON">      0.80000001</i>
   <i name="LAMBDA">      1.00000000</i>
  </separator>
  <separator name="External order field" >
   <i name="OFIELD_KAPPA">      0.00000000</i>
   <v name="OFIELD_K">      0.00000000      0.00000000      0.00000000</v>
   <i name="OFIELD_Q6_NEAR">      0.00000000</i>
   <i name="OFIELD_Q6_FAR">      0.00000000</i>
   <i name="OFIELD_A">      0.00000000</i>
  </separator>
  <separator name="optional k-points parameters" >
   <i type="int" name="KPOINTS_OPT_MODE">     1</i>
   <i type="logical" name="LKPOINTS_OPT"> F  </i>
  </separator>
 </parameters>
 <atominfo>
  <atoms>       2 </atoms>
  <types>       1 </types>
  <array name="atoms" >
   <dimension dim="1">ion</dimension>
   <field type="string">element</field>
   <field type="int">atomtype</field>
   <set>
    <rc><c>C </c><c>   1</c></rc>
    <rc><c>C </c><c>   1</c></rc>
   </set>
  </array>
  <array name="atomtypes" >
   <dimension dim="1">type</dimension>
   <field type="int">atomspertype</field>
   <field type="string">element</field>
   <field>mass</field>
   <field>valence</field>
   <field type="string">pseudopotential</field>
   <set>
    <rc><c>   2</c><c>C </c><c>     12.01100000</c><c>      4.00000000</c><c>  PAW_PBE C 08Apr2002                   </c></rc>
   </set>
  </array>
 </atominfo>
 <structure name="initialpos" >
  <crystal>
   <varray name="basis" >
    <v>       2.51730013       0.00000000       0.00000000 </v>
    <v>       1.25865006       2.18004586       0.00000000 </v>
    <v>       1.25865006       0.72668195       2.05536695 </v>
   </varray>
   <i name="volume">     11.27950384 </i>
   <varray name="rec_basis" >
    <v>       0.39725100      -0.22935297      -0.16217704 </v>
    <v>       0.00000000       0.45870595      -0.16217704 </v>
    <v>       0.00000000       0.00000000       0.48653113 </v>
   </varray>
  </crystal>
  <varray name="positions" >
   <v>       0.25000000       0.25000000       0.25000000 </v>
   <v>       0.00000000       0.00000000       0.00000000 </v>
  </varray>
 </structure>
 <calculation>
  <scstep>
   <time name="dav">    0.06    0.06</time>
   <time name="total">    0.07    0.07</time>
   <energy>
    <i name="alphaZ">     29.13132251 </i>
    <i name="ewald">   -348.62358043 </i>
    <i name="hartreedc">    -17.48913657 </i>
    <i name="XCdc">     27.44127292 </i>
    <i name="pawpsdc">    217.04409276 </i>
    <i name="pawaedc">   -218.18290438 </i>
    <i name="eentropy">     -0.00302034 </i>
    <i name="bandstr">     19.16756307 </i>
    <i name="atom">    294.30309699 </i>
    <i name="e_fr_energy">      2.78870653 </i>
    <i name="e_wo_entrp">      2.79172687 </i>
    <i name="e_0_energy">      2.79021670 </i>
   </energy>
  </scstep>
  <scstep>
   <time name="dav">    0.08    0.08</time>
   <time name="total">    0.08    0.08</time>
   <energy>
    <i name="e_fr_energy">    -18.68169116 </i>
    <i name="e_wo_entrp">    -18.68169116 </i>
    <i name="e_0_energy">    -18.68169116 </i>
   </energy>
  </scstep>
  <scstep>
   <time name="dav">    0.05    0.05</time>
   <time name="total">    0.05    0.05</time>
   <energy>
    <i name="e_fr_energy">    -18.84004595 </i>
    <i name="e_wo_entrp">    -18.84004595 </i>
    <i name="e_0_energy">    -18.84004595 </i>
   </energy>
  </scstep>
  <scstep>
   <time name="dav">    0.06    0.06</time>
   <time name="total">    0.06    0.07</time>
   <energy>
    <i name="e_fr_energy">    -18.84024335 </i>
    <i name="e_wo_entrp">    -18.84024335 </i>
    <i name="e_0_energy">    -18.84024335 </i>
   </energy>
  </scstep>
  <scstep>
   <time name="dav">    0.05    0.05</time>
   <time name="total">    0.05    0.05</time>
   <energy>
    <i name="e_fr_energy">    -18.84024347 </i>
    <i name="e_wo_entrp">    -18.84024347 </i>
    <i name="e_0_energy">    -18.84024347 </i>
   </energy>
  </scstep>
  <scstep>
   <time name="diag">    0.04    0.04</time>
   <time name="diis">    0.02    0.02</time>
   <time name="orth">    0.00    0.00</time>
   <time name="total">    0.07    0.07</time>
   <energy>
    <i name="e_fr_energy">    -18.35210894 </i>
    <i name="e_wo_entrp">    -18.35210894 </i>
    <i name="e_0_energy">    -18.35210894 </i>
   </energy>
  </scstep>
  <scstep>
   <time name="diag">    0.03    0.03</time>
   <time name="diis">    0.02    0.02</time>
   <time name="orth">    0.00    0.00</time>
   <time name="total">    0.06    0.06</time>
   <energy>
    <i name="e_fr_energy">    -18.18819479 </i>
    <i name="e_wo_entrp">    -18.18819479 </i>
    <i name="e_0_energy">    -18.18819479 </i>
   </energy>
  </scstep>
  <scstep>
   <time name="diag">    0.03    0.03</time>
   <time name="diis">    0.02    0.02</time>
   <time name="orth">    0.00    0.00</time>
   <time name="total">    0.06    0.06</time>
   <energy>
    <i name="e_fr_energy">    -18.19191192 </i>
    <i name="e_wo_entrp">    -18.19191192 </i>
    <i name="e_0_energy">    -18.19191192 </i>
   </energy>
  </scstep>
  <scstep>
   <time name="diag">    0.03    0.03</time>
   <time name="diis">    0.02    0.02</time>
   <time name="orth">    0.00    0.00</time>
   <time name="total">    0.06    0.06</time>
   <energy>
    <i name="e_fr_energy">    -18.19212256 </i>
    <i name="e_wo_entrp">    -18.19212256 </i>
    <i name="e_0_energy">    -18.19212256 </i>
   </energy>
  </scstep>
  <scstep>
   <time name="diag">    0.03    0.03</time>
   <time name="diis">    0.02    0.02</time>
   <time name="orth">    0.00    0.00</time>
   <time name="total">    0.06    0.06</time>
   <energy>
    <i name="e_fr_energy">    -18.19214892 </i>
    <i name="e_wo_entrp">    -18.19214892 </i>
    <i name="e_0_energy">    -18.19214892 </i>
   </energy>
  </scstep>
  <scstep>
   <time name="diag">    0.03    0.03</time>
   <time name="diis">    0.02    0.02</time>
   <time name="orth">    0.00    0.00</time>
   <time name="total">    0.06    0.06</time>
   <energy>
    <i name="e_fr_energy">    -18.19215250 </i>
    <i name="e_wo_entrp">    -18.19215250 </i>
    <i name="e_0_energy">    -18.19215250 </i>
   </energy>
  </scstep>
  <scstep>
   <time name="diag">    0.03    0.03</time>
   <time name="diis">    0.02    0.02</time>
   <time name="orth">    0.00    0.00</time>
   <time name="total">    0.06    0.06</time>
   <energy>
    <i name="e_fr_energy">    -18.19215353 </i>
    <i name="e_wo_entrp">    -18.19215353 </i>
    <i name="e_0_energy">    -18.19215353 </i>
   </energy>
  </scstep>
  <scstep>
   <time name="diag">    0.03    0.03</time>
   <time name="diis">    0.01    0.01</time>
   <time name="orth">    0.00    0.00</time>
   <time name="total">    0.05    0.05</time>
   <energy>
    <i name="alphaZ">     29.13132251 </i>
    <i name="ewald">   -348.62358043 </i>
    <i name="hartreedc">    -26.32258250 </i>
    <i name="XCdc">     28.24898959 </i>
    <i name="pawpsdc">    767.41724467 </i>
    <i name="pawaedc">   -768.75317092 </i>
    <i name="eentropy">     -0.00000000 </i>
    <i name="bandstr">      6.40652629 </i>
    <i name="atom">    294.30309699 </i>
    <i name="e_fr_energy">    -18.19215380 </i>
    <i name="e_wo_entrp">    -18.19215380 </i>
    <i name="e_0_energy">    -18.19215380 </i>
   </energy>
  </scstep>
  <structure>
   <crystal>
    <varray name="basis" >
     <v>       2.51730013       0.00000000       0.00000000 </v>
     <v>       1.25865006       2.18004586       0.00000000 </v>
     <v>       1.25865006       0.72668195       2.05536695 </v>
    </varray>
    <i name="volume">     11.27950384 </i>
    <varray name="rec_basis" >
     <v>       0.39725100      -0.22935297      -0.16217704 </v>
     <v>       0.00000000       0.45870595      -0.16217704 </v>
     <v>       0.00000000       0.00000000       0.48653113 </v>
    </varray>
   </crystal>
   <varray name="positions" >
    <v>       0.25000000       0.25000000       0.25000000 </v>
    <v>       0.00000000       0.00000000       0.00000000 </v>
   </varray>
  </structure>
  <varray name="forces" >
   <v>      -0.00000000      -0.00000000      -0.00000000 </v>
   <v>       0.00000000       0.00000000       0.00000000 </v>
  </varray>
  <varray name="stress" >
   <v>      40.83972388       0.00000000       0.00000000 </v>
   <v>       0.00000000      40.83972388      -0.00000000 </v>
   <v>       0.00000000      -0.00000000      40.83972388 </v>
  </varray>
  <energy>
   <i name="e_fr_energy">    -18.19215380 </i>
   <i name="e_wo_entrp">    -18.19215380 </i>
   <i name="e_0_energy">    -18.19215380 </i>
  </energy>
  <time name="totalsc">    0.84    0.85</time>
  <eigenvalues>
   <array>
    <dimension dim="1">band</dimension>
    <dimension dim="2">kpoint</dimension>
    <dimension dim="3">spin</dimension>
    <field>eigene</field>
    <field>occ</field>
    <set>
     <set comment="spin 1">
      <set comment="kpoint 1">
       <r>  -11.7425    1.0000 </r>
       <r>    9.8093    1.0000 </r>
       <r>    9.8093    1.0000 </r>
       <r>    9.8093    1.0000 </r>
       <r>   15.4160    0.0000 </r>
       <r>   15.4160    0.0000 </r>
       <r>   15.4160    0.0000 </r>
       <r>   23.2706    0.0000 </r>
      </set>
      <set comment="kpoint 2">
       <r>  -11.4648    1.0000 </r>
       <r>    8.1263    1.0000 </r>
       <r>    9.3601    1.0000 </r>
       <r>    9.3601    1.0000 </r>
       <r>   16.0058    0.0000 </r>
       <r>   16.0058    0.0000 </r>
       <r>   16.3687    0.0000 </r>
       <r>   23.5013    0.0000 </r>
      </set>
      <set comment="kpoint 3">
       <r>  -10.6366    1.0000 </r>
       <r>    4.9084    1.0000 </r>
       <r>    8.4792    1.0000 </r>
       <r>    8.4792    1.0000 </r>
       <r>   17.1422    0.0000 </r>
       <r>   17.1422    0.0000 </r>
       <r>   17.5943    0.0000 </r>
       <r>   24.1399    0.0000 </r>
      </set>
      <set comment="kpoint 4">
       <r>   -9.2775    1.0000 </r>
       <r>    1.4969    1.0000 </r>
       <r>    7.6846    1.0000 </r>
       <r>    7.6846    1.0000 </r>
       <r>   17.9669    0.0000 </r>
       <r>   17.9669    0.0000 </r>
       <r>   18.3024    0.0000 </r>
       <r>   24.9176    0.0000 </r>
      </set>
      <set comment="kpoint 5">
       <r>   -7.4587    1.0000 </r>
       <r>   -1.6479    1.0000 </r>
       <r>    7.1704    1.0000 </r>
       <r>    7.1704    1.0000 </r>
       <r>   18.2559    0.0000 </r>
       <r>   18.2559    0.0000 </r>
       <r>   18.6359    0.0000 </r>
       <r>   25.4243    0.0000 </r>
      </set>
      <set comment="kpoint 6">
       <r>   -5.9357    1.0000 </r>
       <r>   -3.6263    1.0000 </r>
       <r>    6.9946    1.0000 </r>
       <r>    6.9946    1.0000 </r>
       <r>   18.2928    0.0000 </r>
       <r>   18.2928    0.0000 </r>
       <r>   18.7342    0.0000 </r>
       <r>   25.5592    0.0000 </r>
      </set>
      <set comment="kpoint 7">
       <r>  -11.3724    1.0000 </r>
       <r>    8.5751    1.0000 </r>
       <r>    8.5751    1.0000 </r>
       <r>    8.9385    1.0000 </r>
       <r>   15.1407    0.0000 </r>
       <r>   16.9676    0.0000 </r>
       <r>   16.9676    0.0000 </r>
       <r>   23.3678    0.0000 </r>
      </set>
      <set comment="kpoint 8">
       <r>  -10.7278    1.0000 </r>
       <r>    6.0280    1.0000 </r>
       <r>    7.6026    1.0000 </r>
       <r>    8.4689    1.0000 </r>
       <r>   15.5689    0.0000 </r>
       <r>   18.2761    0.0000 </r>
       <r>   18.2974    0.0000 </r>
       <r>   23.2696    0.0000 </r>
      </set>
      <set comment="kpoint 9">
       <r>   -9.5451    1.0000 </r>
       <r>    2.7439    1.0000 </r>
       <r>    6.8532    1.0000 </r>
       <r>    7.5972    1.0000 </r>
       <r>   16.6111    0.0000 </r>
       <r>   19.1355    0.0000 </r>
       <r>   19.2277    0.0000 </r>
       <r>   23.4570    0.0000 </r>
      </set>
      <set comment="kpoint 10">
       <r>   -7.8691    1.0000 </r>
       <r>   -0.4669    1.0000 </r>
       <r>    6.4757    1.0000 </r>
       <r>    6.7236    1.0000 </r>
       <r>   17.3298    0.0000 </r>
       <r>   19.4445    0.0000 </r>
       <r>   19.5414    0.0000 </r>
       <r>   24.3447    0.0000 </r>
      </set>
      <set comment="kpoint 11">
       <r>   -5.9918    1.0000 </r>
       <r>   -3.0763    1.0000 </r>
       <r>    6.0865    1.0000 </r>
       <r>    6.5045    1.0000 </r>
       <r>   17.7345    0.0000 </r>
       <r>   19.1954    0.0000 </r>
       <r>   19.6728    0.0000 </r>
       <r>   25.3459    0.0000 </r>
      </set>
      <set comment="kpoint 12">
       <r>   -6.5757    1.0000 </r>
       <r>   -2.3412    1.0000 </r>
       <r>    5.7913    1.0000 </r>
       <r>    6.9188    1.0000 </r>
       <r>   18.1334    0.0000 </r>
       <r>   18.7747    0.0000 </r>
       <r>   19.6108    0.0000 </r>
       <r>   25.4210    0.0000 </r>
      </set>
      <set comment="kpoint 13">
       <r>   -8.4775    1.0000 </r>
       <r>    0.5810    1.0000 </r>
       <r>    5.8912    1.0000 </r>
       <r>    7.6531    1.0000 </r>
       <r>   18.1587    0.0000 </r>
       <r>   18.4613    0.0000 </r>
       <r>   19.3085    0.0000 </r>
       <r>   24.6130    0.0000 </r>
      </set>
      <set comment="kpoint 14">
       <r>   -9.9979    1.0000 </r>
       <r>    3.8655    1.0000 </r>
       <r>    6.4045    1.0000 </r>
       <r>    8.5674    1.0000 </r>
       <r>   17.1824    0.0000 </r>
       <r>   18.3348    0.0000 </r>
       <r>   18.5140    0.0000 </r>
       <r>   23.9139    0.0000 </r>
      </set>
      <set comment="kpoint 15">
       <r>  -11.0036    1.0000 </r>
       <r>    6.8663    1.0000 </r>
       <r>    7.4664    1.0000 </r>
       <r>    9.3320    1.0000 </r>
       <r>   16.1644    0.0000 </r>
       <r>   17.1905    0.0000 </r>
       <r>   17.5075    0.0000 </r>
       <r>   23.6625    0.0000 </r>
      </set>
      <set comment="kpoint 16">
       <r>  -10.2692    1.0000 </r>
       <r>    6.5649    1.0000 </r>
       <r>    6.5649    1.0000 </r>
       <r>    6.7187    1.0000 </r>
       <r>   14.5487    0.0000 </r>
       <r>   19.8948    0.0000 </r>
       <r>   19.8948    0.0000 </r>
       <r>   21.7051    0.0000 </r>
      </set>
      <set comment="kpoint 17">
       <r>   -9.2706    1.0000 </r>
       <r>    3.9583    1.0000 </r>
       <r>    5.7717    1.0000 </r>
       <r>    6.1494    1.0000 </r>
       <r>   14.9781    0.0000 </r>
       <r>   20.6436    0.0000 </r>
       <r>   21.1355    0.0000 </r>
       <r>   21.1709    0.0000 </r>
      </set>
      <set comment="kpoint 18">
       <r>   -7.7641    1.0000 </r>
       <r>    0.9842    1.0000 </r>
       <r>    5.0883    1.0000 </r>
       <r>    5.3845    1.0000 </r>
       <r>   15.9277    0.0000 </r>
       <r>   21.0854    0.0000 </r>
       <r>   21.6453    0.0000 </r>
       <r>   21.7395    0.0000 </r>
      </set>
      <set comment="kpoint 19">
       <r>   -5.8913    1.0000 </r>
       <r>   -1.7663    1.0000 </r>
       <r>    4.0851    1.0000 </r>
       <r>    5.4496    1.0000 </r>
       <r>   16.5078    0.0000 </r>
       <r>   21.3852    0.0000 </r>
       <r>   21.9339    0.0000 </r>
       <r>   23.1215    0.0000 </r>
      </set>
      <set comment="kpoint 20">
       <r>   -5.3413    1.0000 </r>
       <r>   -2.4244    1.0000 </r>
       <r>    3.4109    1.0000 </r>
       <r>    5.9489    1.0000 </r>
       <r>   17.0802    0.0000 </r>
       <r>   20.7013    0.0000 </r>
       <r>   21.9077    0.0000 </r>
       <r>   25.1063    0.0000 </r>
      </set>
      <set comment="kpoint 21">
       <r>   -7.1767    1.0000 </r>
       <r>    0.0943    1.0000 </r>
       <r>    3.1887    1.0000 </r>
       <r>    6.8010    1.0000 </r>
       <r>   17.8194    0.0000 </r>
       <r>   19.6788    0.0000 </r>
       <r>   21.5946    0.0000 </r>
       <r>   24.3325    0.0000 </r>
      </set>
      <set comment="kpoint 22">
       <r>   -8.8280    1.0000 </r>
       <r>    2.8085    1.0000 </r>
       <r>    3.7752    1.0000 </r>
       <r>    7.8137    1.0000 </r>
       <r>   18.3283    0.0000 </r>
       <r>   18.4286    0.0000 </r>
       <r>   20.3489    0.0000 </r>
       <r>   23.5509    0.0000 </r>
      </set>
      <set comment="kpoint 23">
       <r>   -8.4589    1.0000 </r>
       <r>    3.7168    1.0000 </r>
       <r>    4.8961    1.0000 </r>
       <r>    4.8961    1.0000 </r>
       <r>   14.0585    0.0000 </r>
       <r>   18.5162    0.0000 </r>
       <r>   22.9637    0.0000 </r>
       <r>   22.9638    0.0000 </r>
      </set>
      <set comment="kpoint 24">
       <r>   -7.1350    1.0000 </r>
       <r>    1.7332    1.0000 </r>
       <r>    3.7956    1.0000 </r>
       <r>    4.4228    1.0000 </r>
       <r>   14.6176    0.0000 </r>
       <r>   17.8519    0.0000 </r>
       <r>   23.9555    0.0000 </r>
       <r>   24.0163    0.0000 </r>
      </set>
      <set comment="kpoint 25">
       <r>   -5.3848    1.0000 </r>
       <r>   -0.4575    1.0000 </r>
       <r>    2.2540    1.0000 </r>
       <r>    4.4192    1.0000 </r>
       <r>   15.3838    0.0000 </r>
       <r>   19.3963    0.0000 </r>
       <r>   23.9331    0.0000 </r>
       <r>   24.4013    0.0000 </r>
      </set>
      <set comment="kpoint 26">
       <r>   -4.0247    1.0000 </r>
       <r>   -1.8999    1.0000 </r>
       <r>    1.1016    1.0000 </r>
       <r>    4.8812    1.0000 </r>
       <r>   15.9640    0.0000 </r>
       <r>   22.4403    0.0000 </r>
       <r>   23.0896    0.0000 </r>
       <r>   24.4838    0.0000 </r>
      </set>
      <set comment="kpoint 27">
       <r>   -5.4683    1.0000 </r>
       <r>   -0.3653    1.0000 </r>
       <r>    0.9017    1.0000 </r>
       <r>    5.7376    1.0000 </r>
       <r>   16.8084    0.0000 </r>
       <r>   21.5829    0.0000 </r>
       <r>   24.0023    0.0000 </r>
       <r>   24.4015    0.0000 </r>
      </set>
      <set comment="kpoint 28">
       <r>   -5.9974    1.0000 </r>
       <r>    0.3492    1.0000 </r>
       <r>    3.8375    1.0000 </r>
       <r>    3.8375    1.0000 </r>
       <r>   13.9923    0.0000 </r>
       <r>   16.0348    0.0000 </r>
       <r>   25.5651    0.0000 </r>
       <r>   25.5652    0.0000 </r>
      </set>
      <set comment="kpoint 29">
       <r>   -4.4111    1.0000 </r>
       <r>   -1.2898    1.0000 </r>
       <r>    2.7231    1.0000 </r>
       <r>    3.7207    1.0000 </r>
       <r>   14.6648    0.0000 </r>
       <r>   16.1369    0.0000 </r>
       <r>   25.9425    0.0000 </r>
       <r>   26.1332    0.0000 </r>
      </set>
      <set comment="kpoint 30">
       <r>   -2.9400    1.0000 </r>
       <r>   -2.3312    1.0000 </r>
       <r>    0.9859    1.0000 </r>
       <r>    4.0861    1.0000 </r>
       <r>   15.1764    0.0000 </r>
       <r>   18.8394    0.0000 </r>
       <r>   25.0330    0.0000 </r>
       <r>   25.8872    0.0000 </r>
      </set>
      <set comment="kpoint 31">
       <r>   -2.9948    1.0000 </r>
       <r>   -2.9948    1.0000 </r>
       <r>    3.4767    1.0000 </r>
       <r>    3.4767    1.0000 </r>
       <r>   14.5811    0.0000 </r>
       <r>   14.5811    0.0000 </r>
       <r>   26.7000    0.0000 </r>
       <r>   26.7000    0.0000 </r>
      </set>
      <set comment="kpoint 32">
       <r>   -9.9059    1.0000 </r>
       <r>    4.7576    1.0000 </r>
       <r>    5.5652    1.0000 </r>
       <r>    7.9006    1.0000 </r>
       <r>   15.9623    0.0000 </r>
       <r>   19.2505    0.0000 </r>
       <r>   19.8401    0.0000 </r>
       <r>   22.5077    0.0000 </r>
      </set>
      <set comment="kpoint 33">
       <r>   -8.5599    1.0000 </r>
       <r>    1.9194    1.0000 </r>
       <r>    4.6927    1.0000 </r>
       <r>    7.0020    1.0000 </r>
       <r>   17.0921    0.0000 </r>
       <r>   19.4244    0.0000 </r>
       <r>   21.0882    0.0000 </r>
       <r>   22.5733    0.0000 </r>
      </set>
      <set comment="kpoint 34">
       <r>   -6.7665    1.0000 </r>
       <r>   -1.0596    1.0000 </r>
       <r>    4.4553    1.0000 </r>
       <r>    6.1305    1.0000 </r>
       <r>   17.8333    0.0000 </r>
       <r>   19.1642    0.0000 </r>
       <r>   21.6364    0.0000 </r>
       <r>   23.9948    0.0000 </r>
      </set>
      <set comment="kpoint 35">
       <r>   -5.2839    1.0000 </r>
       <r>   -2.9604    1.0000 </r>
       <r>    4.4494    1.0000 </r>
       <r>    5.7448    1.0000 </r>
       <r>   18.0228    0.0000 </r>
       <r>   19.0187    0.0000 </r>
       <r>   21.7962    0.0000 </r>
       <r>   25.1446    0.0000 </r>
      </set>
      <set comment="kpoint 36">
       <r>   -8.1086    1.0000 </r>
       <r>    2.7180    1.0000 </r>
       <r>    3.9695    1.0000 </r>
       <r>    5.4523    1.0000 </r>
       <r>   15.5315    0.0000 </r>
       <r>   19.6114    0.0000 </r>
       <r>   21.6810    0.0000 </r>
       <r>   22.9928    0.0000 </r>
      </set>
      <set comment="kpoint 37">
       <r>   -6.4731    1.0000 </r>
       <r>    0.3701    1.0000 </r>
       <r>    3.0826    1.0000 </r>
       <r>    4.6079    1.0000 </r>
       <r>   16.6690    0.0000 </r>
       <r>   20.1276    0.0000 </r>
       <r>   21.6752    0.0000 </r>
       <r>   24.0788    0.0000 </r>
      </set>
      <set comment="kpoint 38">
       <r>   -4.6758    1.0000 </r>
       <r>   -1.9071    1.0000 </r>
       <r>    2.4382    1.0000 </r>
       <r>    4.4418    1.0000 </r>
       <r>   17.2803    0.0000 </r>
       <r>   20.8636    0.0000 </r>
       <r>   22.8128    0.0000 </r>
       <r>   24.2475    0.0000 </r>
      </set>
      <set comment="kpoint 39">
       <r>   -5.2529    1.0000 </r>
       <r>   -1.1804    1.0000 </r>
       <r>    1.9682    1.0000 </r>
       <r>    5.0173    1.0000 </r>
       <r>   17.9240    0.0000 </r>
       <r>   20.1718    0.0000 </r>
       <r>   23.3601    0.0000 </r>
       <r>   24.4130    0.0000 </r>
      </set>
      <set comment="kpoint 40">
       <r>   -7.0800    1.0000 </r>
       <r>    1.1066    1.0000 </r>
       <r>    2.2740    1.0000 </r>
       <r>    6.0058    1.0000 </r>
       <r>   18.7171    0.0000 </r>
       <r>   18.7706    0.0000 </r>
       <r>   22.4822    0.0000 </r>
       <r>   23.1666    0.0000 </r>
      </set>
      <set comment="kpoint 41">
       <r>   -5.6792    1.0000 </r>
       <r>    0.2587    1.0000 </r>
       <r>    2.9891    1.0000 </r>
       <r>    3.4830    1.0000 </r>
       <r>   15.4638    0.0000 </r>
       <r>   17.3352    0.0000 </r>
       <r>   24.1499    0.0000 </r>
       <r>   25.5070    0.0000 </r>
      </set>
      <set comment="kpoint 42">
       <r>   -3.9020    1.0000 </r>
       <r>   -1.2865    1.0000 </r>
       <r>    1.4214    1.0000 </r>
       <r>    3.3589    1.0000 </r>
       <r>   16.4355    0.0000 </r>
       <r>   19.0845    0.0000 </r>
       <r>   23.7946    0.0000 </r>
       <r>   25.3910    0.0000 </r>
      </set>
      <set comment="kpoint 43">
       <r>   -3.6036    1.0000 </r>
       <r>   -1.4591    1.0000 </r>
       <r>    0.4443    1.0000 </r>
       <r>    3.9781    1.0000 </r>
       <r>   17.0578    0.0000 </r>
       <r>   22.1475    0.0000 </r>
       <r>   22.8461    0.0000 </r>
       <r>   24.1729    0.0000 </r>
      </set>
      <set comment="kpoint 44">
       <r>   -2.7678    1.0000 </r>
       <r>   -2.7678    1.0000 </r>
       <r>    2.7635    1.0000 </r>
       <r>    2.7636    1.0000 </r>
       <r>   15.9992    0.0000 </r>
       <r>   15.9992    0.0000 </r>
       <r>   25.9261    0.0000 </r>
       <r>   25.9261    0.0000 </r>
      </set>
      <set comment="kpoint 45">
       <r>   -4.7827    1.0000 </r>
       <r>   -0.3830    1.0000 </r>
       <r>    1.4467    1.0000 </r>
       <r>    3.3929    1.0000 </r>
       <r>   18.7983    0.0000 </r>
       <r>   19.6903    0.0000 </r>
       <r>   21.6331    0.0000 </r>
       <r>   24.9784    0.0000 </r>
      </set>
      <set comment="kpoint 46">
       <r>   -3.4061    1.0000 </r>
       <r>   -1.5970    1.0000 </r>
       <r>    1.1321    1.0000 </r>
       <r>    2.8081    1.0000 </r>
       <r>   19.2850    0.0000 </r>
       <r>   20.4068    0.0000 </r>
       <r>   22.8885    0.0000 </r>
       <r>   23.1156    0.0000 </r>
      </set>
      <set comment="kpoint 47">
       <r>   -2.2963    1.0000 </r>
       <r>   -2.2963    1.0000 </r>
       <r>    1.6395    1.0000 </r>
       <r>    1.6395    1.0000 </r>
       <r>   19.2170    0.0000 </r>
       <r>   19.2170    0.0000 </r>
       <r>   23.3711    0.0000 </r>
       <r>   23.3711    0.0000 </r>
      </set>
     </set>
    </set>
   </array>
  </eigenvalues>
  <separator name="orbital magnetization" >
   <v name="MAGDIPOLOUT">      0.00000000      0.00000000      0.00000000</v>
  </separator>
  <dos>
   <i name="efermi">     10.59149034 </i>
   <total>
    <array>
     <dimension dim="1">gridpoints</dimension>
     <dimension dim="2">spin</dimension>
     <field>energy</field>
     <field>total</field>
     <field>integrated</field>
     <set>
      <set comment="spin 1">
       <r>   -13.7425     0.0000     0.0000 </r>
       <r>   -13.6010     0.0000     0.0000 </r>
       <r>   -13.4595     0.0000     0.0000 </r>
       <r>   -13.3181     0.0000     0.0000 </r>
       <r>   -13.1766     0.0000     0.0000 </r>
       <r>   -13.0351     0.0000     0.0000 </r>
       <r>   -12.8936     0.0000     0.0000 </r>
       <r>   -12.7522     0.0000     0.0000 </r>
       <r>   -12.6107     0.0000     0.0000 </r>
       <r>   -12.4692     0.0000     0.0000 </r>
       <r>   -12.3277     0.0000     0.0000 </r>
       <r>   -12.1863     0.0000     0.0000 </r>
       <r>   -12.0448     0.0002     0.0000 </r>
       <r>   -11.9033     0.0017     0.0003 </r>
       <r>   -11.7618     0.0066     0.0012 </r>
       <r>   -11.6204     0.0216     0.0043 </r>
       <r>   -11.4789     0.0549     0.0120 </r>
       <r>   -11.3374     0.0737     0.0224 </r>
       <r>   -11.1959     0.0561     0.0304 </r>
       <r>   -11.0545     0.0608     0.0390 </r>
       <r>   -10.9130     0.0970     0.0527 </r>
       <r>   -10.7715     0.1483     0.0737 </r>
       <r>   -10.6300     0.1755     0.0985 </r>
       <r>   -10.4886     0.1108     0.1142 </r>
       <r>   -10.3471     0.0507     0.1214 </r>
       <r>   -10.2056     0.0630     0.1303 </r>
       <r>   -10.0641     0.1449     0.1508 </r>
       <r>    -9.9227     0.2458     0.1856 </r>
       <r>    -9.7812     0.2167     0.2162 </r>
       <r>    -9.6397     0.1447     0.2367 </r>
       <r>    -9.4982     0.1624     0.2597 </r>
       <r>    -9.3568     0.1949     0.2872 </r>
       <r>    -9.2153     0.2007     0.3156 </r>
       <r>    -9.0738     0.1288     0.3338 </r>
       <r>    -8.9323     0.0679     0.3435 </r>
       <r>    -8.7909     0.1038     0.3581 </r>
       <r>    -8.6494     0.2341     0.3913 </r>
       <r>    -8.5079     0.4002     0.4479 </r>
       <r>    -8.3664     0.3540     0.4980 </r>
       <r>    -8.2250     0.1907     0.5249 </r>
       <r>    -8.0835     0.1690     0.5489 </r>
       <r>    -7.9420     0.2189     0.5798 </r>
       <r>    -7.8005     0.2662     0.6175 </r>
       <r>    -7.6591     0.2225     0.6490 </r>
       <r>    -7.5176     0.1187     0.6657 </r>
       <r>    -7.3761     0.1019     0.6802 </r>
       <r>    -7.2346     0.2225     0.7116 </r>
       <r>    -7.0932     0.3802     0.7654 </r>
       <r>    -6.9517     0.3522     0.8153 </r>
       <r>    -6.8102     0.3120     0.8594 </r>
       <r>    -6.6687     0.3904     0.9146 </r>
       <r>    -6.5273     0.4462     0.9778 </r>
       <r>    -6.3858     0.3817     1.0318 </r>
       <r>    -6.2443     0.1935     1.0591 </r>
       <r>    -6.1028     0.1398     1.0789 </r>
       <r>    -5.9614     0.2671     1.1167 </r>
       <r>    -5.8199     0.3265     1.1629 </r>
       <r>    -5.6784     0.2700     1.2011 </r>
       <r>    -5.5369     0.2771     1.2403 </r>
       <r>    -5.3955     0.4672     1.3064 </r>
       <r>    -5.2540     0.6526     1.3987 </r>
       <r>    -5.1125     0.4739     1.4658 </r>
       <r>    -4.9710     0.1924     1.4930 </r>
       <r>    -4.8296     0.1977     1.5210 </r>
       <r>    -4.6881     0.3593     1.5718 </r>
       <r>    -4.5466     0.3584     1.6225 </r>
       <r>    -4.4051     0.2377     1.6562 </r>
       <r>    -4.2637     0.1501     1.6774 </r>
       <r>    -4.1222     0.1495     1.6985 </r>
       <r>    -3.9807     0.2916     1.7398 </r>
       <r>    -3.8392     0.3746     1.7928 </r>
       <r>    -3.6978     0.2906     1.8339 </r>
       <r>    -3.5563     0.2412     1.8680 </r>
       <r>    -3.4148     0.2284     1.9003 </r>
       <r>    -3.2733     0.1829     1.9262 </r>
       <r>    -3.1319     0.2043     1.9551 </r>
       <r>    -2.9904     0.3343     2.0024 </r>
       <r>    -2.8489     0.3695     2.0547 </r>
       <r>    -2.7074     0.2636     2.0920 </r>
       <r>    -2.5660     0.1900     2.1189 </r>
       <r>    -2.4245     0.3037     2.1618 </r>
       <r>    -2.2830     0.4363     2.2236 </r>
       <r>    -2.1415     0.3377     2.2714 </r>
       <r>    -2.0001     0.3087     2.3150 </r>
       <r>    -1.8586     0.4833     2.3834 </r>
       <r>    -1.7171     0.5098     2.4555 </r>
       <r>    -1.5756     0.4233     2.5154 </r>
       <r>    -1.4342     0.4517     2.5793 </r>
       <r>    -1.2927     0.6454     2.6706 </r>
       <r>    -1.1512     0.7861     2.7818 </r>
       <r>    -1.0097     0.6142     2.8687 </r>
       <r>    -0.8683     0.2793     2.9082 </r>
       <r>    -0.7268     0.0865     2.9205 </r>
       <r>    -0.5853     0.1486     2.9415 </r>
       <r>    -0.4438     0.3704     2.9939 </r>
       <r>    -0.3024     0.4119     3.0522 </r>
       <r>    -0.1609     0.2081     3.0816 </r>
       <r>    -0.0194     0.1098     3.0972 </r>
       <r>     0.1221     0.2093     3.1268 </r>
       <r>     0.2635     0.4006     3.1834 </r>
       <r>     0.4050     0.5635     3.2632 </r>
       <r>     0.5465     0.5013     3.3341 </r>
       <r>     0.6880     0.2883     3.3749 </r>
       <r>     0.8294     0.2077     3.4043 </r>
       <r>     0.9709     0.3824     3.4584 </r>
       <r>     1.1124     0.5813     3.5406 </r>
       <r>     1.2539     0.5391     3.6169 </r>
       <r>     1.3953     0.4946     3.6869 </r>
       <r>     1.5368     0.5362     3.7627 </r>
       <r>     1.6783     0.4808     3.8307 </r>
       <r>     1.8198     0.4955     3.9008 </r>
       <r>     1.9612     0.6002     3.9858 </r>
       <r>     2.1027     0.5327     4.0611 </r>
       <r>     2.2442     0.4260     4.1214 </r>
       <r>     2.3857     0.4605     4.1865 </r>
       <r>     2.5271     0.4680     4.2528 </r>
       <r>     2.6686     0.5726     4.3338 </r>
       <r>     2.8101     0.7736     4.4432 </r>
       <r>     2.9516     0.7163     4.5446 </r>
       <r>     3.0930     0.6138     4.6314 </r>
       <r>     3.2345     0.6295     4.7204 </r>
       <r>     3.3760     0.7283     4.8235 </r>
       <r>     3.5175     0.7119     4.9242 </r>
       <r>     3.6589     0.5622     5.0037 </r>
       <r>     3.8004     0.6644     5.0977 </r>
       <r>     3.9419     0.8443     5.2172 </r>
       <r>     4.0834     0.7543     5.3239 </r>
       <r>     4.2248     0.5295     5.3988 </r>
       <r>     4.3663     0.7020     5.4981 </r>
       <r>     4.5078     1.1243     5.6572 </r>
       <r>     4.6493     1.1272     5.8166 </r>
       <r>     4.7907     0.8906     5.9426 </r>
       <r>     4.9322     0.7331     6.0464 </r>
       <r>     5.0737     0.6219     6.1343 </r>
       <r>     5.2152     0.4275     6.1948 </r>
       <r>     5.3566     0.3759     6.2480 </r>
       <r>     5.4981     0.5156     6.3209 </r>
       <r>     5.6396     0.5880     6.4041 </r>
       <r>     5.7811     0.7050     6.5039 </r>
       <r>     5.9225     0.8724     6.6273 </r>
       <r>     6.0640     0.9759     6.7654 </r>
       <r>     6.2055     0.8530     6.8860 </r>
       <r>     6.3470     0.5696     6.9666 </r>
       <r>     6.4884     0.5062     7.0382 </r>
       <r>     6.6299     0.5361     7.1141 </r>
       <r>     6.7714     0.6105     7.2005 </r>
       <r>     6.9129     0.7541     7.3071 </r>
       <r>     7.0543     0.6899     7.4047 </r>
       <r>     7.1958     0.4034     7.4618 </r>
       <r>     7.3373     0.1946     7.4893 </r>
       <r>     7.4788     0.2518     7.5250 </r>
       <r>     7.6202     0.4831     7.5933 </r>
       <r>     7.7617     0.5414     7.6699 </r>
       <r>     7.9032     0.3794     7.7236 </r>
       <r>     8.0447     0.2121     7.7536 </r>
       <r>     8.1861     0.1118     7.7694 </r>
       <r>     8.3276     0.1313     7.7880 </r>
       <r>     8.4691     0.2978     7.8301 </r>
       <r>     8.6106     0.3880     7.8850 </r>
       <r>     8.7520     0.2336     7.9180 </r>
       <r>     8.8935     0.0818     7.9296 </r>
       <r>     9.0350     0.0434     7.9358 </r>
       <r>     9.1765     0.0568     7.9438 </r>
       <r>     9.3179     0.1233     7.9613 </r>
       <r>     9.4594     0.1460     7.9819 </r>
       <r>     9.6009     0.0736     7.9923 </r>
       <r>     9.7424     0.0243     7.9958 </r>
       <r>     9.8838     0.0173     7.9982 </r>
       <r>    10.0253     0.0100     7.9996 </r>
       <r>    10.1668     0.0024     8.0000 </r>
       <r>    10.3083     0.0002     8.0000 </r>
       <r>    10.4497     0.0000     8.0000 </r>
       <r>    10.5912     0.0000     8.0000 </r>
       <r>    10.7327     0.0000     8.0000 </r>
       <r>    10.8742     0.0000     8.0000 </r>
       <r>    11.0156     0.0000     8.0000 </r>
       <r>    11.1571     0.0000     8.0000 </r>
       <r>    11.2986     0.0000     8.0000 </r>
       <r>    11.4401     0.0000     8.0000 </r>
       <r>    11.5815     0.0000     8.0000 </r>
       <r>    11.7230     0.0000     8.0000 </r>
       <r>    11.8645     0.0000     8.0000 </r>
       <r>    12.0060     0.0000     8.0000 </r>
       <r>    12.1474     0.0000     8.0000 </r>
       <r>    12.2889     0.0000     8.0000 </r>
       <r>    12.4304     0.0000     8.0000 </r>
       <r>    12.5719     0.0000     8.0000 </r>
       <r>    12.7133     0.0000     8.0000 </r>
       <r>    12.8548     0.0000     8.0000 </r>
       <r>    12.9963     0.0000     8.0000 </r>
       <r>    13.1378     0.0000     8.0000 </r>
       <r>    13.2792     0.0000     8.0000 </r>
       <r>    13.4207     0.0000     8.0000 </r>
       <r>    13.5622     0.0001     8.0000 </r>
       <r>    13.7037     0.0021     8.0003 </r>
       <r>    13.8451     0.0160     8.0026 </r>
       <r>    13.9866     0.0488     8.0095 </r>
       <r>    14.1281     0.0623     8.0183 </r>
       <r>    14.2696     0.0390     8.0238 </r>
       <r>    14.4110     0.0613     8.0325 </r>
       <r>    14.5525     0.2014     8.0610 </r>
       <r>    14.6940     0.3218     8.1065 </r>
       <r>    14.8355     0.2565     8.1428 </r>
       <r>    14.9769     0.1951     8.1704 </r>
       <r>    15.1184     0.2073     8.1997 </r>
       <r>    15.2599     0.2380     8.2334 </r>
       <r>    15.4014     0.3677     8.2854 </r>
       <r>    15.5428     0.4922     8.3550 </r>
       <r>    15.6843     0.3955     8.4110 </r>
       <r>    15.8258     0.3505     8.4606 </r>
       <r>    15.9673     0.6170     8.5479 </r>
       <r>    16.1087     0.7305     8.6512 </r>
       <r>    16.2502     0.5230     8.7252 </r>
       <r>    16.3917     0.4659     8.7911 </r>
       <r>    16.5332     0.6176     8.8785 </r>
       <r>    16.6746     0.6507     8.9706 </r>
       <r>    16.8161     0.5035     9.0418 </r>
       <r>    16.9576     0.5035     9.1130 </r>
       <r>    17.0991     0.8497     9.2332 </r>
       <r>    17.2405     1.0833     9.3865 </r>
       <r>    17.3820     0.8863     9.5119 </r>
       <r>    17.5235     0.5153     9.5848 </r>
       <r>    17.6650     0.4323     9.6459 </r>
       <r>    17.8064     0.7658     9.7543 </r>
       <r>    17.9479     1.0488     9.9026 </r>
       <r>    18.0894     0.9728    10.0403 </r>
       <r>    18.2309     0.9404    10.1733 </r>
       <r>    18.3723     0.9906    10.3135 </r>
       <r>    18.5138     0.8378    10.4320 </r>
       <r>    18.6553     0.6948    10.5303 </r>
       <r>    18.7968     0.7401    10.6350 </r>
       <r>    18.9382     0.7665    10.7434 </r>
       <r>    19.0797     1.0068    10.8859 </r>
       <r>    19.2212     1.4561    11.0919 </r>
       <r>    19.3627     1.5141    11.3061 </r>
       <r>    19.5041     1.2807    11.4873 </r>
       <r>    19.6456     1.1000    11.6429 </r>
       <r>    19.7871     0.8533    11.7636 </r>
       <r>    19.9286     0.5411    11.8402 </r>
       <r>    20.0700     0.4858    11.9089 </r>
       <r>    20.2115     0.5987    11.9936 </r>
       <r>    20.3530     0.5083    12.0655 </r>
       <r>    20.4945     0.3488    12.1148 </r>
       <r>    20.6359     0.3374    12.1626 </r>
       <r>    20.7774     0.4328    12.2238 </r>
       <r>    20.9189     0.5248    12.2981 </r>
       <r>    21.0604     0.6652    12.3922 </r>
       <r>    21.2018     0.7132    12.4931 </r>
       <r>    21.3433     0.5197    12.5666 </r>
       <r>    21.4848     0.5757    12.6480 </r>
       <r>    21.6263     1.1128    12.8055 </r>
       <r>    21.7677     1.3747    13.0000 </r>
       <r>    21.9092     0.9550    13.1351 </r>
       <r>    22.0507     0.4966    13.2053 </r>
       <r>    22.1922     0.2797    13.2449 </r>
       <r>    22.3336     0.2819    13.2848 </r>
       <r>    22.4751     0.5130    13.3573 </r>
       <r>    22.6166     0.6815    13.4538 </r>
       <r>    22.7581     0.6746    13.5492 </r>
       <r>    22.8995     0.7781    13.6593 </r>
       <r>    23.0410     0.8850    13.7845 </r>
       <r>    23.1825     0.9272    13.9157 </r>
       <r>    23.3240     0.9228    14.0462 </r>
       <r>    23.4654     0.8203    14.1623 </r>
       <r>    23.6069     0.5857    14.2451 </r>
       <r>    23.7484     0.5455    14.3223 </r>
       <r>    23.8899     0.8989    14.4495 </r>
       <r>    24.0313     1.3317    14.6379 </r>
       <r>    24.1728     1.4221    14.8391 </r>
       <r>    24.3143     1.3157    15.0252 </r>
       <r>    24.4558     1.1505    15.1880 </r>
       <r>    24.5972     0.7417    15.2929 </r>
       <r>    24.7387     0.3330    15.3400 </r>
       <r>    24.8802     0.2257    15.3719 </r>
       <r>    25.0217     0.3734    15.4248 </r>
       <r>    25.1631     0.5099    15.4969 </r>
       <r>    25.3046     0.6084    15.5830 </r>
       <r>    25.4461     0.7474    15.6887 </r>
       <r>    25.5876     0.6157    15.7758 </r>
       <r>    25.7290     0.3246    15.8217 </r>
       <r>    25.8705     0.2909    15.8629 </r>
       <r>    26.0120     0.3811    15.9168 </r>
       <r>    26.1535     0.3064    15.9602 </r>
       <r>    26.2949     0.1500    15.9814 </r>
       <r>    26.4364     0.0438    15.9876 </r>
       <r>    26.5779     0.0191    15.9903 </r>
       <r>    26.7194     0.0309    15.9947 </r>
       <r>    26.8608     0.0270    15.9985 </r>
       <r>    27.0023     0.0095    15.9998 </r>
       <r>    27.1438     0.0013    16.0000 </r>
       <r>    27.2853     0.0001    16.0000 </r>
       <r>    27.4267     0.0000    16.0000 </r>
       <r>    27.5682     0.0000    16.0000 </r>
       <r>    27.7097     0.0000    16.0000 </r>
       <r>    27.8512     0.0000    16.0000 </r>
       <r>    27.9926     0.0000    16.0000 </r>
       <r>    28.1341     0.0000    16.0000 </r>
       <r>    28.2756     0.0000    16.0000 </r>
       <r>    28.4171     0.0000    16.0000 </r>
       <r>    28.5585     0.0000    16.0000 </r>
       <r>    28.7000     0.0000    16.0000 </r>
      </set>
     </set>
    </array>
   </total>
  </dos>
 </calculation>
 <structure name="finalpos" >
  <crystal>
   <varray name="basis" >
    <v>       2.51730013       0.00000000       0.00000000 </v>
    <v>       1.25865006       2.18004586       0.00000000 </v>
    <v>       1.25865006       0.72668195       2.05536695 </v>
   </varray>
   <i name="volume">     11.27950384 </i>
   <varray name="rec_basis" >
    <v>       0.39725100      -0.22935297      -0.16217704 </v>
    <v>       0.00000000       0.45870595      -0.16217704 </v>
    <v>       0.00000000       0.00000000       0.48653113 </v>
   </varray>
  </crystal>
  <varray name="positions" >
   <v>       0.25000000       0.25000000       0.25000000 </v>
   <v>       0.00000000       0.00000000       0.00000000 </v>
  </varray>
 </structure>
</modeling>
