real-time non-blocking time  (microseconds, -R) unlimited
core file size              (blocks, -c) unlimited
data seg size               (kbytes, -d) unlimited
scheduling priority                 (-e) 0
file size                   (blocks, -f) unlimited
pending signals                     (-i) 509966
max locked memory           (kbytes, -l) unlimited
max memory size             (kbytes, -m) 117440512
open files                          (-n) 1024
pipe size                (512 bytes, -p) 8
POSIX message queues         (bytes, -q) 819200
real-time priority                  (-r) 0
stack size                  (kbytes, -s) unlimited
cpu time                   (seconds, -t) unlimited
max user processes                  (-u) 125621
virtual memory              (kbytes, -v) unlimited
file locks                          (-x) unlimited
 running   28 mpi-ranks, with    1 threads/rank, on    1 nodes
 distrk:  each k-point on   28 cores,    1 groups
 distr:  one band on    7 cores,    4 groups
 vasp.6.5.1 10Mar25 (build Feb 13 2026 23:13:13) complex                        
  
 POSCAR found type information on POSCAR C N 
 POSCAR found :  2 types and     215 ions
 -----------------------------------------------------------------------------
|                                                                             |
|           W    W    AA    RRRRR   N    N  II  N    N   GGGG   !!!           |
|           W    W   A  A   R    R  NN   N  II  NN   N  G    G  !!!           |
|           W    W  A    A  R    R  N N  N  II  N N  N  G       !!!           |
|           W WW W  AAAAAA  RRRRR   N  N N  II  N  N N  G  GGG   !            |
|           WW  WW  A    A  R   R   N   NN  II  N   NN  G    G                |
|           W    W  A    A  R    R  N    N  II  N    N   GGGG   !!!           |
|                                                                             |
|     You requested a magnetic or noncollinear calculation, but did not       |
|     specify the initial magnetic moment with the MAGMOM tag. Note that      |
|     a default of 1 will be used for all atoms. This ferromagnetic setup     |
|     may break the symmetry of the crystal, in particular it may rule        |
|     out finding an antiferromagnetic solution. Thence, we recommend         |
|     setting the initial magnetic moment manually or verifying carefully     |
|     that this magnetic setup is desired.                                    |
|                                                                             |
 -----------------------------------------------------------------------------

 scaLAPACK will be used
 LDA part: xc-table for (Slater+PW92), standard interpolation
 POSCAR, INCAR and KPOINTS ok, starting setup
 FFT: planning ... GRIDC
 FFT: planning ... GRID_SOFT
 FFT: planning ... GRID
 WAVECAR not read
 entering main loop
       N       E                     dE             d eps       ncg     rms          rms(c)
DAV:   1     0.255300385548E+04    0.25530E+04   -0.44804E+05  2592   0.128E+03
DAV:   2    -0.165967086849E+04   -0.42127E+04   -0.39696E+04  3112   0.266E+02
DAV:   3    -0.188569568462E+04   -0.22602E+03   -0.22350E+03  3360   0.557E+01
DAV:   4    -0.188958804005E+04   -0.38924E+01   -0.38743E+01  3392   0.728E+00
DAV:   5    -0.188966102602E+04   -0.72986E-01   -0.72896E-01  3336   0.999E-01BRMIX: very serious problems
 the old and the new charge density differ
 old charge density:   861.00000 new  863.99987
    0.916E+01
DAV:   6    -0.187209773239E+04    0.17563E+02   -0.93552E+01  3120   0.114E+01    0.506E+01
DAV:   7    -0.190181092890E+04   -0.29713E+02   -0.60367E+01  2976   0.872E+00    0.267E+01
DAV:   8    -0.190757985560E+04   -0.57689E+01   -0.15142E+01  3208   0.512E+00    0.705E+00
DAV:   9    -0.190807620625E+04   -0.49635E+00   -0.26409E+00  3352   0.198E+00    0.623E+00
DAV:  10    -0.190792183845E+04    0.15437E+00   -0.81658E-01  3176   0.121E+00    0.322E+00
DAV:  11    -0.190782345952E+04    0.98379E-01   -0.29814E-01  3176   0.870E-01    0.592E-01
DAV:  12    -0.190783046287E+04   -0.70034E-02   -0.57955E-02  3272   0.312E-01    0.361E-01
DAV:  13    -0.190783061739E+04   -0.15452E-03   -0.60764E-03  3232   0.962E-02    0.224E-01
DAV:  14    -0.190783047345E+04    0.14394E-03   -0.87627E-04  3344   0.627E-02    0.103E-01
DAV:  15    -0.190783069010E+04   -0.21664E-03   -0.64324E-04  3416   0.454E-02    0.569E-02
DAV:  16    -0.190783069991E+04   -0.98110E-05   -0.24983E-04  3136   0.189E-02    0.322E-02
DAV:  17    -0.190783072578E+04   -0.25873E-04   -0.64842E-05  3336   0.958E-03    0.162E-02
DAV:  18    -0.190783074187E+04   -0.16090E-04   -0.32465E-05  3312   0.582E-03    0.106E-02
DAV:  19    -0.190783074606E+04   -0.41894E-05   -0.50352E-06  2592   0.276E-03    0.907E-03
DAV:  20    -0.190783074928E+04   -0.32159E-05   -0.13888E-05  2992   0.329E-03    0.385E-03
DAV:  21    -0.190783074981E+04   -0.53331E-06   -0.12147E-06  1800   0.120E-03
   1 F= -.19078307E+04 E0= -.19078307E+04  d E =-.190783E+04  mag=    -0.0000
 curvature:   0.00 expect dE= 0.000E+00 dE for cont linesearch  0.000E+00
 trial: gam= 0.00000 g(F)=  0.334E+01 g(S)=  0.000E+00 ort = 0.000E+00 (trialstep = 0.100E+01)
 search vector abs. value=  0.334E+01
 bond charge predicted
       N       E                     dE             d eps       ncg     rms          rms(c)
DAV:   1    -0.190800222383E+04   -0.17147E+00   -0.43731E+02  2688   0.214E+01    0.719E+00
DAV:   2    -0.190834482700E+04   -0.34260E+00   -0.90803E+00  3392   0.367E+00    0.317E+00
DAV:   3    -0.190821402617E+04    0.13080E+00   -0.59454E-01  3360   0.905E-01    0.180E+00
DAV:   4    -0.190818036815E+04    0.33658E-01   -0.14190E-01  3216   0.401E-01    0.709E-01
DAV:   5    -0.190817708743E+04    0.32807E-02   -0.28685E-02  3200   0.198E-01    0.251E-01
DAV:   6    -0.190817720636E+04   -0.11893E-03   -0.52531E-03  3280   0.841E-02    0.145E-01
DAV:   7    -0.190817719964E+04    0.67272E-05   -0.47201E-04  3360   0.281E-02    0.532E-02
DAV:   8    -0.190817717469E+04    0.24943E-04   -0.12950E-04  3120   0.136E-02    0.185E-02
DAV:   9    -0.190817717418E+04    0.51087E-06   -0.21632E-05  3360   0.560E-03    0.753E-03
DAV:  10    -0.190817717408E+04    0.97381E-07   -0.86920E-07  1712   0.123E-03
   2 F= -.19081772E+04 E0= -.19081772E+04  d E =-.346424E+00  mag=     0.0000
 trial-energy change:   -0.346424  1 .order   -0.050708   -3.343748    3.242333
 step:   0.5736(harm=  0.5077)  dis= 0.04666  next Energy= -1908.845527 (dE=-0.101E+01)
 bond charge predicted
       N       E                     dE             d eps       ncg     rms          rms(c)
DAV:   1    -0.190882600890E+04   -0.64883E+00   -0.82316E+01  2688   0.996E+00    0.196E+00
DAV:   2    -0.190889353193E+04   -0.67523E-01   -0.16619E+00  3408   0.150E+00    0.144E+00
DAV:   3    -0.190886100531E+04    0.32527E-01   -0.84953E-02  3376   0.317E-01    0.951E-01
DAV:   4    -0.190885544480E+04    0.55605E-02   -0.20595E-02  3240   0.154E-01    0.416E-01
DAV:   5    -0.190885496819E+04    0.47661E-03   -0.44820E-03  3304   0.702E-02    0.113E-01
DAV:   6    -0.190885496860E+04   -0.41669E-06   -0.43904E-04  3232   0.263E-02    0.428E-02
DAV:   7    -0.190885496211E+04    0.64951E-05   -0.11325E-04  3280   0.137E-02    0.200E-02
DAV:   8    -0.190885496314E+04   -0.10299E-05   -0.11603E-05  3208   0.430E-03    0.628E-03
DAV:   9    -0.190885496305E+04    0.91575E-07   -0.14037E-06  2128   0.158E-03
   3 F= -.19088550E+04 E0= -.19088550E+04  d E =-.102421E+01  mag=    -0.0000
 curvature:  -0.25 expect dE=-0.216E+00 dE for cont linesearch -0.899E-05
 trial: gam= 0.26192 g(F)=  0.865E+00 g(S)=  0.000E+00 ort =-0.110E-01 (trialstep = 0.915E+00)
 search vector abs. value=  0.109E+01
 bond charge predicted
       N       E                     dE             d eps       ncg     rms          rms(c)
DAV:   1    -0.190891819789E+04   -0.63235E-01   -0.11834E+02  2672   0.117E+01    0.223E+00
DAV:   2    -0.190901795691E+04   -0.99759E-01   -0.16944E+00  3376   0.155E+00    0.138E+00
DAV:   3    -0.190899726940E+04    0.20688E-01   -0.99734E-02  3360   0.380E-01    0.666E-01
DAV:   4    -0.190899457761E+04    0.26918E-02   -0.23752E-02  3312   0.172E-01    0.316E-01
DAV:   5    -0.190899484492E+04   -0.26731E-03   -0.23016E-03  3296   0.544E-02    0.142E-01
DAV:   6    -0.190899476722E+04    0.77696E-04   -0.27606E-04  3288   0.283E-02    0.552E-02
DAV:   7    -0.190899476736E+04   -0.14002E-06   -0.16067E-04  3360   0.147E-02    0.150E-02
DAV:   8    -0.190899476646E+04    0.89912E-06   -0.13574E-05  3120   0.453E-03    0.834E-03
DAV:   9    -0.190899476631E+04    0.15715E-06   -0.24858E-06  2400   0.234E-03
   4 F= -.19089948E+04 E0= -.19089948E+04  d E =-.139803E+00  mag=     0.0000
 trial-energy change:   -0.139803  1 .order   -0.135861   -0.788434    0.516713
 step:   0.5565(harm=  0.5526)  dis= 0.03110  next Energy= -1909.095698 (dE=-0.241E+00)
 bond charge predicted
       N       E                     dE             d eps       ncg     rms          rms(c)
DAV:   1    -0.190908489956E+04   -0.90133E-01   -0.18330E+01  2672   0.464E+00    0.898E-01
DAV:   2    -0.190909874689E+04   -0.13847E-01   -0.25965E-01  3392   0.606E-01    0.532E-01
DAV:   3    -0.190909575669E+04    0.29902E-02   -0.15799E-02  3344   0.141E-01    0.311E-01
DAV:   4    -0.190909543223E+04    0.32445E-03   -0.22942E-03  3312   0.564E-02    0.172E-01
DAV:   5    -0.190909542619E+04    0.60445E-05   -0.54943E-04  3264   0.274E-02    0.402E-02
DAV:   6    -0.190909542460E+04    0.15854E-05   -0.66189E-05  3256   0.105E-02    0.182E-02
DAV:   7    -0.190909542343E+04    0.11718E-05   -0.17172E-05  3296   0.502E-03    0.882E-03
DAV:   8    -0.190909542313E+04    0.29807E-06   -0.31402E-06  2704   0.260E-03
   5 F= -.19090954E+04 E0= -.19090954E+04  d E =-.240460E+00  mag=     0.0000
 curvature:  -0.35 expect dE=-0.526E-01 dE for cont linesearch -0.844E-05
 trial: gam= 0.14150 g(F)=  0.151E+00 g(S)=  0.000E+00 ort =-0.513E-02 (trialstep = 0.843E+00)
 search vector abs. value=  0.171E+00
 bond charge predicted
       N       E                     dE             d eps       ncg     rms          rms(c)
DAV:   1    -0.190911910371E+04   -0.23680E-01   -0.13248E+01  2672   0.463E+00    0.752E-01
DAV:   2    -0.190913613195E+04   -0.17028E-01   -0.23320E-01  3392   0.594E-01    0.419E-01
DAV:   3    -0.190913500273E+04    0.11292E-02   -0.79824E-03  3384   0.122E-01    0.233E-01
DAV:   4    -0.190913484265E+04    0.16008E-03   -0.19899E-03  3360   0.617E-02    0.753E-02
DAV:   5    -0.190913486097E+04   -0.18315E-04   -0.22262E-04  3256   0.205E-02    0.317E-02
DAV:   6    -0.190913485897E+04    0.19975E-05   -0.44165E-05  3320   0.913E-03    0.163E-02
DAV:   7    -0.190913485935E+04   -0.37848E-06   -0.86134E-06  3288   0.419E-03
   6 F= -.19091349E+04 E0= -.19091349E+04  d E =-.394362E-01  mag=     0.0000
 trial-energy change:   -0.039436  1 .order   -0.038841   -0.126453    0.048770
 step:   0.6118(harm=  0.6084)  dis= 0.00771  next Energy= -1909.141535 (dE=-0.461E-01)
 bond charge predicted
       N       E                     dE             d eps       ncg     rms          rms(c)
DAV:   1    -0.190914043122E+04   -0.55722E-02   -0.99571E-01  2672   0.127E+00    0.210E-01
DAV:   2    -0.190914171348E+04   -0.12823E-02   -0.17691E-02  3392   0.163E-01    0.115E-01
DAV:   3    -0.190914162878E+04    0.84703E-04   -0.61104E-04  3376   0.333E-02    0.653E-02
DAV:   4    -0.190914161451E+04    0.14271E-04   -0.14203E-04  3360   0.164E-02    0.219E-02
DAV:   5    -0.190914161559E+04   -0.10776E-05   -0.17131E-05  3264   0.579E-03    0.851E-03
DAV:   6    -0.190914161538E+04    0.20757E-06   -0.35592E-06  2704   0.256E-03
   7 F= -.19091416E+04 E0= -.19091416E+04  d E =-.461922E-01  mag=    -0.0000
 curvature:  -0.35 expect dE=-0.123E-01 dE for cont linesearch -0.257E-07
 trial: gam= 0.23000 g(F)=  0.354E-01 g(S)=  0.000E+00 ort =-0.113E-03 (trialstep = 0.797E+00)
 search vector abs. value=  0.444E-01
 bond charge predicted
       N       E                     dE             d eps       ncg     rms          rms(c)
DAV:   1    -0.190914747693E+04   -0.58613E-02   -0.30270E+00  2656   0.227E+00    0.350E-01
DAV:   2    -0.190915070077E+04   -0.32238E-02   -0.52596E-02  3376   0.282E-01    0.209E-01
DAV:   3    -0.190915020542E+04    0.49535E-03   -0.20295E-03  3376   0.654E-02    0.101E-01
DAV:   4    -0.190915018928E+04    0.16138E-04   -0.51444E-04  3352   0.283E-02    0.417E-02
DAV:   5    -0.190915019244E+04   -0.31581E-05   -0.44019E-05  3264   0.831E-03    0.136E-02
DAV:   6    -0.190915019185E+04    0.58304E-06   -0.62305E-06  3264   0.374E-03
   8 F= -.19091502E+04 E0= -.19091502E+04  d E =-.857647E-02  mag=    -0.0000
 trial-energy change:   -0.008576  1 .order   -0.008598   -0.028187    0.010990
 step:   0.5733(harm=  0.5733)  dis= 0.00303  next Energy= -1909.151755 (dE=-0.101E-01)
 bond charge predicted
       N       E                     dE             d eps       ncg     rms          rms(c)
DAV:   1    -0.190915151590E+04   -0.13235E-02   -0.23807E-01  2688   0.636E-01    0.982E-02
DAV:   2    -0.190915176327E+04   -0.24738E-03   -0.41091E-03  3376   0.788E-02    0.585E-02
DAV:   3    -0.190915172381E+04    0.39462E-04   -0.15967E-04  3376   0.183E-02    0.283E-02
DAV:   4    -0.190915172258E+04    0.12272E-05   -0.39999E-05  3320   0.787E-03    0.118E-02
DAV:   5    -0.190915172281E+04   -0.22196E-06   -0.34446E-06  2744   0.234E-03
   9 F= -.19091517E+04 E0= -.19091517E+04  d E =-.101074E-01  mag=    -0.0000
 curvature:  -0.36 expect dE=-0.410E-02 dE for cont linesearch -0.202E-06
 trial: gam= 0.31443 g(F)=  0.114E-01 g(S)=  0.000E+00 ort = 0.158E-03 (trialstep = 0.752E+00)
 search vector abs. value=  0.159E-01
 bond charge predicted
       N       E                     dE             d eps       ncg     rms          rms(c)
DAV:   1    -0.190915516904E+04   -0.34465E-02   -0.91353E-01  2624   0.127E+00    0.184E-01
DAV:   2    -0.190915616398E+04   -0.99495E-03   -0.15479E-02  3392   0.151E-01    0.113E-01
DAV:   3    -0.190915603277E+04    0.13121E-03   -0.48060E-04  3376   0.334E-02    0.555E-02
DAV:   4    -0.190915602468E+04    0.80920E-05   -0.16433E-04  3328   0.165E-02    0.200E-02
DAV:   5    -0.190915602524E+04   -0.56815E-06   -0.16229E-05  3264   0.521E-03    0.926E-03
DAV:   6    -0.190915602525E+04   -0.45402E-08   -0.22598E-06  2496   0.236E-03
  10 F= -.19091560E+04 E0= -.19091560E+04  d E =-.430244E-02  mag=     0.0000
 trial-energy change:   -0.004302  1 .order   -0.004278   -0.008599    0.000043
 step:   0.7484(harm=  0.7483)  dis= 0.00226  next Energy= -1909.156025 (dE=-0.430E-02)
 bond charge predicted
       N       E                     dE             d eps       ncg     rms          rms(c)
DAV:   1    -0.190915602531E+04   -0.64159E-07   -0.21478E-05  2752   0.614E-03    0.148E-03
DAV:   2    -0.190915602530E+04    0.91095E-08   -0.28197E-07  1632   0.694E-04
  11 F= -.19091560E+04 E0= -.19091560E+04  d E =-.430249E-02  mag=     0.0000
 curvature:  -0.52 expect dE=-0.196E-02 dE for cont linesearch -0.856E-08
 trial: gam= 0.33170 g(F)=  0.377E-02 g(S)=  0.000E+00 ort = 0.162E-04 (trialstep = 0.751E+00)
 search vector abs. value=  0.553E-02
 bond charge predicted
       N       E                     dE             d eps       ncg     rms          rms(c)
DAV:   1    -0.190915677795E+04   -0.75264E-03   -0.31894E-01  2632   0.751E-01    0.109E-01
DAV:   2    -0.190915712531E+04   -0.34737E-03   -0.55061E-03  3424   0.912E-02    0.673E-02
DAV:   3    -0.190915707336E+04    0.51958E-04   -0.19458E-04  3400   0.204E-02    0.301E-02
DAV:   4    -0.190915707184E+04    0.15119E-05   -0.46898E-05  3328   0.850E-03    0.109E-02
DAV:   5    -0.190915707209E+04   -0.24862E-06   -0.32477E-06  2624   0.253E-03
  12 F= -.19091571E+04 E0= -.19091571E+04  d E =-.104679E-02  mag=     0.0000
 trial-energy change:   -0.001047  1 .order   -0.001043   -0.002837    0.000751
 step:   0.5941(harm=  0.5941)  dis= 0.00119  next Energy= -1909.157147 (dE=-0.112E-02)
 bond charge predicted
       N       E                     dE             d eps       ncg     rms          rms(c)
DAV:   1    -0.190915713474E+04   -0.62894E-04   -0.13935E-02  2640   0.157E-01    0.226E-02
DAV:   2    -0.190915714862E+04   -0.13885E-04   -0.23713E-04  3408   0.189E-02    0.140E-02
DAV:   3    -0.190915714603E+04    0.25892E-05   -0.88316E-06  3392   0.433E-03    0.612E-03
DAV:   4    -0.190915714589E+04    0.14494E-06   -0.19930E-06  2128   0.177E-03
  13 F= -.19091571E+04 E0= -.19091571E+04  d E =-.112059E-02  mag=    -0.0000
 curvature:  -0.43 expect dE=-0.503E-03 dE for cont linesearch -0.700E-07
 trial: gam= 0.29826 g(F)=  0.116E-02 g(S)=  0.000E+00 ort = 0.298E-04 (trialstep = 0.720E+00)
 search vector abs. value=  0.167E-02
 bond charge predicted
       N       E                     dE             d eps       ncg     rms          rms(c)
DAV:   1    -0.190915743397E+04   -0.28794E-03   -0.87176E-02  2656   0.394E-01    0.563E-02
DAV:   2    -0.190915753083E+04   -0.96853E-04   -0.15048E-03  3408   0.477E-02    0.349E-02
DAV:   3    -0.190915751815E+04    0.12675E-04   -0.52100E-05  3376   0.106E-02    0.162E-02
DAV:   4    -0.190915751754E+04    0.60663E-06   -0.12789E-05  3360   0.458E-03    0.580E-03
DAV:   5    -0.190915751762E+04   -0.71566E-07   -0.10139E-06  1856   0.137E-03
  14 F= -.19091575E+04 E0= -.19091575E+04  d E =-.371726E-03  mag=     0.0000
 trial-energy change:   -0.000372  1 .order   -0.000369   -0.000839    0.000101
 step:   0.6425(harm=  0.6425)  dis= 0.00068  next Energy= -1909.157520 (dE=-0.375E-03)
 bond charge predicted
       N       E                     dE             d eps       ncg     rms          rms(c)
DAV:   1    -0.190915752103E+04   -0.34887E-05   -0.10005E-03  2656   0.422E-02    0.590E-03
DAV:   2    -0.190915752202E+04   -0.98547E-06   -0.16685E-05  3408   0.502E-03    0.368E-03
DAV:   3    -0.190915752185E+04    0.16380E-06   -0.52693E-07  1824   0.112E-03
  15 F= -.19091575E+04 E0= -.19091575E+04  d E =-.375965E-03  mag=    -0.0000
 curvature:  -0.46 expect dE=-0.183E-03 dE for cont linesearch -0.252E-08
 trial: gam= 0.32701 g(F)=  0.400E-03 g(S)=  0.000E+00 ort = 0.303E-05 (trialstep = 0.704E+00)
 search vector abs. value=  0.580E-03
 bond charge predicted
       N       E                     dE             d eps       ncg     rms          rms(c)
DAV:   1    -0.190915759922E+04   -0.77206E-04   -0.29422E-02  2672   0.226E-01    0.314E-02
DAV:   2    -0.190915763125E+04   -0.32024E-04   -0.48175E-04  3360   0.266E-02    0.199E-02
DAV:   3    -0.190915762668E+04    0.45725E-05   -0.14717E-05  3344   0.593E-03    0.858E-03
DAV:   4    -0.190915762654E+04    0.13597E-06   -0.45400E-06  2800   0.269E-03
  16 F= -.19091576E+04 E0= -.19091576E+04  d E =-.104686E-03  mag=    -0.0000
 trial-energy change:   -0.000105  1 .order   -0.000104   -0.000282    0.000075
 step:   0.5569(harm=  0.5569)  dis= 0.00040  next Energy= -1909.157633 (dE=-0.112E-03)
 bond charge predicted
       N       E                     dE             d eps       ncg     rms          rms(c)
DAV:   1    -0.190915763260E+04   -0.59272E-05   -0.12877E-03  2672   0.473E-02    0.641E-03
DAV:   2    -0.190915763387E+04   -0.12629E-05   -0.21167E-05  3360   0.560E-03    0.416E-03
DAV:   3    -0.190915763363E+04    0.24147E-06   -0.64885E-07  2080   0.132E-03
  17 F= -.19091576E+04 E0= -.19091576E+04  d E =-.111770E-03  mag=    -0.0000
 curvature:  -0.40 expect dE=-0.841E-04 dE for cont linesearch -0.346E-07
 trial: gam= 0.50569 g(F)=  0.209E-03 g(S)=  0.000E+00 ort = 0.706E-05 (trialstep = 0.675E+00)
 search vector abs. value=  0.364E-03
 bond charge predicted
       N       E                     dE             d eps       ncg     rms          rms(c)
DAV:   1    -0.190915765667E+04   -0.22799E-04   -0.16453E-02  2656   0.169E-01    0.238E-02
DAV:   2    -0.190915767325E+04   -0.16580E-04   -0.24938E-04  3392   0.189E-02    0.145E-02
DAV:   3    -0.190915767140E+04    0.18502E-05   -0.83586E-06  3376   0.414E-03    0.684E-03
DAV:   4    -0.190915767127E+04    0.12896E-06   -0.19487E-06  2224   0.181E-03
  18 F= -.19091577E+04 E0= -.19091577E+04  d E =-.376418E-04  mag=    -0.0000
 trial-energy change:   -0.000038  1 .order   -0.000043   -0.000143    0.000057
 step:   0.4586(harm=  0.4833)  dis= 0.00022  next Energy= -1909.157681 (dE=-0.469E-04)
 bond charge predicted
       N       E                     dE             d eps       ncg     rms          rms(c)
DAV:   1    -0.190915767956E+04   -0.81651E-05   -0.16908E-03  2656   0.541E-02    0.745E-03
DAV:   2    -0.190915768116E+04   -0.15998E-05   -0.25759E-05  3392   0.608E-03    0.463E-03
DAV:   3    -0.190915768091E+04    0.25096E-06   -0.79157E-07  2064   0.136E-03
  19 F= -.19091577E+04 E0= -.19091577E+04  d E =-.472846E-04  mag=    -0.0000
 curvature:  -0.41 expect dE=-0.499E-04 dE for cont linesearch -0.619E-08
 trial: gam= 0.56259 g(F)=  0.123E-03 g(S)=  0.000E+00 ort =-0.235E-05 (trialstep = 0.632E+00)
 search vector abs. value=  0.235E-03
 reached required accuracy - stopping structural energy minimisation
