
     Program PWSCF v.7.4.1 starts on  6Aug2026 at  6:23:52 

     This program is part of the open-source Quantum ESPRESSO suite
     for quantum simulation of materials; please cite
         "P. Giannozzi et al., J. Phys.:Condens. Matter 21 395502 (2009);
         "P. Giannozzi et al., J. Phys.:Condens. Matter 29 465901 (2017);
         "P. Giannozzi et al., J. Chem. Phys. 152 154105 (2020);
          URL http://www.quantum-espresso.org", 
     in publications or presentations arising from this work. More details at
     http://www.quantum-espresso.org/quote

     Parallel version (MPI), running on     4 processors

     MPI processes distributed on     1 nodes
     23406 MiB available memory on the printing compute node when the environment starts

     Reading input from nitrogen_relax.in

     Current dimensions of program PWSCF are:
     Max number of different atomic species (ntypx) = 10
     Max number of k-points (npk) =  40000
     Max angular momentum in pseudopotentials (lmaxx) =  4
     file N.pbe-n-kjpaw_psl.1.0.0.UPF: wavefunction(s)  2S renormalized

     R & G space division:  proc/nbgrp/npool/nimage =       4
     Subspace diagonalization in iterative solution of the eigenvalue problem:
     a serial algorithm will be used


     Parallelization info
     --------------------
     sticks:   dense  smooth     PW     G-vecs:    dense   smooth      PW
     Min        1422    1422    357                80612    80612   10084
     Max        1423    1423    359                80615    80615   10085
     Sum        5689    5689   1433               322453   322453   40339

     Using Slab Decomposition



     bravais-lattice index     =            1
     lattice parameter (alat)  =      18.9000  a.u.
     unit-cell volume          =    6751.2690 (a.u.)^3
     number of atoms/cell      =            2
     number of atomic types    =            1
     number of electrons       =        10.00
     number of Kohn-Sham states=            5
     kinetic-energy cutoff     =      50.0000  Ry
     charge density cutoff     =     200.0000  Ry
     scf convergence threshold =      1.0E-10
     mixing beta               =       0.7000
     number of iterations used =            8  plain     mixing
     energy convergence thresh.=      1.0E-10
     force convergence thresh. =      1.0E-08
     press convergence thresh. =      5.0E-01
     Exchange-correlation= SLA  PW   PBX  PBC
                           (   1   4   3   4   0   0   0)
     nstep                     =           50


     celldm(1)=  18.900000  celldm(2)=   0.000000  celldm(3)=   0.000000
     celldm(4)=   0.000000  celldm(5)=   0.000000  celldm(6)=   0.000000

     crystal axes: (cart. coord. in units of alat)
               a(1) = (   1.000000   0.000000   0.000000 )  
               a(2) = (   0.000000   1.000000   0.000000 )  
               a(3) = (   0.000000   0.000000   1.000000 )  

     reciprocal axes: (cart. coord. in units 2 pi/alat)
               b(1) = (  1.000000  0.000000  0.000000 )  
               b(2) = (  0.000000  1.000000  0.000000 )  
               b(3) = (  0.000000  0.000000  1.000000 )  


     PseudoPot. # 1 for N  read from file:
     /home/joseph/Documents/Simulations/QE/graphene/PP_C/PP-carbono/N.pbe-n-kjpaw_psl.1.0.0.UPF
     MD5 check sum: a6186d50559fdcbe4b2d0187dd61a119
     Pseudo is Projector augmented-wave + core cor, Zval =  5.0
     Generated using &quot;atomic&quot; code by A. Dal Corso  v.6.3
     Shape of augmentation charge: PSQ
     Using radial grid of 1085 points,  4 beta functions with: 
                l(1) =   0
                l(2) =   0
                l(3) =   1
                l(4) =   1
     Q(r) pseudized with 0 coefficients 


     atomic species   valence    mass     pseudopotential
     N                 5.00    14.00670     N ( 1.00)

     16 Sym. Ops., with inversion, found


                                    s                        frac. trans.

      isym =  1     identity                                     

 cryst.   s( 1) = (     1          0          0      )
                  (     0          1          0      )
                  (     0          0          1      )

 cart.    s( 1) = (  1.0000000  0.0000000  0.0000000 )
                  (  0.0000000  1.0000000  0.0000000 )
                  (  0.0000000  0.0000000  1.0000000 )


      isym =  2     180 deg rotation - cart. axis [0,0,1]        

 cryst.   s( 2) = (    -1          0          0      )
                  (     0         -1          0      )
                  (     0          0          1      )

 cart.    s( 2) = ( -1.0000000  0.0000000  0.0000000 )
                  (  0.0000000 -1.0000000  0.0000000 )
                  (  0.0000000  0.0000000  1.0000000 )


      isym =  3     180 deg rotation - cart. axis [0,1,0]        

 cryst.   s( 3) = (    -1          0          0      )
                  (     0          1          0      )
                  (     0          0         -1      )

 cart.    s( 3) = ( -1.0000000  0.0000000  0.0000000 )
                  (  0.0000000  1.0000000  0.0000000 )
                  (  0.0000000  0.0000000 -1.0000000 )


      isym =  4     180 deg rotation - cart. axis [1,0,0]        

 cryst.   s( 4) = (     1          0          0      )
                  (     0         -1          0      )
                  (     0          0         -1      )

 cart.    s( 4) = (  1.0000000  0.0000000  0.0000000 )
                  (  0.0000000 -1.0000000  0.0000000 )
                  (  0.0000000  0.0000000 -1.0000000 )


      isym =  5     180 deg rotation - cart. axis [0,1,1]        

 cryst.   s( 5) = (    -1          0          0      )
                  (     0          0          1      )
                  (     0          1          0      )

 cart.    s( 5) = ( -1.0000000  0.0000000  0.0000000 )
                  (  0.0000000  0.0000000  1.0000000 )
                  (  0.0000000  1.0000000  0.0000000 )


      isym =  6     180 deg rotation - cart. axis [0,1,-1]       

 cryst.   s( 6) = (    -1          0          0      )
                  (     0          0         -1      )
                  (     0         -1          0      )

 cart.    s( 6) = ( -1.0000000  0.0000000  0.0000000 )
                  (  0.0000000  0.0000000 -1.0000000 )
                  (  0.0000000 -1.0000000  0.0000000 )


      isym =  7      90 deg rotation - cart. axis [-1,0,0]       

 cryst.   s( 7) = (     1          0          0      )
                  (     0          0         -1      )
                  (     0          1          0      )

 cart.    s( 7) = (  1.0000000  0.0000000  0.0000000 )
                  (  0.0000000  0.0000000  1.0000000 )
                  (  0.0000000 -1.0000000  0.0000000 )


      isym =  8      90 deg rotation - cart. axis [1,0,0]        

 cryst.   s( 8) = (     1          0          0      )
                  (     0          0          1      )
                  (     0         -1          0      )

 cart.    s( 8) = (  1.0000000  0.0000000  0.0000000 )
                  (  0.0000000  0.0000000 -1.0000000 )
                  (  0.0000000  1.0000000  0.0000000 )


      isym =  9     inversion                                    

 cryst.   s( 9) = (    -1          0          0      )
                  (     0         -1          0      )
                  (     0          0         -1      )

 cart.    s( 9) = ( -1.0000000  0.0000000  0.0000000 )
                  (  0.0000000 -1.0000000  0.0000000 )
                  (  0.0000000  0.0000000 -1.0000000 )


      isym = 10     inv. 180 deg rotation - cart. axis [0,0,1]   

 cryst.   s(10) = (     1          0          0      )
                  (     0          1          0      )
                  (     0          0         -1      )

 cart.    s(10) = (  1.0000000  0.0000000  0.0000000 )
                  (  0.0000000  1.0000000  0.0000000 )
                  (  0.0000000  0.0000000 -1.0000000 )


      isym = 11     inv. 180 deg rotation - cart. axis [0,1,0]   

 cryst.   s(11) = (     1          0          0      )
                  (     0         -1          0      )
                  (     0          0          1      )

 cart.    s(11) = (  1.0000000  0.0000000  0.0000000 )
                  (  0.0000000 -1.0000000  0.0000000 )
                  (  0.0000000  0.0000000  1.0000000 )


      isym = 12     inv. 180 deg rotation - cart. axis [1,0,0]   

 cryst.   s(12) = (    -1          0          0      )
                  (     0          1          0      )
                  (     0          0          1      )

 cart.    s(12) = ( -1.0000000  0.0000000  0.0000000 )
                  (  0.0000000  1.0000000  0.0000000 )
                  (  0.0000000  0.0000000  1.0000000 )


      isym = 13     inv. 180 deg rotation - cart. axis [0,1,1]   

 cryst.   s(13) = (     1          0          0      )
                  (     0          0         -1      )
                  (     0         -1          0      )

 cart.    s(13) = (  1.0000000  0.0000000  0.0000000 )
                  (  0.0000000  0.0000000 -1.0000000 )
                  (  0.0000000 -1.0000000  0.0000000 )


      isym = 14     inv. 180 deg rotation - cart. axis [0,1,-1]  

 cryst.   s(14) = (     1          0          0      )
                  (     0          0          1      )
                  (     0          1          0      )

 cart.    s(14) = (  1.0000000  0.0000000  0.0000000 )
                  (  0.0000000  0.0000000  1.0000000 )
                  (  0.0000000  1.0000000  0.0000000 )


      isym = 15     inv.  90 deg rotation - cart. axis [-1,0,0]  

 cryst.   s(15) = (    -1          0          0      )
                  (     0          0          1      )
                  (     0         -1          0      )

 cart.    s(15) = ( -1.0000000  0.0000000  0.0000000 )
                  (  0.0000000  0.0000000 -1.0000000 )
                  (  0.0000000  1.0000000  0.0000000 )


      isym = 16     inv.  90 deg rotation - cart. axis [1,0,0]   

 cryst.   s(16) = (    -1          0          0      )
                  (     0          0         -1      )
                  (     0          1          0      )

 cart.    s(16) = ( -1.0000000  0.0000000  0.0000000 )
                  (  0.0000000  0.0000000  1.0000000 )
                  (  0.0000000 -1.0000000  0.0000000 )


     point group D_4h(4/mmm)
     there are 10 classes
     the character table:

       E     2C4   C2    2C2'  2C2'' i     2S4   s_h   2s_v  2s_d 
A_1g   1.00  1.00  1.00  1.00  1.00  1.00  1.00  1.00  1.00  1.00
A_2g   1.00  1.00  1.00 -1.00 -1.00  1.00  1.00  1.00 -1.00 -1.00
B_1g   1.00 -1.00  1.00  1.00 -1.00  1.00 -1.00  1.00  1.00 -1.00
B_2g   1.00 -1.00  1.00 -1.00  1.00  1.00 -1.00  1.00 -1.00  1.00
E_g    2.00  0.00 -2.00  0.00  0.00  2.00  0.00 -2.00  0.00  0.00
A_1u   1.00  1.00  1.00  1.00  1.00 -1.00 -1.00 -1.00 -1.00 -1.00
A_2u   1.00  1.00  1.00 -1.00 -1.00 -1.00 -1.00 -1.00  1.00  1.00
B_1u   1.00 -1.00  1.00  1.00 -1.00 -1.00  1.00 -1.00 -1.00  1.00
B_2u   1.00 -1.00  1.00 -1.00  1.00 -1.00  1.00 -1.00  1.00 -1.00
E_u    2.00  0.00 -2.00  0.00  0.00 -2.00  0.00  2.00  0.00  0.00

     the symmetry operations in each class and the name of the first element:

     E        1
          identity                                               
     2C4      7    8
           90 deg rotation - cart. axis [-1,0,0]                 
     C2       4
          180 deg rotation - cart. axis [1,0,0]                  
     2C2'     2    3
          180 deg rotation - cart. axis [0,0,1]                  
     2C2''    5    6
          180 deg rotation - cart. axis [0,1,1]                  
     i        9
          inversion                                              
     2S4     15   16
          inv.  90 deg rotation - cart. axis [-1,0,0]            
     s_h     12
          inv. 180 deg rotation - cart. axis [1,0,0]             
     2s_v    10   11
          inv. 180 deg rotation - cart. axis [0,0,1]             
     2s_d    13   14
          inv. 180 deg rotation - cart. axis [0,1,1]             

   Cartesian axes

     site n.     atom                  positions (alat units)
         1        N      tau(   1) = (   0.4448828   0.0000000   0.0000000  )
         2        N      tau(   2) = (   0.5551172   0.0000000   0.0000000  )

   Crystallographic axes

     site n.     atom                  positions (cryst. coord.)
         1        N      tau(   1) = (  0.4448828  0.0000000  0.0000000  )
         2        N      tau(   2) = (  0.5551172  0.0000000  0.0000000  )

     number of k points=     1
                       cart. coord. in units 2pi/alat
        k(    1) = (   0.0000000   0.0000000   0.0000000), wk =   2.0000000

                       cryst. coord.
        k(    1) = (   0.0000000   0.0000000   0.0000000), wk =   2.0000000

     Dense  grid:   322453 G-vectors     FFT dimensions: (  90,  90,  90)

     Dynamical RAM for                 wfc:       0.77 MB

     Dynamical RAM for     wfc (w. buffer):       0.77 MB

     Dynamical RAM for           str. fact:       1.23 MB

     Dynamical RAM for           local pot:       0.00 MB

     Dynamical RAM for          nlocal pot:       2.46 MB

     Dynamical RAM for                qrad:       0.65 MB

     Dynamical RAM for          rho,v,vnew:       7.95 MB

     Dynamical RAM for               rhoin:       2.65 MB

     Dynamical RAM for            rho*nmix:      19.68 MB

     Dynamical RAM for           G-vectors:       5.23 MB

     Dynamical RAM for          h,s,v(r/c):       0.00 MB

     Dynamical RAM for          <psi|beta>:       0.00 MB

     Dynamical RAM for                 psi:       1.54 MB

     Dynamical RAM for                hpsi:       1.54 MB

     Dynamical RAM for                spsi:       1.54 MB

     Dynamical RAM for      wfcinit/wfcrot:       1.54 MB

     Dynamical RAM for           addusdens:      55.35 MB

     Dynamical RAM for          addusforce:      58.43 MB

     Dynamical RAM for         addusstress:      61.50 MB

     Estimated static dynamical RAM per process >      30.51 MB

     Estimated max dynamical RAM per process >     111.69 MB

     Estimated total dynamical RAM >     446.77 MB

     Check: negative core charge=   -0.000004

     Initial potential from superposition of free atoms

     starting charge      10.0000, renormalised to      10.0000

     negative rho (up, down):  3.268E-03 0.000E+00
     Starting wfcs are    8 randomized atomic wfcs
     Checking if some PAW data can be deallocated... 

     total cpu time spent up to now is        0.9 secs

     Self-consistent Calculation

     iteration #  1     ecut=    50.00 Ry     beta= 0.70
     Davidson diagonalization with overlap

---- Real-time Memory Report at c_bands before calling an iterative solver
           112 MiB given to the printing process from OS
             0 MiB allocation reported by mallinfo(arena+hblkhd)
         23016 MiB available memory on the node where the printing process lives
------------------
     ethr =  1.00E-02,  avg # of iterations =  2.0

     negative rho (up, down):  6.592E-03 0.000E+00

     total cpu time spent up to now is        1.8 secs

     total energy              =     -56.40862817 Ry
     estimated scf accuracy    <       0.14238872 Ry

     iteration #  2     ecut=    50.00 Ry     beta= 0.70
     Davidson diagonalization with overlap

---- Real-time Memory Report at c_bands before calling an iterative solver
           143 MiB given to the printing process from OS
             0 MiB allocation reported by mallinfo(arena+hblkhd)
         22861 MiB available memory on the node where the printing process lives
------------------
     ethr =  1.42E-03,  avg # of iterations =  2.0

     negative rho (up, down):  7.645E-03 0.000E+00

     total cpu time spent up to now is        2.3 secs

     total energy              =     -56.43191060 Ry
     estimated scf accuracy    <       0.00828362 Ry

     iteration #  3     ecut=    50.00 Ry     beta= 0.70
     Davidson diagonalization with overlap

---- Real-time Memory Report at c_bands before calling an iterative solver
           146 MiB given to the printing process from OS
             0 MiB allocation reported by mallinfo(arena+hblkhd)
         22798 MiB available memory on the node where the printing process lives
------------------
     ethr =  8.28E-05,  avg # of iterations =  2.0

     negative rho (up, down):  8.358E-03 0.000E+00

     total cpu time spent up to now is        2.8 secs

     total energy              =     -56.43308092 Ry
     estimated scf accuracy    <       0.00037941 Ry

     iteration #  4     ecut=    50.00 Ry     beta= 0.70
     Davidson diagonalization with overlap

---- Real-time Memory Report at c_bands before calling an iterative solver
           148 MiB given to the printing process from OS
             0 MiB allocation reported by mallinfo(arena+hblkhd)
         22782 MiB available memory on the node where the printing process lives
------------------
     ethr =  3.79E-06,  avg # of iterations =  2.0

     negative rho (up, down):  8.423E-03 0.000E+00

     total cpu time spent up to now is        3.2 secs

     total energy              =     -56.43311369 Ry
     estimated scf accuracy    <       0.00000148 Ry

     iteration #  5     ecut=    50.00 Ry     beta= 0.70
     Davidson diagonalization with overlap

---- Real-time Memory Report at c_bands before calling an iterative solver
           151 MiB given to the printing process from OS
             0 MiB allocation reported by mallinfo(arena+hblkhd)
         22743 MiB available memory on the node where the printing process lives
------------------
     ethr =  1.48E-08,  avg # of iterations =  3.0

     negative rho (up, down):  8.429E-03 0.000E+00

     total cpu time spent up to now is        3.7 secs

     total energy              =     -56.43311433 Ry
     estimated scf accuracy    <       0.00000007 Ry

     iteration #  6     ecut=    50.00 Ry     beta= 0.70
     Davidson diagonalization with overlap

---- Real-time Memory Report at c_bands before calling an iterative solver
           153 MiB given to the printing process from OS
             0 MiB allocation reported by mallinfo(arena+hblkhd)
         22767 MiB available memory on the node where the printing process lives
------------------
     ethr =  6.63E-10,  avg # of iterations =  4.0

     negative rho (up, down):  8.428E-03 0.000E+00

     total cpu time spent up to now is        4.2 secs

     total energy              =     -56.43311436 Ry
     estimated scf accuracy    <          9.6E-10 Ry

     iteration #  7     ecut=    50.00 Ry     beta= 0.70
     Davidson diagonalization with overlap

---- Real-time Memory Report at c_bands before calling an iterative solver
           156 MiB given to the printing process from OS
             0 MiB allocation reported by mallinfo(arena+hblkhd)
         22757 MiB available memory on the node where the printing process lives
------------------
     ethr =  9.60E-12,  avg # of iterations =  5.0

     negative rho (up, down):  8.428E-03 0.000E+00

     total cpu time spent up to now is        4.7 secs

     End of self-consistent calculation

          k = 0.0000 0.0000 0.0000 ( 40339 PWs)   bands (ev):

   -28.1582 -13.3064 -11.4360 -11.4360 -10.0273

     occupation numbers 
     1.0000   1.0000   1.0000   1.0000   1.0000

     highest occupied level (ev):   -10.0273

!    total energy              =     -56.43311436 Ry
     total all-electron energy =      -219.030711 Ry
     estimated scf accuracy    <          1.0E-10 Ry

     The total energy is the sum of the following terms:
     one-electron contribution =     -79.22319558 Ry
     hartree contribution      =      40.85568794 Ry
     xc contribution           =     -11.12702568 Ry
     ewald contribution        =       9.05527650 Ry
     one-center paw contrib.   =     -15.99385754 Ry
      -> PAW hartree energy AE =      16.88017740 Ry
      -> PAW hartree energy PS =     -16.85661084 Ry
      -> PAW xc energy AE      =     -13.61477050 Ry
      -> PAW xc energy PS      =       5.59427513 Ry
      -> total E_H with PAW    =      40.87925450 Ry
      -> total E_XC with PAW   =     -19.14752105 Ry

     convergence has been achieved in   7 iterations

     negative rho (up, down):  8.428E-03 0.000E+00

     Forces acting on atoms (cartesian axes, Ry/au):

     atom    1 type  1   force =    -0.04309244    0.00000000    0.00000000
     atom    2 type  1   force =     0.04309244    0.00000000    0.00000000
     The non-local contrib.  to forces
     atom    1 type  1   force =     2.06686380    0.00000000    0.00000000
     atom    2 type  1   force =    -2.06686380    0.00000000    0.00000000
     The ionic contribution  to forces
     atom    1 type  1   force =   -11.45195874   -0.00000000    0.00000000
     atom    2 type  1   force =    11.45195874    0.00000000   -0.00000000
     The local contribution  to forces
     atom    1 type  1   force =     9.36040536   -0.00000000   -0.00000000
     atom    2 type  1   force =    -9.36040536    0.00000000   -0.00000000
     The core correction contribution to forces
     atom    1 type  1   force =    -0.01841490   -0.00000000   -0.00000000
     atom    2 type  1   force =     0.01841490   -0.00000000   -0.00000000
     The Hubbard contrib.    to forces
     atom    1 type  1   force =     0.00000000    0.00000000    0.00000000
     atom    2 type  1   force =     0.00000000    0.00000000    0.00000000
     The SCF correction term to forces
     atom    1 type  1   force =     0.00001203   -0.00000000    0.00000000
     atom    2 type  1   force =    -0.00001203   -0.00000000    0.00000000

     Total force =     0.060942     Total SCF correction =     0.000017


     Computing stress (Cartesian axis) and pressure


     negative rho (up, down):  8.428E-03 0.000E+00
          total   stress  (Ry/bohr**3)                   (kbar)     P=        0.63
   0.00001313   0.00000000   0.00000000            1.93        0.00        0.00
   0.00000000  -0.00000010   0.00000000            0.00       -0.02        0.00
   0.00000000   0.00000000  -0.00000010            0.00        0.00       -0.02

     kinetic stress (kbar)    313.88      0.00      0.00
                                0.00    342.73      0.00
                                0.00      0.00    342.73

     local   stress (kbar)  -1084.36     -0.00     -0.00
                               -0.00   -412.95      0.00
                               -0.00      0.00   -412.95

     nonloc. stress (kbar)      5.50      0.00      0.00
                                0.00     20.12      0.00
                                0.00      0.00     20.12

     hartree stress (kbar)    422.75     -0.00      0.00
                               -0.00    233.73     -0.00
                                0.00     -0.00    233.73

     exc-cor stress (kbar)    -42.10     -0.00     -0.00
                               -0.00    -44.52     -0.00
                               -0.00     -0.00    -44.52

     corecor stress (kbar)    -30.56      0.00     -0.00
                                0.00    -29.37     -0.00
                               -0.00     -0.00    -29.37

     ewald   stress (kbar)    416.83      0.00     -0.00
                                0.00   -109.76     -0.00
                               -0.00     -0.00   -109.76

     hubbard stress (kbar)      0.00      0.00      0.00
                                0.00      0.00      0.00
                                0.00      0.00      0.00

     DFT-D   stress (kbar)      0.00      0.00      0.00
                                0.00      0.00      0.00
                                0.00      0.00      0.00

     XDM     stress (kbar)      0.00      0.00      0.00
                                0.00      0.00      0.00
                                0.00      0.00      0.00

     dft-nl  stress (kbar)      0.00      0.00      0.00
                                0.00      0.00      0.00
                                0.00      0.00      0.00

     TS-vdW  stress (kbar)      0.00      0.00      0.00
                                0.00      0.00      0.00
                                0.00      0.00      0.00

     MDB     stress (kbar)      0.00      0.00      0.00
                                0.00      0.00      0.00
                                0.00      0.00      0.00

     3D-RISM stress (kbar)      0.00      0.00      0.00
                                0.00      0.00      0.00
                                0.00      0.00      0.00


     BFGS Geometry Optimization
     Energy error            =      3.7E-03 Ry
     Gradient error          =      4.3E-02 Ry/Bohr
     Cell gradient error     =      1.9E+00 kbar

     number of scf cycles    =   1
     number of bfgs steps    =   0

     enthalpy           new  =     -56.4331143594 Ry

     new trust radius        =       0.0430924441 bohr
     new conv_thr            =            1.0E-10 Ry

     new unit-cell volume =   6753.45040 a.u.^3 (  1000.75810 Ang^3 )
     density =      0.04648 g/cm^3

CELL_PARAMETERS (alat= 18.90000000)
   1.000328275   0.000000000   0.000000000
   0.000000000   0.999997419   0.000000000
   0.000000000   0.000000000   0.999997419

ATOMIC_POSITIONS (alat)
N                0.4427480763        0.0000000000        0.0000000000
N                0.5575801984        0.0000000000        0.0000000000



     Writing config-only to output data dir ./tmp/nitrogen.save/ :
     XML data file     NEW-OLD atomic charge density approx. for the potential
     New effective cutoffs (rho, wfc):  199.93   49.95

     Check: negative core charge=   -0.000004

     negative rho (up, down):  9.465E-03 0.000E+00

     total cpu time spent up to now is        6.0 secs

     Self-consistent Calculation

     iteration #  1     ecut=    50.00 Ry     beta= 0.70
     Davidson diagonalization with overlap

---- Real-time Memory Report at c_bands before calling an iterative solver
           157 MiB given to the printing process from OS
             0 MiB allocation reported by mallinfo(arena+hblkhd)
         22901 MiB available memory on the node where the printing process lives
------------------
     ethr =  1.00E-06,  avg # of iterations =  5.0

     negative rho (up, down):  8.295E-03 0.000E+00

     total cpu time spent up to now is        6.6 secs

     total energy              =     -56.42535114 Ry
     estimated scf accuracy    <       0.00385553 Ry

     iteration #  2     ecut=    50.00 Ry     beta= 0.70
     Davidson diagonalization with overlap

---- Real-time Memory Report at c_bands before calling an iterative solver
           157 MiB given to the printing process from OS
             0 MiB allocation reported by mallinfo(arena+hblkhd)
         22866 MiB available memory on the node where the printing process lives
------------------
     ethr =  3.86E-05,  avg # of iterations =  2.0

     negative rho (up, down):  8.160E-03 0.000E+00

     total cpu time spent up to now is        7.1 secs

     total energy              =     -56.42634868 Ry
     estimated scf accuracy    <       0.00039426 Ry

     iteration #  3     ecut=    50.00 Ry     beta= 0.70
     Davidson diagonalization with overlap

---- Real-time Memory Report at c_bands before calling an iterative solver
           157 MiB given to the printing process from OS
             0 MiB allocation reported by mallinfo(arena+hblkhd)
         22790 MiB available memory on the node where the printing process lives
------------------
     ethr =  3.94E-06,  avg # of iterations =  2.0

     negative rho (up, down):  8.037E-03 0.000E+00

     total cpu time spent up to now is        7.6 secs

     total energy              =     -56.42641759 Ry
     estimated scf accuracy    <       0.00000666 Ry

     iteration #  4     ecut=    50.00 Ry     beta= 0.70
     Davidson diagonalization with overlap

---- Real-time Memory Report at c_bands before calling an iterative solver
           157 MiB given to the printing process from OS
             0 MiB allocation reported by mallinfo(arena+hblkhd)
         22756 MiB available memory on the node where the printing process lives
------------------
     ethr =  6.66E-08,  avg # of iterations =  1.0

     negative rho (up, down):  8.027E-03 0.000E+00

     total cpu time spent up to now is        8.1 secs

     total energy              =     -56.42641780 Ry
     estimated scf accuracy    <       0.00000009 Ry

     iteration #  5     ecut=    50.00 Ry     beta= 0.70
     Davidson diagonalization with overlap

---- Real-time Memory Report at c_bands before calling an iterative solver
           157 MiB given to the printing process from OS
             0 MiB allocation reported by mallinfo(arena+hblkhd)
         22715 MiB available memory on the node where the printing process lives
------------------
     ethr =  8.86E-10,  avg # of iterations =  2.0

     negative rho (up, down):  8.024E-03 0.000E+00

     total cpu time spent up to now is        8.7 secs

     total energy              =     -56.42641782 Ry
     estimated scf accuracy    <          3.6E-09 Ry

     iteration #  6     ecut=    50.00 Ry     beta= 0.70
     Davidson diagonalization with overlap

---- Real-time Memory Report at c_bands before calling an iterative solver
           157 MiB given to the printing process from OS
             0 MiB allocation reported by mallinfo(arena+hblkhd)
         22649 MiB available memory on the node where the printing process lives
------------------
     ethr =  3.58E-11,  avg # of iterations =  2.0

     negative rho (up, down):  8.024E-03 0.000E+00

     total cpu time spent up to now is        9.1 secs

     total energy              =     -56.42641782 Ry
     estimated scf accuracy    <          4.7E-10 Ry

     iteration #  7     ecut=    50.00 Ry     beta= 0.70
     Davidson diagonalization with overlap

---- Real-time Memory Report at c_bands before calling an iterative solver
           158 MiB given to the printing process from OS
             0 MiB allocation reported by mallinfo(arena+hblkhd)
         22642 MiB available memory on the node where the printing process lives
------------------
     ethr =  4.68E-12,  avg # of iterations =  2.0

     negative rho (up, down):  8.024E-03 0.000E+00

     total cpu time spent up to now is        9.6 secs

     End of self-consistent calculation

          k = 0.0000 0.0000 0.0000 ( 40339 PWs)   bands (ev):

   -27.4534 -13.6295 -11.0768 -11.0768  -9.9935

     occupation numbers 
     1.0000   1.0000   1.0000   1.0000   1.0000

     highest occupied level (ev):    -9.9935

!    total energy              =     -56.42641782 Ry
     total all-electron energy =      -219.024014 Ry
     estimated scf accuracy    <          1.2E-12 Ry

     The total energy is the sum of the following terms:
     one-electron contribution =     -77.54996232 Ry
     hartree contribution      =      40.03602954 Ry
     xc contribution           =     -11.02222910 Ry
     ewald contribution        =       8.10186078 Ry
     one-center paw contrib.   =     -15.99211672 Ry
      -> PAW hartree energy AE =      15.94151423 Ry
      -> PAW hartree energy PS =     -15.91859047 Ry
      -> PAW xc energy AE      =     -13.42995038 Ry
      -> PAW xc energy PS      =       5.41096823 Ry
      -> total E_H with PAW    =      40.05895330 Ry
      -> total E_XC with PAW   =     -19.04121125 Ry

     convergence has been achieved in   7 iterations

     negative rho (up, down):  8.024E-03 0.000E+00

     Forces acting on atoms (cartesian axes, Ry/au):

     atom    1 type  1   force =     0.18418677    0.00000000    0.00000000
     atom    2 type  1   force =    -0.18418677    0.00000000    0.00000000
     The non-local contrib.  to forces
     atom    1 type  1   force =     2.06911852    0.00000000    0.00000000
     atom    2 type  1   force =    -2.06911852    0.00000000    0.00000000
     The ionic contribution  to forces
     atom    1 type  1   force =   -10.54510800   -0.00000000   -0.00000000
     atom    2 type  1   force =    10.54510800    0.00000000    0.00000000
     The local contribution  to forces
     atom    1 type  1   force =     8.68260397   -0.00000000   -0.00000000
     atom    2 type  1   force =    -8.68260397    0.00000000   -0.00000000
     The core correction contribution to forces
     atom    1 type  1   force =    -0.02242947    0.00000000   -0.00000000
     atom    2 type  1   force =     0.02242947    0.00000000    0.00000000
     The Hubbard contrib.    to forces
     atom    1 type  1   force =     0.00000000    0.00000000    0.00000000
     atom    2 type  1   force =     0.00000000    0.00000000    0.00000000
     The SCF correction term to forces
     atom    1 type  1   force =     0.00000175    0.00000000    0.00000000
     atom    2 type  1   force =    -0.00000175   -0.00000000    0.00000000

     Total force =     0.260479     Total SCF correction =     0.000002


     Computing stress (Cartesian axis) and pressure


     negative rho (up, down):  8.024E-03 0.000E+00
          total   stress  (Ry/bohr**3)                   (kbar)     P=       -2.92
  -0.00005934   0.00000000   0.00000000           -8.73        0.00        0.00
   0.00000000  -0.00000009   0.00000000            0.00       -0.01        0.00
   0.00000000   0.00000000  -0.00000009            0.00        0.00       -0.01

     kinetic stress (kbar)    308.52      0.00      0.00
                                0.00    338.05      0.00
                                0.00      0.00    338.05

     local   stress (kbar)  -1067.33     -0.00     -0.00
                               -0.00   -403.38      0.00
                               -0.00      0.00   -403.38

     nonloc. stress (kbar)      7.56      0.00      0.00
                                0.00     21.33      0.00
                                0.00      0.00     21.33

     hartree stress (kbar)    418.39     -0.00      0.00
                               -0.00    226.84     -0.00
                                0.00     -0.00    226.84

     exc-cor stress (kbar)    -41.49     -0.00     -0.00
                               -0.00    -43.85     -0.00
                               -0.00     -0.00    -43.85

     corecor stress (kbar)    -30.33      0.00     -0.00
                                0.00    -29.27      0.00
                               -0.00      0.00    -29.27

     ewald   stress (kbar)    395.95     -0.00     -0.00
                               -0.00   -109.74     -0.00
                               -0.00     -0.00   -109.74

     hubbard stress (kbar)      0.00      0.00      0.00
                                0.00      0.00      0.00
                                0.00      0.00      0.00

     DFT-D   stress (kbar)      0.00      0.00      0.00
                                0.00      0.00      0.00
                                0.00      0.00      0.00

     XDM     stress (kbar)      0.00      0.00      0.00
                                0.00      0.00      0.00
                                0.00      0.00      0.00

     dft-nl  stress (kbar)      0.00      0.00      0.00
                                0.00      0.00      0.00
                                0.00      0.00      0.00

     TS-vdW  stress (kbar)      0.00      0.00      0.00
                                0.00      0.00      0.00
                                0.00      0.00      0.00

     MDB     stress (kbar)      0.00      0.00      0.00
                                0.00      0.00      0.00
                                0.00      0.00      0.00

     3D-RISM stress (kbar)      0.00      0.00      0.00
                                0.00      0.00      0.00
                                0.00      0.00      0.00

     Energy error            =      6.7E-03 Ry
     Gradient error          =      1.8E-01 Ry/Bohr
     Cell gradient error     =      8.7E+00 kbar

     number of scf cycles    =   2
     number of bfgs steps    =   1

     enthalpy           old  =     -56.4331143594 Ry
     enthalpy           new  =     -56.4264178169 Ry

     CASE: enthalpy          _new > enthalpy          _old

     new trust radius        =       0.0077277620 bohr
     new conv_thr            =            1.0E-10 Ry

     new unit-cell volume =   6751.66006 a.u.^3 (  1000.49280 Ang^3 )
     density =      0.04649 g/cm^3

CELL_PARAMETERS (alat= 18.90000000)
   1.000058850   0.000000000   0.000000000
   0.000000000   0.999999537   0.000000000
   0.000000000   0.000000000   0.999999537

ATOMIC_POSITIONS (alat)
N                0.4445002197        0.0000000000        0.0000000000
N                0.5555586304        0.0000000000        0.0000000000



     Writing config-only to output data dir ./tmp/nitrogen.save/ :
     XML data file     NEW-OLD atomic charge density approx. for the potential
     New effective cutoffs (rho, wfc):  199.93   49.95

     Check: negative core charge=   -0.000004

     negative rho (up, down):  7.011E-03 0.000E+00

     total cpu time spent up to now is       10.9 secs

     Self-consistent Calculation

     iteration #  1     ecut=    50.00 Ry     beta= 0.70
     Davidson diagonalization with overlap

---- Real-time Memory Report at c_bands before calling an iterative solver
           158 MiB given to the printing process from OS
             0 MiB allocation reported by mallinfo(arena+hblkhd)
         22696 MiB available memory on the node where the printing process lives
------------------
     ethr =  1.00E-06,  avg # of iterations =  5.0

     negative rho (up, down):  7.942E-03 0.000E+00

     total cpu time spent up to now is       11.6 secs

     total energy              =     -56.43272491 Ry
     estimated scf accuracy    <       0.00254470 Ry

     iteration #  2     ecut=    50.00 Ry     beta= 0.70
     Davidson diagonalization with overlap

---- Real-time Memory Report at c_bands before calling an iterative solver
           158 MiB given to the printing process from OS
             0 MiB allocation reported by mallinfo(arena+hblkhd)
         22682 MiB available memory on the node where the printing process lives
------------------
     ethr =  2.54E-05,  avg # of iterations =  2.0

     negative rho (up, down):  8.153E-03 0.000E+00

     total cpu time spent up to now is       12.1 secs

     total energy              =     -56.43337396 Ry
     estimated scf accuracy    <       0.00024829 Ry

     iteration #  3     ecut=    50.00 Ry     beta= 0.70
     Davidson diagonalization with overlap

---- Real-time Memory Report at c_bands before calling an iterative solver
           158 MiB given to the printing process from OS
             0 MiB allocation reported by mallinfo(arena+hblkhd)
         22712 MiB available memory on the node where the printing process lives
------------------
     ethr =  2.48E-06,  avg # of iterations =  2.0

     negative rho (up, down):  8.350E-03 0.000E+00

     total cpu time spent up to now is       12.7 secs

     total energy              =     -56.43341829 Ry
     estimated scf accuracy    <       0.00000410 Ry

     iteration #  4     ecut=    50.00 Ry     beta= 0.70
     Davidson diagonalization with overlap

---- Real-time Memory Report at c_bands before calling an iterative solver
           158 MiB given to the printing process from OS
             0 MiB allocation reported by mallinfo(arena+hblkhd)
         22781 MiB available memory on the node where the printing process lives
------------------
     ethr =  4.10E-08,  avg # of iterations =  1.0

     negative rho (up, down):  8.366E-03 0.000E+00

     total cpu time spent up to now is       13.1 secs

     total energy              =     -56.43341843 Ry
     estimated scf accuracy    <       0.00000004 Ry

     iteration #  5     ecut=    50.00 Ry     beta= 0.70
     Davidson diagonalization with overlap

---- Real-time Memory Report at c_bands before calling an iterative solver
           158 MiB given to the printing process from OS
             0 MiB allocation reported by mallinfo(arena+hblkhd)
         22722 MiB available memory on the node where the printing process lives
------------------
     ethr =  4.40E-10,  avg # of iterations =  2.0

     negative rho (up, down):  8.369E-03 0.000E+00

     total cpu time spent up to now is       13.7 secs

     total energy              =     -56.43341844 Ry
     estimated scf accuracy    <          1.3E-09 Ry

     iteration #  6     ecut=    50.00 Ry     beta= 0.70
     Davidson diagonalization with overlap

---- Real-time Memory Report at c_bands before calling an iterative solver
           158 MiB given to the printing process from OS
             0 MiB allocation reported by mallinfo(arena+hblkhd)
         22737 MiB available memory on the node where the printing process lives
------------------
     ethr =  1.33E-11,  avg # of iterations =  2.0

     negative rho (up, down):  8.370E-03 0.000E+00

     total cpu time spent up to now is       14.2 secs

     End of self-consistent calculation

          k = 0.0000 0.0000 0.0000 ( 40339 PWs)   bands (ev):

   -28.0311 -13.3650 -11.3693 -11.3693 -10.0213

     occupation numbers 
     1.0000   1.0000   1.0000   1.0000   1.0000

     highest occupied level (ev):   -10.0213

!    total energy              =     -56.43341844 Ry
     total all-electron energy =      -219.031015 Ry
     estimated scf accuracy    <          9.8E-11 Ry

     The total energy is the sum of the following terms:
     one-electron contribution =     -78.91602416 Ry
     hartree contribution      =      40.70499181 Ry
     xc contribution           =     -11.10748013 Ry
     ewald contribution        =       8.87853269 Ry
     one-center paw contrib.   =     -15.99343864 Ry
      -> PAW hartree energy AE =      16.70225844 Ry
      -> PAW hartree energy PS =     -16.67882137 Ry
      -> PAW xc energy AE      =     -13.57992604 Ry
      -> PAW xc energy PS      =       5.55976960 Ry
      -> total E_H with PAW    =      40.72842888 Ry
      -> total E_XC with PAW   =     -19.12763657 Ry

     convergence has been achieved in   6 iterations

     negative rho (up, down):  8.370E-03 0.000E+00

     Forces acting on atoms (cartesian axes, Ry/au):

     atom    1 type  1   force =     0.00356643    0.00000000    0.00000000
     atom    2 type  1   force =    -0.00356643    0.00000000    0.00000000
     The non-local contrib.  to forces
     atom    1 type  1   force =     2.06885440    0.00000000    0.00000000
     atom    2 type  1   force =    -2.06885440    0.00000000    0.00000000
     The ionic contribution  to forces
     atom    1 type  1   force =   -11.28113866    0.00000000    0.00000000
     atom    2 type  1   force =    11.28113866   -0.00000000    0.00000000
     The local contribution  to forces
     atom    1 type  1   force =     9.23508878   -0.00000000   -0.00000000
     atom    2 type  1   force =    -9.23508878    0.00000000   -0.00000000
     The core correction contribution to forces
     atom    1 type  1   force =    -0.01925293   -0.00000000   -0.00000000
     atom    2 type  1   force =     0.01925293   -0.00000000   -0.00000000
     The Hubbard contrib.    to forces
     atom    1 type  1   force =     0.00000000    0.00000000    0.00000000
     atom    2 type  1   force =     0.00000000    0.00000000    0.00000000
     The SCF correction term to forces
     atom    1 type  1   force =     0.00001484    0.00000000   -0.00000000
     atom    2 type  1   force =    -0.00001484    0.00000000   -0.00000000

     Total force =     0.005044     Total SCF correction =     0.000021


     Computing stress (Cartesian axis) and pressure


     negative rho (up, down):  8.370E-03 0.000E+00
          total   stress  (Ry/bohr**3)                   (kbar)     P=       -0.07
  -0.00000129   0.00000000   0.00000000           -0.19        0.00        0.00
   0.00000000  -0.00000010   0.00000000            0.00       -0.01        0.00
   0.00000000   0.00000000  -0.00000010            0.00        0.00       -0.01

     kinetic stress (kbar)    312.86      0.00      0.00
                                0.00    341.86      0.00
                                0.00      0.00    341.86

     local   stress (kbar)  -1081.32     -0.00     -0.00
                               -0.00   -411.17     -0.00
                               -0.00     -0.00   -411.17

     nonloc. stress (kbar)      5.86      0.00      0.00
                                0.00     20.34      0.00
                                0.00      0.00     20.34

     hartree stress (kbar)    421.96      0.00      0.00
                                0.00    232.46      0.00
                                0.00      0.00    232.46

     exc-cor stress (kbar)    -41.99      0.00      0.00
                                0.00    -44.40      0.00
                                0.00      0.00    -44.40

     corecor stress (kbar)    -30.52     -0.00      0.00
                               -0.00    -29.35      0.00
                                0.00      0.00    -29.35

     ewald   stress (kbar)    412.95     -0.00     -0.00
                               -0.00   -109.75     -0.00
                               -0.00     -0.00   -109.75

     hubbard stress (kbar)      0.00      0.00      0.00
                                0.00      0.00      0.00
                                0.00      0.00      0.00

     DFT-D   stress (kbar)      0.00      0.00      0.00
                                0.00      0.00      0.00
                                0.00      0.00      0.00

     XDM     stress (kbar)      0.00      0.00      0.00
                                0.00      0.00      0.00
                                0.00      0.00      0.00

     dft-nl  stress (kbar)      0.00      0.00      0.00
                                0.00      0.00      0.00
                                0.00      0.00      0.00

     TS-vdW  stress (kbar)      0.00      0.00      0.00
                                0.00      0.00      0.00
                                0.00      0.00      0.00

     MDB     stress (kbar)      0.00      0.00      0.00
                                0.00      0.00      0.00
                                0.00      0.00      0.00

     3D-RISM stress (kbar)      0.00      0.00      0.00
                                0.00      0.00      0.00
                                0.00      0.00      0.00

     Energy error            =      3.0E-04 Ry
     Gradient error          =      3.6E-03 Ry/Bohr
     Cell gradient error     =      1.9E-01 kbar

     number of scf cycles    =   3
     number of bfgs steps    =   1

     enthalpy           old  =     -56.4331143594 Ry
     enthalpy           new  =     -56.4334184373 Ry

     CASE: enthalpy          _new < enthalpy          _old

     new trust radius        =       0.0005864762 bohr
     new conv_thr            =            1.0E-10 Ry

     new unit-cell volume =   6751.56462 a.u.^3 (  1000.47865 Ang^3 )
     density =      0.04650 g/cm^3

CELL_PARAMETERS (alat= 18.90000000)
   1.000049681   0.000000000   0.000000000
   0.000000000   0.999997053   0.000000000
   0.000000000   0.000000000   0.999997053

ATOMIC_POSITIONS (alat)
N                0.4445271743        0.0000000000        0.0000000000
N                0.5555225063        0.0000000000        0.0000000000



     Writing config-only to output data dir ./tmp/nitrogen.save/ :
     XML data file     NEW-OLD atomic charge density approx. for the potential
     New effective cutoffs (rho, wfc):  199.93   49.95

     Check: negative core charge=   -0.000004

     negative rho (up, down):  8.354E-03 0.000E+00

     total cpu time spent up to now is       15.5 secs

     Self-consistent Calculation

     iteration #  1     ecut=    50.00 Ry     beta= 0.70
     Davidson diagonalization with overlap

---- Real-time Memory Report at c_bands before calling an iterative solver
           158 MiB given to the printing process from OS
             0 MiB allocation reported by mallinfo(arena+hblkhd)
         22716 MiB available memory on the node where the printing process lives
------------------
     ethr =  1.00E-06,  avg # of iterations =  2.0

     Threshold (ethr) on eigenvalues was too large:
     Diagonalizing with lowered threshold

     Davidson diagonalization with overlap

---- Real-time Memory Report at c_bands before calling an iterative solver
           158 MiB given to the printing process from OS
             0 MiB allocation reported by mallinfo(arena+hblkhd)
         22744 MiB available memory on the node where the printing process lives
------------------
     ethr =  7.70E-09,  avg # of iterations =  1.0

     negative rho (up, down):  8.369E-03 0.000E+00

     total cpu time spent up to now is       16.2 secs

     total energy              =     -56.43342038 Ry
     estimated scf accuracy    <       0.00000079 Ry

     iteration #  2     ecut=    50.00 Ry     beta= 0.70
     Davidson diagonalization with overlap

---- Real-time Memory Report at c_bands before calling an iterative solver
           158 MiB given to the printing process from OS
             0 MiB allocation reported by mallinfo(arena+hblkhd)
         22675 MiB available memory on the node where the printing process lives
------------------
     ethr =  7.86E-09,  avg # of iterations =  2.0

     negative rho (up, down):  8.371E-03 0.000E+00

     total cpu time spent up to now is       16.8 secs

     total energy              =     -56.43342059 Ry
     estimated scf accuracy    <       0.00000008 Ry

     iteration #  3     ecut=    50.00 Ry     beta= 0.70
     Davidson diagonalization with overlap

---- Real-time Memory Report at c_bands before calling an iterative solver
           158 MiB given to the printing process from OS
             0 MiB allocation reported by mallinfo(arena+hblkhd)
         22585 MiB available memory on the node where the printing process lives
------------------
     ethr =  7.77E-10,  avg # of iterations =  2.0

     negative rho (up, down):  8.374E-03 0.000E+00

     total cpu time spent up to now is       17.4 secs

     total energy              =     -56.43342060 Ry
     estimated scf accuracy    <          1.2E-09 Ry

     iteration #  4     ecut=    50.00 Ry     beta= 0.70
     Davidson diagonalization with overlap

---- Real-time Memory Report at c_bands before calling an iterative solver
           158 MiB given to the printing process from OS
             0 MiB allocation reported by mallinfo(arena+hblkhd)
         22570 MiB available memory on the node where the printing process lives
------------------
     ethr =  1.22E-11,  avg # of iterations =  1.0

     negative rho (up, down):  8.374E-03 0.000E+00

     total cpu time spent up to now is       17.9 secs

     End of self-consistent calculation

          k = 0.0000 0.0000 0.0000 ( 40339 PWs)   bands (ev):

   -28.0409 -13.3606 -11.3745 -11.3745 -10.0218

     occupation numbers 
     1.0000   1.0000   1.0000   1.0000   1.0000

     highest occupied level (ev):   -10.0218

!    total energy              =     -56.43342060 Ry
     total all-electron energy =      -219.031017 Ry
     estimated scf accuracy    <          1.4E-11 Ry

     The total energy is the sum of the following terms:
     one-electron contribution =     -78.93937150 Ry
     hartree contribution      =      40.71647343 Ry
     xc contribution           =     -11.10897409 Ry
     ewald contribution        =       8.89192127 Ry
     one-center paw contrib.   =     -15.99346971 Ry
      -> PAW hartree energy AE =      16.71575940 Ry
      -> PAW hartree energy PS =     -16.69231257 Ry
      -> PAW xc energy AE      =     -13.58257384 Ry
      -> PAW xc energy PS      =       5.56239211 Ry
      -> total E_H with PAW    =      40.73992026 Ry
      -> total E_XC with PAW   =     -19.12915583 Ry

     convergence has been achieved in   4 iterations

     negative rho (up, down):  8.374E-03 0.000E+00

     Forces acting on atoms (cartesian axes, Ry/au):

     atom    1 type  1   force =     0.00009596    0.00000000    0.00000000
     atom    2 type  1   force =    -0.00009596    0.00000000    0.00000000
     The non-local contrib.  to forces
     atom    1 type  1   force =     2.06873415    0.00000000    0.00000000
     atom    2 type  1   force =    -2.06873415    0.00000000    0.00000000
     The ionic contribution  to forces
     atom    1 type  1   force =   -11.29407994   -0.00000000   -0.00000000
     atom    2 type  1   force =    11.29407994    0.00000000    0.00000000
     The local contribution  to forces
     atom    1 type  1   force =     9.24463489   -0.00000000   -0.00000000
     atom    2 type  1   force =    -9.24463489    0.00000000    0.00000000
     The core correction contribution to forces
     atom    1 type  1   force =    -0.01919121    0.00000000   -0.00000000
     atom    2 type  1   force =     0.01919121    0.00000000   -0.00000000
     The Hubbard contrib.    to forces
     atom    1 type  1   force =     0.00000000    0.00000000    0.00000000
     atom    2 type  1   force =     0.00000000    0.00000000    0.00000000
     The SCF correction term to forces
     atom    1 type  1   force =    -0.00000194    0.00000000   -0.00000000
     atom    2 type  1   force =     0.00000194    0.00000000   -0.00000000

     Total force =     0.000136     Total SCF correction =     0.000003


     Computing stress (Cartesian axis) and pressure


     negative rho (up, down):  8.374E-03 0.000E+00
          total   stress  (Ry/bohr**3)                   (kbar)     P=       -0.02
  -0.00000021   0.00000000   0.00000000           -0.03        0.00        0.00
   0.00000000  -0.00000010   0.00000000            0.00       -0.01        0.00
   0.00000000   0.00000000  -0.00000010            0.00        0.00       -0.01

     kinetic stress (kbar)    312.94      0.00      0.00
                                0.00    341.93      0.00
                                0.00      0.00    341.93

     local   stress (kbar)  -1081.56     -0.00      0.00
                               -0.00   -411.30      0.00
                                0.00      0.00   -411.30

     nonloc. stress (kbar)      5.83      0.00      0.00
                                0.00     20.32      0.00
                                0.00      0.00     20.32

     hartree stress (kbar)    422.02      0.00      0.00
                                0.00    232.56      0.00
                                0.00      0.00    232.56

     exc-cor stress (kbar)    -42.00      0.00      0.00
                                0.00    -44.41      0.00
                                0.00      0.00    -44.41

     corecor stress (kbar)    -30.52      0.00     -0.00
                                0.00    -29.35      0.00
                               -0.00      0.00    -29.35

     ewald   stress (kbar)    413.25      0.00     -0.00
                                0.00   -109.76     -0.00
                               -0.00     -0.00   -109.76

     hubbard stress (kbar)      0.00      0.00      0.00
                                0.00      0.00      0.00
                                0.00      0.00      0.00

     DFT-D   stress (kbar)      0.00      0.00      0.00
                                0.00      0.00      0.00
                                0.00      0.00      0.00

     XDM     stress (kbar)      0.00      0.00      0.00
                                0.00      0.00      0.00
                                0.00      0.00      0.00

     dft-nl  stress (kbar)      0.00      0.00      0.00
                                0.00      0.00      0.00
                                0.00      0.00      0.00

     TS-vdW  stress (kbar)      0.00      0.00      0.00
                                0.00      0.00      0.00
                                0.00      0.00      0.00

     MDB     stress (kbar)      0.00      0.00      0.00
                                0.00      0.00      0.00
                                0.00      0.00      0.00

     3D-RISM stress (kbar)      0.00      0.00      0.00
                                0.00      0.00      0.00
                                0.00      0.00      0.00

     Energy error            =      2.2E-06 Ry
     Gradient error          =      9.6E-05 Ry/Bohr
     Cell gradient error     =      3.1E-02 kbar

     number of scf cycles    =   4
     number of bfgs steps    =   2

     enthalpy           old  =     -56.4334184373 Ry
     enthalpy           new  =     -56.4334206033 Ry

     CASE: enthalpy          _new < enthalpy          _old

     small trust_radius: resetting bfgs history

     new trust radius        =       0.0000959594 bohr
     new conv_thr            =            1.0E-10 Ry

     new unit-cell volume =   6751.49727 a.u.^3 (  1000.46867 Ang^3 )
     density =      0.04650 g/cm^3

CELL_PARAMETERS (alat= 18.90000000)
   1.000044476   0.000000000   0.000000000
   0.000000000   0.999994668   0.000000000
   0.000000000   0.000000000   0.999994668

ATOMIC_POSITIONS (alat)
N                0.4445299382        0.0000000000        0.0000000000
N                0.5555145381        0.0000000000        0.0000000000



     Writing config-only to output data dir ./tmp/nitrogen.save/ :
     XML data file     NEW-OLD atomic charge density approx. for the potential
     New effective cutoffs (rho, wfc):  199.93   49.96

     Check: negative core charge=   -0.000004

     negative rho (up, down):  8.371E-03 0.000E+00

     total cpu time spent up to now is       19.3 secs

     Self-consistent Calculation

     iteration #  1     ecut=    50.00 Ry     beta= 0.70
     Davidson diagonalization with overlap

---- Real-time Memory Report at c_bands before calling an iterative solver
           158 MiB given to the printing process from OS
             0 MiB allocation reported by mallinfo(arena+hblkhd)
         22815 MiB available memory on the node where the printing process lives
------------------
     ethr =  1.00E-06,  avg # of iterations =  2.0

     Threshold (ethr) on eigenvalues was too large:
     Diagonalizing with lowered threshold

     Davidson diagonalization with overlap

---- Real-time Memory Report at c_bands before calling an iterative solver
           158 MiB given to the printing process from OS
             0 MiB allocation reported by mallinfo(arena+hblkhd)
         22869 MiB available memory on the node where the printing process lives
------------------
     ethr =  2.11E-10,  avg # of iterations =  1.0

     negative rho (up, down):  8.374E-03 0.000E+00

     total cpu time spent up to now is       20.2 secs

     total energy              =     -56.43342056 Ry
     estimated scf accuracy    <       0.00000002 Ry

     iteration #  2     ecut=    50.00 Ry     beta= 0.70
     Davidson diagonalization with overlap

---- Real-time Memory Report at c_bands before calling an iterative solver
           158 MiB given to the printing process from OS
             0 MiB allocation reported by mallinfo(arena+hblkhd)
         22844 MiB available memory on the node where the printing process lives
------------------
     ethr =  2.14E-10,  avg # of iterations =  2.0

     negative rho (up, down):  8.374E-03 0.000E+00

     total cpu time spent up to now is       20.8 secs

     total energy              =     -56.43342057 Ry
     estimated scf accuracy    <          2.1E-09 Ry

     iteration #  3     ecut=    50.00 Ry     beta= 0.70
     Davidson diagonalization with overlap

---- Real-time Memory Report at c_bands before calling an iterative solver
           158 MiB given to the printing process from OS
             0 MiB allocation reported by mallinfo(arena+hblkhd)
         22746 MiB available memory on the node where the printing process lives
------------------
     ethr =  2.12E-11,  avg # of iterations =  2.0

     negative rho (up, down):  8.375E-03 0.000E+00

     total cpu time spent up to now is       21.3 secs

     End of self-consistent calculation

          k = 0.0000 0.0000 0.0000 ( 40339 PWs)   bands (ev):

   -28.0425 -13.3598 -11.3753 -11.3753 -10.0218

     occupation numbers 
     1.0000   1.0000   1.0000   1.0000   1.0000

     highest occupied level (ev):   -10.0218

!    total energy              =     -56.43342057 Ry
     total all-electron energy =      -219.031017 Ry
     estimated scf accuracy    <          3.3E-11 Ry

     The total energy is the sum of the following terms:
     one-electron contribution =     -78.94325806 Ry
     hartree contribution      =      40.71837339 Ry
     xc contribution           =     -11.10922482 Ry
     ewald contribution        =       8.89416370 Ry
     one-center paw contrib.   =     -15.99347478 Ry
      -> PAW hartree energy AE =      16.71804741 Ry
      -> PAW hartree energy PS =     -16.69459895 Ry
      -> PAW xc energy AE      =     -13.58302230 Ry
      -> PAW xc energy PS      =       5.56283639 Ry
      -> total E_H with PAW    =      40.74182186 Ry
      -> total E_XC with PAW   =     -19.12941072 Ry

     convergence has been achieved in   3 iterations

     negative rho (up, down):  8.375E-03 0.000E+00

     Forces acting on atoms (cartesian axes, Ry/au):

     atom    1 type  1   force =    -0.00049636    0.00000000    0.00000000
     atom    2 type  1   force =     0.00049636    0.00000000    0.00000000
     The non-local contrib.  to forces
     atom    1 type  1   force =     2.06871137    0.00000000    0.00000000
     atom    2 type  1   force =    -2.06871137    0.00000000    0.00000000
     The ionic contribution  to forces
     atom    1 type  1   force =   -11.29628305    0.00000000   -0.00000000
     atom    2 type  1   force =    11.29628305   -0.00000000   -0.00000000
     The local contribution  to forces
     atom    1 type  1   force =     9.24625705   -0.00000000   -0.00000000
     atom    2 type  1   force =    -9.24625705    0.00000000   -0.00000000
     The core correction contribution to forces
     atom    1 type  1   force =    -0.01918052    0.00000000   -0.00000000
     atom    2 type  1   force =     0.01918052    0.00000000   -0.00000000
     The Hubbard contrib.    to forces
     atom    1 type  1   force =     0.00000000    0.00000000    0.00000000
     atom    2 type  1   force =     0.00000000    0.00000000    0.00000000
     The SCF correction term to forces
     atom    1 type  1   force =    -0.00000120   -0.00000000    0.00000000
     atom    2 type  1   force =     0.00000120   -0.00000000    0.00000000

     Total force =     0.000702     Total SCF correction =     0.000002


     Computing stress (Cartesian axis) and pressure


     negative rho (up, down):  8.375E-03 0.000E+00
          total   stress  (Ry/bohr**3)                   (kbar)     P=       -0.01
  -0.00000002   0.00000000   0.00000000           -0.00        0.00        0.00
   0.00000000  -0.00000010   0.00000000            0.00       -0.01        0.00
   0.00000000   0.00000000  -0.00000010            0.00        0.00       -0.01

     kinetic stress (kbar)    312.96      0.00      0.00
                                0.00    341.94      0.00
                                0.00      0.00    341.94

     local   stress (kbar)  -1081.61      0.00      0.00
                                0.00   -411.33      0.00
                                0.00      0.00   -411.33

     nonloc. stress (kbar)      5.82      0.00      0.00
                                0.00     20.32      0.00
                                0.00      0.00     20.32

     hartree stress (kbar)    422.04     -0.00     -0.00
                               -0.00    232.58      0.00
                               -0.00      0.00    232.58

     exc-cor stress (kbar)    -42.00      0.00      0.00
                                0.00    -44.41      0.00
                                0.00      0.00    -44.41

     corecor stress (kbar)    -30.52     -0.00     -0.00
                               -0.00    -29.35     -0.00
                               -0.00     -0.00    -29.35

     ewald   stress (kbar)    413.31     -0.00     -0.00
                               -0.00   -109.76     -0.00
                               -0.00     -0.00   -109.76

     hubbard stress (kbar)      0.00      0.00      0.00
                                0.00      0.00      0.00
                                0.00      0.00      0.00

     DFT-D   stress (kbar)      0.00      0.00      0.00
                                0.00      0.00      0.00
                                0.00      0.00      0.00

     XDM     stress (kbar)      0.00      0.00      0.00
                                0.00      0.00      0.00
                                0.00      0.00      0.00

     dft-nl  stress (kbar)      0.00      0.00      0.00
                                0.00      0.00      0.00
                                0.00      0.00      0.00

     TS-vdW  stress (kbar)      0.00      0.00      0.00
                                0.00      0.00      0.00
                                0.00      0.00      0.00

     MDB     stress (kbar)      0.00      0.00      0.00
                                0.00      0.00      0.00
                                0.00      0.00      0.00

     3D-RISM stress (kbar)      0.00      0.00      0.00
                                0.00      0.00      0.00
                                0.00      0.00      0.00

     Energy error            =      3.3E-08 Ry
     Gradient error          =      5.0E-04 Ry/Bohr
     Cell gradient error     =      1.4E-02 kbar

     number of scf cycles    =   5
     number of bfgs steps    =   3

     enthalpy           old  =     -56.4334206033 Ry
     enthalpy           new  =     -56.4334205698 Ry

     CASE: enthalpy          _new > enthalpy          _old

     new trust radius        =       0.0000221983 bohr

     trust_radius < trust_radius_min

     resetting bfgs history

     Message from routine bfgs:
     history already reset at previous step: stopping
     new conv_thr            =            1.0E-10 Ry

     new unit-cell volume =   6751.49727 a.u.^3 (  1000.46867 Ang^3 )
     density =      0.04650 g/cm^3

CELL_PARAMETERS (alat= 18.90000000)
   1.000044476   0.000000000   0.000000000
   0.000000000   0.999994668   0.000000000
   0.000000000   0.000000000   0.999994668

ATOMIC_POSITIONS (alat)
N                0.4445299382        0.0000000000        0.0000000000
N                0.5555145381        0.0000000000        0.0000000000



     Writing config-only to output data dir ./tmp/nitrogen.save/ :
     XML data file     NEW-OLD atomic charge density approx. for the potential
     New effective cutoffs (rho, wfc):  199.93   49.96

     Check: negative core charge=   -0.000004

     negative rho (up, down):  8.375E-03 0.000E+00

     total cpu time spent up to now is       22.6 secs

     Self-consistent Calculation

     iteration #  1     ecut=    50.00 Ry     beta= 0.70
     Davidson diagonalization with overlap

---- Real-time Memory Report at c_bands before calling an iterative solver
           158 MiB given to the printing process from OS
             0 MiB allocation reported by mallinfo(arena+hblkhd)
         22776 MiB available memory on the node where the printing process lives
------------------
     ethr =  1.00E-06,  avg # of iterations =  1.0

     Threshold (ethr) on eigenvalues was too large:
     Diagonalizing with lowered threshold

     Davidson diagonalization with overlap

---- Real-time Memory Report at c_bands before calling an iterative solver
           158 MiB given to the printing process from OS
             0 MiB allocation reported by mallinfo(arena+hblkhd)
         22746 MiB available memory on the node where the printing process lives
------------------
     ethr =  2.11E-15,  avg # of iterations =  2.0

     negative rho (up, down):  8.375E-03 0.000E+00

     total cpu time spent up to now is       23.3 secs

     End of self-consistent calculation

          k = 0.0000 0.0000 0.0000 ( 40339 PWs)   bands (ev):

   -28.0425 -13.3598 -11.3753 -11.3753 -10.0218

     occupation numbers 
     1.0000   1.0000   1.0000   1.0000   1.0000

     highest occupied level (ev):   -10.0218

!    total energy              =     -56.43342057 Ry
     total all-electron energy =      -219.031017 Ry
     estimated scf accuracy    <          2.4E-13 Ry

     The total energy is the sum of the following terms:
     one-electron contribution =     -78.94325742 Ry
     hartree contribution      =      40.71837256 Ry
     xc contribution           =     -11.10922461 Ry
     ewald contribution        =       8.89416372 Ry
     one-center paw contrib.   =     -15.99347481 Ry
      -> PAW hartree energy AE =      16.71804588 Ry
      -> PAW hartree energy PS =     -16.69459741 Ry
      -> PAW xc energy AE      =     -13.58302201 Ry
      -> PAW xc energy PS      =       5.56283608 Ry
      -> total E_H with PAW    =      40.74182102 Ry
      -> total E_XC with PAW   =     -19.12941053 Ry

     convergence has been achieved in   1 iterations

     negative rho (up, down):  8.375E-03 0.000E+00

     Forces acting on atoms (cartesian axes, Ry/au):

     atom    1 type  1   force =    -0.00049722    0.00000000    0.00000000
     atom    2 type  1   force =     0.00049722    0.00000000    0.00000000
     The non-local contrib.  to forces
     atom    1 type  1   force =     2.06871157    0.00000000    0.00000000
     atom    2 type  1   force =    -2.06871157    0.00000000    0.00000000
     The ionic contribution  to forces
     atom    1 type  1   force =   -11.29628308    0.00000000   -0.00000000
     atom    2 type  1   force =    11.29628308   -0.00000000   -0.00000000
     The local contribution  to forces
     atom    1 type  1   force =     9.24625429    0.00000000   -0.00000000
     atom    2 type  1   force =    -9.24625429   -0.00000000   -0.00000000
     The core correction contribution to forces
     atom    1 type  1   force =    -0.01918058   -0.00000000   -0.00000000
     atom    2 type  1   force =     0.01918058   -0.00000000   -0.00000000
     The Hubbard contrib.    to forces
     atom    1 type  1   force =     0.00000000    0.00000000    0.00000000
     atom    2 type  1   force =     0.00000000    0.00000000    0.00000000
     The SCF correction term to forces
     atom    1 type  1   force =     0.00000057    0.00000000    0.00000000
     atom    2 type  1   force =    -0.00000057    0.00000000    0.00000000

     Total force =     0.000703     Total SCF correction =     0.000001


     Computing stress (Cartesian axis) and pressure


     negative rho (up, down):  8.375E-03 0.000E+00
          total   stress  (Ry/bohr**3)                   (kbar)     P=       -0.01
  -0.00000002   0.00000000   0.00000000           -0.00        0.00        0.00
   0.00000000  -0.00000010   0.00000000            0.00       -0.01        0.00
   0.00000000   0.00000000  -0.00000010            0.00        0.00       -0.01

     kinetic stress (kbar)    312.96      0.00      0.00
                                0.00    341.94      0.00
                                0.00      0.00    341.94

     local   stress (kbar)  -1081.61     -0.00     -0.00
                               -0.00   -411.33     -0.00
                               -0.00     -0.00   -411.33

     nonloc. stress (kbar)      5.82      0.00      0.00
                                0.00     20.32      0.00
                                0.00      0.00     20.32

     hartree stress (kbar)    422.04      0.00      0.00
                                0.00    232.58      0.00
                                0.00      0.00    232.58

     exc-cor stress (kbar)    -42.00      0.00     -0.00
                                0.00    -44.41      0.00
                               -0.00      0.00    -44.41

     corecor stress (kbar)    -30.52      0.00      0.00
                                0.00    -29.35      0.00
                                0.00      0.00    -29.35

     ewald   stress (kbar)    413.31     -0.00     -0.00
                               -0.00   -109.76     -0.00
                               -0.00     -0.00   -109.76

     hubbard stress (kbar)      0.00      0.00      0.00
                                0.00      0.00      0.00
                                0.00      0.00      0.00

     DFT-D   stress (kbar)      0.00      0.00      0.00
                                0.00      0.00      0.00
                                0.00      0.00      0.00

     XDM     stress (kbar)      0.00      0.00      0.00
                                0.00      0.00      0.00
                                0.00      0.00      0.00

     dft-nl  stress (kbar)      0.00      0.00      0.00
                                0.00      0.00      0.00
                                0.00      0.00      0.00

     TS-vdW  stress (kbar)      0.00      0.00      0.00
                                0.00      0.00      0.00
                                0.00      0.00      0.00

     MDB     stress (kbar)      0.00      0.00      0.00
                                0.00      0.00      0.00
                                0.00      0.00      0.00

     3D-RISM stress (kbar)      0.00      0.00      0.00
                                0.00      0.00      0.00
                                0.00      0.00      0.00

     Message from routine bfgs:
     history already reset at previous step: exiting
     Energy error            =      3.3E-08 Ry
     Gradient error          =      5.0E-04 Ry/Bohr
     Cell gradient error     =      1.4E-02 kbar

     bfgs failed after   6 scf cycles and   3 bfgs steps, convergence not achieved
     (criteria: energy <  1.0E-10 Ry, force <  1.0E-08 Ry/Bohr, cell <  5.0E-01 kbar)

     End of BFGS Geometry Optimization

     Final enthalpy           =     -56.4334205699 Ry

     File ./tmp/nitrogen.bfgs deleted, as requested
Begin final coordinates
     new unit-cell volume =   6751.49727 a.u.^3 (  1000.46867 Ang^3 )
     density =      0.04650 g/cm^3

CELL_PARAMETERS (alat= 18.90000000)
   1.000044476   0.000000000   0.000000000
   0.000000000   0.999994668   0.000000000
   0.000000000   0.000000000   0.999994668

ATOMIC_POSITIONS (alat)
N                0.4445299382        0.0000000000        0.0000000000
N                0.5555145381        0.0000000000        0.0000000000
End final coordinates



     Writing config-only to output data dir ./tmp/nitrogen.save/ :
     XML data file
     Writing all to output data dir ./tmp/nitrogen.save/ :
     XML data file, charge density
     init_run     :      0.69s CPU      0.79s WALL (       1 calls)
     electrons    :     15.59s CPU     15.85s WALL (       6 calls)
     update_pot   :      0.86s CPU      0.87s WALL (       5 calls)
     forces       :      1.51s CPU      1.64s WALL (       6 calls)
     stress       :      4.51s CPU      4.53s WALL (       6 calls)

     Called by init_run:
     wfcinit      :      0.09s CPU      0.11s WALL (       1 calls)
     wfcinit:atom :      0.00s CPU      0.00s WALL (       1 calls)
     wfcinit:wfcr :      0.08s CPU      0.10s WALL (       1 calls)
     potinit      :      0.13s CPU      0.16s WALL (       1 calls)
     hinit0       :      0.30s CPU      0.32s WALL (       1 calls)

     Called by electrons:
     c_bands      :      5.23s CPU      4.84s WALL (      31 calls)
     sum_band     :      4.25s CPU      4.47s WALL (      31 calls)
     v_of_rho     :      3.76s CPU      3.86s WALL (      34 calls)
     v_h          :      0.24s CPU      0.27s WALL (      34 calls)
     v_xc         :      4.73s CPU      4.94s WALL (      46 calls)
     newd         :      1.72s CPU      2.18s WALL (      34 calls)
     PAW_pot      :      0.82s CPU      0.84s WALL (      39 calls)
     mix_rho      :      0.66s CPU      0.60s WALL (      31 calls)

     Called by c_bands:
     init_us_2    :      0.26s CPU      0.23s WALL (      74 calls)
     cegterg      :      4.97s CPU      4.58s WALL (      31 calls)

     Called by sum_band:
     sum_band:wei :      0.00s CPU      0.00s WALL (      31 calls)
     sum_band:loo :      0.85s CPU      0.80s WALL (      31 calls)
     sum_band:buf :      0.00s CPU      0.00s WALL (      31 calls)
     sum_band:ini :      0.12s CPU      0.10s WALL (      31 calls)
     sum_band:cal :      0.04s CPU      0.04s WALL (      36 calls)
     sum_band:bec :      0.00s CPU      0.01s WALL (      36 calls)
     addusdens    :      2.45s CPU      2.77s WALL (      31 calls)
                                        0.00s GPU  (      31 calls)
     addusd:skk   :      0.04s CPU      0.05s WALL (      31 calls)
                                        0.00s GPU  (      31 calls)

     Called by *egterg:
     cdiaghg      :      0.02s CPU      0.02s WALL (      91 calls)
     cegterg:over :      0.12s CPU      0.10s WALL (      68 calls)
     cegterg:upda :      0.06s CPU      0.07s WALL (      68 calls)
     cegterg:last :      0.12s CPU      0.11s WALL (      63 calls)
     h_psi        :      4.12s CPU      3.72s WALL (     100 calls)
     s_psi        :      0.12s CPU      0.11s WALL (     100 calls)
     g_psi        :      0.02s CPU      0.02s WALL (      68 calls)

     Called by h_psi:
     h_psi:calbec :      0.11s CPU      0.09s WALL (     100 calls)
     vloc_psi     :      3.86s CPU      3.49s WALL (     100 calls)
     add_vuspsi   :      0.13s CPU      0.11s WALL (     100 calls)

     General routines
     calbec       :      0.22s CPU      0.20s WALL (     238 calls)
     fft          :      2.75s CPU      2.94s WALL (     532 calls)
     ffts         :      0.19s CPU      0.17s WALL (      31 calls)
     fftw         :      3.73s CPU      3.40s WALL (    1055 calls)

     Parallel routines

     PAW routines
     PAW_pot      :      0.82s CPU      0.84s WALL (      39 calls)
     PAW_symme    :      0.02s CPU      0.02s WALL (      70 calls)

     PWSCF        :     23.74s CPU     24.39s WALL


   This run was terminated on:   6:24:17   6Aug2026            

=------------------------------------------------------------------------------=
   JOB DONE.
=------------------------------------------------------------------------------=
