    2    2    1    1
  0.5583608E+01  0.2508919E-09  0.2508919E-09  0.2508919E-09  0.5000000E-15
  1.000000000000000E-004
  CAR 
 unknown system                          
      8     72      8
 
  0.1276756E-14  0.1276756E-14  0.1276756E-14  0.5787037E-03
      1        -14.437250   1.000000
      2          9.327764   1.000000
      3          9.327798   1.000000
      4          9.327798   1.000000
      5         16.367163   0.000000
      6         16.367205   0.000000
      7         16.367205   0.000000
      8         24.991102   0.000000
 
  0.8333333E-01  0.1281433E-14  0.1267113E-14  0.4629630E-02
      1        -14.227008   1.000000
      2          8.000113   1.000000
      3          8.981412   1.000000
      4          8.981442   1.000000
      5         16.826380   0.000000
      6         16.826419   0.000000
      7         17.115573   0.000000
      8         25.158691   0.000000
 
  0.1666667E+00  0.8418365E-14  0.1288407E-14  0.4629630E-02
      1        -13.598572   1.000000
      2          5.194277   1.000000
      3          8.212745   1.000000
      4          8.212772   1.000000
      5         17.835690   0.000000
      6         17.835733   0.000000
      7         18.295701   0.000000
      8         25.632478   0.000000
 
  0.2500000E+00  0.8391105E-14  0.1286515E-14  0.4629630E-02
      1        -12.560413   1.000000
      2          2.029690   1.000000
      3          7.406199   1.000000
      4          7.406224   1.000000
      5         18.771822   0.000000
      6         18.771866   0.000000
      7         19.124956   0.000000
      8         26.270188   0.000000
 
  0.3333333E+00  0.1321723E-14  0.1265162E-14  0.4629630E-02
      1        -11.135496   1.000000
      2         -1.065057   1.000000
      3          6.760726   1.000000
      4          6.760750   1.000000
      5         19.279914   0.000000
      6         19.279956   0.000000
      7         19.599527   0.000000
      8         26.807383   0.000000
 
  0.4166667E+00  0.1324616E-14  0.1283918E-14  0.4629630E-02
      1         -9.407907   1.000000
      2         -3.840954   1.000000
      3          6.355303   1.000000
      4          6.355326   1.000000
      5         19.424291   0.000000
      6         19.424330   0.000000
      7         19.840097   0.000000
      8         27.057454   0.000000
 
  0.5000000E+00  0.1327508E-14  0.1260704E-14  0.2314815E-02
      1         -8.125140   1.000000
      2         -5.479940   1.000000
      3          6.217939   1.000000
      4          6.217962   1.000000
      5         19.437331   0.000000
      6         19.437319   0.000000
      7         19.914269   0.000000
      8         27.176513   0.000000
 
  0.8333333E-01  0.8333333E-01  0.1283572E-14  0.3472222E-02
      1        -14.156941   1.000000
      2          8.349688   1.000000
      3          8.349715   1.000000
      4          8.646484   1.000000
      5         16.140004   0.000000
      6         17.588125   0.000000
      7         17.588100   0.000000
      8         25.092445   0.000000
 
  0.1666667E+00  0.8333333E-01  0.1288787E-14  0.1388889E-01
      1        -13.667980   1.000000
      2          6.149181   1.000000
      3          7.463961   1.000000
      4          8.289348   1.000000
      5         16.452650   0.000000
      6         18.770455   0.000000
      7         18.780509   0.000000
      8         25.088757   0.000000
 
  0.2500000E+00  0.8333333E-01  0.1250304E-14  0.1388889E-01
      1        -12.766289   1.000000
      2          3.149561   1.000000
      3          6.656522   1.000000
      4          7.555907   1.000000
      5         17.382827   0.000000
      6         19.727626   0.000000
      7         19.811144   0.000000
      8         25.182639   0.000000
 
  0.3333333E+00  0.8333333E-01  0.1284037E-14  0.1388889E-01
      1        -11.468557   1.000000
      2          0.060755   1.000000
      3          6.084269   1.000000
      4          6.722327   1.000000
      5         18.217050   0.000000
      6         20.275442   0.000000
      7         20.342753   0.000000
      8         25.648179   0.000000
 
  0.4166667E+00  0.8333333E-01  0.1289925E-14  0.1388889E-01
      1         -9.826353   1.000000
      2         -2.820498   1.000000
      3          5.806495   1.000000
      4          6.005227   1.000000
      5         18.685746   0.000000
      6         20.369549   0.000000
      7         20.542457   0.000000
      8         26.549792   0.000000
 
  0.5000000E+00  0.8333333E-01  0.1266127E-14  0.1388889E-01
      1         -8.168733   1.000000
      2         -5.058155   1.000000
      3          5.505804   1.000000
      4          5.835696   1.000000
      5         18.981683   0.000000
      6         20.140193   0.000000
      7         20.629949   0.000000
      8         27.143824   0.000000
 
 -0.4166667E+00  0.8333333E-01  0.1211952E-14  0.1388889E-01
      1         -8.654675   1.000000
      2         -4.453695   1.000000
      3          5.275935   1.000000
      4          6.158260   1.000000
      5         19.293904   0.000000
      6         19.834031   0.000000
      7         20.574593   0.000000
      8         27.180281   0.000000
 
 -0.3333333E+00  0.8333333E-01  0.1259518E-14  0.1388889E-01
      1        -10.405565   1.000000
      2         -1.893005   1.000000
      3          5.344071   1.000000
      4          6.739640   1.000000
      5         19.429893   0.000000
      6         19.588147   0.000000
      7         20.355888   0.000000
      8         26.635158   0.000000
 
 -0.2500000E+00  0.8333333E-01  0.1285550E-14  0.1388889E-01
      1        -11.943709   1.000000
      2          1.087762   1.000000
      3          5.720093   1.000000
      4          7.514285   1.000000
      5         18.762287   0.000000
      6         19.625796   0.000000
      7         19.864768   0.000000
      8         25.951025   0.000000
 
 -0.1666667E+00  0.8333333E-01  0.1272195E-14  0.1388889E-01
      1        -13.112187   1.000000
      2          4.182315   1.000000
      3          6.392697   1.000000
      4          8.348648   1.000000
      5         17.802770   0.000000
      6         18.939049   0.000000
      7         19.172061   0.000000
      8         25.527150   0.000000
 
 -0.8333333E-01  0.8333333E-01  0.1289665E-14  0.6944444E-02
      1        -13.877358   1.000000
      2          6.865257   1.000000
      3          7.445770   1.000000
      4          8.966410   1.000000
      5         16.950471   0.000000
      6         17.749178   0.000000
      7         18.186932   0.000000
      8         25.307933   0.000000
 
  0.1666667E+00  0.1666667E+00  0.1308380E-14  0.3472222E-02
      1        -13.319535   1.000000
      2          6.512420   1.000000
      3          6.512444   1.000000
      4          6.835362   1.000000
      5         15.603869   0.000000
      6         20.132137   0.000000
      7         20.132105   0.000000
      8         24.023298   0.000000
 
  0.2500000E+00  0.1666667E+00  0.1314020E-14  0.1388889E-01
      1        -12.557472   1.000000
      2          4.168855   1.000000
      3          5.671851   1.000000
      4          6.377093   1.000000
      5         15.876049   0.000000
      6         21.340586   0.000000
      7         21.393291   0.000000
      8         23.037716   0.000000
 
  0.3333333E+00  0.1666667E+00  0.1262377E-14  0.1388889E-01
      1        -11.394903   1.000000
      2          1.317883   1.000000
      3          5.095018   1.000000
      4          5.537696   1.000000
      5         16.765358   0.000000
      6         22.068815   0.000000
      7         22.141229   0.000000
      8         22.853460   0.000000
 
  0.4166667E+00  0.1666667E+00  0.1323395E-14  0.1388889E-01
      1         -9.867260   1.000000
      2         -1.516475   1.000000
      3          4.597936   1.000000
      4          4.844151   1.000000
      5         17.455677   0.000000
      6         22.262769   0.000000
      7         22.406363   0.000000
      8         23.895880   0.000000
 
  0.5000000E+00  0.1666667E+00  0.1272515E-14  0.1388889E-01
      1         -8.136558   1.000000
      2         -3.990142   1.000000
      3          3.801332   1.000000
      4          4.934166   1.000000
      5         17.884052   0.000000
      6         21.952940   0.000000
      7         22.518648   0.000000
      8         25.735982   0.000000
 
 -0.4166667E+00  0.1666667E+00  0.1302281E-14  0.1388889E-01
      1         -7.669788   1.000000
      2         -4.554690   1.000000
      3          3.264896   1.000000
      4          5.349190   1.000000
      5         18.352039   0.000000
      6         21.431387   0.000000
      7         22.475585   0.000000
      8         27.421726   0.000000
 
 -0.3333333E+00  0.1666667E+00  0.1285456E-14  0.1388889E-01
      1         -9.302265   1.000000
      2         -2.362790   1.000000
      3          3.050898   1.000000
      4          6.042790   1.000000
      5         18.946367   0.000000
      6         20.739524   0.000000
      7         22.256870   0.000000
      8         26.582992   0.000000
 
 -0.2500000E+00  0.1666667E+00  0.1290883E-14  0.1388889E-01
      1        -10.927777   1.000000
      2          0.411621   1.000000
      3          3.209367   1.000000
      4          6.921449   1.000000
      5         19.506675   0.000000
      6         19.785269   0.000000
      7         21.667420   0.000000
      8         25.922715   0.000000
 
 -0.1666667E+00  0.1666667E+00  0.1297593E-14  0.6944444E-02
      1        -12.215856   1.000000
      2          3.002330   1.000000
      3          4.046020   1.000000
      4          7.801018   1.000000
      5         18.644156   0.000000
      6         19.679181   0.000000
      7         20.386843   0.000000
      8         25.197542   0.000000
 
  0.2500000E+00  0.2500000E+00  0.1292361E-14  0.3472222E-02
      1        -11.936485   1.000000
      2          4.292633   1.000000
      3          4.780991   1.000000
      4          4.781010   1.000000
      5         15.045677   0.000000
      6         21.159951   0.000000
      7         22.977861   0.000000
      8         22.977846   0.000000
 
  0.3333333E+00  0.2500000E+00  0.1241010E-14  0.1388889E-01
      1        -10.913526   1.000000
      2          2.175956   1.000000
      3          4.084501   1.000000
      4          4.152541   1.000000
      5         15.388407   0.000000
      6         20.175151   0.000000
      7         24.095560   0.000000
      8         24.102658   0.000000
 
  0.4166667E+00  0.2500000E+00  0.1245932E-14  0.1388889E-01
      1         -9.515487   1.000000
      2         -0.263083   1.000000
      3          2.964778   1.000000
      4          3.859997   1.000000
      5         16.218330   0.000000
      6         20.590428   0.000000
      7         24.516040   0.000000
      8         24.672593   0.000000
 
  0.5000000E+00  0.2500000E+00  0.1278229E-14  0.1388889E-01
      1         -7.836505   1.000000
      2         -2.645333   1.000000
      3          1.861497   1.000000
      4          3.926411   1.000000
      5         16.751754   0.000000
      6         22.553948   0.000000
      7         24.293304   0.000000
      8         24.883198   0.000000
 
 -0.4166667E+00  0.2500000E+00  0.1238775E-14  0.1388889E-01
      1         -6.644714   1.000000
      2         -4.052021   1.000000
      3          1.029960   1.000000
      4          4.341548   1.000000
      5         17.251335   0.000000
      6         23.643753   0.000000
      7         24.850954   0.000000
      8         26.212801   0.000000
 
 -0.3333333E+00  0.2500000E+00  0.1281480E-14  0.1388889E-01
      1         -7.879550   1.000000
      2         -2.496137   1.000000
      3          0.587676   1.000000
      4          5.060991   1.000000
      5         17.946046   0.000000
      6         22.641153   0.000000
      7         24.670422   0.000000
      8         26.669225   0.000000
 
 -0.2500000E+00  0.2500000E+00  0.1279390E-14  0.6944444E-02
      1         -9.541911   1.000000
      2         -0.350324   1.000000
      3          0.928241   1.000000
      4          5.986903   1.000000
      5         18.789099   0.000000
      6         21.275824   0.000000
      7         23.667576   0.000000
      8         25.488398   0.000000
 
  0.3333333E+00  0.3333333E+00  0.1331338E-14  0.3472222E-02
      1        -10.031896   1.000000
      2          1.322725   1.000000
      3          3.452757   1.000000
      4          3.452772   1.000000
      5         14.702996   0.000000
      6         18.439013   0.000000
      7         25.709038   0.000000
      8         25.716886   0.000000
 
  0.4166667E+00  0.3333333E+00  0.1335968E-14  0.1388889E-01
      1         -8.771334   1.000000
      2         -0.352312   1.000000
      3          2.458408   1.000000
      4          3.085224   1.000000
      5         15.177892   0.000000
      6         17.913744   0.000000
      7         26.571500   0.000000
      8         26.634500   0.000000
 
  0.5000000E+00  0.3333333E+00  0.1339747E-14  0.1388889E-01
      1         -7.194162   1.000000
      2         -2.051468   1.000000
      3          0.875051   1.000000
      4          3.083249   1.000000
      5         15.860537   0.000000
      6         19.183692   0.000000
      7         26.576719   0.000000
      8         26.985271   0.000000
 
 -0.4166667E+00  0.3333333E+00  0.1325930E-14  0.1388889E-01
      1         -5.682472   1.000000
      2         -3.453397   1.000000
      3         -0.523148   1.000000
      4          3.444760   1.000000
      5         16.339226   0.000000
      6         21.921852   0.000000
      7         25.850287   0.000000
      8         27.018371   0.000000
 
 -0.3333333E+00  0.3333333E+00  0.1349279E-14  0.6944444E-02
      1         -6.298036   1.000000
      2         -2.838252   1.000000
      3         -1.028641   1.000000
      4          4.133398   1.000000
      5         17.019725   0.000000
      6         24.500802   0.000000
      7         26.108185   0.000000
      8         27.194480   0.000000
 
  0.4166667E+00  0.4166667E+00  0.1343030E-14  0.3472222E-02
      1         -7.649809   1.000000
      2         -1.812019   1.000000
      3          2.629729   1.000000
      4          2.629743   1.000000
      5         14.741410   0.000000
      6         16.484390   0.000000
      7         27.910383   0.000000
      8         28.025845   0.000000
 
  0.5000000E+00  0.4166667E+00  0.1204664E-14  0.1388889E-01
      1         -6.196057   1.000000
      2         -3.307529   1.000000
      3          1.753137   1.000000
      4          2.538746   1.000000
      5         15.319741   0.000000
      6         16.517855   0.000000
      7         28.233784   0.000000
      8         28.380319   0.000000
 
 -0.4166667E+00  0.4166667E+00  0.1364649E-14  0.6944444E-02
      1         -4.770816   1.000000
      2         -4.357203   1.000000
      3          0.206661   1.000000
      4          2.819266   1.000000
      5         15.738837   0.000000
      6         18.714494   0.000000
      7         27.506958   0.000000
      8         28.156503   0.000000
 
  0.5000000E+00  0.5000000E+00  0.1182712E-14  0.1736111E-02
      1         -4.867163   1.000000
      2         -4.867163   1.000000
      3          2.351732   1.000000
      4          2.351745   1.000000
      5         15.292452   0.000000
      6         15.292450   0.000000
      7         28.833538   0.000000
      8         28.952504   0.000000
 
  0.2500000E+00  0.1666667E+00  0.8333333E-01  0.1388889E-01
      1        -13.042345   1.000000
      2          4.896395   1.000000
      3          5.692970   1.000000
      4          7.844705   1.000000
      5         16.706323   0.000000
      6         19.867523   0.000000
      7         20.047163   0.000000
      8         24.593887   0.000000
 
  0.3333333E+00  0.1666667E+00  0.8333333E-01  0.2777778E-01
      1        -12.009779   1.000000
      2          2.253713   1.000000
      3          4.725896   1.000000
      4          7.111332   1.000000
      5         17.649951   0.000000
      6         20.388757   0.000000
      7         21.256689   0.000000
      8         24.304049   0.000000
 
  0.4166667E+00  0.1666667E+00  0.8333333E-01  0.2777778E-01
      1        -10.594683   1.000000
      2         -0.679188   1.000000
      3          4.276865   1.000000
      4          6.250569   1.000000
      5         18.520516   0.000000
      6         20.372500   0.000000
      7         21.994230   0.000000
      8         24.971855   0.000000
 
  0.5000000E+00  0.1666667E+00  0.8333333E-01  0.2777778E-01
      1         -8.884650   1.000000
      2         -3.372916   1.000000
      3          4.120630   1.000000
      4          5.550039   1.000000
      5         18.950394   0.000000
      6         20.159934   0.000000
      7         22.322881   0.000000
      8         26.295836   0.000000
 
 -0.4166667E+00  0.1666667E+00  0.8333333E-01  0.1388889E-01
      1         -7.625866   1.000000
      2         -4.969378   1.000000
      3          4.115507   1.000000
      4          5.259034   1.000000
      5         19.062690   0.000000
      6         20.052783   0.000000
      7         22.582011   0.000000
      8         27.139147   0.000000
 
  0.3333333E+00  0.2500000E+00  0.8333333E-01  0.1388889E-01
      1        -11.664736   1.000000
      2          2.938391   1.000000
      3          4.018588   1.000000
      4          5.750720   1.000000
      5         16.189212   0.000000
      6         21.823689   0.000000
      7         22.238391   0.000000
      8         22.947472   0.000000
 
  0.4166667E+00  0.2500000E+00  0.8333333E-01  0.2777778E-01
      1        -10.383170   1.000000
      2          0.569845   1.000000
      3          3.157674   1.000000
      4          4.941317   1.000000
      5         17.174576   0.000000
      6         21.559537   0.000000
      7         22.593657   0.000000
      8         24.128285   0.000000
 
  0.5000000E+00  0.2500000E+00  0.8333333E-01  0.2777778E-01
      1         -8.769358   1.000000
      2         -2.026978   1.000000
      3          2.704045   1.000000
      4          4.263346   1.000000
      5         17.886546   0.000000
      6         21.761507   0.000000
      7         23.493783   0.000000
      8         24.760213   0.000000
 
 -0.4166667E+00  0.2500000E+00  0.8333333E-01  0.2777778E-01
      1         -7.163030   1.000000
      2         -4.111200   1.000000
      3          2.252656   1.000000
      4          4.155064   1.000000
      5         18.322302   0.000000
      6         21.512775   0.000000
      7         24.846961   0.000000
      8         25.793966   0.000000
 
 -0.3333333E+00  0.2500000E+00  0.8333333E-01  0.2777778E-01
      1         -7.642232   1.000000
      2         -3.512204   1.000000
      3          1.886341   1.000000
      4          4.603024   1.000000
      5         18.841889   0.000000
      6         21.000307   0.000000
      7         24.775862   0.000000
      8         26.794306   0.000000
 
 -0.2500000E+00  0.2500000E+00  0.8333333E-01  0.2777778E-01
      1         -9.346894   1.000000
      2         -1.116354   1.000000
      3          1.815671   1.000000
      4          5.400942   1.000000
      5         19.488590   0.000000
      6         20.171212   0.000000
      7         24.361330   0.000000
      8         26.566383   0.000000
 
 -0.1666667E+00  0.2500000E+00  0.8333333E-01  0.1388889E-01
      1        -10.857265   1.000000
      2          1.239005   1.000000
      3          2.451229   1.000000
      4          6.340295   1.000000
      5         18.801270   0.000000
      6         20.229301   0.000000
      7         23.912043   0.000000
      8         23.846480   0.000000
 
  0.4166667E+00  0.3333333E+00  0.8333333E-01  0.1388889E-01
      1         -9.771599   1.000000
      2          0.830038   1.000000
      3          2.739714   1.000000
      4          3.606378   1.000000
      5         15.853137   0.000000
      6         19.342934   0.000000
      7         24.572837   0.000000
      8         25.748193   0.000000
 
  0.5000000E+00  0.3333333E+00  0.8333333E-01  0.2777778E-01
      1         -8.279727   1.000000
      2         -1.032524   1.000000
      3          1.610975   1.000000
      4          3.027742   1.000000
      5         16.839501   0.000000
      6         19.915046   0.000000
      7         24.518122   0.000000
      8         26.693772   0.000000
 
 -0.4166667E+00  0.3333333E+00  0.8333333E-01  0.2777778E-01
      1         -6.612247   1.000000
      2         -2.973059   1.000000
      3          0.526374   1.000000
      4          3.055437   1.000000
      5         17.391810   0.000000
      6         22.103428   0.000000
      7         24.188774   0.000000
      8         26.874126   0.000000
 
 -0.3333333E+00  0.3333333E+00  0.8333333E-01  0.2777778E-01
      1         -6.233537   1.000000
      2         -3.320846   1.000000
      3         -0.220658   1.000000
      4          3.560834   1.000000
      5         17.945488   0.000000
      6         23.198360   0.000000
      7         25.198939   0.000000
      8         26.019747   0.000000
 
 -0.2500000E+00  0.3333333E+00  0.8333333E-01  0.1388889E-01
      1         -7.789463   1.000000
      2         -1.683472   1.000000
      3         -0.163113   1.000000
      4          4.400126   1.000000
      5         18.710033   0.000000
      6         21.901331   0.000000
      7         25.028675   0.000000
      8         26.753960   0.000000
 
  0.5000000E+00  0.4166667E+00  0.8333333E-01  0.1388889E-01
      1         -7.414386   1.000000
      2         -1.810186   1.000000
      3          1.974700   1.000000
      4          2.271786   1.000000
      5         15.874029   0.000000
      6         17.499916   0.000000
      7         26.811987   0.000000
      8         27.933244   0.000000
 
 -0.4166667E+00  0.4166667E+00  0.8333333E-01  0.2777778E-01
      1         -5.805053   1.000000
      2         -3.178494   1.000000
      3          0.474435   1.000000
      4          2.235359   1.000000
      5         16.708178   0.000000
      6         18.929750   0.000000
      7         26.531043   0.000000
      8         27.779256   0.000000
 
 -0.3333333E+00  0.4166667E+00  0.8333333E-01  0.1388889E-01
      1         -4.992892   1.000000
      2         -3.682203   1.000000
      3         -0.828943   1.000000
      4          2.725154   1.000000
      5         17.208947   0.000000
      6         21.877353   0.000000
      7         25.543931   0.000000
      8         26.762569   0.000000
 
 -0.4166667E+00  0.5000000E+00  0.8333333E-01  0.6944444E-02
      1         -4.693005   1.000000
      2         -4.693005   1.000000
      3          1.790278   1.000000
      4          1.790290   1.000000
      5         16.382040   0.000000
      6         16.382045   0.000000
      7         28.245627   0.000000
      8         28.248593   0.000000
 
  0.5000000E+00  0.3333333E+00  0.1666667E+00  0.1388889E-01
      1         -9.004748   1.000000
      2         -0.348002   1.000000
      3          1.254839   1.000000
      4          4.016352   1.000000
      5         18.601810   0.000000
      6         20.868351   0.000000
      7         22.785652   0.000000
      8         25.847557   0.000000
 
 -0.4166667E+00  0.3333333E+00  0.1666667E+00  0.2777778E-01
      1         -7.355730   1.000000
      2         -2.270113   1.000000
      3          0.700254   1.000000
      4          3.146279   1.000000
      5         19.567221   0.000000
      6         20.952682   0.000000
      7         23.597300   0.000000
      8         26.786374   0.000000
 
 -0.3333333E+00  0.3333333E+00  0.1666667E+00  0.1388889E-01
      1         -6.161091   1.000000
      2         -3.667623   1.000000
      3          0.661282   1.000000
      4          2.782174   1.000000
      5         19.634311   0.000000
      6         21.167693   0.000000
      7         25.400375   0.000000
      8         25.612093   0.000000
 
 -0.4166667E+00  0.4166667E+00  0.1666667E+00  0.1388889E-01
      1         -6.742556   1.000000
      2         -2.043659   1.000000
      3          0.616318   1.000000
      4          1.831471   1.000000
      5         18.636412   0.000000
      6         19.917232   0.000000
      7         24.186894   0.000000
      8         27.380565   0.000000
 
 -0.3333333E+00  0.4166667E+00  0.1666667E+00  0.2777778E-01
      1         -5.241020   1.000000
      2         -3.254811   1.000000
      3         -0.247434   1.000000
      4          1.506513   1.000000
      5         19.464630   0.000000
      6         21.838130   0.000000
      7         23.893315   0.000000
      8         25.820307   0.000000
 
 -0.2500000E+00  0.4166667E+00  0.1666667E+00  0.1388889E-01
      1         -5.788236   1.000000
      2         -2.786846   1.000000
      3         -0.561599   1.000000
      4          2.094999   1.000000
      5         19.939561   0.000000
      6         22.021009   0.000000
      7         24.079406   0.000000
      8         25.424906   0.000000
 
 -0.3333333E+00  0.5000000E+00  0.1666667E+00  0.6944444E-02
      1         -4.272661   1.000000
      2         -4.272661   1.000000
      3          0.703494   1.000000
      4          0.703504   1.000000
      5         19.053152   0.000000
      6         19.053166   0.000000
      7         26.185977   0.000000
      8         26.186017   0.000000
 
 -0.2500000E+00  0.5000000E+00  0.2500000E+00  0.3472222E-02
      1         -4.004408   1.000000
      2         -4.004408   1.000000
      3          0.141916   1.000000
      4          0.141924   1.000000
      5         21.585740   0.000000
      6         21.585745   0.000000
      7         23.816621   0.000000
      8         23.816746   0.000000
