    2    2   30    1
  0.5000000E+03  0.1000000E-08  0.1000000E-08  0.1000000E-08  0.5000000E-15
  1.000000000000000E-004
  CAR 
 unknown system                          
     10      1     12
 
  0.1276756E-14  0.1276756E-14  0.1276756E-14  0.1000000E+01
      1        -28.053887   1.000000
      2        -13.407836   1.000000
      3        -11.412143   1.000000
      4        -11.412143   1.000000
      5        -10.037060   1.000000
      6         -2.005538   0.000000
      7         -2.005538   0.000000
      8         -0.199629   0.000000
      9          1.133141   0.000000
     10          1.133141   0.000000
     11          1.185329   0.000000
     12          1.272561   0.000000
