ANIMSTEPS    6
CRYSTAL
PRIMVEC
   -1.786102789    0.000000000    1.786102789
    0.000000000    1.786102789    1.786102789
   -1.786102789    1.786102789    0.000000000
PRIMCOORD    1
      2   1
   C      0.00000   0.00000   0.00000  -0.02659  -0.06317   0.01740
   C     -0.89444   0.89444   0.89444  -0.02659  -0.06317   0.01740
PRIMCOORD    2
      2   1
   C      0.00000   0.00000   0.00000  -0.06497   0.02299  -0.01584
   C     -0.89444   0.89444   0.89444  -0.06497   0.02299  -0.01584
PRIMCOORD    3
      2   1
   C      0.00000   0.00000   0.00000  -0.00849   0.02194   0.06668
   C     -0.89444   0.89444   0.89444  -0.00849   0.02194   0.06668
PRIMCOORD    4
      2   1
   C      0.00000   0.00000   0.00000   0.04082  -0.04082  -0.04082
   C     -0.89444   0.89444   0.89444  -0.04082   0.04082   0.04082
PRIMCOORD    5
      2   1
   C      0.00000   0.00000   0.00000  -0.02887   0.02887  -0.05774
   C     -0.89444   0.89444   0.89444   0.02887  -0.02887   0.05774
PRIMCOORD    6
      2   1
   C      0.00000   0.00000   0.00000  -0.05000  -0.05000   0.00000
   C     -0.89444   0.89444   0.89444   0.05000   0.05000   0.00000
