 vasp.6.5.1 10Mar25 (build Feb 13 2026 23:13:13) complex                        
  
 executed on             LinuxIFC date 2026.09.17  21:43:35
 running   28 mpi-ranks, with    1 threads/rank, on    1 nodes
 distrk:  each k-point on   28 cores,    1 groups
 distr:  one band on NCORE=   7 cores,    4 groups


--------------------------------------------------------------------------------------------------------


 INCAR:
   ALGO = Normal
   PREC = Normal
   LREAL = Auto
   EDIFF = 1e-06
   ENCUT = 500.0
   NELM = 100
   ISIF = 2
   IBRION = 2
   EDIFFG = -0.01
   NSW = 0
   ISMEAR = 0
   SIGMA = 0.005
   NUPDOWN = 2
   ISPIN = 2
   LWAVE = False
   LCHARG = False
   LORBIT = 10
   NELECT = 862.0
   NPAR = 4
   NCORE = 7

 POTCAR:    PAW_PBE C 08Apr2002                   
 POTCAR:    PAW_PBE N 08Apr2002                   
 -----------------------------------------------------------------------------
|                                                                             |
|           W    W    AA    RRRRR   N    N  II  N    N   GGGG   !!!           |
|           W    W   A  A   R    R  NN   N  II  NN   N  G    G  !!!           |
|           W    W  A    A  R    R  N N  N  II  N N  N  G       !!!           |
|           W WW W  AAAAAA  RRRRR   N  N N  II  N  N N  G  GGG   !            |
|           WW  WW  A    A  R   R   N   NN  II  N   NN  G    G                |
|           W    W  A    A  R    R  N    N  II  N    N   GGGG   !!!           |
|                                                                             |
|     You requested a magnetic or noncollinear calculation, but did not       |
|     specify the initial magnetic moment with the MAGMOM tag. Note that      |
|     a default of 9.302e-3 will be used for all atoms. This                  |
|     ferromagnetic setup may break the symmetry of the crystal, in           |
|     particular it may rule out finding an antiferromagnetic solution.       |
|     Thence, we recommend setting the initial magnetic moment manually       |
|     or verifying carefully that this magnetic setup is desired.             |
|                                                                             |
 -----------------------------------------------------------------------------

 POTCAR:    PAW_PBE C 08Apr2002                   
   SHA256 =  253f7b50bb8d59471dbedb8285d89021f4a42ed1a2c5d38a03a736e69125dd95 C/POTCAR              
   COPYR  = (c) Copyright 08Apr2002 Georg Kresse                                                    
   COPYR  = This file is part of the software VASP. Any use, copying, and all other rights are regul
   COPYR  = If you do not have a valid VASP license, you may not use, copy or distribute this file. 
   VRHFIN =C: s2p2                                                                                  
   LEXCH  = PE                                                                                      
   EATOM  =   147.1560 eV,   10.8157 Ry                                                             
                                                                                                    
   TITEL  = PAW_PBE C 08Apr2002                                                                     
   LULTRA =        F    use ultrasoft PP ?                                                          
   IUNSCR =        1    unscreen: 0-lin 1-nonlin 2-no                                               
   RPACOR =    1.200    partial core radius                                                         
   POMASS =   12.011; ZVAL   =    4.000    mass and valenz                                          
   RCORE  =    1.500    outmost cutoff radius                                                       
   RWIGS  =    1.630; RWIGS  =    0.863    wigner-seitz radius (au A)                               
   ENMAX  =  400.000; ENMIN  =  300.000 eV                                                          
   ICORE  =        2    local potential                                                             
   LCOR   =        T    correct aug charges                                                         
   LPAW   =        T    paw PP                                                                      
   EAUG   =  644.873                                                                                
   DEXC   =    0.000                                                                                
   RMAX   =    1.529    core radius for proj-oper                                                   
   RAUG   =    1.300    factor for augmentation sphere                                              
   RDEP   =    1.501    radius for radial grids                                                     
   RDEPT  =    1.300    core radius for aug-charge                                                  
                                                                                                    
   Atomic configuration                                                                             
    4 entries                                                                                       
     n  l   j            E        occ.                                                              
     1  0  0.50      -273.3789   2.0000                                                             
     2  0  0.50       -13.7508   2.0000                                                             
     2  1  0.50        -5.2854   2.0000                                                             
     3  2  1.50        -5.4423   0.0000                                                             
   Description                                                                                      
     l       E           TYP  RCUT    TYP  RCUT                                                     
     0    -13.7508458     23  1.200                                                                 
     0     -8.2022199     23  1.200                                                                 
     1     -5.2854383     23  1.500                                                                 
     1     34.0145650     23  1.500                                                                 
     2     -5.4423304      7  1.500                                                                 
  local pseudopotential read in
  partial core-charges read in
  partial kinetic energy density read in
  atomic valenz-charges read in
  non local Contribution for L=           0  read in
    real space projection operators read in
  non local Contribution for L=           0  read in
    real space projection operators read in
  non local Contribution for L=           1  read in
    real space projection operators read in
  non local Contribution for L=           1  read in
    real space projection operators read in
    PAW grid and wavefunctions read in
 
   number of l-projection  operators is LMAX  =           4
   number of lm-projection operators is LMMAX =           8
 
 POTCAR:    PAW_PBE N 08Apr2002                   
   SHA256 =  e053789ff3a61a86a1b75d8a110fcc91f86041011e7b0817c7c99e4e8a6349d7 N/POTCAR              
   COPYR  = (c) Copyright 08Apr2002 Georg Kresse                                                    
   COPYR  = This file is part of the software VASP. Any use, copying, and all other rights are regul
   COPYR  = If you do not have a valid VASP license, you may not use, copy or distribute this file. 
   VRHFIN =N: s2p3                                                                                  
   LEXCH  = PE                                                                                      
   EATOM  =   264.5486 eV,   19.4438 Ry                                                             
                                                                                                    
   TITEL  = PAW_PBE N 08Apr2002                                                                     
   LULTRA =        F    use ultrasoft PP ?                                                          
   IUNSCR =        1    unscreen: 0-lin 1-nonlin 2-no                                               
   RPACOR =    1.200    partial core radius                                                         
   POMASS =   14.001; ZVAL   =    5.000    mass and valenz                                          
   RCORE  =    1.500    outmost cutoff radius                                                       
   RWIGS  =    1.400; RWIGS  =    0.741    wigner-seitz radius (au A)                               
   ENMAX  =  400.000; ENMIN  =  300.000 eV                                                          
   ICORE  =        2    local potential                                                             
   LCOR   =        T    correct aug charges                                                         
   LPAW   =        T    paw PP                                                                      
   EAUG   =  627.112                                                                                
   DEXC   =    0.000                                                                                
   RMAX   =    1.529    core radius for proj-oper                                                   
   RAUG   =    1.300    factor for augmentation sphere                                              
   RDEP   =    1.514    radius for radial grids                                                     
   RDEPT  =    1.338    core radius for aug-charge                                                  
                                                                                                    
   Atomic configuration                                                                             
    4 entries                                                                                       
     n  l   j            E        occ.                                                              
     1  0  0.50      -384.7179   2.0000                                                             
     2  0  0.50       -18.5828   2.0000                                                             
     2  1  0.50        -7.0898   3.0000                                                             
     3  2  1.50        -6.8029   0.0000                                                             
   Description                                                                                      
     l       E           TYP  RCUT    TYP  RCUT                                                     
     0    -18.5828119     23  1.200                                                                 
     0    -13.5018863     23  1.200                                                                 
     1     -7.0897853     23  1.500                                                                 
     1      9.5240782     23  1.500                                                                 
     2     -6.8029130      7  1.500                                                                 
  local pseudopotential read in
  partial core-charges read in
  partial kinetic energy density read in
  atomic valenz-charges read in
  non local Contribution for L=           0  read in
    real space projection operators read in
  non local Contribution for L=           0  read in
    real space projection operators read in
  non local Contribution for L=           1  read in
    real space projection operators read in
  non local Contribution for L=           1  read in
    real space projection operators read in
    PAW grid and wavefunctions read in
 
   number of l-projection  operators is LMAX  =           4
   number of lm-projection operators is LMMAX =           8
 
 Optimization of the real space projectors (new method)

 maximal supplied QI-value         = 25.13
 optimisation between [QCUT,QGAM] = [ 11.31, 22.87] = [ 35.82,146.48] Ry 
 Optimized for a Real-space Cutoff    1.00 Angstroem

   l    n(q)    QCUT    max X(q) W(low)/X(q) W(high)/X(q)  e(spline) 
   0      7    11.310   115.676    0.43E-03    0.13E-02    0.19E-06
   0      7    11.310    87.132    0.43E-03    0.13E-02    0.18E-06
   1      6    11.310     4.429    0.42E-03    0.74E-03    0.11E-06
   1      6    11.310     2.733    0.34E-03    0.55E-03    0.92E-07
 Optimization of the real space projectors (new method)

 maximal supplied QI-value         = 25.13
 optimisation between [QCUT,QGAM] = [ 11.31, 22.87] = [ 35.82,146.48] Ry 
 Optimized for a Real-space Cutoff    1.27 Angstroem

   l    n(q)    QCUT    max X(q) W(low)/X(q) W(high)/X(q)  e(spline) 
   0      9    11.310    79.467    0.75E-04    0.16E-03    0.36E-06
   0      9    11.310    66.151    0.74E-04    0.16E-03    0.36E-06
   1      8    11.310    17.416    0.35E-03    0.12E-03    0.95E-06
   1      8    11.310    12.382    0.37E-03    0.13E-03    0.98E-06
  PAW_PBE C 08Apr2002                   :
 energy of atom  1       EATOM= -147.1560
 kinetic energy error for atom=    0.0076 (will be added to EATOM!!)
  PAW_PBE N 08Apr2002                   :
 energy of atom  2       EATOM= -264.5486
 kinetic energy error for atom=    0.0138 (will be added to EATOM!!)
 
 
 POSCAR: C  N
  positions in direct lattice
  velocities in cartesian coordinates


 exchange-correlation table for PE
   RHO(1)=    0.500       N(1)  =     2000
   RHO(2)=  100.500       N(2)  =     4000
 


--------------------------------------------------------------------------------------------------------


 ion  position               nearest neighbor table
   1  0.083  0.083  0.083- 135 1.54 189 1.55 108 1.55 162 1.55
   2  0.084  0.083  0.417- 163 1.55 190 1.55 109 1.55 136 1.55
   3  0.083  0.083  0.750- 137 1.54 110 1.55 191 1.55 164 1.55
   4  0.084  0.417  0.083- 192 1.54 138 1.54 111 1.55 165 1.55
   5  0.083  0.417  0.417- 112 1.55 139 1.55 166 1.55 193 1.55
   6  0.083  0.417  0.750- 194 1.55 140 1.55 113 1.55 167 1.55
   7  0.084  0.750  0.083- 141 1.55 114 1.55 168 1.55 195 1.55
   8  0.084  0.750  0.416- 142 1.55 196 1.55 115 1.55 169 1.55
   9  0.084  0.750  0.750- 143 1.55 116 1.55 170 1.55 197 1.55
  10  0.417  0.083  0.084- 144 1.54 171 1.55 198 1.55 117 1.55
  11  0.417  0.084  0.417- 172 1.55 199 1.55 118 1.55 145 1.55
  12  0.416  0.082  0.751- 146 1.54 173 1.55 119 1.55 200 1.55
  13  0.417  0.417  0.084- 201 1.55 147 1.55 174 1.55 120 1.55
  14  0.419  0.417  0.419- 202 1.54 148 1.55 175 1.56 121 1.56
  15  0.415  0.416  0.752- 203 1.54 149 1.55 176 1.55 122 1.55
  16  0.417  0.750  0.083- 150 1.55 177 1.55 123 1.55 204 1.55
  17  0.417  0.750  0.417- 205 1.54 124 1.55 151 1.55 178 1.56
  18  0.417  0.749  0.749- 179 1.54 125 1.54 152 1.55 206 1.55
  19  0.750  0.083  0.083- 126 1.55 207 1.55 180 1.55 153 1.55
  20  0.750  0.084  0.417- 181 1.55 127 1.55 154 1.55 208 1.55
  21  0.749  0.084  0.750- 128 1.55 209 1.55 182 1.55 155 1.55
  22  0.750  0.417  0.083- 183 1.55 156 1.55 129 1.55 210 1.55
  23  0.756  0.413  0.410- 157 1.49 184 1.50 130 1.50
  24  0.748  0.417  0.748- 211 1.54 158 1.55 131 1.56 185 1.56
  25  0.750  0.750  0.083- 159 1.55 212 1.55 186 1.55 132 1.55
  26  0.750  0.750  0.416- 213 1.54 160 1.55 187 1.55 133 1.55
  27  0.750  0.750  0.750- 214 1.54 188 1.55 161 1.55 134 1.56
  28  0.250  0.250  0.084- 120 1.54 165 1.55 198 1.55 135 1.55
  29  0.250  0.250  0.417- 166 1.55 199 1.55 136 1.55 121 1.55
  30  0.249  0.249  0.751- 122 1.54 137 1.55 167 1.55 200 1.55
  31  0.250  0.583  0.083- 138 1.55 201 1.55 168 1.55 123 1.55
  32  0.250  0.583  0.417- 139 1.55 169 1.55 124 1.55 202 1.55
  33  0.250  0.583  0.750- 140 1.55 203 1.55 170 1.55 125 1.55
  34  0.250  0.917  0.083- 117 1.54 204 1.55 162 1.55 141 1.55
  35  0.250  0.917  0.417- 163 1.55 205 1.55 142 1.55 118 1.55
  36  0.250  0.916  0.750- 119 1.54 143 1.55 206 1.55 164 1.55
  37  0.583  0.250  0.084- 207 1.55 129 1.55 174 1.55 144 1.55
  38  0.584  0.252  0.419- 208 1.54 130 1.55 175 1.56 145 1.56
  39  0.582  0.248  0.752- 209 1.54 131 1.55 146 1.55 176 1.55
  40  0.584  0.583  0.083- 177 1.55 132 1.55 147 1.55 210 1.55
  41  0.579  0.590  0.410- 133 1.49 148 1.50 178 1.50
  42  0.584  0.581  0.748- 211 1.54 134 1.55 149 1.56 179 1.56
  43  0.584  0.917  0.083- 212 1.54 126 1.54 171 1.55 150 1.55
  44  0.584  0.917  0.417- 151 1.55 127 1.55 172 1.55 213 1.55
  45  0.583  0.916  0.750- 214 1.55 128 1.55 152 1.55 173 1.55
  46  0.916  0.250  0.083- 111 1.55 183 1.55 153 1.55 189 1.55
  47  0.917  0.250  0.417- 190 1.54 154 1.55 112 1.55 184 1.56
  48  0.916  0.251  0.749- 155 1.54 185 1.54 113 1.55 191 1.55
  49  0.917  0.584  0.083- 114 1.55 192 1.55 186 1.55 156 1.55
  50  0.916  0.584  0.416- 193 1.54 115 1.55 187 1.55 157 1.55
  51  0.917  0.583  0.750- 194 1.54 188 1.55 116 1.55 158 1.56
  52  0.917  0.917  0.083- 108 1.55 159 1.55 180 1.55 195 1.55
  53  0.917  0.917  0.416- 109 1.55 196 1.55 160 1.55 181 1.55
  54  0.916  0.917  0.750- 110 1.55 161 1.55 182 1.55 197 1.55
  55  0.250  0.084  0.250- 198 1.55 118 1.55 136 1.55 162 1.55
  56  0.250  0.083  0.584- 163 1.54 199 1.54 119 1.55 137 1.55
  57  0.250  0.083  0.917- 200 1.54 117 1.55 164 1.55 135 1.55
  58  0.251  0.417  0.251- 139 1.55 201 1.55 165 1.55 121 1.55
  59  0.250  0.416  0.584- 140 1.55 166 1.55 122 1.55 202 1.55
  60  0.250  0.416  0.917- 138 1.54 203 1.54 120 1.55 167 1.55
  61  0.250  0.750  0.250- 204 1.55 168 1.55 142 1.55 124 1.55
  62  0.251  0.749  0.583- 169 1.55 205 1.55 143 1.55 125 1.55
  63  0.250  0.750  0.916- 206 1.55 123 1.55 170 1.55 141 1.55
  64  0.584  0.084  0.251- 127 1.55 207 1.55 171 1.55 145 1.55
  65  0.583  0.083  0.584- 172 1.55 128 1.55 146 1.55 208 1.55
  66  0.583  0.083  0.917- 126 1.54 209 1.54 173 1.55 144 1.55
  67  0.584  0.417  0.251- 148 1.55 130 1.55 210 1.55 174 1.55
  68  0.583  0.416  0.917- 147 1.55 129 1.55 176 1.55 211 1.55
  69  0.584  0.751  0.249- 212 1.54 177 1.55 151 1.55 133 1.56
  70  0.584  0.749  0.583- 178 1.55 134 1.55 213 1.55 152 1.55
  71  0.584  0.749  0.916- 132 1.55 214 1.55 150 1.55 179 1.55
  72  0.917  0.084  0.250- 189 1.55 109 1.55 180 1.55 154 1.55
  73  0.916  0.084  0.583- 181 1.55 190 1.55 110 1.55 155 1.55
  74  0.916  0.084  0.916- 191 1.55 182 1.55 153 1.55 108 1.55
  75  0.918  0.417  0.249- 192 1.54 112 1.55 183 1.55 157 1.56
  76  0.916  0.417  0.583- 158 1.55 184 1.55 193 1.55 113 1.55
  77  0.916  0.417  0.916- 156 1.55 194 1.55 111 1.55 185 1.55
  78  0.917  0.750  0.250- 195 1.55 115 1.55 186 1.55 160 1.55
  79  0.918  0.751  0.583- 196 1.54 116 1.55 161 1.55 187 1.56
  80  0.917  0.750  0.916- 197 1.55 114 1.55 159 1.55 188 1.55
  81  0.084  0.250  0.250- 165 1.55 112 1.55 136 1.55 189 1.55
  82  0.083  0.250  0.583- 190 1.55 166 1.55 113 1.55 137 1.55
  83  0.083  0.250  0.917- 167 1.54 111 1.55 191 1.55 135 1.55
  84  0.084  0.584  0.250- 168 1.55 192 1.55 115 1.55 139 1.55
  85  0.083  0.583  0.583- 116 1.55 169 1.55 140 1.55 193 1.55
  86  0.084  0.583  0.917- 138 1.55 194 1.55 114 1.55 170 1.55
  87  0.084  0.917  0.250- 162 1.55 109 1.55 142 1.55 195 1.55
  88  0.084  0.917  0.583- 196 1.54 163 1.54 110 1.55 143 1.55
  89  0.083  0.917  0.917- 164 1.54 197 1.55 108 1.55 141 1.55
  90  0.417  0.251  0.251- 145 1.54 121 1.54 174 1.55 198 1.55
  91  0.415  0.248  0.584- 199 1.54 175 1.55 146 1.55 122 1.55
  92  0.416  0.249  0.918- 176 1.54 144 1.55 120 1.55 200 1.55
  93  0.417  0.583  0.250- 201 1.54 124 1.55 177 1.55 148 1.56
  94  0.419  0.581  0.583- 202 1.54 178 1.55 149 1.56 125 1.56
  95  0.417  0.583  0.916- 147 1.55 203 1.55 123 1.55 179 1.55
  96  0.417  0.917  0.250- 171 1.55 151 1.55 118 1.55 204 1.55
  97  0.417  0.916  0.583- 205 1.55 172 1.55 152 1.55 119 1.55
  98  0.417  0.916  0.917- 173 1.54 150 1.55 206 1.55 117 1.55
  99  0.750  0.250  0.250- 207 1.54 154 1.55 183 1.55 130 1.56
 100  0.748  0.252  0.583- 208 1.54 184 1.55 131 1.56 155 1.56
 101  0.749  0.250  0.916- 129 1.55 209 1.55 153 1.55 185 1.55
 102  0.750  0.584  0.250- 210 1.54 186 1.55 157 1.55 133 1.55
 103  0.756  0.590  0.587- 187 1.49 158 1.50 134 1.50
 104  0.750  0.583  0.916- 156 1.55 132 1.55 188 1.55 211 1.55
 105  0.750  0.917  0.250- 180 1.55 212 1.55 160 1.55 127 1.55
 106  0.750  0.917  0.583- 161 1.55 181 1.55 128 1.55 213 1.55
 107  0.750  0.917  0.917- 126 1.55 214 1.55 159 1.55 182 1.55
 108  1.000  0.000  1.000-  52 1.55   1 1.55  89 1.55  74 1.55
 109  0.000  0.000  0.333-  53 1.55  72 1.55   2 1.55  87 1.55
 110  1.000  0.000  0.667-   3 1.55  54 1.55  73 1.55  88 1.55
 111  1.000  0.333  1.000-  83 1.55  46 1.55  77 1.55   4 1.55
 112  0.000  0.334  0.333-  81 1.55   5 1.55  75 1.55  47 1.55
 113  0.999  0.334  0.666-  48 1.55   6 1.55  82 1.55  76 1.55
 114  0.000  0.667  1.000-  49 1.55  80 1.55  86 1.55   7 1.55
 115  0.000  0.667  0.333-  50 1.55  78 1.55   8 1.55  84 1.55
 116  0.000  0.667  0.666-   9 1.55  85 1.55  79 1.55  51 1.55
 117  0.333  1.000  0.000-  34 1.54  57 1.55  10 1.55  98 1.55
 118  0.334  0.000  0.334-  55 1.55  96 1.55  35 1.55  11 1.55
 119  0.333  0.999  0.667-  36 1.54  12 1.55  97 1.55  56 1.55
 120  0.333  0.333  0.001-  28 1.54  92 1.55  13 1.55  60 1.55
 121  0.335  0.334  0.335-  90 1.54  29 1.55  58 1.55  14 1.56
 122  0.332  0.333  0.667-  30 1.54  59 1.55  15 1.55  91 1.55
 123  0.334  0.666  1.000-  63 1.55  16 1.55  31 1.55  95 1.55
 124  0.334  0.667  0.333-  17 1.55  93 1.55  32 1.55  61 1.55
 125  0.335  0.665  0.666-  18 1.54  33 1.55  62 1.55  94 1.56
 126  0.667  0.000  1.000-  43 1.54  66 1.54  19 1.55 107 1.55
 127  0.667  0.000  0.334-  64 1.55  20 1.55  44 1.55 105 1.55
 128  0.666  1.000  0.667-  65 1.55  21 1.55 106 1.55  45 1.55
 129  0.666  0.333  0.000-  68 1.55 101 1.55  22 1.55  37 1.55
 130  0.668  0.335  0.335-  23 1.50  67 1.55  38 1.55  99 1.56
 131  0.662  0.333  0.667- 215 1.47  39 1.55 100 1.56  24 1.56
 132  0.667  0.666  1.000-  71 1.55 104 1.55  40 1.55  25 1.55
 133  0.666  0.667  0.333-  41 1.49  26 1.55 102 1.55  69 1.56
 134  0.668  0.665  0.665- 103 1.50  70 1.55  42 1.55  27 1.56
 135  0.166  0.167  0.000-   1 1.54  57 1.55  28 1.55  83 1.55
 136  0.167  0.167  0.334-  55 1.55  81 1.55   2 1.55  29 1.55
 137  0.166  0.166  0.667-   3 1.54  30 1.55  82 1.55  56 1.55
 138  0.167  0.500  1.000-   4 1.54  60 1.54  31 1.55  86 1.55
 139  0.167  0.500  0.334-  58 1.55  32 1.55   5 1.55  84 1.55
 140  0.166  0.500  0.667-  59 1.55  33 1.55  85 1.55   6 1.55
 141  0.167  0.833  1.000-   7 1.55  34 1.55  89 1.55  63 1.55
 142  0.167  0.833  0.333-   8 1.55  61 1.55  35 1.55  87 1.55
 143  0.167  0.833  0.667-  36 1.55   9 1.55  62 1.55  88 1.55
 144  0.500  0.166  0.001-  10 1.54  92 1.55  37 1.55  66 1.55
 145  0.500  0.168  0.335-  90 1.54  11 1.55  64 1.55  38 1.56
 146  0.499  0.166  0.667-  12 1.54  65 1.55  39 1.55  91 1.55
 147  0.500  0.500  0.000-  68 1.55  95 1.55  40 1.55  13 1.55
 148  0.502  0.501  0.335-  41 1.50  67 1.55  14 1.55  93 1.56
 149  0.500  0.496  0.667- 215 1.47  15 1.55  42 1.56  94 1.56
 150  0.500  0.833  1.000-  98 1.55  16 1.55  71 1.55  43 1.55
 151  0.500  0.833  0.333-  96 1.55  44 1.55  69 1.55  17 1.55
 152  0.501  0.832  0.666-  18 1.55  45 1.55  97 1.55  70 1.55
 153  0.833  0.167  1.000-  74 1.55  46 1.55  19 1.55 101 1.55
 154  0.833  0.167  0.333-  99 1.55  47 1.55  20 1.55  72 1.55
 155  0.832  0.168  0.666-  48 1.54  21 1.55  73 1.55 100 1.56
 156  0.833  0.500  1.000-  77 1.55 104 1.55  22 1.55  49 1.55
 157  0.833  0.500  0.333-  23 1.49 102 1.55  50 1.55  75 1.56
 158  0.832  0.501  0.665- 103 1.50  76 1.55  24 1.55  51 1.56
 159  0.833  0.833  1.000-  25 1.55  80 1.55 107 1.55  52 1.55
 160  0.833  0.833  0.333-  26 1.55  78 1.55 105 1.55  53 1.55
 161  0.833  0.833  0.666-  54 1.55 106 1.55  79 1.55  27 1.55
 162  0.167  0.000  0.167-  87 1.55  34 1.55   1 1.55  55 1.55
 163  0.167  0.000  0.500-  88 1.54  56 1.54  35 1.55   2 1.55
 164  0.166  1.000  0.833-  89 1.54  57 1.55  36 1.55   3 1.55
 165  0.167  0.333  0.167-  28 1.55  81 1.55  58 1.55   4 1.55
 166  0.166  0.333  0.500-  59 1.55  29 1.55   5 1.55  82 1.55
 167  0.166  0.333  0.834-  83 1.54  30 1.55   6 1.55  60 1.55
 168  0.167  0.667  0.167-  84 1.55  61 1.55  31 1.55   7 1.55
 169  0.167  0.666  0.500-  62 1.55  32 1.55  85 1.55   8 1.55
 170  0.167  0.666  0.833-  63 1.55   9 1.55  86 1.55  33 1.55
 171  0.500  0.000  0.167-  10 1.55  96 1.55  64 1.55  43 1.55
 172  0.500  1.000  0.500-  65 1.55  11 1.55  44 1.55  97 1.55
 173  0.500  0.999  0.834-  98 1.54  12 1.55  45 1.55  66 1.55
 174  0.501  0.334  0.168-  90 1.55  37 1.55  13 1.55  67 1.55
 175  0.500  0.333  0.504- 215 1.47  91 1.55  38 1.56  14 1.56
 176  0.499  0.333  0.834-  92 1.54  68 1.55  39 1.55  15 1.55
 177  0.500  0.667  0.167-  16 1.55  40 1.55  69 1.55  93 1.55
 178  0.502  0.665  0.499-  41 1.50  70 1.55  94 1.55  17 1.56
 179  0.500  0.665  0.832-  18 1.54  95 1.55  71 1.55  42 1.56
 180  0.833  0.000  0.167- 105 1.55  72 1.55  19 1.55  52 1.55
 181  0.833  0.000  0.500-  73 1.55  20 1.55 106 1.55  53 1.55
 182  0.833  0.000  0.833-  74 1.55  54 1.55 107 1.55  21 1.55
 183  0.833  0.334  0.167-  46 1.55  22 1.55  75 1.55  99 1.55
 184  0.832  0.335  0.499-  23 1.50  76 1.55 100 1.55  47 1.56
 185  0.832  0.334  0.832-  48 1.54 101 1.55  77 1.55  24 1.56
 186  0.833  0.667  0.167- 102 1.55  78 1.55  25 1.55  49 1.55
 187  0.833  0.667  0.500- 103 1.49  26 1.55  50 1.55  79 1.56
 188  0.833  0.667  0.833-  27 1.55  51 1.55 104 1.55  80 1.55
 189  1.000  0.167  0.167-  72 1.55   1 1.55  81 1.55  46 1.55
 190  0.000  0.167  0.500-  47 1.54  82 1.55   2 1.55  73 1.55
 191  0.999  0.167  0.833-  74 1.55   3 1.55  83 1.55  48 1.55
 192  0.001  0.500  0.166-  75 1.54   4 1.54  84 1.55  49 1.55
 193  1.000  0.500  0.500-  50 1.54  76 1.55   5 1.55  85 1.55
 194  0.000  0.500  0.833-  51 1.54   6 1.55  86 1.55  77 1.55
 195  0.000  0.833  0.167-  78 1.55   7 1.55  87 1.55  52 1.55
 196  0.001  0.834  0.500-  79 1.54  88 1.54   8 1.55  53 1.55
 197  1.000  0.833  0.833-  80 1.55  89 1.55   9 1.55  54 1.55
 198  0.334  0.167  0.167-  55 1.55  28 1.55  10 1.55  90 1.55
 199  0.333  0.166  0.501-  91 1.54  56 1.54  29 1.55  11 1.55
 200  0.333  0.166  0.834-  57 1.54  30 1.55  12 1.55  92 1.55
 201  0.333  0.500  0.167-  93 1.54  13 1.55  31 1.55  58 1.55
 202  0.334  0.500  0.500-  14 1.54  94 1.54  32 1.55  59 1.55
 203  0.333  0.499  0.834-  15 1.54  60 1.54  33 1.55  95 1.55
 204  0.334  0.833  0.167-  61 1.55  34 1.55  16 1.55  96 1.55
 205  0.333  0.833  0.500-  17 1.54  97 1.55  35 1.55  62 1.55
 206  0.334  0.833  0.833-  63 1.55  36 1.55  98 1.55  18 1.55
 207  0.667  0.167  0.167-  99 1.54  37 1.55  19 1.55  64 1.55
 208  0.666  0.167  0.500- 100 1.54  38 1.54  20 1.55  65 1.55
 209  0.666  0.166  0.834-  39 1.54  66 1.54  21 1.55 101 1.55
 210  0.667  0.500  0.167- 102 1.54  67 1.55  22 1.55  40 1.55
 211  0.666  0.500  0.833-  24 1.54  42 1.54 104 1.55  68 1.55
 212  0.667  0.834  0.166-  69 1.54  43 1.54  25 1.55 105 1.55
 213  0.667  0.833  0.500-  26 1.54  70 1.55 106 1.55  44 1.55
 214  0.667  0.833  0.833-  27 1.54  45 1.55 107 1.55  71 1.55
 215  0.576  0.409  0.591- 149 1.47 175 1.47 131 1.47
 
  LATTYP: Found a simple cubic cell.
 ALAT       =    10.7211360931
  
  Lattice vectors:
  
 A1 = (  10.7211360931,   0.0000000000,   0.0000000000)
 A2 = (   0.0000000000,  10.7211360931,   0.0000000000)
 A3 = (   0.0000000000,   0.0000000000,  10.7211360931)


Analysis of symmetry for initial positions (statically):
=====================================================================
 Subroutine PRICEL returns:
 Original cell was already a primitive cell.
 

 Routine SETGRP: Setting up the symmetry group for a 
 simple cubic supercell.


 Subroutine GETGRP returns: Found  6 space group operations
 (whereof  2 operations were pure point group operations)
 out of a pool of 48 trial point group operations.


The static configuration has the point symmetry C_1h.
 The point group associated with its full space group is C_3v.


Analysis of symmetry for dynamics (positions and initial velocities):
=====================================================================
 Subroutine PRICEL returns:
 Original cell was already a primitive cell.
 

 Routine SETGRP: Setting up the symmetry group for a 
 simple cubic supercell.


 Subroutine GETGRP returns: Found  6 space group operations
 (whereof  2 operations were pure point group operations)
 out of a pool of 48 trial point group operations.


The dynamic configuration has the point symmetry C_1h.
 The point group associated with its full space group is C_3v.


Analysis of structural, dynamic, and magnetic symmetry:
=====================================================================
 Subroutine PRICEL returns:
 Original cell was already a primitive cell.
 

 Routine SETGRP: Setting up the symmetry group for a 
 simple cubic supercell.


 Subroutine GETGRP returns: Found  6 space group operations
 (whereof  2 operations were pure point group operations)
 out of a pool of 48 trial point group operations.


The overall configuration has the point symmetry C_1h.
 The point group associated with its full space group is C_3v.


 Subroutine INISYM returns: Found  6 space group operations
 (whereof  2 operations are pure point group operations),
 and found     1 'primitive' translations


----------------------------------------------------------------------------------------

                                     Primitive cell                                     

  volume of cell :    1232.3170

  direct lattice vectors                    reciprocal lattice vectors
    10.721136093  0.000000000  0.000000000     0.093273697  0.000000000  0.000000000
     0.000000000 10.721136093  0.000000000     0.000000000  0.093273697  0.000000000
     0.000000000  0.000000000 10.721136093     0.000000000  0.000000000  0.093273697

  length of vectors
    10.721136093 10.721136093 10.721136093     0.093273697  0.093273697  0.093273697

  position of ions in fractional coordinates (direct lattice)
     0.083231475  0.083452639  0.083435191
     0.083521668  0.083421590  0.416781214
     0.082754456  0.083329391  0.750005005
     0.083633024  0.416846194  0.083033642
     0.083345317  0.416936421  0.416688580
     0.082854850  0.416636819  0.749855444
     0.083501631  0.750058278  0.083165035
     0.083720262  0.750183224  0.416473913
     0.083503411  0.749828285  0.749734889
     0.416661662  0.083329391  0.083912210
     0.416779281  0.083507400  0.417198115
     0.416099185  0.082446218  0.750567482
     0.416811223  0.416636819  0.083811816
     0.418535237  0.417489884  0.418552100
     0.415150623  0.415808247  0.751516044
     0.416931778  0.749828285  0.083163255
     0.416505422  0.750431407  0.416864824
     0.417216182  0.749041102  0.749450485
     0.749885453  0.083421590  0.083144998
     0.749923474  0.083824912  0.416743193
     0.749468552  0.083507400  0.749887386
     0.749978087  0.416936421  0.083321349
     0.756453576  0.412648380  0.410213091
     0.748114567  0.417489884  0.748131430
     0.750192754  0.750183224  0.082946404
     0.750205360  0.749809274  0.416461307
     0.749801843  0.750431407  0.750161245
     0.249996058  0.249994995  0.083912210
     0.250174067  0.250112614  0.417198115
     0.249112885  0.249432518  0.750567482
     0.250088257  0.583218786  0.083144998
     0.250491579  0.583256807  0.416743193
     0.250174067  0.582801885  0.749887386
     0.250119306  0.916564809  0.083435191
     0.250088257  0.916855002  0.416781214
     0.249996058  0.916087790  0.750005005
     0.583303485  0.250144556  0.083811816
     0.584156550  0.251868570  0.418552100
     0.582474913  0.248483956  0.751516044
     0.583603087  0.583311420  0.083321349
     0.579315046  0.589786909  0.410213091
     0.584156550  0.581447900  0.748131430
     0.583512860  0.916966358  0.083033642
     0.583603087  0.916678651  0.416688580
     0.583303485  0.916188184  0.749855444
     0.916494952  0.250265111  0.083163255
     0.917098074  0.249838755  0.416864824
     0.915707769  0.250549515  0.749450485
     0.916849891  0.583526087  0.082946404
     0.916475941  0.583538693  0.416461307
     0.917098074  0.583135176  0.750161245
     0.916724945  0.916834965  0.083165035
     0.916849891  0.917053596  0.416473913
     0.916494952  0.916836745  0.749734889
     0.250207632  0.083540965  0.250338936
     0.249532046  0.082865379  0.583639454
     0.249641379  0.082974712  0.917025288
     0.250654766  0.416891571  0.250646242
     0.249841602  0.416396983  0.583603017
     0.249532046  0.416360546  0.917134621
     0.250329263  0.750048439  0.249951561
     0.250654766  0.749353758  0.583108429
     0.250207632  0.749661064  0.916459035
     0.583558237  0.083988099  0.250646242
     0.583063649  0.083174935  0.583603017
     0.583027212  0.082865379  0.917134621
     0.584101444  0.417434778  0.251024151
     0.583063649  0.416396983  0.916825065
     0.584063768  0.751136627  0.248863373
     0.584101444  0.748975849  0.582565222
     0.583558237  0.749353758  0.916011901
     0.916715106  0.083662596  0.249951561
     0.916020425  0.083988099  0.583108429
     0.916327731  0.083540965  0.916459035
     0.917803294  0.417397102  0.248863373
     0.915642516  0.417434778  0.582565222
     0.916020425  0.416891571  0.916011901
     0.916842550  0.750175883  0.249824117
     0.917803294  0.751136627  0.582602898
     0.916715106  0.750048439  0.916337404
     0.083503411  0.250265111  0.250171715
     0.082854850  0.250144556  0.583363181
     0.082754456  0.249994995  0.916670609
     0.083720262  0.583526087  0.249816776
     0.083345317  0.583311420  0.583063579
     0.083521668  0.583218786  0.916578410
     0.083501631  0.916834965  0.249941722
     0.083633024  0.916966358  0.583153806
     0.083231475  0.916564809  0.916547361
     0.417216182  0.250549515  0.250958898
     0.415150623  0.248483956  0.584191753
     0.416099185  0.249432518  0.917553782
     0.416505422  0.583135176  0.249568593
     0.418535237  0.581447900  0.582510116
     0.416779281  0.582801885  0.916492600
     0.416931778  0.916836745  0.250171715
     0.416811223  0.916188184  0.583363181
     0.416661662  0.916087790  0.916670609
     0.749801843  0.249838755  0.249568593
     0.748114567  0.251868570  0.582510116
     0.749468552  0.250112614  0.916492600
     0.750205360  0.583538693  0.250190726
     0.756453576  0.589786909  0.587351620
     0.749923474  0.583256807  0.916175088
     0.750192754  0.917053596  0.249816776
     0.749978087  0.916678651  0.583063579
     0.749885453  0.916855002  0.916578410
     0.999900871  0.000142837  0.999857163
     0.000136621  0.000303474  0.333206982
     0.999598127  0.000302005  0.666547201
     0.999598127  0.333452799  0.999697995
     0.000136826  0.333704911  0.333225700
     0.999036358  0.333919063  0.666080937
     0.000136621  0.666793018  0.999696526
     0.000081793  0.666711912  0.333288088
     0.000136826  0.666774300  0.666295089
     0.333315383  0.999730623  0.000269377
     0.333593090  0.000192502  0.333543817
     0.333132382  0.999341544  0.666893563
     0.333132382  0.333106437  0.000658456
     0.334534244  0.333706438  0.334682635
     0.332264960  0.332526904  0.667473096
     0.333593090  0.666456183  0.999807498
     0.333732453  0.666672922  0.333327078
     0.334534244  0.665317365  0.666293562
     0.666610812  0.000036019  0.999963981
     0.666808187  0.000361209  0.333505568
     0.666497620  0.999825168  0.666557845
     0.666497620  0.333442155  0.000174832
     0.667889117  0.335344160  0.334764645
     0.662408239  0.333453928  0.666546072
     0.666808187  0.666494432  0.999638791
     0.666350057  0.666603323  0.333396677
     0.667889117  0.665235355  0.664655840
     0.166397290  0.166648717  0.000269377
     0.166859169  0.166926424  0.333543817
     0.166008211  0.166465716  0.666893563
     0.166702686  0.499944145  0.999963981
     0.167027876  0.500141520  0.333505568
     0.166491835  0.499830953  0.666557845
     0.166809504  0.833234204  0.999857163
     0.166970141  0.833469954  0.333206982
     0.166968672  0.832931460  0.666547201
     0.499773104  0.166465716  0.000658456
     0.500373105  0.167867578  0.334682635
     0.499193571  0.165598294  0.667473096
     0.500108822  0.499830953  0.000174832
     0.502010827  0.501222450  0.334764645
     0.500120595  0.495741572  0.666546072
     0.500119466  0.832931460  0.999697995
     0.500371578  0.833470159  0.333225700
     0.500585730  0.832369691  0.666080937
     0.833122849  0.166926424  0.999807498
     0.833339588  0.167065787  0.333327078
     0.831984031  0.167867578  0.666293562
     0.833161098  0.500141520  0.999638791
     0.833269989  0.499683390  0.333396677
     0.831902021  0.501222450  0.664655840
     0.833459684  0.833469954  0.999696526
     0.833378578  0.833415126  0.333288088
     0.833440966  0.833470159  0.666295089
     0.166809504  0.000142837  0.166765796
     0.166702686  0.000036019  0.500055855
     0.166397290  0.999730623  0.833351283
     0.166968672  0.333452799  0.167068540
     0.166491835  0.333442155  0.500169047
     0.166008211  0.333106437  0.833534284
     0.166970141  0.666793018  0.166530046
     0.167027876  0.666494432  0.499858480
     0.166859169  0.666456183  0.833073576
     0.500119466  0.000302005  0.167068540
     0.500108822  0.999825168  0.500169047
     0.499773104  0.999341544  0.833534284
     0.500585730  0.333919063  0.167630309
     0.500120595  0.333453928  0.504258428
     0.499193571  0.332526904  0.834401706
     0.500371578  0.666774300  0.166529841
     0.502010827  0.665235355  0.498777550
     0.500373105  0.665317365  0.832132422
     0.833459684  0.000303474  0.166530046
     0.833161098  0.000361209  0.499858480
     0.833122849  0.000192502  0.833073576
     0.833440966  0.333704911  0.166529841
     0.831902021  0.335344160  0.498777550
     0.831984031  0.333706438  0.832132422
     0.833378578  0.666711912  0.166584874
     0.833269989  0.666603323  0.500316610
     0.833339588  0.666672922  0.832934213
     0.999968944  0.167009291  0.166697723
     0.000019326  0.166709074  0.499843431
     0.999290144  0.166913903  0.833086097
     0.000730744  0.500157601  0.165935923
     0.999577024  0.500338852  0.499661148
     0.000019326  0.500156569  0.833290926
     0.000164962  0.833498295  0.166501705
     0.000730744  0.834064077  0.499842399
     0.999968944  0.833302277  0.832990709
     0.333580569  0.166913903  0.167376523
     0.332678134  0.166011468  0.500630225
     0.332774125  0.166107459  0.833892541
     0.333375740  0.500156569  0.166647341
     0.333969504  0.499737269  0.500262731
     0.332678134  0.499369775  0.833988532
     0.333675957  0.833302277  0.166697723
     0.333375740  0.833352659  0.499843431
     0.333580569  0.832623477  0.833086097
     0.666823236  0.166709074  0.166647341
     0.666403936  0.167302838  0.500262731
     0.666036442  0.166011468  0.833988532
     0.667005519  0.500338852  0.167089643
     0.666403936  0.499737269  0.832697162
     0.666824268  0.834064077  0.165935923
     0.667005519  0.832910357  0.499661148
     0.666823236  0.833352659  0.833290926
     0.575539273  0.408872607  0.591127393

  ion indices of the primitive-cell ions
   primitive index   ion index
                 1           1
                 2           2
                 3           3
                 4           4
                 5           5
                 6           6
                 7           7
                 8           8
                 9           9
                10          10
                11          11
                12          12
                13          13
                14          14
                15          15
                16          16
                17          17
                18          18
                19          19
                20          20
                21          21
                22          22
                23          23
                24          24
                25          25
                26          26
                27          27
                28          28
                29          29
                30          30
                31          31
                32          32
                33          33
                34          34
                35          35
                36          36
                37          37
                38          38
                39          39
                40          40
                41          41
                42          42
                43          43
                44          44
                45          45
                46          46
                47          47
                48          48
                49          49
                50          50
                51          51
                52          52
                53          53
                54          54
                55          55
                56          56
                57          57
                58          58
                59          59
                60          60
                61          61
                62          62
                63          63
                64          64
                65          65
                66          66
                67          67
                68          68
                69          69
                70          70
                71          71
                72          72
                73          73
                74          74
                75          75
                76          76
                77          77
                78          78
                79          79
                80          80
                81          81
                82          82
                83          83
                84          84
                85          85
                86          86
                87          87
                88          88
                89          89
                90          90
                91          91
                92          92
                93          93
                94          94
                95          95
                96          96
                97          97
                98          98
                99          99
               100         100
               101         101
               102         102
               103         103
               104         104
               105         105
               106         106
               107         107
               108         108
               109         109
               110         110
               111         111
               112         112
               113         113
               114         114
               115         115
               116         116
               117         117
               118         118
               119         119
               120         120
               121         121
               122         122
               123         123
               124         124
               125         125
               126         126
               127         127
               128         128
               129         129
               130         130
               131         131
               132         132
               133         133
               134         134
               135         135
               136         136
               137         137
               138         138
               139         139
               140         140
               141         141
               142         142
               143         143
               144         144
               145         145
               146         146
               147         147
               148         148
               149         149
               150         150
               151         151
               152         152
               153         153
               154         154
               155         155
               156         156
               157         157
               158         158
               159         159
               160         160
               161         161
               162         162
               163         163
               164         164
               165         165
               166         166
               167         167
               168         168
               169         169
               170         170
               171         171
               172         172
               173         173
               174         174
               175         175
               176         176
               177         177
               178         178
               179         179
               180         180
               181         181
               182         182
               183         183
               184         184
               185         185
               186         186
               187         187
               188         188
               189         189
               190         190
               191         191
               192         192
               193         193
               194         194
               195         195
               196         196
               197         197
               198         198
               199         199
               200         200
               201         201
               202         202
               203         203
               204         204
               205         205
               206         206
               207         207
               208         208
               209         209
               210         210
               211         211
               212         212
               213         213
               214         214
               215         215

----------------------------------------------------------------------------------------

 
 
 KPOINTS: Gamma-point                             

Automatic generation of k-mesh.
 Grid dimensions read from file:
 generate k-points for:    1    1    1

 Generating k-lattice:

  Cartesian coordinates                     Fractional coordinates (reciprocal lattice)
     0.093273697  0.000000000  0.000000000     1.000000000  0.000000000  0.000000000
     0.000000000  0.093273697  0.000000000     0.000000000  1.000000000  0.000000000
     0.000000000  0.000000000  0.093273697     0.000000000  0.000000000  1.000000000

  Length of vectors
     0.093273697  0.093273697  0.093273697

  Shift w.r.t. Gamma in fractional coordinates (k-lattice)
     0.000000000  0.000000000  0.000000000

 
 Subroutine IBZKPT returns following result:
 ===========================================
 
 Found      1 irreducible k-points:
 
 Following reciprocal coordinates:
            Coordinates               Weight
  0.000000  0.000000  0.000000      1.000000
 
 Following cartesian coordinates:
            Coordinates               Weight
  0.000000  0.000000  0.000000      1.000000
 


--------------------------------------------------------------------------------------------------------




 Dimension of arrays:
   k-points           NKPTS =      1   k-points in BZ     NKDIM =      1   number of bands    NBANDS=    540
   number of dos      NEDOS =    301   number of ions     NIONS =    215
   non local maximal  LDIM  =      4   non local SUM 2l+1 LMDIM =      8
   total plane-waves  NPLWV = 216000
   max r-space proj   IRMAX =   1560   max aug-charges    IRDMAX=   2356
   dimension x,y,z NGX =    60 NGY =   60 NGZ =   60
   dimension x,y,z NGXF=   120 NGYF=  120 NGZF=  120
   support grid    NGXF=   120 NGYF=  120 NGZF=  120
   ions per type =             214   1
   NGX,Y,Z   is equivalent  to a cutoff of   9.30,  9.30,  9.30 a.u.
   NGXF,Y,Z  is equivalent  to a cutoff of  18.61, 18.61, 18.61 a.u.

 SYSTEM =  unknown system                          
 POSCAR =  C  N                                    

 Startparameter for this run:
   NWRITE =      2    write-flag & timer
   PREC   = normal    normal or accurate (medium, high low for compatibility)
   ISTART =      0    job   : 0-new  1-cont  2-samecut
   ICHARG =      2    charge: 1-file 2-atom 10-const
   ISPIN  =      2    spin polarized calculation?
   LNONCOLLINEAR =      F non collinear calculations
   LSORBIT =      F    spin-orbit coupling
   INIWAV =      1    electr: 0-lowe 1-rand  2-diag
   LASPH  =      F    aspherical Exc in radial PAW
 Electronic Relaxation 1
   ENCUT  =  500.0 eV  36.75 Ry    6.06 a.u.  19.55 19.55 19.55*2*pi/ulx,y,z
   ENINI  =  500.0     initial cutoff
   ENAUG  =  644.9 eV  augmentation charge cutoff
   NELM   =    100;   NELMIN=  2; NELMDL= -5     # of ELM steps 
   EDIFF  = 0.1E-05   stopping-criterion for ELM
   LREAL  =      T    real-space projection
   NLSPLINE    = F    spline interpolate recip. space projectors
   LCOMPAT=      F    compatible to vasp.4.4
   GGA_COMPAT  = T    GGA compatible to vasp.4.4-vasp.4.6
   LMAXPAW     = -100 max onsite density
   LMAXMIX     =    2 max onsite mixed and CHGCAR
   VOSKOWN=      0    Vosko Wilk Nusair interpolation
   ROPT   =   -0.00050  -0.00050
 Ionic relaxation
   EDIFFG = -.1E-01   stopping-criterion for IOM
   NSW    =      0    number of steps for IOM
   NBLOCK =      1;   KBLOCK =      1    inner block; outer block 
   IBRION =     -1    ionic relax: 0-MD 1-quasi-New 2-CG
   NFREE  =      1    steps in history (QN), initial steepest desc. (CG)
   ISIF   =      2    stress and relaxation
   IWAVPR =     10    prediction:  0-non 1-charg 2-wave 3-comb
   ISYM   =      2    0-nonsym 1-usesym 2-fastsym
   LCORR  =      T    Harris-Foulkes like correction to forces

   POTIM  = 0.5000    time-step for ionic-motion
   TEIN   =    0.0    initial temperature
   TEBEG  =    0.0;   TEEND  =   0.0 temperature during run
   SMASS  =  -3.00    Nose mass-parameter (am)
   estimated Nose-frequenzy (Omega)   =  0.10E-29 period in steps = 0.13E+47 mass=  -0.263E-26a.u.
   SCALEE = 1.0000    scale energy and forces
   NPACO  =    256;   APACO  = 10.0  distance and # of slots for P.C.
   PSTRESS=    0.0 pullay stress

  Mass of Ions in am
   POMASS =  12.01 14.00
  Ionic Valenz
   ZVAL   =   4.00  5.00
  Atomic Wigner-Seitz radii
   RWIGS  =  -1.00 -1.00
  virtual crystal weights 
   VCA    =   1.00  1.00
   NELECT =     862.0000    total number of electrons
   NUPDOWN=       2.0000    fix difference up-down

 DOS related values:
   EMIN   =  10.00;   EMAX   =-10.00  energy-range for DOS
   EFERMI =   0.00;   METHOD = LEGACY      
   ISMEAR =     0;   SIGMA  =   0.01  broadening in eV -4-tet -1-fermi 0-gaus
   EFERMI_NEDOS =   21; number of points for ismear=-14 and -15

 Electronic relaxation 2 (details)
   IALGO  =     38    algorithm
   LDIAG  =      T    sub-space diagonalisation (order eigenvalues)
   LSUBROT=      F    optimize rotation matrix (better conditioning)
   LROBUST=      F    robust break criterion during scf (extrapolated energy error)
   ISEARCH=      0    line search for conjugate gradient (0, 1=use gradient)
   TURBO    =      0    0=normal 1=particle mesh
   IRESTART =      0    0=no restart 2=restart with 2 vectors
   NREBOOT  =      0    no. of reboots
   NMIN     =      0    reboot dimension
   EREF     =   0.00    reference energy to select bands
   IMIX   =      4    mixing-type and parameters
     AMIX     =   0.40;   BMIX     =  1.00
     AMIX_MAG =   1.60;   BMIX_MAG =  1.00
     AMIN     =   0.10
     WC   =   100.;   INIMIX=   1;  MIXPRE=   1;  MAXMIX= -45

 Intra band minimization:
   WEIMIN = 0.0000     energy-eigenvalue tresh-hold
   EBREAK =  0.46E-09  absolut break condition
   DEPER  =   0.30     relativ break condition  

   TIME   =   0.40     timestep for ELM

  volume/ion in A,a.u.               =       5.73        38.68
  Fermi-wavevector in a.u.,A,eV,Ry     =   1.453237  2.746220 28.734113  2.111898
  Thomas-Fermi vector in A             =   2.570527
 
 Write flags
   LWAVE        =      F    write WAVECAR
   LDOWNSAMPLE  =      F    k-point downsampling of WAVECAR
   LCHARG       =      F    write CHGCAR
   LVTOT        =      F    write LOCPOT, total local potential
   LVHAR        =      F    write LOCPOT, Hartree potential only
   WRT_POTENTIAL= false  ! write potential to hdf5 file
   LELF         =      F    write electronic localiz. function (ELF)
   LORBIT       =     10    0 simple, 1 ext, 2 COOP (PROOUT), +10 PAW based schemes


 Python interface
   PLUGINS active      =      F    recompile with -DPLUGINS to activate
 
 Dipole corrections
   LMONO      =      F    monopole corrections only (constant potential shift)
   LDIPOL     =      F    correct potential (dipole corrections)
   IDIPOL     =      0    1-x, 2-y, 3-z, 4-all directions 
   EPSILON    =  1.0000000 bulk dielectric constant
   LVACPOTAV  =      F  vacuum potentials using an averaging scheme for the charge density
   VACPOTFLAT =  0.1000000 required flatness to determine vacuum potential
 
Coulomb truncation method
  LTRUNCATE          =      F  Coulomb kernel truncation to be used

 
 Exchange correlation treatment:
   GGA     = PE    functional components
   XC_C    = 1    coefficients multiplying the functional components
   LIBXC   =     F    Libxc                    
   VOSKOWN =     0    Vosko Wilk Nusair interpolation
   LHFCALC =     F    Hartree Fock is set to
   LHFONE  =     F    Hartree Fock one center treatment
   AEXX    =    0.0000 exact exchange contribution

 Parameters of functionals:
   PE:
     No parameter
 
 Van der Waals corrections
   IVDW    =     0    specifies the selected vdW correction

 Linear response parameters
   LEPSILON=     F    determine dielectric tensor
   LRPA    =     F    only Hartree local field effects (RPA)
   LNABLA  =     F    use nabla operator in PAW spheres
   LVEL    =     F    velocity operator in full k-point grid
   CSHIFT  =0.1000    complex shift for real part using Kramers Kronig
   OMEGAMAX=  -1.0    maximum frequency
   DEG_THRESHOLD= 0.2000000E-02 threshold for treating states as degnerate
   RTIME   =   -0.100 relaxation time in fs
  (WPLASMAI=    0.000 imaginary part of plasma frequency in eV, 0.658/RTIME)
   DFIELD  = 0.0000000 0.0000000 0.0000000 field for delta impulse in time
 
  Optional k-point grid parameters
   LKPOINTS_OPT  =     F    use optional k-point grid
   KPOINTS_OPT_MODE=     1    mode for optional k-point grid
 
 Orbital magnetization related:
   ORBITALMAG=     F  switch on orbital magnetization
   LCHIMAG   =     F  perturbation theory with respect to B field
   DQ        =  0.001000  dq finite difference perturbation B field
   LLRAUG    =     F  two centre corrections for induced B field
   LBONE     =     F  B-component reconstruction in AE one-centre
   LVGVCALC  =     T  calculate vGv susceptibility
   LVGVAPPL  =     F  apply vGv susceptibility instead of pGv for G=0

 Random number generation:
   RANDOM_GENERATOR = DEFAULT
   PCG_SEED         = not used


--------------------------------------------------------------------------------------------------------


 Static calculation
 charge density and potential will be updated during run
 spin polarized calculation
 Variant of blocked Davidson
 Davidson routine will perform the subspace rotation
 perform sub-space diagonalisation
    after iterative eigenvector-optimisation
 modified Broyden-mixing scheme, WC =      100.0
 initial mixing is a Kerker type mixing with AMIX =  0.4000 and BMIX =      1.0000
 Hartree-type preconditioning will be used
 using additional bands          109
 real space projection scheme for non local part
 use partial core corrections
 calculate Harris-corrections to forces 
   (improved forces if not selfconsistent)
 use gradient corrections 
 use of overlap-Matrix (Vanderbilt PP)
 Gauss-broadening in eV      SIGMA  =   0.01


--------------------------------------------------------------------------------------------------------


  energy-cutoff  :      500.00
  volume of cell :     1232.32
      direct lattice vectors                 reciprocal lattice vectors
    10.721136093  0.000000000  0.000000000     0.093273697  0.000000000  0.000000000
     0.000000000 10.721136093  0.000000000     0.000000000  0.093273697  0.000000000
     0.000000000  0.000000000 10.721136093     0.000000000  0.000000000  0.093273697

  length of vectors
    10.721136093 10.721136093 10.721136093     0.093273697  0.093273697  0.093273697


 
 k-points in units of 2pi/SCALE and weight: Gamma-point                             
   0.00000000  0.00000000  0.00000000       1.000
 
 k-points in reciprocal lattice and weights: Gamma-point                             
   0.00000000  0.00000000  0.00000000       1.000
 
 position of ions in fractional coordinates (direct lattice) 
   0.08323147  0.08345264  0.08343519
   0.08352167  0.08342159  0.41678121
   0.08275446  0.08332939  0.75000500
   0.08363302  0.41684619  0.08303364
   0.08334532  0.41693642  0.41668858
   0.08285485  0.41663682  0.74985544
   0.08350163  0.75005828  0.08316503
   0.08372026  0.75018322  0.41647391
   0.08350341  0.74982828  0.74973489
   0.41666166  0.08332939  0.08391221
   0.41677928  0.08350740  0.41719811
   0.41609918  0.08244622  0.75056748
   0.41681122  0.41663682  0.08381182
   0.41853524  0.41748988  0.41855210
   0.41515062  0.41580825  0.75151604
   0.41693178  0.74982828  0.08316326
   0.41650542  0.75043141  0.41686482
   0.41721618  0.74904110  0.74945049
   0.74988545  0.08342159  0.08314500
   0.74992347  0.08382491  0.41674319
   0.74946855  0.08350740  0.74988739
   0.74997809  0.41693642  0.08332135
   0.75645358  0.41264838  0.41021309
   0.74811457  0.41748988  0.74813143
   0.75019275  0.75018322  0.08294640
   0.75020536  0.74980927  0.41646131
   0.74980184  0.75043141  0.75016124
   0.24999606  0.24999500  0.08391221
   0.25017407  0.25011261  0.41719811
   0.24911288  0.24943252  0.75056748
   0.25008826  0.58321879  0.08314500
   0.25049158  0.58325681  0.41674319
   0.25017407  0.58280189  0.74988739
   0.25011931  0.91656481  0.08343519
   0.25008826  0.91685500  0.41678121
   0.24999606  0.91608779  0.75000500
   0.58330348  0.25014456  0.08381182
   0.58415655  0.25186857  0.41855210
   0.58247491  0.24848396  0.75151604
   0.58360309  0.58331142  0.08332135
   0.57931505  0.58978691  0.41021309
   0.58415655  0.58144790  0.74813143
   0.58351286  0.91696636  0.08303364
   0.58360309  0.91667865  0.41668858
   0.58330348  0.91618818  0.74985544
   0.91649495  0.25026511  0.08316326
   0.91709807  0.24983876  0.41686482
   0.91570777  0.25054951  0.74945049
   0.91684989  0.58352609  0.08294640
   0.91647594  0.58353869  0.41646131
   0.91709807  0.58313518  0.75016124
   0.91672494  0.91683497  0.08316503
   0.91684989  0.91705360  0.41647391
   0.91649495  0.91683674  0.74973489
   0.25020763  0.08354096  0.25033894
   0.24953205  0.08286538  0.58363945
   0.24964138  0.08297471  0.91702529
   0.25065477  0.41689157  0.25064624
   0.24984160  0.41639698  0.58360302
   0.24953205  0.41636055  0.91713462
   0.25032926  0.75004844  0.24995156
   0.25065477  0.74935376  0.58310843
   0.25020763  0.74966106  0.91645904
   0.58355824  0.08398810  0.25064624
   0.58306365  0.08317494  0.58360302
   0.58302721  0.08286538  0.91713462
   0.58410144  0.41743478  0.25102415
   0.58306365  0.41639698  0.91682506
   0.58406377  0.75113663  0.24886337
   0.58410144  0.74897585  0.58256522
   0.58355824  0.74935376  0.91601190
   0.91671511  0.08366260  0.24995156
   0.91602043  0.08398810  0.58310843
   0.91632773  0.08354096  0.91645904
   0.91780329  0.41739710  0.24886337
   0.91564252  0.41743478  0.58256522
   0.91602043  0.41689157  0.91601190
   0.91684255  0.75017588  0.24982412
   0.91780329  0.75113663  0.58260290
   0.91671511  0.75004844  0.91633740
   0.08350341  0.25026511  0.25017172
   0.08285485  0.25014456  0.58336318
   0.08275446  0.24999500  0.91667061
   0.08372026  0.58352609  0.24981678
   0.08334532  0.58331142  0.58306358
   0.08352167  0.58321879  0.91657841
   0.08350163  0.91683497  0.24994172
   0.08363302  0.91696636  0.58315381
   0.08323147  0.91656481  0.91654736
   0.41721618  0.25054951  0.25095890
   0.41515062  0.24848396  0.58419175
   0.41609918  0.24943252  0.91755378
   0.41650542  0.58313518  0.24956859
   0.41853524  0.58144790  0.58251012
   0.41677928  0.58280189  0.91649260
   0.41693178  0.91683674  0.25017172
   0.41681122  0.91618818  0.58336318
   0.41666166  0.91608779  0.91667061
   0.74980184  0.24983876  0.24956859
   0.74811457  0.25186857  0.58251012
   0.74946855  0.25011261  0.91649260
   0.75020536  0.58353869  0.25019073
   0.75645358  0.58978691  0.58735162
   0.74992347  0.58325681  0.91617509
   0.75019275  0.91705360  0.24981678
   0.74997809  0.91667865  0.58306358
   0.74988545  0.91685500  0.91657841
   0.99990087  0.00014284  0.99985716
   0.00013662  0.00030347  0.33320698
   0.99959813  0.00030201  0.66654720
   0.99959813  0.33345280  0.99969799
   0.00013683  0.33370491  0.33322570
   0.99903636  0.33391906  0.66608094
   0.00013662  0.66679302  0.99969653
   0.00008179  0.66671191  0.33328809
   0.00013683  0.66677430  0.66629509
   0.33331538  0.99973062  0.00026938
   0.33359309  0.00019250  0.33354382
   0.33313238  0.99934154  0.66689356
   0.33313238  0.33310644  0.00065846
   0.33453424  0.33370644  0.33468264
   0.33226496  0.33252690  0.66747310
   0.33359309  0.66645618  0.99980750
   0.33373245  0.66667292  0.33332708
   0.33453424  0.66531736  0.66629356
   0.66661081  0.00003602  0.99996398
   0.66680819  0.00036121  0.33350557
   0.66649762  0.99982517  0.66655785
   0.66649762  0.33344215  0.00017483
   0.66788912  0.33534416  0.33476464
   0.66240824  0.33345393  0.66654607
   0.66680819  0.66649443  0.99963879
   0.66635006  0.66660332  0.33339668
   0.66788912  0.66523536  0.66465584
   0.16639729  0.16664872  0.00026938
   0.16685917  0.16692642  0.33354382
   0.16600821  0.16646572  0.66689356
   0.16670269  0.49994415  0.99996398
   0.16702788  0.50014152  0.33350557
   0.16649183  0.49983095  0.66655785
   0.16680950  0.83323420  0.99985716
   0.16697014  0.83346995  0.33320698
   0.16696867  0.83293146  0.66654720
   0.49977310  0.16646572  0.00065846
   0.50037310  0.16786758  0.33468264
   0.49919357  0.16559829  0.66747310
   0.50010882  0.49983095  0.00017483
   0.50201083  0.50122245  0.33476464
   0.50012059  0.49574157  0.66654607
   0.50011947  0.83293146  0.99969799
   0.50037158  0.83347016  0.33322570
   0.50058573  0.83236969  0.66608094
   0.83312285  0.16692642  0.99980750
   0.83333959  0.16706579  0.33332708
   0.83198403  0.16786758  0.66629356
   0.83316110  0.50014152  0.99963879
   0.83326999  0.49968339  0.33339668
   0.83190202  0.50122245  0.66465584
   0.83345968  0.83346995  0.99969653
   0.83337858  0.83341513  0.33328809
   0.83344097  0.83347016  0.66629509
   0.16680950  0.00014284  0.16676580
   0.16670269  0.00003602  0.50005585
   0.16639729  0.99973062  0.83335128
   0.16696867  0.33345280  0.16706854
   0.16649183  0.33344215  0.50016905
   0.16600821  0.33310644  0.83353428
   0.16697014  0.66679302  0.16653005
   0.16702788  0.66649443  0.49985848
   0.16685917  0.66645618  0.83307358
   0.50011947  0.00030201  0.16706854
   0.50010882  0.99982517  0.50016905
   0.49977310  0.99934154  0.83353428
   0.50058573  0.33391906  0.16763031
   0.50012059  0.33345393  0.50425843
   0.49919357  0.33252690  0.83440171
   0.50037158  0.66677430  0.16652984
   0.50201083  0.66523536  0.49877755
   0.50037310  0.66531736  0.83213242
   0.83345968  0.00030347  0.16653005
   0.83316110  0.00036121  0.49985848
   0.83312285  0.00019250  0.83307358
   0.83344097  0.33370491  0.16652984
   0.83190202  0.33534416  0.49877755
   0.83198403  0.33370644  0.83213242
   0.83337858  0.66671191  0.16658487
   0.83326999  0.66660332  0.50031661
   0.83333959  0.66667292  0.83293421
   0.99996894  0.16700929  0.16669772
   0.00001933  0.16670907  0.49984343
   0.99929014  0.16691390  0.83308610
   0.00073074  0.50015760  0.16593592
   0.99957702  0.50033885  0.49966115
   0.00001933  0.50015657  0.83329093
   0.00016496  0.83349830  0.16650170
   0.00073074  0.83406408  0.49984240
   0.99996894  0.83330228  0.83299071
   0.33358057  0.16691390  0.16737652
   0.33267813  0.16601147  0.50063023
   0.33277412  0.16610746  0.83389254
   0.33337574  0.50015657  0.16664734
   0.33396950  0.49973727  0.50026273
   0.33267813  0.49936977  0.83398853
   0.33367596  0.83330228  0.16669772
   0.33337574  0.83335266  0.49984343
   0.33358057  0.83262348  0.83308610
   0.66682324  0.16670907  0.16664734
   0.66640394  0.16730284  0.50026273
   0.66603644  0.16601147  0.83398853
   0.66700552  0.50033885  0.16708964
   0.66640394  0.49973727  0.83269716
   0.66682427  0.83406408  0.16593592
   0.66700552  0.83291036  0.49966115
   0.66682324  0.83335266  0.83329093
   0.57553927  0.40887261  0.59112739
 
 position of ions in cartesian coordinates  (Angst):
   0.89233597  0.89470711  0.89452004
   0.89544717  0.89437422  4.46836812
   0.88722178  0.89338574  8.04090573
   0.89664103  4.46906478  0.89021498
   0.89355649  4.47003211  4.46737498
   0.88829813  4.46682003  8.03930226
   0.89523236  8.04147687  0.89162365
   0.89757632  8.04281644  4.46507350
   0.89525143  8.03901109  8.03800978
   4.46708639  0.89338574  0.89963423
   4.46834739  0.89529419  4.47283776
   4.46105599  0.88391712  8.04693613
   4.46868985  4.46682003  0.89855788
   4.48717324  4.47596586  4.48735402
   4.45088633  4.45793681  8.05710578
   4.46998233  8.03901109  0.89160458
   4.46541131  8.04547724  4.46926451
   4.47303147  8.03057160  8.03496065
   8.03962399  0.89437422  0.89140884
   8.04003162  0.89869829  4.46796049
   8.03515435  0.89529419  8.03964472
   8.04061713  4.47003211  0.89329952
   8.11004174  4.42405944  4.39795037
   8.02063809  4.47596586  8.02081887
   8.04291861  8.04281644  0.88927969
   8.04305376  8.03880727  4.46493835
   8.03872761  8.04547724  8.04258080
   2.68024176  2.68023037  0.89963423
   2.68215021  2.68149137  4.47283776
   2.67077314  2.67419997  8.04693613
   2.68123024  6.25276797  0.89140884
   2.68555431  6.25317560  4.46796049
   2.68215021  6.24829833  8.03964472
   2.68156312  9.82661605  0.89452004
   2.68123024  9.82972725  4.46836812
   2.68024176  9.82150187  8.04090573
   6.25367604  2.68183383  0.89855788
   6.26282187  2.70031722  4.48735402
   6.24479282  2.66403031  8.05710578
   6.25688812  6.25376111  0.89329952
   6.21091545  6.32318572  4.39795037
   6.26282187  6.23378207  8.02081887
   6.25592078  9.83092112  0.89021498
   6.25688812  9.82783657  4.46737498
   6.25367604  9.82257821  8.03930226
   9.82586711  2.68312631  0.89160458
   9.83233326  2.67855529  4.46926451
   9.81742761  2.68617545  8.03496065
   9.82967246  6.25606259  0.88927969
   9.82566329  6.25619774  4.46493835
   9.83233326  6.25187159  8.04258080
   9.82833289  9.82951244  0.89162365
   9.82967246  9.83185640  4.46507350
   9.82586711  9.82953151  8.03800978
   2.68251007  0.89565405  2.68391780
   2.67526703  0.88841101  6.25727802
   2.67643920  0.88958318  9.83155291
   2.68730385  4.46955127  2.68721247
   2.67858582  4.46424872  6.25688737
   2.67526703  4.46385808  9.83272508
   2.68381410  8.04137139  2.67976471
   2.68730385  8.03392362  6.25158483
   2.68251007  8.03721830  9.82548204
   6.25640728  0.90044784  2.68721247
   6.25110473  0.89172980  6.25688737
   6.25071409  0.88841101  9.83272508
   6.26223107  4.47537506  2.69126409
   6.25110473  4.46424872  9.82940629
   6.26182714  8.05303801  2.66809809
   6.26223107  8.02987201  6.24576103
   6.25640728  8.03392362  9.82068826
   9.82822741  0.89695808  2.67976471
   9.82077964  0.90044784  6.25158483
   9.82407431  0.89565405  9.82548204
   9.83989403  4.47497114  2.66809809
   9.81672803  4.47537506  6.24576103
   9.82077964  4.46955127  9.82068826
   9.82959375  8.04273773  2.67839836
   9.83989403  8.05303801  6.24616496
   9.82822741  8.04137139  9.82417801
   0.89525143  2.68312631  2.68212500
   0.88829813  2.68183383  6.25431606
   0.88722178  2.68023037  9.82775036
   0.89757632  6.25606259  2.67831966
   0.89355649  6.25376111  6.25110398
   0.89544717  6.25276797  9.82676187
   0.89523236  9.82951244  2.67965922
   0.89664103  9.83092112  6.25207132
   0.89233597  9.82661605  9.82642899
   4.47303147  2.68617545  2.69056450
   4.45088633  2.66403031  6.26319928
   4.46105599  2.67419997  9.83721897
   4.46541131  6.25187159  2.67565885
   4.48717324  6.23378207  6.24517023
   4.46834739  6.24829833  9.82584190
   4.46998233  9.82953151  2.68212500
   4.46868985  9.82257821  6.25431606
   4.46708639  9.82150187  9.82775036
   8.03872761  2.67855529  2.67565885
   8.02063809  2.70031722  6.24517023
   8.03515435  2.68149137  9.82584190
   8.04305376  6.25619774  2.68232882
   8.11004174  6.32318572  6.29707665
   8.04003162  6.25317560  9.82243780
   8.04291861  9.83185640  2.67831966
   8.04061713  9.82783657  6.25110398
   8.03962399  9.82972725  9.82676187
  10.72007332  0.00153138 10.71960472
   0.00146473  0.00325358  3.57235740
  10.71682756  0.00323784  7.14614325
  10.71682756  3.57499284 10.71789825
   0.00146693  3.57769577  3.57255808
  10.71080476  3.57999172  7.14114437
   0.00146473  7.14877869 10.71788251
   0.00087692  7.14790914  3.57322695
   0.00146693  7.14857801  7.14344033
   3.57351959 10.71824807  0.00288803
   3.57649692  0.00206384  3.57596865
   3.57155761 10.71407669  7.14985665
   3.57155761  3.57127944  0.00705940
   3.58658716  3.57771213  3.58817808
   3.56225786  3.56506619  7.15606990
   3.57649692  7.14516744 10.71907225
   3.57799105  7.14749113  3.57364497
   3.58658716  7.13295801  7.14342396
   7.14682524  0.00038616 10.72074993
   7.14894132  0.00387257  3.57555858
   7.14561169 10.71926169  7.14625737
   7.14561169  3.57487872  0.00187440
   7.16053012  3.59527038  3.58905732
   7.10176888  3.57500494  7.14613115
   7.14894132  7.14557751 10.71726352
   7.14402965  7.14674495  3.57439114
   7.16053012  7.13207878  7.12586572
   1.78396799  1.78666358  0.00288803
   1.78891986  1.78964091  3.57596865
   1.77979662  1.78470160  7.14985665
   1.78724218  5.35996922 10.72074993
   1.79072859  5.36208530  3.57555858
   1.78498162  5.35875567  7.14625737
   1.78838740  8.93321730 10.71960472
   1.79010960  8.93574481  3.57235740
   1.79009386  8.92997154  7.14614325
   5.35813546  1.78470160  0.00705940
   5.36456815  1.79973115  3.58817808
   5.35192221  1.77540185  7.15606990
   5.36173474  5.35875567  0.00187440
   5.38212640  5.37367410  3.58905732
   5.36186096  5.31491286  7.14613115
   5.36184886  8.92997154 10.71789825
   5.36455179  8.93574701  3.57255808
   5.36684774  8.92394874  7.14114437
   8.93202345  1.78964091 10.71907225
   8.93434714  1.79113504  3.57364497
   8.91981402  1.79973115  7.14342396
   8.93243352  5.36208530 10.71726352
   8.93360096  5.35717363  3.57439114
   8.91893478  5.37367410  7.12586572
   8.93563470  8.93574481 10.71788251
   8.93476515  8.93515699  3.57322695
   8.93543402  8.93574701  7.14344033
   1.78838740  0.00153138  1.78791880
   1.78724218  0.00038616  5.36116687
   1.78396799 10.71824807  8.93447251
   1.79009386  3.57499284  1.79116455
   1.78498162  3.57487872  5.36238042
   1.77979662  3.57127944  8.93643449
   1.79010960  7.14877869  1.78539129
   1.79072859  7.14557751  5.35905079
   1.78891986  7.14516744  8.93149518
   5.36184886  0.00323784  1.79116455
   5.36173474 10.71926169  5.36238042
   5.35813546 10.71407669  8.93643449
   5.36684774  3.57999172  1.79718736
   5.36186096  3.57500494  5.40622323
   5.35192221  3.56506619  8.94573424
   5.36455179  7.14857801  1.78538909
   5.38212640  7.13207878  5.34746199
   5.36456815  7.13295801  8.92140494
   8.93563470  0.00325358  1.78539129
   8.93243352  0.00387257  5.35905079
   8.93202345  0.00206384  8.93149518
   8.93543402  3.57769577  1.78538909
   8.91893478  3.59527038  5.34746199
   8.91981402  3.57771213  8.92140494
   8.93476515  7.14790914  1.78597910
   8.93360096  7.14674495  5.36396246
   8.93434714  7.14749113  8.93000106
  10.72080314  1.79052934  1.78718898
   0.00020720  1.78731067  5.35888945
  10.71352563  1.78950667  8.93162942
   0.00783440  5.36225771  1.77902162
  10.71660131  5.36420093  5.35693516
   0.00020720  5.36224664  8.93382543
   0.00176858  8.93604866  1.78508744
   0.00783440  8.94211447  5.35887838
  10.72080314  8.93394712  8.93060675
   3.57636268  1.78950667  1.79446648
   3.56668755  1.77983154  5.36732478
   3.56771668  1.78086067  8.94027542
   3.57416667  5.36224664  1.78664882
   3.58053251  5.35775128  5.36338482
   3.56668755  5.35381132  8.94130455
   3.57738535  8.93394712  1.78718898
   3.57416667  8.93448727  5.35888945
   3.57636268  8.92666961  8.93162942
   7.14910266  1.78731067  1.78664882
   7.14460729  1.79367650  5.36338482
   7.14066734  1.77983154  8.94130455
   7.15105695  5.36420093  1.79139080
   7.14460729  5.35775128  8.92745959
   7.14911373  8.94211447  1.77902162
   7.15105695  8.92974529  5.35693516
   7.14910266  8.93448727  8.93382543
   6.17043488  4.38357887  6.33755723
 


--------------------------------------------------------------------------------------------------------


 k-point     1 :   0.0000 0.0000 0.0000  plane waves:   31439

 maximum and minimum number of plane-waves per node :      4492     4489

 maximum number of plane-waves:     31439
 maximum index in each direction: 
   IXMAX=   19   IYMAX=   19   IZMAX=   19
   IXMIN=  -19   IYMIN=  -19   IZMIN=  -19


 real space projection operators:
  total allocation   :       9957.00 KBytes
  max/ min on nodes  :       1503.19       1320.69


 parallel 3D FFT for wavefunctions:
    minimum data exchange during FFTs selected (reduces bandwidth)
 parallel 3D FFT for charge:
    minimum data exchange during FFTs selected (reduces bandwidth)


 total amount of memory used by VASP MPI-rank0    69876. kBytes
=======================================================================

   base                                    :      30000. kBytes
   nonlr-proj                              :       7389. kBytes
   fftplans                                :       3375. kBytes
   grid                                    :       8446. kBytes
   one-center                              :        190. kBytes
   wavefun                                 :      20476. kBytes
 
     INWAV:  cpu time      0.0001: real time      0.0004
 Broyden mixing: mesh for mixing (old mesh)
   NGX = 39   NGY = 39   NGZ = 39
  (NGX  =120   NGY  =120   NGZ  =120)
  gives a total of  59319 points

 initial charge density was supplied:
 charge density of overlapping atoms calculated
 number of electron     861.0000000 magnetization       2.0000000
 keeping initial charge density in first step


--------------------------------------------------------------------------------------------------------


 Maximum index for non-local projection operator          180
 Maximum index for augmentation-charges          193 (set IRDMAX)


--------------------------------------------------------------------------------------------------------


 First call to EWALD:  gamma=   0.165
 Maximum number of real-space cells   3x   3x   3
 Maximum number of reciprocal cells   3x   3x   3

    FEWALD:  cpu time      0.0496: real time      0.0498


--------------------------------------- Ionic step        1  -------------------------------------------




--------------------------------------- Iteration      1(   1)  ---------------------------------------


    POTLOK:  cpu time      0.0888: real time      0.0899
    SETDIJ:  cpu time      0.0188: real time      0.0189
     EDDAV:  cpu time      6.4412: real time      6.4982
       DOS:  cpu time      0.0003: real time      0.0003
    --------------------------------------------
      LOOP:  cpu time      6.5490: real time      6.6073

 eigenvalue-minimisations  :  2160
 total energy-change (2. order) : 0.2958980E+04  (-0.4541723E+05)
 number of electron     861.0000000 magnetization       2.0000000
 augmentation part      861.0000000 magnetization       2.0000000

 Free energy of the ion-electron system (eV)
  ---------------------------------------------------
  alpha Z        PSCENC =      3085.66645011
  Ewald energy   TEWEN  =    -37258.44410282
  -Hartree energ DENC   =     -2024.81345890
  -exchange      EXHF   =         0.00000000
  -V(xc)+E(xc)   XCENC  =      2947.24026405
  PAW double counting   =     23428.64811967   -23551.69179075
  entropy T*S    EENTRO =        -0.00000000
  eigenvalues    EBANDS =      4578.07781292
  atomic energy  EATOM  =     31754.29708746
  Solvation  Ediel_sol  =         0.00000000
  ---------------------------------------------------
  free energy    TOTEN  =      2958.98038174 eV

  energy without entropy =     2958.98038174  energy(sigma->0) =     2958.98038174


--------------------------------------------------------------------------------------------------------




--------------------------------------- Iteration      1(   2)  ---------------------------------------


     EDDAV:  cpu time      7.4890: real time      7.5546
       DOS:  cpu time      0.0006: real time      0.0006
    --------------------------------------------
      LOOP:  cpu time      7.4896: real time      7.5552

 eigenvalue-minimisations  :  2624
 total energy-change (2. order) :-0.4704179E+04  (-0.4508955E+04)
 number of electron     861.0000000 magnetization       2.0000000
 augmentation part      861.0000000 magnetization       2.0000000

 Free energy of the ion-electron system (eV)
  ---------------------------------------------------
  alpha Z        PSCENC =      3085.66645011
  Ewald energy   TEWEN  =    -37258.44410282
  -Hartree energ DENC   =     -2024.81345890
  -exchange      EXHF   =         0.00000000
  -V(xc)+E(xc)   XCENC  =      2947.24026405
  PAW double counting   =     23428.64811967   -23551.69179075
  entropy T*S    EENTRO =        -0.00000000
  eigenvalues    EBANDS =      -126.10117023
  atomic energy  EATOM  =     31754.29708746
  Solvation  Ediel_sol  =         0.00000000
  ---------------------------------------------------
  free energy    TOTEN  =     -1745.19860140 eV

  energy without entropy =    -1745.19860140  energy(sigma->0) =    -1745.19860140


--------------------------------------------------------------------------------------------------------




--------------------------------------- Iteration      1(   3)  ---------------------------------------


     EDDAV:  cpu time      7.4231: real time      7.4890
       DOS:  cpu time      0.0002: real time      0.0002
    --------------------------------------------
      LOOP:  cpu time      7.4233: real time      7.4892

 eigenvalue-minimisations  :  2592
 total energy-change (2. order) :-0.2514056E+03  (-0.2489656E+03)
 number of electron     861.0000000 magnetization       2.0000000
 augmentation part      861.0000000 magnetization       2.0000000

 Free energy of the ion-electron system (eV)
  ---------------------------------------------------
  alpha Z        PSCENC =      3085.66645011
  Ewald energy   TEWEN  =    -37258.44410282
  -Hartree energ DENC   =     -2024.81345890
  -exchange      EXHF   =         0.00000000
  -V(xc)+E(xc)   XCENC  =      2947.24026405
  PAW double counting   =     23428.64811967   -23551.69179075
  entropy T*S    EENTRO =        -0.00000000
  eigenvalues    EBANDS =      -377.50673151
  atomic energy  EATOM  =     31754.29708746
  Solvation  Ediel_sol  =         0.00000000
  ---------------------------------------------------
  free energy    TOTEN  =     -1996.60416268 eV

  energy without entropy =    -1996.60416268  energy(sigma->0) =    -1996.60416268


--------------------------------------------------------------------------------------------------------




--------------------------------------- Iteration      1(   4)  ---------------------------------------


     EDDAV:  cpu time      7.5534: real time      7.6188
       DOS:  cpu time      0.0003: real time      0.0003
    --------------------------------------------
      LOOP:  cpu time      7.5537: real time      7.6192

 eigenvalue-minimisations  :  2648
 total energy-change (2. order) :-0.6578712E+01  (-0.6560198E+01)
 number of electron     861.0000000 magnetization       2.0000000
 augmentation part      861.0000000 magnetization       2.0000000

 Free energy of the ion-electron system (eV)
  ---------------------------------------------------
  alpha Z        PSCENC =      3085.66645011
  Ewald energy   TEWEN  =    -37258.44410282
  -Hartree energ DENC   =     -2024.81345890
  -exchange      EXHF   =         0.00000000
  -V(xc)+E(xc)   XCENC  =      2947.24026405
  PAW double counting   =     23428.64811967   -23551.69179075
  entropy T*S    EENTRO =        -0.00000000
  eigenvalues    EBANDS =      -384.08544389
  atomic energy  EATOM  =     31754.29708746
  Solvation  Ediel_sol  =         0.00000000
  ---------------------------------------------------
  free energy    TOTEN  =     -2003.18287507 eV

  energy without entropy =    -2003.18287507  energy(sigma->0) =    -2003.18287507


--------------------------------------------------------------------------------------------------------




--------------------------------------- Iteration      1(   5)  ---------------------------------------


     EDDAV:  cpu time      7.4413: real time      7.5080
       DOS:  cpu time      0.0016: real time      0.0016
    CHARGE:  cpu time      0.1054: real time      0.1060
    MIXING:  cpu time      0.0045: real time      0.0053
    --------------------------------------------
      LOOP:  cpu time      7.5528: real time      7.6209

 eigenvalue-minimisations  :  2600
 total energy-change (2. order) :-0.1756843E+00  (-0.1754017E+00)
 number of electron     861.9998804 magnetization       1.9999999
 augmentation part       21.5871986 magnetization       0.1176376

 Broyden mixing:
  rms(total) = 0.57876E+01    rms(broyden)= 0.57867E+01
  rms(prec ) = 0.67841E+01
  weight for this iteration     100.00

 Free energy of the ion-electron system (eV)
  ---------------------------------------------------
  alpha Z        PSCENC =      3085.66645011
  Ewald energy   TEWEN  =    -37258.44410282
  -Hartree energ DENC   =     -2024.81345890
  -exchange      EXHF   =         0.00000000
  -V(xc)+E(xc)   XCENC  =      2947.24026405
  PAW double counting   =     23428.64811967   -23551.69179075
  entropy T*S    EENTRO =        -0.00000000
  eigenvalues    EBANDS =      -384.26112815
  atomic energy  EATOM  =     31754.29708746
  Solvation  Ediel_sol  =         0.00000000
  ---------------------------------------------------
  free energy    TOTEN  =     -2003.35855932 eV

  energy without entropy =    -2003.35855932  energy(sigma->0) =    -2003.35855932


--------------------------------------------------------------------------------------------------------




--------------------------------------- Iteration      1(   6)  ---------------------------------------


    POTLOK:  cpu time      0.0886: real time      0.0895
    SETDIJ:  cpu time      0.0184: real time      0.0185
     EDDAV:  cpu time      7.1848: real time      7.2476
       DOS:  cpu time      0.0002: real time      0.0002
    CHARGE:  cpu time      0.1051: real time      0.1058
    MIXING:  cpu time      0.0037: real time      0.0037
    --------------------------------------------
      LOOP:  cpu time      7.4009: real time      7.4654

 eigenvalue-minimisations  :  2488
 total energy-change (2. order) : 0.5160114E+02  (-0.4039275E+01)
 number of electron     861.9998833 magnetization       1.9999999
 augmentation part       21.0404717 magnetization       0.1163409

 Broyden mixing:
  rms(total) = 0.34407E+01    rms(broyden)= 0.34407E+01
  rms(prec ) = 0.39321E+01
  weight for this iteration     100.00

 eigenvalues of (default mixing * dielectric matrix)
  average eigenvalue GAMMA=   2.0432
  2.0432

 Free energy of the ion-electron system (eV)
  ---------------------------------------------------
  alpha Z        PSCENC =      3085.66645011
  Ewald energy   TEWEN  =    -37258.44410282
  -Hartree energ DENC   =     -2435.63547592
  -exchange      EXHF   =         0.00000000
  -V(xc)+E(xc)   XCENC  =      2988.56440759
  PAW double counting   =     40684.59158903   -40820.49733787
  entropy T*S    EENTRO =        -0.00000000
  eigenvalues    EBANDS =        49.69996570
  atomic energy  EATOM  =     31754.29708746
  Solvation  Ediel_sol  =         0.00000000
  ---------------------------------------------------
  free energy    TOTEN  =     -1951.75741672 eV

  energy without entropy =    -1951.75741672  energy(sigma->0) =    -1951.75741672


--------------------------------------------------------------------------------------------------------




--------------------------------------- Iteration      1(   7)  ---------------------------------------


    POTLOK:  cpu time      0.0845: real time      0.0854
    SETDIJ:  cpu time      0.0188: real time      0.0189
     EDDAV:  cpu time      7.1993: real time      7.2623
       DOS:  cpu time      0.0004: real time      0.0004
    CHARGE:  cpu time      0.1044: real time      0.1050
    MIXING:  cpu time      0.0038: real time      0.0038
    --------------------------------------------
      LOOP:  cpu time      7.4111: real time      7.4758

 eigenvalue-minimisations  :  2496
 total energy-change (2. order) : 0.1709901E+02  (-0.4716654E+01)
 number of electron     861.9998863 magnetization       1.9999999
 augmentation part       20.4731227 magnetization       0.1057995

 Broyden mixing:
  rms(total) = 0.81336E+00    rms(broyden)= 0.81320E+00
  rms(prec ) = 0.83657E+00
  weight for this iteration     100.00

 eigenvalues of (default mixing * dielectric matrix)
  average eigenvalue GAMMA=   1.6502
  0.8955  2.4048

 Free energy of the ion-electron system (eV)
  ---------------------------------------------------
  alpha Z        PSCENC =      3085.66645011
  Ewald energy   TEWEN  =    -37258.44410282
  -Hartree energ DENC   =     -2972.16604794
  -exchange      EXHF   =         0.00000000
  -V(xc)+E(xc)   XCENC  =      3037.62747811
  PAW double counting   =     73413.26819450   -73561.62492448
  entropy T*S    EENTRO =        -0.00000000
  eigenvalues    EBANDS =       566.71745759
  atomic energy  EATOM  =     31754.29708746
  Solvation  Ediel_sol  =         0.00000000
  ---------------------------------------------------
  free energy    TOTEN  =     -1934.65840747 eV

  energy without entropy =    -1934.65840747  energy(sigma->0) =    -1934.65840747


--------------------------------------------------------------------------------------------------------




--------------------------------------- Iteration      1(   8)  ---------------------------------------


    POTLOK:  cpu time      0.0842: real time      0.0852
    SETDIJ:  cpu time      0.0182: real time      0.0183
     EDDAV:  cpu time      7.4319: real time      7.4967
       DOS:  cpu time      0.0022: real time      0.0023
    CHARGE:  cpu time      0.1036: real time      0.1042
    MIXING:  cpu time      0.0039: real time      0.0040
    --------------------------------------------
      LOOP:  cpu time      7.6441: real time      7.7106

 eigenvalue-minimisations  :  2600
 total energy-change (2. order) :-0.3142676E+00  (-0.2106491E+00)
 number of electron     861.9998861 magnetization       1.9999999
 augmentation part       20.5030577 magnetization       0.1071767

 Broyden mixing:
  rms(total) = 0.42360E+00    rms(broyden)= 0.42359E+00
  rms(prec ) = 0.43916E+00
  weight for this iteration     100.00

 eigenvalues of (default mixing * dielectric matrix)
  average eigenvalue GAMMA=   1.6533
  2.5443  1.6289  0.7867

 Free energy of the ion-electron system (eV)
  ---------------------------------------------------
  alpha Z        PSCENC =      3085.66645011
  Ewald energy   TEWEN  =    -37258.44410282
  -Hartree energ DENC   =     -2984.08264113
  -exchange      EXHF   =         0.00000000
  -V(xc)+E(xc)   XCENC  =      3039.11654394
  PAW double counting   =     78887.75228012   -79034.54788755
  entropy T*S    EENTRO =        -0.00000000
  eigenvalues    EBANDS =       575.26959479
  atomic energy  EATOM  =     31754.29708746
  Solvation  Ediel_sol  =         0.00000000
  ---------------------------------------------------
  free energy    TOTEN  =     -1934.97267508 eV

  energy without entropy =    -1934.97267508  energy(sigma->0) =    -1934.97267508


--------------------------------------------------------------------------------------------------------




--------------------------------------- Iteration      1(   9)  ---------------------------------------


    POTLOK:  cpu time      0.0849: real time      0.0870
    SETDIJ:  cpu time      0.0182: real time      0.0183
     EDDAV:  cpu time      7.3365: real time      7.4003
       DOS:  cpu time      0.0019: real time      0.0019
    CHARGE:  cpu time      0.1025: real time      0.1031
    MIXING:  cpu time      0.0040: real time      0.0041
    --------------------------------------------
      LOOP:  cpu time      7.5481: real time      7.6148

 eigenvalue-minimisations  :  2560
 total energy-change (2. order) :-0.7210834E-02  (-0.2630191E-01)
 number of electron     861.9998861 magnetization       1.9999999
 augmentation part       20.5227480 magnetization       0.1078272

 Broyden mixing:
  rms(total) = 0.10618E+00    rms(broyden)= 0.10617E+00
  rms(prec ) = 0.11289E+00
  weight for this iteration     100.00

 eigenvalues of (default mixing * dielectric matrix)
  average eigenvalue GAMMA=   1.5370
  2.5760  2.0059  0.8820  0.6840

 Free energy of the ion-electron system (eV)
  ---------------------------------------------------
  alpha Z        PSCENC =      3085.66645011
  Ewald energy   TEWEN  =    -37258.44410282
  -Hartree energ DENC   =     -2973.05683886
  -exchange      EXHF   =         0.00000000
  -V(xc)+E(xc)   XCENC  =      3038.32625295
  PAW double counting   =     82294.63420776   -82439.75164236
  entropy T*S    EENTRO =        -0.00000000
  eigenvalues    EBANDS =       563.34869984
  atomic energy  EATOM  =     31754.29708746
  Solvation  Ediel_sol  =         0.00000000
  ---------------------------------------------------
  free energy    TOTEN  =     -1934.97988592 eV

  energy without entropy =    -1934.97988592  energy(sigma->0) =    -1934.97988592


--------------------------------------------------------------------------------------------------------




--------------------------------------- Iteration      1(  10)  ---------------------------------------


    POTLOK:  cpu time      0.0842: real time      0.0851
    SETDIJ:  cpu time      0.0187: real time      0.0188
     EDDAV:  cpu time      7.3191: real time      7.3830
       DOS:  cpu time      0.0037: real time      0.0037
    CHARGE:  cpu time      0.1036: real time      0.1043
    MIXING:  cpu time      0.0047: real time      0.0047
    --------------------------------------------
      LOOP:  cpu time      7.5340: real time      7.5996

 eigenvalue-minimisations  :  2552
 total energy-change (2. order) :-0.3532276E-02  (-0.5619815E-02)
 number of electron     861.9998861 magnetization       1.9999999
 augmentation part       20.5201347 magnetization       0.1076990

 Broyden mixing:
  rms(total) = 0.43160E-01    rms(broyden)= 0.43157E-01
  rms(prec ) = 0.46198E-01
  weight for this iteration     100.00

 eigenvalues of (default mixing * dielectric matrix)
  average eigenvalue GAMMA=   1.4030
  2.5048  2.0576  1.0279  0.8095  0.6154

 Free energy of the ion-electron system (eV)
  ---------------------------------------------------
  alpha Z        PSCENC =      3085.66645011
  Ewald energy   TEWEN  =    -37258.44410282
  -Hartree energ DENC   =     -2968.93972663
  -exchange      EXHF   =         0.00000000
  -V(xc)+E(xc)   XCENC  =      3037.98442530
  PAW double counting   =     82458.99216613   -82603.82068478
  entropy T*S    EENTRO =        -0.00000000
  eigenvalues    EBANDS =       559.28096704
  atomic energy  EATOM  =     31754.29708746
  Solvation  Ediel_sol  =         0.00000000
  ---------------------------------------------------
  free energy    TOTEN  =     -1934.98341819 eV

  energy without entropy =    -1934.98341819  energy(sigma->0) =    -1934.98341819


--------------------------------------------------------------------------------------------------------




--------------------------------------- Iteration      1(  11)  ---------------------------------------


    POTLOK:  cpu time      0.0842: real time      0.0852
    SETDIJ:  cpu time      0.0185: real time      0.0186
     EDDAV:  cpu time      7.4737: real time      7.5389
       DOS:  cpu time      0.0005: real time      0.0005
    CHARGE:  cpu time      0.1036: real time      0.1042
    MIXING:  cpu time      0.0046: real time      0.0046
    --------------------------------------------
      LOOP:  cpu time      7.6850: real time      7.7520

 eigenvalue-minimisations  :  2616
 total energy-change (2. order) : 0.6670278E-05  (-0.6035195E-03)
 number of electron     861.9998861 magnetization       1.9999999
 augmentation part       20.5203115 magnetization       0.1073831

 Broyden mixing:
  rms(total) = 0.14606E-01    rms(broyden)= 0.14604E-01
  rms(prec ) = 0.16581E-01
  weight for this iteration     100.00

 eigenvalues of (default mixing * dielectric matrix)
  average eigenvalue GAMMA=   1.3339
  2.4829  2.0794  1.0291  1.0291  0.7756  0.6070

 Free energy of the ion-electron system (eV)
  ---------------------------------------------------
  alpha Z        PSCENC =      3085.66645011
  Ewald energy   TEWEN  =    -37258.44410282
  -Hartree energ DENC   =     -2968.40145629
  -exchange      EXHF   =         0.00000000
  -V(xc)+E(xc)   XCENC  =      3037.94011164
  PAW double counting   =     82364.83160433   -82509.64744003
  entropy T*S    EENTRO =        -0.00000000
  eigenvalues    EBANDS =       558.77433407
  atomic energy  EATOM  =     31754.29708746
  Solvation  Ediel_sol  =         0.00000000
  ---------------------------------------------------
  free energy    TOTEN  =     -1934.98341152 eV

  energy without entropy =    -1934.98341152  energy(sigma->0) =    -1934.98341152


--------------------------------------------------------------------------------------------------------




--------------------------------------- Iteration      1(  12)  ---------------------------------------


    POTLOK:  cpu time      0.0845: real time      0.0855
    SETDIJ:  cpu time      0.0181: real time      0.0182
     EDDAV:  cpu time      7.4453: real time      7.5104
       DOS:  cpu time      0.0012: real time      0.0012
    CHARGE:  cpu time      0.1035: real time      0.1041
    MIXING:  cpu time      0.0045: real time      0.0046
    --------------------------------------------
      LOOP:  cpu time      7.6572: real time      7.7241

 eigenvalue-minimisations  :  2608
 total energy-change (2. order) :-0.5321126E-03  (-0.1365521E-03)
 number of electron     861.9998861 magnetization       1.9999999
 augmentation part       20.5209057 magnetization       0.1073856

 Broyden mixing:
  rms(total) = 0.74202E-02    rms(broyden)= 0.74196E-02
  rms(prec ) = 0.83181E-02
  weight for this iteration     100.00

 eigenvalues of (default mixing * dielectric matrix)
  average eigenvalue GAMMA=   1.3364
  2.4614  2.1193  1.2817  1.2817  0.8705  0.7325  0.6078

 Free energy of the ion-electron system (eV)
  ---------------------------------------------------
  alpha Z        PSCENC =      3085.66645011
  Ewald energy   TEWEN  =    -37258.44410282
  -Hartree energ DENC   =     -2968.43708689
  -exchange      EXHF   =         0.00000000
  -V(xc)+E(xc)   XCENC  =      3037.94734503
  PAW double counting   =     82358.09597253   -82502.88875592
  entropy T*S    EENTRO =        -0.00000000
  eigenvalues    EBANDS =       558.77914686
  atomic energy  EATOM  =     31754.29708746
  Solvation  Ediel_sol  =         0.00000000
  ---------------------------------------------------
  free energy    TOTEN  =     -1934.98394364 eV

  energy without entropy =    -1934.98394364  energy(sigma->0) =    -1934.98394364


--------------------------------------------------------------------------------------------------------




--------------------------------------- Iteration      1(  13)  ---------------------------------------


    POTLOK:  cpu time      0.0844: real time      0.0865
    SETDIJ:  cpu time      0.0183: real time      0.0184
     EDDAV:  cpu time      7.4537: real time      7.5174
       DOS:  cpu time      0.0015: real time      0.0016
    CHARGE:  cpu time      0.1042: real time      0.1049
    MIXING:  cpu time      0.0047: real time      0.0048
    --------------------------------------------
      LOOP:  cpu time      7.6669: real time      7.7335

 eigenvalue-minimisations  :  2608
 total energy-change (2. order) :-0.2672490E-03  (-0.3329263E-04)
 number of electron     861.9998861 magnetization       1.9999999
 augmentation part       20.5207839 magnetization       0.1073658

 Broyden mixing:
  rms(total) = 0.37921E-02    rms(broyden)= 0.37918E-02
  rms(prec ) = 0.42938E-02
  weight for this iteration     100.00

 eigenvalues of (default mixing * dielectric matrix)
  average eigenvalue GAMMA=   1.3504
  2.3510  2.3510  1.8846  1.0336  1.0336  0.8176  0.7205  0.6109

 Free energy of the ion-electron system (eV)
  ---------------------------------------------------
  alpha Z        PSCENC =      3085.66645011
  Ewald energy   TEWEN  =    -37258.44410282
  -Hartree energ DENC   =     -2968.66747354
  -exchange      EXHF   =         0.00000000
  -V(xc)+E(xc)   XCENC  =      3037.96950612
  PAW double counting   =     82330.44256999   -82475.23287076
  entropy T*S    EENTRO =        -0.00000000
  eigenvalues    EBANDS =       558.98462255
  atomic energy  EATOM  =     31754.29708746
  Solvation  Ediel_sol  =         0.00000000
  ---------------------------------------------------
  free energy    TOTEN  =     -1934.98421089 eV

  energy without entropy =    -1934.98421089  energy(sigma->0) =    -1934.98421089


--------------------------------------------------------------------------------------------------------




--------------------------------------- Iteration      1(  14)  ---------------------------------------


    POTLOK:  cpu time      0.0842: real time      0.0851
    SETDIJ:  cpu time      0.0181: real time      0.0182
     EDDAV:  cpu time      7.4544: real time      7.5192
       DOS:  cpu time      0.0006: real time      0.0006
    CHARGE:  cpu time      0.1023: real time      0.1030
    MIXING:  cpu time      0.0049: real time      0.0050
    --------------------------------------------
      LOOP:  cpu time      7.6645: real time      7.7311

 eigenvalue-minimisations  :  2608
 total energy-change (2. order) :-0.9052375E-04  (-0.7997956E-05)
 number of electron     861.9998861 magnetization       1.9999999
 augmentation part       20.5207325 magnetization       0.1073352

 Broyden mixing:
  rms(total) = 0.17189E-02    rms(broyden)= 0.17188E-02
  rms(prec ) = 0.19585E-02
  weight for this iteration     100.00

 eigenvalues of (default mixing * dielectric matrix)
  average eigenvalue GAMMA=   1.3823
  2.5469  2.5469  2.0184  1.1701  1.1701  0.8961  0.6156  0.7704  0.7060

 Free energy of the ion-electron system (eV)
  ---------------------------------------------------
  alpha Z        PSCENC =      3085.66645011
  Ewald energy   TEWEN  =    -37258.44410282
  -Hartree energ DENC   =     -2968.87992343
  -exchange      EXHF   =         0.00000000
  -V(xc)+E(xc)   XCENC  =      3037.98982546
  PAW double counting   =     82313.56316739   -82458.35272037
  entropy T*S    EENTRO =        -0.00000000
  eigenvalues    EBANDS =       559.17591480
  atomic energy  EATOM  =     31754.29708746
  Solvation  Ediel_sol  =         0.00000000
  ---------------------------------------------------
  free energy    TOTEN  =     -1934.98430141 eV

  energy without entropy =    -1934.98430141  energy(sigma->0) =    -1934.98430141


--------------------------------------------------------------------------------------------------------




--------------------------------------- Iteration      1(  15)  ---------------------------------------


    POTLOK:  cpu time      0.0842: real time      0.0852
    SETDIJ:  cpu time      0.0182: real time      0.0182
     EDDAV:  cpu time      7.1377: real time      7.1991
       DOS:  cpu time      0.0004: real time      0.0004
    CHARGE:  cpu time      0.1042: real time      0.1048
    MIXING:  cpu time      0.0059: real time      0.0060
    --------------------------------------------
      LOOP:  cpu time      7.3505: real time      7.4137

 eigenvalue-minimisations  :  2472
 total energy-change (2. order) :-0.1032710E-04  (-0.1460990E-05)
 number of electron     861.9998861 magnetization       1.9999999
 augmentation part       20.5207448 magnetization       0.1073522

 Broyden mixing:
  rms(total) = 0.73379E-03    rms(broyden)= 0.73376E-03
  rms(prec ) = 0.82425E-03
  weight for this iteration     100.00

 eigenvalues of (default mixing * dielectric matrix)
  average eigenvalue GAMMA=   1.3654
  2.6816  2.5360  2.0295  1.3000  1.3000  0.9096  0.7999  0.7999  0.6203  0.6773

 Free energy of the ion-electron system (eV)
  ---------------------------------------------------
  alpha Z        PSCENC =      3085.66645011
  Ewald energy   TEWEN  =    -37258.44410282
  -Hartree energ DENC   =     -2968.98866204
  -exchange      EXHF   =         0.00000000
  -V(xc)+E(xc)   XCENC  =      3038.00044482
  PAW double counting   =     82314.67595380   -82459.46331915
  entropy T*S    EENTRO =        -0.00000000
  eigenvalues    EBANDS =       559.27183609
  atomic energy  EATOM  =     31754.29708746
  Solvation  Ediel_sol  =         0.00000000
  ---------------------------------------------------
  free energy    TOTEN  =     -1934.98431174 eV

  energy without entropy =    -1934.98431174  energy(sigma->0) =    -1934.98431174


--------------------------------------------------------------------------------------------------------




--------------------------------------- Iteration      1(  16)  ---------------------------------------


    POTLOK:  cpu time      0.0842: real time      0.0851
    SETDIJ:  cpu time      0.0181: real time      0.0182
     EDDAV:  cpu time      5.8432: real time      5.8937
       DOS:  cpu time      0.0002: real time      0.0002
    --------------------------------------------
      LOOP:  cpu time      5.9456: real time      5.9972

 eigenvalue-minimisations  :  1896
 total energy-change (2. order) :-0.4206959E-07  (-0.2751540E-06)
 number of electron     861.9998861 magnetization       1.9999999
 augmentation part       20.5207448 magnetization       0.1073522

 Free energy of the ion-electron system (eV)
  ---------------------------------------------------
  alpha Z        PSCENC =      3085.66645011
  Ewald energy   TEWEN  =    -37258.44410282
  -Hartree energ DENC   =     -2969.02393934
  -exchange      EXHF   =         0.00000000
  -V(xc)+E(xc)   XCENC  =      3038.00374914
  PAW double counting   =     82314.78162867   -82459.56906226
  entropy T*S    EENTRO =        -0.00000000
  eigenvalues    EBANDS =       559.30387726
  atomic energy  EATOM  =     31754.29708746
  Solvation  Ediel_sol  =         0.00000000
  ---------------------------------------------------
  free energy    TOTEN  =     -1934.98431178 eV

  energy without entropy =    -1934.98431178  energy(sigma->0) =    -1934.98431178


--------------------------------------------------------------------------------------------------------




 average (electrostatic) potential at core
  the test charge radii are     0.6991  0.7089
  (the norm of the test charge is              1.0000)
       1 -45.6940       2 -45.6303       3 -45.6791       4 -45.6263       5 -45.5333
       6 -45.6072       7 -45.6577       8 -45.5768       9 -45.6223      10 -45.6791
      11 -45.6347      12 -45.6542      13 -45.6072      14 -45.4738      15 -45.4960
      16 -45.6223      17 -45.4100      18 -45.6086      19 -45.6303      20 -45.5591
      21 -45.6347      22 -45.5333      23 -43.7943      24 -45.4738      25 -45.5768
      26 -45.2426      27 -45.4100      28 -45.6791      29 -45.6347      30 -45.6542
      31 -45.6303      32 -45.5591      33 -45.6347      34 -45.6940      35 -45.6303
      36 -45.6791      37 -45.6072      38 -45.4738      39 -45.4960      40 -45.5333
      41 -43.7943      42 -45.4738      43 -45.6263      44 -45.5333      45 -45.6072
      46 -45.6223      47 -45.4100      48 -45.6086      49 -45.5768      50 -45.2426
      51 -45.4100      52 -45.6577      53 -45.5768      54 -45.6223      55 -45.6760
      56 -45.6493      57 -45.7059      58 -45.6242      59 -45.5920      60 -45.6493
      61 -45.6162      62 -45.6242      63 -45.6760      64 -45.6242      65 -45.5920
      66 -45.6493      67 -45.2907      68 -45.5920      69 -45.3675      70 -45.2907
      71 -45.6242      72 -45.6162      73 -45.6242      74 -45.6760      75 -45.3675
      76 -45.2907      77 -45.6242      78 -45.5389      79 -45.3675      80 -45.6162
      81 -45.6223      82 -45.6072      83 -45.6791      84 -45.5768      85 -45.5333
      86 -45.6303      87 -45.6577      88 -45.6263      89 -45.6940      90 -45.6086
      91 -45.4960      92 -45.6542      93 -45.4100      94 -45.4738      95 -45.6347
      96 -45.6223      97 -45.6072      98 -45.6791      99 -45.4100     100 -45.4738
     101 -45.6347     102 -45.2426     103 -43.7943     104 -45.5591     105 -45.5768
     106 -45.5333     107 -45.6303     108 -45.6945     109 -45.6287     110 -45.6524
     111 -45.6524     112 -45.5027     113 -45.5419     114 -45.6287     115 -45.4951
     116 -45.5027     117 -45.7062     118 -45.6526     119 -45.6589     120 -45.6589
     121 -45.6223     122 -45.6035     123 -45.6526     124 -45.5131     125 -45.6223
     126 -45.6285     127 -45.5809     128 -45.6018     129 -45.6018     130 -45.1658
     131 -46.0288     132 -45.5809     133 -45.0492     134 -45.1658     135 -45.7062
     136 -45.6526     137 -45.6589     138 -45.6285     139 -45.5809     140 -45.6018
     141 -45.6945     142 -45.6287     143 -45.6524     144 -45.6589     145 -45.6223
     146 -45.6035     147 -45.6018     148 -45.1658     149 -46.0288     150 -45.6524
     151 -45.5027     152 -45.5419     153 -45.6526     154 -45.5131     155 -45.6223
     156 -45.5809     157 -45.0492     158 -45.1658     159 -45.6287     160 -45.4951
     161 -45.5027     162 -45.6945     163 -45.6285     164 -45.7062     165 -45.6524
     166 -45.6018     167 -45.6589     168 -45.6287     169 -45.5809     170 -45.6526
     171 -45.6524     172 -45.6018     173 -45.6589     174 -45.5419     175 -46.0288
     176 -45.6035     177 -45.5027     178 -45.1658     179 -45.6223     180 -45.6287
     181 -45.5809     182 -45.6526     183 -45.5027     184 -45.1658     185 -45.6223
     186 -45.4951     187 -45.0492     188 -45.5131     189 -45.6525     190 -45.5590
     191 -45.6759     192 -45.5248     193 -45.4171     194 -45.5590     195 -45.6367
     196 -45.5248     197 -45.6525     198 -45.6759     199 -45.6136     200 -45.6853
     201 -45.5590     202 -45.5260     203 -45.6136     204 -45.6525     205 -45.5590
     206 -45.6759     207 -45.5590     208 -45.5260     209 -45.6136     210 -45.4171
     211 -45.5260     212 -45.5248     213 -45.4171     214 -45.5590     215 -59.3496
 
 
 
 E-fermi :  10.8474     XC(G=0): -13.1984     alpha+bet :-17.4791

 val. band max:       11.4024519242   @ k =   0.0000   0.0000   0.0000
 cond. band min:      12.6588464264   @ k =   0.0000   0.0000   0.0000
 fundamental gap:      1.2563945021
 Fermi energy:        11.4730964624

 spin component 1

 k-point     1 :       0.0000    0.0000    0.0000
  band No.  band energies     occupation 
      1     -11.8792      1.00000
      2     -11.0588      1.00000
      3     -10.8719      1.00000
      4     -10.8719      1.00000
      5     -10.8295      1.00000
      6     -10.8295      1.00000
      7     -10.7463      1.00000
      8     -10.2204      1.00000
      9      -9.8720      1.00000
     10      -9.8720      1.00000
     11      -9.8640      1.00000
     12      -9.8640      1.00000
     13      -9.8512      1.00000
     14      -9.8266      1.00000
     15      -9.8266      1.00000
     16      -9.8141      1.00000
     17      -9.7744      1.00000
     18      -9.7744      1.00000
     19      -9.6028      1.00000
     20      -9.1068      1.00000
     21      -8.8496      1.00000
     22      -8.8448      1.00000
     23      -8.8448      1.00000
     24      -8.8217      1.00000
     25      -8.8215      1.00000
     26      -8.8215      1.00000
     27      -8.6609      1.00000
     28      -8.0526      1.00000
     29      -7.8590      1.00000
     30      -7.8590      1.00000
     31      -7.8384      1.00000
     32      -7.8384      1.00000
     33      -7.7805      1.00000
     34      -7.4636      1.00000
     35      -6.9706      1.00000
     36      -6.9706      1.00000
     37      -6.9623      1.00000
     38      -6.9623      1.00000
     39      -6.9610      1.00000
     40      -6.9492      1.00000
     41      -6.9483      1.00000
     42      -6.9483      1.00000
     43      -6.9352      1.00000
     44      -6.9290      1.00000
     45      -6.9290      1.00000
     46      -6.9233      1.00000
     47      -6.9233      1.00000
     48      -6.9219      1.00000
     49      -6.8968      1.00000
     50      -6.8968      1.00000
     51      -6.8865      1.00000
     52      -6.8834      1.00000
     53      -6.8834      1.00000
     54      -6.8572      1.00000
     55      -6.7991      1.00000
     56      -6.7991      1.00000
     57      -6.6229      1.00000
     58      -6.4252      1.00000
     59      -6.2029      1.00000
     60      -6.2029      1.00000
     61      -6.1733      1.00000
     62      -6.1733      1.00000
     63      -6.1713      1.00000
     64      -6.1623      1.00000
     65      -6.1538      1.00000
     66      -6.1538      1.00000
     67      -6.1496      1.00000
     68      -6.1434      1.00000
     69      -6.1434      1.00000
     70      -6.1194      1.00000
     71      -6.1169      1.00000
     72      -6.1169      1.00000
     73      -6.0967      1.00000
     74      -6.0967      1.00000
     75      -6.0672      1.00000
     76      -6.0672      1.00000
     77      -6.0664      1.00000
     78      -6.0272      1.00000
     79      -5.9271      1.00000
     80      -5.9271      1.00000
     81      -5.2538      1.00000
     82      -4.6654      1.00000
     83      -4.4993      1.00000
     84      -4.4993      1.00000
     85      -4.4647      1.00000
     86      -4.4647      1.00000
     87      -4.4547      1.00000
     88      -4.4528      1.00000
     89      -4.4528      1.00000
     90      -4.4444      1.00000
     91      -4.4010      1.00000
     92      -4.4010      1.00000
     93      -4.0527      1.00000
     94      -3.2490      1.00000
     95      -3.1970      1.00000
     96      -3.1970      1.00000
     97      -3.1739      1.00000
     98      -3.1739      1.00000
     99      -3.1331      1.00000
    100      -2.9202      1.00000
    101      -2.7432      1.00000
    102      -2.7432      1.00000
    103      -2.7041      1.00000
    104      -2.6957      1.00000
    105      -2.6957      1.00000
    106      -2.6831      1.00000
    107      -2.6831      1.00000
    108      -2.6830      1.00000
    109      -2.6789      1.00000
    110      -2.6667      1.00000
    111      -2.6667      1.00000
    112      -2.6540      1.00000
    113      -2.6540      1.00000
    114      -2.6335      1.00000
    115      -2.6056      1.00000
    116      -2.5900      1.00000
    117      -2.5900      1.00000
    118      -2.5605      1.00000
    119      -2.5561      1.00000
    120      -2.5561      1.00000
    121      -2.5465      1.00000
    122      -2.5465      1.00000
    123      -2.5020      1.00000
    124      -2.4773      1.00000
    125      -2.4773      1.00000
    126      -2.4715      1.00000
    127      -2.4549      1.00000
    128      -2.4549      1.00000
    129      -2.4545      1.00000
    130      -2.4478      1.00000
    131      -2.4458      1.00000
    132      -2.4458      1.00000
    133      -2.4381      1.00000
    134      -2.4213      1.00000
    135      -2.4213      1.00000
    136      -2.4006      1.00000
    137      -2.4002      1.00000
    138      -2.4002      1.00000
    139      -2.3915      1.00000
    140      -2.3915      1.00000
    141      -2.3883      1.00000
    142      -2.3883      1.00000
    143      -2.3783      1.00000
    144      -2.1549      1.00000
    145      -2.0487      1.00000
    146      -2.0487      1.00000
    147      -1.6563      1.00000
    148      -1.3994      1.00000
    149      -1.3994      1.00000
    150      -1.3990      1.00000
    151      -1.3532      1.00000
    152      -1.3526      1.00000
    153      -1.3526      1.00000
    154      -1.3498      1.00000
    155      -1.3239      1.00000
    156      -1.3239      1.00000
    157      -1.2015      1.00000
    158      -1.2015      1.00000
    159      -0.2323      1.00000
    160       0.1261      1.00000
    161       0.1261      1.00000
    162       0.1369      1.00000
    163       0.1975      1.00000
    164       0.2027      1.00000
    165       0.2067      1.00000
    166       0.2067      1.00000
    167       0.2116      1.00000
    168       0.2122      1.00000
    169       0.2122      1.00000
    170       0.2212      1.00000
    171       0.2295      1.00000
    172       0.2303      1.00000
    173       0.2303      1.00000
    174       0.2486      1.00000
    175       0.2486      1.00000
    176       0.3695      1.00000
    177       0.3695      1.00000
    178       0.3790      1.00000
    179       0.4022      1.00000
    180       0.7558      1.00000
    181       0.7558      1.00000
    182       0.7772      1.00000
    183       0.8530      1.00000
    184       0.8563      1.00000
    185       0.8617      1.00000
    186       0.8617      1.00000
    187       0.8619      1.00000
    188       0.8619      1.00000
    189       0.8740      1.00000
    190       0.8740      1.00000
    191       0.8763      1.00000
    192       0.8847      1.00000
    193       0.8847      1.00000
    194       0.8894      1.00000
    195       0.8939      1.00000
    196       0.8939      1.00000
    197       0.9105      1.00000
    198       0.9153      1.00000
    199       0.9153      1.00000
    200       0.9185      1.00000
    201       1.1185      1.00000
    202       1.1185      1.00000
    203       1.6584      1.00000
    204       1.6584      1.00000
    205       1.6682      1.00000
    206       1.7225      1.00000
    207       1.7236      1.00000
    208       1.7236      1.00000
    209       1.7268      1.00000
    210       1.7337      1.00000
    211       1.7337      1.00000
    212       1.7449      1.00000
    213       1.7449      1.00000
    214       1.7511      1.00000
    215       1.7638      1.00000
    216       1.7638      1.00000
    217       1.8149      1.00000
    218       1.8149      1.00000
    219       1.8158      1.00000
    220       1.8303      1.00000
    221       1.8379      1.00000
    222       1.8693      1.00000
    223       1.8693      1.00000
    224       1.9360      1.00000
    225       1.9480      1.00000
    226       1.9480      1.00000
    227       2.0124      1.00000
    228       2.1472      1.00000
    229       2.1472      1.00000
    230       2.2256      1.00000
    231       2.2462      1.00000
    232       2.2462      1.00000
    233       2.2573      1.00000
    234       2.2614      1.00000
    235       2.2614      1.00000
    236       2.2667      1.00000
    237       2.2667      1.00000
    238       2.2684      1.00000
    239       2.2736      1.00000
    240       2.2840      1.00000
    241       2.2922      1.00000
    242       2.2922      1.00000
    243       2.3089      1.00000
    244       2.3089      1.00000
    245       2.3125      1.00000
    246       2.3200      1.00000
    247       2.3362      1.00000
    248       2.3362      1.00000
    249       2.3386      1.00000
    250       2.3679      1.00000
    251       2.3679      1.00000
    252       2.4061      1.00000
    253       2.4061      1.00000
    254       2.7058      1.00000
    255       2.7400      1.00000
    256       2.7400      1.00000
    257       3.2540      1.00000
    258       3.2540      1.00000
    259       3.3126      1.00000
    260       3.3320      1.00000
    261       3.3404      1.00000
    262       3.3404      1.00000
    263       3.4393      1.00000
    264       3.7739      1.00000
    265       3.7739      1.00000
    266       3.8513      1.00000
    267       3.8564      1.00000
    268       3.8564      1.00000
    269       3.8703      1.00000
    270       3.8717      1.00000
    271       3.8717      1.00000
    272       3.8987      1.00000
    273       3.9523      1.00000
    274       3.9523      1.00000
    275       4.1232      1.00000
    276       4.1232      1.00000
    277       4.2358      1.00000
    278       4.2627      1.00000
    279       4.2678      1.00000
    280       4.2710      1.00000
    281       4.2710      1.00000
    282       4.2733      1.00000
    283       4.2733      1.00000
    284       4.3010      1.00000
    285       4.3289      1.00000
    286       4.3289      1.00000
    287       4.3343      1.00000
    288       4.4707      1.00000
    289       4.4707      1.00000
    290       4.4926      1.00000
    291       4.5208      1.00000
    292       4.5252      1.00000
    293       4.5252      1.00000
    294       4.5360      1.00000
    295       4.5404      1.00000
    296       4.5404      1.00000
    297       4.5433      1.00000
    298       4.5433      1.00000
    299       4.5536      1.00000
    300       4.5540      1.00000
    301       4.5617      1.00000
    302       4.5617      1.00000
    303       4.5892      1.00000
    304       4.5892      1.00000
    305       4.5997      1.00000
    306       4.5997      1.00000
    307       4.6018      1.00000
    308       4.6087      1.00000
    309       4.6087      1.00000
    310       4.6166      1.00000
    311       4.6686      1.00000
    312       4.6686      1.00000
    313       4.6956      1.00000
    314       4.7190      1.00000
    315       4.7299      1.00000
    316       4.7345      1.00000
    317       4.7345      1.00000
    318       4.7370      1.00000
    319       4.7391      1.00000
    320       4.7391      1.00000
    321       4.7411      1.00000
    322       4.7411      1.00000
    323       4.7492      1.00000
    324       4.7519      1.00000
    325       4.7519      1.00000
    326       4.7523      1.00000
    327       4.7608      1.00000
    328       4.7608      1.00000
    329       4.7631      1.00000
    330       4.7631      1.00000
    331       4.7634      1.00000
    332       4.7726      1.00000
    333       4.7759      1.00000
    334       4.7759      1.00000
    335       4.7800      1.00000
    336       4.7893      1.00000
    337       4.7893      1.00000
    338       4.7909      1.00000
    339       4.8138      1.00000
    340       4.8138      1.00000
    341       4.8247      1.00000
    342       4.8301      1.00000
    343       4.8301      1.00000
    344       4.8493      1.00000
    345       4.8493      1.00000
    346       4.8814      1.00000
    347       4.8815      1.00000
    348       4.8815      1.00000
    349       4.8998      1.00000
    350       4.9353      1.00000
    351       4.9353      1.00000
    352       4.9401      1.00000
    353       4.9517      1.00000
    354       5.0357      1.00000
    355       5.0357      1.00000
    356       5.3146      1.00000
    357       5.3190      1.00000
    358       5.3190      1.00000
    359       5.4934      1.00000
    360       5.4934      1.00000
    361       5.5552      1.00000
    362       5.5572      1.00000
    363       5.5572      1.00000
    364       5.5661      1.00000
    365       5.5906      1.00000
    366       5.5946      1.00000
    367       5.5946      1.00000
    368       5.5997      1.00000
    369       5.6147      1.00000
    370       5.6147      1.00000
    371       5.6214      1.00000
    372       5.6214      1.00000
    373       5.6272      1.00000
    374       5.6308      1.00000
    375       5.6308      1.00000
    376       5.6555      1.00000
    377       5.6968      1.00000
    378       5.6968      1.00000
    379       5.7548      1.00000
    380       6.4228      1.00000
    381       6.5297      1.00000
    382       6.5297      1.00000
    383       6.8607      1.00000
    384       6.9194      1.00000
    385       6.9194      1.00000
    386       6.9729      1.00000
    387       6.9729      1.00000
    388       6.9729      1.00000
    389       6.9921      1.00000
    390       6.9949      1.00000
    391       6.9949      1.00000
    392       6.9982      1.00000
    393       7.0672      1.00000
    394       7.0672      1.00000
    395       7.0772      1.00000
    396       7.1671      1.00000
    397       7.1671      1.00000
    398       7.2261      1.00000
    399       7.2299      1.00000
    400       7.2299      1.00000
    401       7.2356      1.00000
    402       7.2356      1.00000
    403       7.2402      1.00000
    404       7.2402      1.00000
    405       7.2493      1.00000
    406       7.2669      1.00000
    407       7.2669      1.00000
    408       7.2926      1.00000
    409       7.2932      1.00000
    410       7.2932      1.00000
    411       7.2978      1.00000
    412       7.3236      1.00000
    413       7.3236      1.00000
    414       7.8940      1.00000
    415       7.9138      1.00000
    416       7.9138      1.00000
    417       8.1389      1.00000
    418       8.1389      1.00000
    419       8.1514      1.00000
    420       8.1744      1.00000
    421       8.1767      1.00000
    422       8.1767      1.00000
    423       8.1975      1.00000
    424       8.2376      1.00000
    425       8.2376      1.00000
    426       8.2475      1.00000
    427       9.3169      1.00000
    428       9.4008      1.00000
    429       9.4008      1.00000
    430      10.2785      1.00000
    431      11.4025      1.00000
    432      11.4025      1.00000
    433      13.6749      0.00000
    434      13.6749      0.00000
    435      13.6932      0.00000
    436      13.7295      0.00000
    437      13.7295      0.00000
    438      13.7515      0.00000
    439      14.2418      0.00000
    440      14.3115      0.00000
    441      14.3115      0.00000
    442      14.3282      0.00000
    443      14.3282      0.00000
    444      14.3897      0.00000
    445      14.4584      0.00000
    446      14.4584      0.00000
    447      14.5116      0.00000
    448      14.5579      0.00000
    449      14.5579      0.00000
    450      14.5834      0.00000
    451      15.1904      0.00000
    452      15.1904      0.00000
    453      15.2042      0.00000
    454      15.7640      0.00000
    455      15.8438      0.00000
    456      15.8438      0.00000
    457      15.8594      0.00000
    458      15.8915      0.00000
    459      15.8915      0.00000
    460      15.9035      0.00000
    461      15.9035      0.00000
    462      15.9148      0.00000
    463      15.9229      0.00000
    464      15.9229      0.00000
    465      15.9612      0.00000
    466      16.3900      0.00000
    467      16.5590      0.00000
    468      16.5590      0.00000
    469      16.5901      0.00000
    470      16.5913      0.00000
    471      16.5913      0.00000
    472      16.5976      0.00000
    473      16.5986      0.00000
    474      16.5986      0.00000
    475      16.6052      0.00000
    476      16.6052      0.00000
    477      16.6220      0.00000
    478      16.6250      0.00000
    479      16.6250      0.00000
    480      16.6289      0.00000
    481      16.6549      0.00000
    482      16.6559      0.00000
    483      16.6559      0.00000
    484      16.7015      0.00000
    485      16.7015      0.00000
    486      16.7146      0.00000
    487      16.7410      0.00000
    488      16.7410      0.00000
    489      16.7413      0.00000
    490      17.0192      0.00000
    491      17.0404      0.00000
    492      17.0404      0.00000
    493      17.0840      0.00000
    494      17.0865      0.00000
    495      17.1024      0.00000
    496      17.1025      0.00000
    497      17.1077      0.00000
    498      17.1100      0.00000
    499      17.1100      0.00000
    500      17.1213      0.00000
    501      17.1214      0.00000
    502      17.1456      0.00000
    503      17.1593      0.00000
    504      17.1593      0.00000
    505      17.1833      0.00000
    506      17.1834      0.00000
    507      17.1842      0.00000
    508      17.1988      0.00000
    509      17.1989      0.00000
    510      17.1993      0.00000
    511      17.2037      0.00000
    512      17.2265      0.00000
    513      17.2267      0.00000
    514      17.2289      0.00000
    515      17.2387      0.00000
    516      17.2387      0.00000
    517      17.2414      0.00000
    518      17.2416      0.00000
    519      17.2687      0.00000
    520      17.2690      0.00000
    521      17.2779      0.00000
    522      17.2860      0.00000
    523      17.2866      0.00000
    524      17.3002      0.00000
    525      17.3211      0.00000
    526      17.3785      0.00000
    527      17.3930      0.00000
    528      17.3940      0.00000
    529      17.4522      0.00000
    530      17.4563      0.00000
    531      17.4714      0.00000
    532      17.6190      0.00000
    533      17.6867      0.00000
    534      17.7073      0.00000
    535      17.7252      0.00000
    536      17.7367      0.00000
    537      17.7484      0.00000
    538      17.7568      0.00000
    539      17.7782      0.00000
    540      17.7859      0.00000
 Fermi energy:        10.8474326329

 spin component 2

 k-point     1 :       0.0000    0.0000    0.0000
  band No.  band energies     occupation 
      1     -11.8740      1.00000
      2     -11.0556      1.00000
      3     -10.8692      1.00000
      4     -10.8692      1.00000
      5     -10.8224      1.00000
      6     -10.8224      1.00000
      7     -10.7349      1.00000
      8     -10.2170      1.00000
      9      -9.8699      1.00000
     10      -9.8699      1.00000
     11      -9.8618      1.00000
     12      -9.8618      1.00000
     13      -9.8467      1.00000
     14      -9.8200      1.00000
     15      -9.8200      1.00000
     16      -9.8109      1.00000
     17      -9.7582      1.00000
     18      -9.7582      1.00000
     19      -9.5806      1.00000
     20      -9.1021      1.00000
     21      -8.8447      1.00000
     22      -8.8384      1.00000
     23      -8.8384      1.00000
     24      -8.8152      1.00000
     25      -8.8064      1.00000
     26      -8.8064      1.00000
     27      -8.6375      1.00000
     28      -8.0407      1.00000
     29      -7.8535      1.00000
     30      -7.8535      1.00000
     31      -7.8286      1.00000
     32      -7.8286      1.00000
     33      -7.7729      1.00000
     34      -7.4513      1.00000
     35      -6.9674      1.00000
     36      -6.9674      1.00000
     37      -6.9599      1.00000
     38      -6.9594      1.00000
     39      -6.9594      1.00000
     40      -6.9460      1.00000
     41      -6.9445      1.00000
     42      -6.9445      1.00000
     43      -6.9337      1.00000
     44      -6.9267      1.00000
     45      -6.9267      1.00000
     46      -6.9195      1.00000
     47      -6.9191      1.00000
     48      -6.9191      1.00000
     49      -6.8842      1.00000
     50      -6.8842      1.00000
     51      -6.8757      1.00000
     52      -6.8731      1.00000
     53      -6.8731      1.00000
     54      -6.8542      1.00000
     55      -6.7739      1.00000
     56      -6.7739      1.00000
     57      -6.6109      1.00000
     58      -6.4217      1.00000
     59      -6.2009      1.00000
     60      -6.2009      1.00000
     61      -6.1688      1.00000
     62      -6.1688      1.00000
     63      -6.1687      1.00000
     64      -6.1599      1.00000
     65      -6.1487      1.00000
     66      -6.1487      1.00000
     67      -6.1407      1.00000
     68      -6.1383      1.00000
     69      -6.1383      1.00000
     70      -6.1122      1.00000
     71      -6.1122      1.00000
     72      -6.1120      1.00000
     73      -6.0924      1.00000
     74      -6.0924      1.00000
     75      -6.0554      1.00000
     76      -6.0542      1.00000
     77      -6.0542      1.00000
     78      -6.0181      1.00000
     79      -5.8638      1.00000
     80      -5.8638      1.00000
     81      -5.1943      1.00000
     82      -4.6576      1.00000
     83      -4.4952      1.00000
     84      -4.4952      1.00000
     85      -4.4550      1.00000
     86      -4.4550      1.00000
     87      -4.4503      1.00000
     88      -4.4467      1.00000
     89      -4.4467      1.00000
     90      -4.4385      1.00000
     91      -4.3700      1.00000
     92      -4.3700      1.00000
     93      -3.9937      1.00000
     94      -3.2369      1.00000
     95      -3.1935      1.00000
     96      -3.1935      1.00000
     97      -3.1665      1.00000
     98      -3.1665      1.00000
     99      -3.1264      1.00000
    100      -2.9007      1.00000
    101      -2.7402      1.00000
    102      -2.7402      1.00000
    103      -2.7037      1.00000
    104      -2.6938      1.00000
    105      -2.6938      1.00000
    106      -2.6806      1.00000
    107      -2.6803      1.00000
    108      -2.6803      1.00000
    109      -2.6770      1.00000
    110      -2.6626      1.00000
    111      -2.6626      1.00000
    112      -2.6508      1.00000
    113      -2.6508      1.00000
    114      -2.6271      1.00000
    115      -2.5935      1.00000
    116      -2.5807      1.00000
    117      -2.5807      1.00000
    118      -2.5553      1.00000
    119      -2.5487      1.00000
    120      -2.5487      1.00000
    121      -2.5239      1.00000
    122      -2.5239      1.00000
    123      -2.4991      1.00000
    124      -2.4738      1.00000
    125      -2.4738      1.00000
    126      -2.4639      1.00000
    127      -2.4518      1.00000
    128      -2.4510      1.00000
    129      -2.4510      1.00000
    130      -2.4452      1.00000
    131      -2.4400      1.00000
    132      -2.4400      1.00000
    133      -2.4277      1.00000
    134      -2.4164      1.00000
    135      -2.4164      1.00000
    136      -2.3946      1.00000
    137      -2.3946      1.00000
    138      -2.3938      1.00000
    139      -2.3827      1.00000
    140      -2.3827      1.00000
    141      -2.3712      1.00000
    142      -2.3712      1.00000
    143      -2.3464      1.00000
    144      -2.1397      1.00000
    145      -1.9988      1.00000
    146      -1.9988      1.00000
    147      -1.6352      1.00000
    148      -1.3938      1.00000
    149      -1.3938      1.00000
    150      -1.3825      1.00000
    151      -1.3505      1.00000
    152      -1.3488      1.00000
    153      -1.3488      1.00000
    154      -1.3400      1.00000
    155      -1.3181      1.00000
    156      -1.3181      1.00000
    157      -1.1424      1.00000
    158      -1.1424      1.00000
    159      -0.1655      1.00000
    160       0.1317      1.00000
    161       0.1317      1.00000
    162       0.1481      1.00000
    163       0.1994      1.00000
    164       0.2104      1.00000
    165       0.2104      1.00000
    166       0.2110      1.00000
    167       0.2159      1.00000
    168       0.2159      1.00000
    169       0.2191      1.00000
    170       0.2239      1.00000
    171       0.2352      1.00000
    172       0.2352      1.00000
    173       0.2366      1.00000
    174       0.2591      1.00000
    175       0.2591      1.00000
    176       0.3844      1.00000
    177       0.3844      1.00000
    178       0.3900      1.00000
    179       0.4216      1.00000
    180       0.7621      1.00000
    181       0.7621      1.00000
    182       0.7978      1.00000
    183       0.8547      1.00000
    184       0.8589      1.00000
    185       0.8641      1.00000
    186       0.8641      1.00000
    187       0.8685      1.00000
    188       0.8685      1.00000
    189       0.8776      1.00000
    190       0.8776      1.00000
    191       0.8797      1.00000
    192       0.8901      1.00000
    193       0.8901      1.00000
    194       0.9009      1.00000
    195       0.9009      1.00000
    196       0.9016      1.00000
    197       0.9214      1.00000
    198       0.9274      1.00000
    199       0.9274      1.00000
    200       0.9285      1.00000
    201       1.1768      1.00000
    202       1.1768      1.00000
    203       1.6628      1.00000
    204       1.6628      1.00000
    205       1.6827      1.00000
    206       1.7249      1.00000
    207       1.7249      1.00000
    208       1.7259      1.00000
    209       1.7282      1.00000
    210       1.7363      1.00000
    211       1.7363      1.00000
    212       1.7488      1.00000
    213       1.7488      1.00000
    214       1.7534      1.00000
    215       1.7670      1.00000
    216       1.7670      1.00000
    217       1.8216      1.00000
    218       1.8216      1.00000
    219       1.8269      1.00000
    220       1.8382      1.00000
    221       1.8438      1.00000
    222       1.8822      1.00000
    223       1.8822      1.00000
    224       1.9386      1.00000
    225       1.9580      1.00000
    226       1.9580      1.00000
    227       2.0482      1.00000
    228       2.1528      1.00000
    229       2.1528      1.00000
    230       2.2373      1.00000
    231       2.2482      1.00000
    232       2.2482      1.00000
    233       2.2624      1.00000
    234       2.2648      1.00000
    235       2.2648      1.00000
    236       2.2732      1.00000
    237       2.2742      1.00000
    238       2.2742      1.00000
    239       2.2806      1.00000
    240       2.2916      1.00000
    241       2.2972      1.00000
    242       2.2972      1.00000
    243       2.3204      1.00000
    244       2.3204      1.00000
    245       2.3212      1.00000
    246       2.3249      1.00000
    247       2.3479      1.00000
    248       2.3479      1.00000
    249       2.3607      1.00000
    250       2.3848      1.00000
    251       2.3848      1.00000
    252       2.4183      1.00000
    253       2.4183      1.00000
    254       2.7280      1.00000
    255       2.7836      1.00000
    256       2.7836      1.00000
    257       3.2604      1.00000
    258       3.2604      1.00000
    259       3.3217      1.00000
    260       3.3399      1.00000
    261       3.3568      1.00000
    262       3.3568      1.00000
    263       3.5138      1.00000
    264       3.7863      1.00000
    265       3.7863      1.00000
    266       3.8591      1.00000
    267       3.8591      1.00000
    268       3.8598      1.00000
    269       3.8750      1.00000
    270       3.8793      1.00000
    271       3.8793      1.00000
    272       3.9134      1.00000
    273       3.9676      1.00000
    274       3.9676      1.00000
    275       4.1276      1.00000
    276       4.1276      1.00000
    277       4.2504      1.00000
    278       4.2731      1.00000
    279       4.2744      1.00000
    280       4.2744      1.00000
    281       4.2852      1.00000
    282       4.2852      1.00000
    283       4.2854      1.00000
    284       4.3103      1.00000
    285       4.3387      1.00000
    286       4.3387      1.00000
    287       4.3475      1.00000
    288       4.4798      1.00000
    289       4.4798      1.00000
    290       4.4953      1.00000
    291       4.5235      1.00000
    292       4.5275      1.00000
    293       4.5275      1.00000
    294       4.5388      1.00000
    295       4.5427      1.00000
    296       4.5427      1.00000
    297       4.5456      1.00000
    298       4.5456      1.00000
    299       4.5564      1.00000
    300       4.5584      1.00000
    301       4.5645      1.00000
    302       4.5645      1.00000
    303       4.5949      1.00000
    304       4.5949      1.00000
    305       4.6071      1.00000
    306       4.6088      1.00000
    307       4.6088      1.00000
    308       4.6181      1.00000
    309       4.6181      1.00000
    310       4.6214      1.00000
    311       4.6742      1.00000
    312       4.6742      1.00000
    313       4.7028      1.00000
    314       4.7310      1.00000
    315       4.7325      1.00000
    316       4.7365      1.00000
    317       4.7365      1.00000
    318       4.7396      1.00000
    319       4.7415      1.00000
    320       4.7415      1.00000
    321       4.7442      1.00000
    322       4.7442      1.00000
    323       4.7527      1.00000
    324       4.7564      1.00000
    325       4.7564      1.00000
    326       4.7569      1.00000
    327       4.7649      1.00000
    328       4.7649      1.00000
    329       4.7670      1.00000
    330       4.7684      1.00000
    331       4.7684      1.00000
    332       4.7789      1.00000
    333       4.7812      1.00000
    334       4.7812      1.00000
    335       4.7958      1.00000
    336       4.7985      1.00000
    337       4.8002      1.00000
    338       4.8002      1.00000
    339       4.8228      1.00000
    340       4.8228      1.00000
    341       4.8321      1.00000
    342       4.8392      1.00000
    343       4.8392      1.00000
    344       4.8553      1.00000
    345       4.8553      1.00000
    346       4.8927      1.00000
    347       4.8927      1.00000
    348       4.9048      1.00000
    349       4.9176      1.00000
    350       4.9459      1.00000
    351       4.9565      1.00000
    352       4.9565      1.00000
    353       4.9633      1.00000
    354       5.0734      1.00000
    355       5.0734      1.00000
    356       5.3259      1.00000
    357       5.3378      1.00000
    358       5.3378      1.00000
    359       5.4990      1.00000
    360       5.4990      1.00000
    361       5.5580      1.00000
    362       5.5596      1.00000
    363       5.5596      1.00000
    364       5.5680      1.00000
    365       5.5976      1.00000
    366       5.5986      1.00000
    367       5.5986      1.00000
    368       5.6080      1.00000
    369       5.6219      1.00000
    370       5.6219      1.00000
    371       5.6341      1.00000
    372       5.6357      1.00000
    373       5.6357      1.00000
    374       5.6482      1.00000
    375       5.6482      1.00000
    376       5.6612      1.00000
    377       5.7230      1.00000
    378       5.7230      1.00000
    379       5.7890      1.00000
    380       6.4389      1.00000
    381       6.5991      1.00000
    382       6.5991      1.00000
    383       6.9331      1.00000
    384       6.9331      1.00000
    385       6.9750      1.00000
    386       6.9750      1.00000
    387       6.9786      1.00000
    388       6.9849      1.00000
    389       6.9952      1.00000
    390       7.0087      1.00000
    391       7.0087      1.00000
    392       7.0272      1.00000
    393       7.0725      1.00000
    394       7.0725      1.00000
    395       7.0851      1.00000
    396       7.1715      1.00000
    397       7.1715      1.00000
    398       7.2325      1.00000
    399       7.2337      1.00000
    400       7.2337      1.00000
    401       7.2416      1.00000
    402       7.2416      1.00000
    403       7.2524      1.00000
    404       7.2524      1.00000
    405       7.2547      1.00000
    406       7.2793      1.00000
    407       7.2793      1.00000
    408       7.3038      1.00000
    409       7.3067      1.00000
    410       7.3067      1.00000
    411       7.3164      1.00000
    412       7.3309      1.00000
    413       7.3309      1.00000
    414       7.9060      1.00000
    415       7.9430      1.00000
    416       7.9430      1.00000
    417       8.1460      1.00000
    418       8.1460      1.00000
    419       8.1532      1.00000
    420       8.1790      1.00000
    421       8.1816      1.00000
    422       8.1816      1.00000
    423       8.2106      1.00000
    424       8.2538      1.00000
    425       8.2538      1.00000
    426       8.5746      1.00000
    427       9.4277      1.00000
    428       9.4391      1.00000
    429       9.4391      1.00000
    430      10.8216      1.00000
    431      12.6588      0.00000
    432      12.6588      0.00000
    433      13.6788      0.00000
    434      13.6788      0.00000
    435      13.7039      0.00000
    436      13.7417      0.00000
    437      13.7417      0.00000
    438      13.7612      0.00000
    439      14.2470      0.00000
    440      14.3194      0.00000
    441      14.3194      0.00000
    442      14.3349      0.00000
    443      14.3349      0.00000
    444      14.3985      0.00000
    445      14.4631      0.00000
    446      14.4631      0.00000
    447      14.5395      0.00000
    448      14.5760      0.00000
    449      14.5760      0.00000
    450      14.5923      0.00000
    451      15.2102      0.00000
    452      15.2102      0.00000
    453      15.2140      0.00000
    454      15.7721      0.00000
    455      15.8471      0.00000
    456      15.8471      0.00000
    457      15.8622      0.00000
    458      15.9012      0.00000
    459      15.9012      0.00000
    460      15.9095      0.00000
    461      15.9095      0.00000
    462      15.9189      0.00000
    463      15.9282      0.00000
    464      15.9282      0.00000
    465      15.9678      0.00000
    466      16.3944      0.00000
    467      16.5617      0.00000
    468      16.5617      0.00000
    469      16.5918      0.00000
    470      16.5944      0.00000
    471      16.5944      0.00000
    472      16.5997      0.00000
    473      16.6034      0.00000
    474      16.6034      0.00000
    475      16.6126      0.00000
    476      16.6126      0.00000
    477      16.6282      0.00000
    478      16.6304      0.00000
    479      16.6304      0.00000
    480      16.6322      0.00000
    481      16.6612      0.00000
    482      16.6655      0.00000
    483      16.6655      0.00000
    484      16.7088      0.00000
    485      16.7088      0.00000
    486      16.7220      0.00000
    487      16.7486      0.00000
    488      16.7486      0.00000
    489      16.7498      0.00000
    490      17.0236      0.00000
    491      17.0462      0.00000
    492      17.0463      0.00000
    493      17.0857      0.00000
    494      17.0886      0.00000
    495      17.1044      0.00000
    496      17.1044      0.00000
    497      17.1107      0.00000
    498      17.1121      0.00000
    499      17.1122      0.00000
    500      17.1238      0.00000
    501      17.1239      0.00000
    502      17.1475      0.00000
    503      17.1627      0.00000
    504      17.1627      0.00000
    505      17.1869      0.00000
    506      17.1869      0.00000
    507      17.1882      0.00000
    508      17.2027      0.00000
    509      17.2028      0.00000
    510      17.2079      0.00000
    511      17.2087      0.00000
    512      17.2325      0.00000
    513      17.2355      0.00000
    514      17.2356      0.00000
    515      17.2510      0.00000
    516      17.2511      0.00000
    517      17.2583      0.00000
    518      17.2585      0.00000
    519      17.2754      0.00000
    520      17.2758      0.00000
    521      17.2817      0.00000
    522      17.2923      0.00000
    523      17.2926      0.00000
    524      17.3118      0.00000
    525      17.3288      0.00000
    526      17.3912      0.00000
    527      17.3996      0.00000
    528      17.4017      0.00000
    529      17.4634      0.00000
    530      17.4657      0.00000
    531      17.4783      0.00000
    532      17.6107      0.00000
    533      17.7105      0.00000
    534      17.7156      0.00000
    535      17.7209      0.00000
    536      17.7482      0.00000
    537      17.7503      0.00000
    538      17.7668      0.00000
    539      17.7742      0.00000
    540      17.7965      0.00000


--------------------------------------------------------------------------------------------------------


 soft charge-density along one line, spin component           1
         0         1         2         3         4         5         6         7         8         9
 total charge-density along one line
 
 soft charge-density along one line, spin component           2
         0         1         2         3         4         5         6         7         8         9
 total charge-density along one line
 
 pseudopotential strength for first ion, spin component:           1
  9.452  12.553  -0.000  -0.000   0.000   0.000   0.000  -0.000
 12.553  16.669  -0.000  -0.000   0.000   0.000   0.000  -0.000
 -0.000  -0.000  -3.678   0.000  -0.000   7.204  -0.000   0.000
 -0.000  -0.000   0.000  -3.678  -0.000  -0.000   7.204   0.000
  0.000   0.000  -0.000  -0.000  -3.678   0.000   0.000   7.204
  0.000   0.000   7.204  -0.000   0.000 -16.206   0.000  -0.000
  0.000   0.000  -0.000   7.204   0.000   0.000 -16.206  -0.000
 -0.000  -0.000   0.000   0.000   7.204  -0.000  -0.000 -16.206
 pseudopotential strength for first ion, spin component:           2
  9.452  12.552  -0.000  -0.000   0.000   0.000   0.000  -0.000
 12.552  16.668  -0.000  -0.000   0.000   0.000   0.000  -0.000
 -0.000  -0.000  -3.678   0.000  -0.000   7.204  -0.000   0.000
 -0.000  -0.000   0.000  -3.678  -0.000  -0.000   7.204   0.000
  0.000   0.000  -0.000  -0.000  -3.678   0.000   0.000   7.204
  0.000   0.000   7.204  -0.000   0.000 -16.206   0.000  -0.000
  0.000   0.000  -0.000   7.204   0.000   0.000 -16.206  -0.000
 -0.000  -0.000   0.000   0.000   7.204  -0.000  -0.000 -16.206
 total augmentation occupancy for first ion, spin component:           1
  7.483  -3.309   0.006  -0.005   0.005   0.001  -0.001   0.001
 -3.309   1.546  -0.003   0.004  -0.004  -0.000   0.000  -0.000
  0.006  -0.003   1.561  -0.001   0.001   0.128  -0.000   0.000
 -0.005   0.004  -0.001   1.561  -0.003  -0.000   0.128  -0.000
  0.005  -0.004   0.001  -0.003   1.561   0.000  -0.000   0.128
  0.001  -0.000   0.128  -0.000   0.000   0.012  -0.000   0.000
 -0.001   0.000  -0.000   0.128  -0.000  -0.000   0.012  -0.000
  0.001  -0.000   0.000  -0.000   0.128   0.000  -0.000   0.012
 total augmentation occupancy for first ion, spin component:           2
 -0.000   0.000  -0.000  -0.000   0.000  -0.000  -0.000   0.000
  0.000  -0.000   0.000   0.000  -0.000   0.000   0.000  -0.000
 -0.000   0.000   0.000   0.000  -0.000  -0.000  -0.000   0.000
 -0.000   0.000   0.000   0.000  -0.000  -0.000  -0.000   0.000
  0.000  -0.000  -0.000  -0.000   0.000   0.000   0.000  -0.000
 -0.000   0.000  -0.000  -0.000   0.000  -0.000  -0.000   0.000
 -0.000   0.000  -0.000  -0.000   0.000  -0.000  -0.000   0.000
  0.000  -0.000   0.000   0.000  -0.000   0.000   0.000  -0.000


------------------------ aborting loop because EDIFF is reached ----------------------------------------





 total charge

# of ion       s       p       d       tot
------------------------------------------
    1        0.829   1.744   0.000   2.573
    2        0.829   1.745   0.000   2.574
    3        0.829   1.745   0.000   2.574
    4        0.829   1.745   0.000   2.574
    5        0.829   1.744   0.000   2.573
    6        0.829   1.743   0.000   2.572
    7        0.829   1.744   0.000   2.573
    8        0.829   1.742   0.000   2.571
    9        0.829   1.745   0.000   2.574
   10        0.829   1.745   0.000   2.574
   11        0.829   1.743   0.000   2.571
   12        0.829   1.747   0.000   2.577
   13        0.829   1.743   0.000   2.572
   14        0.828   1.737   0.000   2.565
   15        0.832   1.752   0.000   2.584
   16        0.829   1.745   0.000   2.574
   17        0.831   1.737   0.000   2.567
   18        0.829   1.744   0.000   2.573
   19        0.829   1.745   0.000   2.574
   20        0.829   1.744   0.000   2.573
   21        0.829   1.743   0.000   2.571
   22        0.829   1.744   0.000   2.573
   23        0.837   1.732   0.000   2.569
   24        0.828   1.737   0.000   2.565
   25        0.829   1.742   0.000   2.571
   26        0.830   1.742   0.000   2.572
   27        0.831   1.737   0.000   2.567
   28        0.829   1.745   0.000   2.574
   29        0.829   1.743   0.000   2.571
   30        0.829   1.747   0.000   2.577
   31        0.829   1.745   0.000   2.574
   32        0.829   1.744   0.000   2.573
   33        0.829   1.743   0.000   2.571
   34        0.829   1.744   0.000   2.573
   35        0.829   1.745   0.000   2.574
   36        0.829   1.745   0.000   2.574
   37        0.829   1.743   0.000   2.572
   38        0.828   1.737   0.000   2.565
   39        0.832   1.752   0.000   2.584
   40        0.829   1.744   0.000   2.573
   41        0.837   1.732   0.000   2.569
   42        0.828   1.737   0.000   2.565
   43        0.829   1.745   0.000   2.574
   44        0.829   1.744   0.000   2.573
   45        0.829   1.743   0.000   2.572
   46        0.829   1.745   0.000   2.574
   47        0.831   1.737   0.000   2.567
   48        0.829   1.744   0.000   2.573
   49        0.829   1.742   0.000   2.571
   50        0.830   1.742   0.000   2.572
   51        0.831   1.737   0.000   2.567
   52        0.829   1.744   0.000   2.573
   53        0.829   1.742   0.000   2.571
   54        0.829   1.745   0.000   2.574
   55        0.829   1.745   0.000   2.574
   56        0.829   1.747   0.000   2.576
   57        0.829   1.745   0.000   2.574
   58        0.828   1.740   0.000   2.568
   59        0.829   1.744   0.000   2.573
   60        0.829   1.747   0.000   2.576
   61        0.829   1.744   0.000   2.573
   62        0.828   1.740   0.000   2.568
   63        0.829   1.745   0.000   2.574
   64        0.828   1.740   0.000   2.568
   65        0.829   1.744   0.000   2.573
   66        0.829   1.747   0.000   2.576
   67        0.830   1.743   0.000   2.573
   68        0.829   1.744   0.000   2.573
   69        0.831   1.741   0.000   2.572
   70        0.830   1.743   0.000   2.573
   71        0.828   1.740   0.000   2.568
   72        0.829   1.744   0.000   2.573
   73        0.828   1.740   0.000   2.568
   74        0.829   1.745   0.000   2.574
   75        0.831   1.741   0.000   2.572
   76        0.830   1.743   0.000   2.573
   77        0.828   1.740   0.000   2.568
   78        0.829   1.743   0.000   2.572
   79        0.831   1.741   0.000   2.572
   80        0.829   1.744   0.000   2.573
   81        0.829   1.745   0.000   2.574
   82        0.829   1.743   0.000   2.572
   83        0.829   1.745   0.000   2.574
   84        0.829   1.742   0.000   2.571
   85        0.829   1.744   0.000   2.573
   86        0.829   1.745   0.000   2.574
   87        0.829   1.744   0.000   2.573
   88        0.829   1.745   0.000   2.574
   89        0.829   1.744   0.000   2.573
   90        0.829   1.744   0.000   2.573
   91        0.832   1.752   0.000   2.584
   92        0.829   1.747   0.000   2.577
   93        0.831   1.737   0.000   2.567
   94        0.828   1.737   0.000   2.565
   95        0.829   1.743   0.000   2.571
   96        0.829   1.745   0.000   2.574
   97        0.829   1.743   0.000   2.572
   98        0.829   1.745   0.000   2.574
   99        0.831   1.737   0.000   2.567
  100        0.828   1.737   0.000   2.565
  101        0.829   1.743   0.000   2.571
  102        0.830   1.742   0.000   2.572
  103        0.837   1.732   0.000   2.569
  104        0.829   1.744   0.000   2.573
  105        0.829   1.742   0.000   2.571
  106        0.829   1.744   0.000   2.573
  107        0.829   1.745   0.000   2.574
  108        0.829   1.743   0.000   2.572
  109        0.829   1.745   0.000   2.574
  110        0.829   1.742   0.000   2.571
  111        0.829   1.742   0.000   2.571
  112        0.829   1.742   0.000   2.571
  113        0.828   1.742   0.000   2.570
  114        0.829   1.745   0.000   2.574
  115        0.829   1.743   0.000   2.571
  116        0.829   1.742   0.000   2.571
  117        0.829   1.742   0.000   2.571
  118        0.829   1.744   0.000   2.573
  119        0.829   1.745   0.000   2.574
  120        0.829   1.745   0.000   2.574
  121        0.828   1.736   0.000   2.564
  122        0.829   1.745   0.000   2.575
  123        0.829   1.744   0.000   2.573
  124        0.829   1.743   0.000   2.572
  125        0.828   1.736   0.000   2.564
  126        0.830   1.749   0.000   2.580
  127        0.829   1.744   0.000   2.573
  128        0.829   1.745   0.000   2.573
  129        0.829   1.745   0.000   2.573
  130        0.829   1.744   0.000   2.573
  131        0.823   1.708   0.000   2.531
  132        0.829   1.744   0.000   2.573
  133        0.830   1.752   0.000   2.582
  134        0.829   1.744   0.000   2.573
  135        0.829   1.742   0.000   2.571
  136        0.829   1.744   0.000   2.573
  137        0.829   1.745   0.000   2.574
  138        0.830   1.749   0.000   2.580
  139        0.829   1.744   0.000   2.573
  140        0.829   1.745   0.000   2.573
  141        0.829   1.743   0.000   2.572
  142        0.829   1.745   0.000   2.574
  143        0.829   1.742   0.000   2.571
  144        0.829   1.745   0.000   2.574
  145        0.828   1.736   0.000   2.564
  146        0.829   1.745   0.000   2.575
  147        0.829   1.745   0.000   2.573
  148        0.829   1.744   0.000   2.573
  149        0.823   1.708   0.000   2.531
  150        0.829   1.742   0.000   2.571
  151        0.829   1.742   0.000   2.571
  152        0.828   1.742   0.000   2.570
  153        0.829   1.744   0.000   2.573
  154        0.829   1.743   0.000   2.572
  155        0.828   1.736   0.000   2.564
  156        0.829   1.744   0.000   2.573
  157        0.830   1.752   0.000   2.582
  158        0.829   1.744   0.000   2.573
  159        0.829   1.745   0.000   2.574
  160        0.829   1.743   0.000   2.571
  161        0.829   1.742   0.000   2.571
  162        0.829   1.743   0.000   2.572
  163        0.830   1.749   0.000   2.580
  164        0.829   1.742   0.000   2.571
  165        0.829   1.742   0.000   2.571
  166        0.829   1.745   0.000   2.573
  167        0.829   1.745   0.000   2.574
  168        0.829   1.745   0.000   2.574
  169        0.829   1.744   0.000   2.573
  170        0.829   1.744   0.000   2.573
  171        0.829   1.742   0.000   2.571
  172        0.829   1.745   0.000   2.573
  173        0.829   1.745   0.000   2.574
  174        0.828   1.742   0.000   2.570
  175        0.823   1.708   0.000   2.531
  176        0.829   1.745   0.000   2.575
  177        0.829   1.742   0.000   2.571
  178        0.829   1.744   0.000   2.573
  179        0.828   1.736   0.000   2.564
  180        0.829   1.745   0.000   2.574
  181        0.829   1.744   0.000   2.573
  182        0.829   1.744   0.000   2.573
  183        0.829   1.742   0.000   2.571
  184        0.829   1.744   0.000   2.573
  185        0.828   1.736   0.000   2.564
  186        0.829   1.743   0.000   2.571
  187        0.830   1.752   0.000   2.582
  188        0.829   1.743   0.000   2.572
  189        0.829   1.743   0.000   2.572
  190        0.830   1.748   0.000   2.578
  191        0.829   1.742   0.000   2.571
  192        0.830   1.750   0.000   2.579
  193        0.829   1.745   0.000   2.574
  194        0.830   1.748   0.000   2.578
  195        0.829   1.744   0.000   2.573
  196        0.830   1.750   0.000   2.579
  197        0.829   1.743   0.000   2.572
  198        0.829   1.742   0.000   2.571
  199        0.830   1.750   0.000   2.580
  200        0.829   1.744   0.000   2.573
  201        0.830   1.748   0.000   2.578
  202        0.829   1.748   0.000   2.578
  203        0.830   1.750   0.000   2.580
  204        0.829   1.743   0.000   2.572
  205        0.830   1.748   0.000   2.578
  206        0.829   1.742   0.000   2.571
  207        0.830   1.748   0.000   2.578
  208        0.829   1.748   0.000   2.578
  209        0.830   1.750   0.000   2.580
  210        0.829   1.745   0.000   2.574
  211        0.829   1.748   0.000   2.578
  212        0.830   1.750   0.000   2.579
  213        0.829   1.745   0.000   2.574
  214        0.830   1.748   0.000   2.578
  215        1.210   2.694   0.000   3.903
--------------------------------------------------
tot        178.649 375.708   0.000 554.357



 magnetization (x)

# of ion       s       p       d       tot
------------------------------------------
    1        0.000   0.001   0.000   0.001
    2        0.000   0.002   0.000   0.002
    3        0.000   0.000   0.000   0.000
    4        0.000   0.001   0.000   0.002
    5        0.000   0.002   0.000   0.002
    6       -0.000   0.000   0.000   0.000
    7        0.000   0.000   0.000   0.000
    8        0.000   0.000   0.000   0.000
    9        0.000   0.001   0.000   0.001
   10        0.000   0.000   0.000   0.000
   11        0.000   0.000   0.000   0.000
   12        0.000  -0.000   0.000   0.000
   13       -0.000   0.000   0.000   0.000
   14        0.001   0.004   0.000   0.005
   15        0.000   0.000   0.000   0.000
   16        0.000   0.001   0.000   0.001
   17        0.004   0.018   0.000   0.023
   18        0.000   0.000   0.000   0.000
   19        0.000   0.002   0.000   0.002
   20        0.000   0.001   0.000   0.001
   21        0.000   0.000   0.000   0.000
   22        0.000   0.002   0.000   0.002
   23        0.040   0.285   0.000   0.325
   24        0.001   0.004   0.000   0.005
   25        0.000   0.000   0.000   0.000
   26        0.001   0.008   0.000   0.009
   27        0.004   0.018   0.000   0.023
   28        0.000   0.000   0.000   0.000
   29        0.000   0.000   0.000   0.000
   30        0.000  -0.000   0.000   0.000
   31        0.000   0.002   0.000   0.002
   32        0.000   0.001   0.000   0.001
   33        0.000   0.000   0.000   0.000
   34        0.000   0.001   0.000   0.001
   35        0.000   0.002   0.000   0.002
   36        0.000   0.000   0.000   0.000
   37       -0.000   0.000   0.000   0.000
   38        0.001   0.004   0.000   0.005
   39        0.000   0.000   0.000   0.000
   40        0.000   0.002   0.000   0.002
   41        0.040   0.285   0.000   0.325
   42        0.001   0.004   0.000   0.005
   43        0.000   0.001   0.000   0.002
   44        0.000   0.002   0.000   0.002
   45       -0.000   0.000   0.000   0.000
   46        0.000   0.001   0.000   0.001
   47        0.004   0.018   0.000   0.023
   48        0.000   0.000   0.000   0.000
   49        0.000   0.000   0.000   0.000
   50        0.001   0.008   0.000   0.009
   51        0.004   0.018   0.000   0.023
   52        0.000   0.000   0.000   0.000
   53        0.000   0.000   0.000   0.000
   54        0.000   0.001   0.000   0.001
   55        0.000   0.000   0.000   0.000
   56        0.000   0.000   0.000   0.000
   57        0.000   0.000   0.000   0.000
   58        0.000   0.000   0.000   0.000
   59        0.000   0.001   0.000   0.001
   60        0.000   0.000   0.000   0.000
   61        0.000   0.001   0.000   0.001
   62        0.000   0.000   0.000   0.000
   63        0.000   0.000   0.000   0.000
   64        0.000   0.000   0.000   0.000
   65        0.000   0.001   0.000   0.001
   66        0.000   0.000   0.000   0.000
   67        0.001   0.007   0.000   0.008
   68        0.000   0.001   0.000   0.001
   69        0.004   0.017   0.000   0.021
   70        0.001   0.007   0.000   0.008
   71        0.000   0.000   0.000   0.000
   72        0.000   0.001   0.000   0.001
   73        0.000   0.000   0.000   0.000
   74        0.000   0.000   0.000   0.000
   75        0.004   0.017   0.000   0.021
   76        0.001   0.007   0.000   0.008
   77        0.000   0.000   0.000   0.000
   78       -0.000   0.000   0.000   0.000
   79        0.004   0.017   0.000   0.021
   80        0.000   0.001   0.000   0.001
   81        0.000   0.001   0.000   0.001
   82       -0.000   0.000   0.000   0.000
   83        0.000   0.000   0.000   0.000
   84        0.000   0.000   0.000   0.000
   85        0.000   0.002   0.000   0.002
   86        0.000   0.002   0.000   0.002
   87        0.000   0.000   0.000   0.000
   88        0.000   0.001   0.000   0.002
   89        0.000   0.001   0.000   0.001
   90        0.000   0.000   0.000   0.000
   91        0.000   0.000   0.000   0.000
   92        0.000  -0.000   0.000   0.000
   93        0.004   0.018   0.000   0.023
   94        0.001   0.004   0.000   0.005
   95        0.000   0.000   0.000   0.000
   96        0.000   0.001   0.000   0.001
   97       -0.000   0.000   0.000   0.000
   98        0.000   0.000   0.000   0.000
   99        0.004   0.018   0.000   0.023
  100        0.001   0.004   0.000   0.005
  101        0.000   0.000   0.000   0.000
  102        0.001   0.008   0.000   0.009
  103        0.040   0.285   0.000   0.325
  104        0.000   0.001   0.000   0.001
  105        0.000   0.000   0.000   0.000
  106        0.000   0.002   0.000   0.002
  107        0.000   0.002   0.000   0.002
  108       -0.000  -0.000   0.000  -0.000
  109       -0.000  -0.000   0.000  -0.000
  110       -0.000  -0.000   0.000  -0.000
  111       -0.000  -0.000   0.000  -0.000
  112       -0.000  -0.001   0.000  -0.001
  113       -0.000  -0.001   0.000  -0.001
  114       -0.000  -0.000   0.000  -0.000
  115       -0.000  -0.000   0.000  -0.001
  116       -0.000  -0.001   0.000  -0.001
  117       -0.000   0.000   0.000   0.000
  118       -0.000  -0.000   0.000  -0.000
  119        0.000  -0.000   0.000  -0.000
  120        0.000  -0.000   0.000  -0.000
  121       -0.000  -0.000   0.000  -0.000
  122       -0.000  -0.000   0.000  -0.000
  123       -0.000  -0.000   0.000  -0.000
  124       -0.000  -0.001   0.000  -0.001
  125       -0.000  -0.000   0.000  -0.000
  126       -0.000   0.002   0.000   0.002
  127       -0.000  -0.000   0.000  -0.000
  128       -0.000  -0.000   0.000  -0.000
  129       -0.000  -0.000   0.000  -0.000
  130       -0.002  -0.005   0.000  -0.007
  131        0.000   0.001   0.000   0.001
  132       -0.000  -0.000   0.000  -0.000
  133       -0.002  -0.009   0.000  -0.012
  134       -0.002  -0.005   0.000  -0.007
  135       -0.000   0.000   0.000   0.000
  136       -0.000  -0.000   0.000  -0.000
  137        0.000  -0.000   0.000  -0.000
  138       -0.000   0.002   0.000   0.002
  139       -0.000  -0.000   0.000  -0.000
  140       -0.000  -0.000   0.000  -0.000
  141       -0.000  -0.000   0.000  -0.000
  142       -0.000  -0.000   0.000  -0.000
  143       -0.000  -0.000   0.000  -0.000
  144        0.000  -0.000   0.000  -0.000
  145       -0.000  -0.000   0.000  -0.000
  146       -0.000  -0.000   0.000  -0.000
  147       -0.000  -0.000   0.000  -0.000
  148       -0.002  -0.005   0.000  -0.007
  149        0.000   0.001   0.000   0.001
  150       -0.000  -0.000   0.000  -0.000
  151       -0.000  -0.001   0.000  -0.001
  152       -0.000  -0.001   0.000  -0.001
  153       -0.000  -0.000   0.000  -0.000
  154       -0.000  -0.001   0.000  -0.001
  155       -0.000  -0.000   0.000  -0.000
  156       -0.000  -0.000   0.000  -0.000
  157       -0.002  -0.009   0.000  -0.012
  158       -0.002  -0.005   0.000  -0.007
  159       -0.000  -0.000   0.000  -0.000
  160       -0.000  -0.000   0.000  -0.001
  161       -0.000  -0.001   0.000  -0.001
  162       -0.000  -0.000   0.000  -0.000
  163       -0.000   0.002   0.000   0.002
  164       -0.000   0.000   0.000   0.000
  165       -0.000  -0.000   0.000  -0.000
  166       -0.000  -0.000   0.000  -0.000
  167        0.000  -0.000   0.000  -0.000
  168       -0.000  -0.000   0.000  -0.000
  169       -0.000  -0.000   0.000  -0.000
  170       -0.000  -0.000   0.000  -0.000
  171       -0.000  -0.000   0.000  -0.000
  172       -0.000  -0.000   0.000  -0.000
  173        0.000  -0.000   0.000  -0.000
  174       -0.000  -0.001   0.000  -0.001
  175        0.000   0.001   0.000   0.001
  176       -0.000  -0.000   0.000  -0.000
  177       -0.000  -0.001   0.000  -0.001
  178       -0.002  -0.005   0.000  -0.007
  179       -0.000  -0.000   0.000  -0.000
  180       -0.000  -0.000   0.000  -0.000
  181       -0.000  -0.000   0.000  -0.000
  182       -0.000  -0.000   0.000  -0.000
  183       -0.000  -0.001   0.000  -0.001
  184       -0.002  -0.005   0.000  -0.007
  185       -0.000  -0.000   0.000  -0.000
  186       -0.000  -0.000   0.000  -0.001
  187       -0.002  -0.009   0.000  -0.012
  188       -0.000  -0.001   0.000  -0.001
  189       -0.000  -0.000   0.000  -0.000
  190        0.001   0.003   0.000   0.004
  191        0.000   0.000   0.000   0.000
  192        0.000   0.002   0.000   0.002
  193       -0.000  -0.001   0.000  -0.001
  194        0.001   0.003   0.000   0.004
  195       -0.000  -0.000   0.000  -0.000
  196        0.000   0.002   0.000   0.002
  197       -0.000  -0.000   0.000  -0.000
  198        0.000   0.000   0.000   0.000
  199        0.000   0.000   0.000   0.000
  200       -0.000   0.000   0.000   0.000
  201        0.001   0.003   0.000   0.004
  202       -0.000  -0.001   0.000  -0.001
  203        0.000   0.000   0.000   0.000
  204       -0.000  -0.000   0.000  -0.000
  205        0.001   0.003   0.000   0.004
  206        0.000   0.000   0.000   0.000
  207        0.001   0.003   0.000   0.004
  208       -0.000  -0.001   0.000  -0.001
  209        0.000   0.000   0.000   0.000
  210       -0.000  -0.001   0.000  -0.001
  211       -0.000  -0.001   0.000  -0.001
  212        0.000   0.002   0.000   0.002
  213       -0.000  -0.001   0.000  -0.001
  214        0.001   0.003   0.000   0.004
  215       -0.001   0.001   0.000  -0.001
--------------------------------------------------
tot          0.160   1.092   0.000   1.252
 
    CHARGE:  cpu time      0.1009: real time      0.1015
    FORLOC:  cpu time      0.0357: real time      0.0358
    FORNL :  cpu time      0.8514: real time      0.8605
    STRESS:  cpu time      2.5975: real time      2.6246
    FORCOR:  cpu time      0.1111: real time      0.1119
    FORHAR:  cpu time      0.0484: real time      0.0486
    MIXING:  cpu time      0.0053: real time      0.0054
    OFIELD:  cpu time      0.0001: real time      0.0001

  FORCE on cell =-STRESS in cart. coord.  units (eV):
  Direction    XX          YY          ZZ          XY          YZ          ZX
  --------------------------------------------------------------------------------------
  Alpha Z  3085.66645  3085.66645  3085.66645
  Ewald  -12419.64696-12419.64696-12419.64696    -9.94995     9.94995     9.94995
  Hartree   989.68011   989.68011   989.68011    -7.70697     7.70697     7.70697
  E(xc)   -3277.98760 -3277.98760 -3277.98760    -0.02292     0.02292     0.02292
  Local   -1266.15652 -1266.15652 -1266.15652    13.66074   -13.66074   -13.66074
  n-local  -778.89656  -778.89656  -778.89656    -1.64121     1.64121     1.64121
  augment   -76.20023   -76.20023   -76.20023     0.27507    -0.27507    -0.27507
  Kinetic 13764.22466 13764.22467 13764.22467     8.95829    -8.95829    -8.95829
  Fock        0.00000     0.00000     0.00000     0.00000     0.00000     0.00000
  -------------------------------------------------------------------------------------
  Total      20.68336    20.68336    20.68336     3.57305    -3.57305    -3.57305
  in kB      26.89114    26.89114    26.89114     4.64544    -4.64544    -4.64544
  external pressure =       26.89 kB  Pullay stress =        0.00 kB


 VOLUME and BASIS-vectors are now :
 -----------------------------------------------------------------------------
  energy-cutoff  :      500.00
  volume of cell :     1232.32
      direct lattice vectors                 reciprocal lattice vectors
    10.721136093  0.000000000  0.000000000     0.093273697  0.000000000  0.000000000
     0.000000000 10.721136093  0.000000000     0.000000000  0.093273697  0.000000000
     0.000000000  0.000000000 10.721136093     0.000000000  0.000000000  0.093273697

  length of vectors
    10.721136093 10.721136093 10.721136093     0.093273697  0.093273697  0.093273697


 FORCES acting on ions
    electron-ion (+dipol)            ewald-force                    non-local-force                 convergence-correction
 -----------------------------------------------------------------------------------------------
   0.942E+00 0.167E+00 -.942E+00   -.100E+01 -.146E+00 0.100E+01   0.619E-01 -.188E-01 -.619E-01   -.154E-04 -.133E-03 0.154E-04
   0.156E+01 -.886E+00 0.194E+00   -.164E+01 0.927E+00 -.902E-01   0.841E-01 -.394E-01 -.105E+00   0.838E-04 -.108E-03 -.706E-04
   0.165E+01 -.736E-01 -.102E+00   -.170E+01 0.821E-01 0.442E-01   0.472E-01 -.886E-02 0.548E-01   -.763E-05 -.453E-04 0.535E-04
   0.124E+01 0.145E+01 -.124E+01   -.132E+01 -.134E+01 0.132E+01   0.834E-01 -.109E+00 -.834E-01   0.111E-03 -.191E-05 -.111E-03
   0.396E+01 -.190E+01 -.136E+01   -.423E+01 0.203E+01 0.144E+01   0.274E+00 -.130E+00 -.790E-01   0.386E-03 -.811E-04 -.878E-04
   0.368E+01 -.420E+00 0.287E+01   -.384E+01 0.435E+00 -.298E+01   0.167E+00 -.117E-01 0.108E+00   0.193E-03 -.134E-04 0.201E-03
   0.127E+01 0.975E+00 -.127E+01   -.133E+01 -.106E+01 0.133E+01   0.631E-01 0.802E-01 -.631E-01   0.457E-04 0.119E-03 -.457E-04
   0.278E+01 0.323E+01 -.697E+00   -.297E+01 -.335E+01 0.693E+00   0.190E+00 0.118E+00 0.609E-02   0.307E-03 0.197E-03 -.850E-04
   0.127E+01 0.136E+01 0.119E+01   -.143E+01 -.151E+01 -.135E+01   0.157E+00 0.156E+00 0.154E+00   0.160E-03 0.959E-04 0.168E-03
   0.102E+00 -.736E-01 -.165E+01   -.442E-01 0.821E-01 0.170E+01   -.548E-01 -.886E-02 -.472E-01   -.535E-04 -.453E-04 0.764E-05
   -.297E+01 -.138E+01 0.170E+01   0.308E+01 0.142E+01 -.169E+01   -.108E+00 -.337E-01 -.865E-03   -.904E-04 0.108E-03 0.117E-04
   0.537E-01 0.175E+01 -.537E-01   0.205E-01 -.173E+01 -.205E-01   -.683E-01 -.209E-01 0.683E-01   -.450E-04 0.306E-04 0.450E-04
   -.287E+01 -.420E+00 -.368E+01   0.298E+01 0.435E+00 0.384E+01   -.108E+00 -.117E-01 -.167E+00   -.201E-03 -.134E-04 -.193E-03
   -.177E+02 -.531E+01 0.324E+01   0.184E+02 0.584E+01 -.359E+01   -.760E+00 -.522E+00 0.348E+00   -.250E-03 -.266E-03 0.137E-03
   0.174E+01 -.495E+01 -.174E+01   -.135E+01 0.556E+01 0.135E+01   -.383E+00 -.568E+00 0.383E+00   -.920E-04 0.164E-03 0.920E-04
   -.119E+01 0.136E+01 -.127E+01   0.135E+01 -.151E+01 0.143E+01   -.154E+00 0.156E+00 -.157E+00   -.168E-03 0.959E-04 -.160E-03
   -.629E+01 0.570E+01 -.354E+01   0.688E+01 -.627E+01 0.426E+01   -.587E+00 0.571E+00 -.734E+00   -.338E-03 0.111E-03 0.616E-05
   -.330E+01 0.210E+01 0.330E+01   0.344E+01 -.210E+01 -.344E+01   -.139E+00 -.465E-02 0.139E+00   -.181E-03 -.102E-03 0.181E-03
   -.194E+00 -.886E+00 -.156E+01   0.902E-01 0.927E+00 0.164E+01   0.105E+00 -.394E-01 -.841E-01   0.706E-04 -.108E-03 -.838E-04
   0.115E+01 -.347E+01 -.115E+01   -.115E+01 0.360E+01 0.115E+01   -.214E-02 -.125E+00 0.214E-02   0.559E-05 -.728E-04 -.560E-05
   -.170E+01 -.138E+01 0.297E+01   0.169E+01 0.142E+01 -.308E+01   0.865E-03 -.337E-01 0.108E+00   -.118E-04 0.108E-03 0.904E-04
   0.136E+01 -.190E+01 -.396E+01   -.144E+01 0.203E+01 0.423E+01   0.790E-01 -.130E+00 -.274E+00   0.878E-04 -.811E-04 -.386E-03
   0.508E+02 -.538E+02 -.508E+02   -.553E+02 0.586E+02 0.553E+02   0.445E+01 -.470E+01 -.445E+01   0.163E-04 -.332E-03 -.163E-04
   -.324E+01 -.531E+01 0.177E+02   0.359E+01 0.584E+01 -.184E+02   -.348E+00 -.522E+00 0.760E+00   -.137E-03 -.266E-03 0.250E-03
   0.697E+00 0.323E+01 -.278E+01   -.693E+00 -.335E+01 0.297E+01   -.609E-02 0.118E+00 -.190E+00   0.850E-04 0.197E-03 -.307E-03
   0.508E+01 0.193E+02 -.508E+01   -.512E+01 -.204E+02 0.512E+01   0.402E-01 0.107E+01 -.402E-01   0.385E-04 0.234E-03 -.385E-04
   0.354E+01 0.570E+01 0.629E+01   -.426E+01 -.627E+01 -.688E+01   0.734E+00 0.571E+00 0.587E+00   -.617E-05 0.111E-03 0.338E-03
   -.736E-01 0.102E+00 -.165E+01   0.821E-01 -.442E-01 0.170E+01   -.886E-02 -.548E-01 -.472E-01   -.453E-04 -.535E-04 0.764E-05
   -.138E+01 -.297E+01 0.170E+01   0.142E+01 0.308E+01 -.169E+01   -.337E-01 -.108E+00 -.865E-03   0.108E-03 -.904E-04 0.117E-04
   0.175E+01 0.537E-01 -.537E-01   -.173E+01 0.205E-01 -.205E-01   -.209E-01 -.683E-01 0.683E-01   0.306E-04 -.450E-04 0.450E-04
   -.886E+00 -.194E+00 -.156E+01   0.927E+00 0.902E-01 0.164E+01   -.394E-01 0.105E+00 -.841E-01   -.108E-03 0.706E-04 -.838E-04
   -.347E+01 0.115E+01 -.115E+01   0.360E+01 -.115E+01 0.115E+01   -.125E+00 -.214E-02 0.214E-02   -.728E-04 0.560E-05 -.560E-05
   -.138E+01 -.170E+01 0.297E+01   0.142E+01 0.169E+01 -.308E+01   -.337E-01 0.865E-03 0.108E+00   0.108E-03 -.117E-04 0.904E-04
   0.167E+00 0.942E+00 -.942E+00   -.146E+00 -.100E+01 0.100E+01   -.188E-01 0.619E-01 -.619E-01   -.133E-03 -.154E-04 0.154E-04
   -.886E+00 0.156E+01 0.194E+00   0.927E+00 -.164E+01 -.902E-01   -.394E-01 0.841E-01 -.105E+00   -.108E-03 0.838E-04 -.706E-04
   -.736E-01 0.165E+01 -.102E+00   0.821E-01 -.170E+01 0.442E-01   -.886E-02 0.472E-01 0.548E-01   -.453E-04 -.764E-05 0.535E-04
   -.420E+00 -.287E+01 -.368E+01   0.435E+00 0.298E+01 0.384E+01   -.117E-01 -.108E+00 -.167E+00   -.134E-04 -.201E-03 -.193E-03
   -.531E+01 -.177E+02 0.324E+01   0.584E+01 0.184E+02 -.359E+01   -.522E+00 -.760E+00 0.348E+00   -.266E-03 -.250E-03 0.137E-03
   -.495E+01 0.174E+01 -.174E+01   0.556E+01 -.135E+01 0.135E+01   -.568E+00 -.383E+00 0.383E+00   0.164E-03 -.920E-04 0.920E-04
   -.190E+01 0.136E+01 -.396E+01   0.203E+01 -.144E+01 0.423E+01   -.130E+00 0.790E-01 -.274E+00   -.811E-04 0.878E-04 -.386E-03
   -.538E+02 0.508E+02 -.508E+02   0.586E+02 -.553E+02 0.553E+02   -.470E+01 0.445E+01 -.445E+01   -.332E-03 0.163E-04 -.163E-04
   -.531E+01 -.324E+01 0.177E+02   0.584E+01 0.359E+01 -.184E+02   -.522E+00 -.348E+00 0.760E+00   -.266E-03 -.137E-03 0.250E-03
   0.145E+01 0.124E+01 -.124E+01   -.134E+01 -.132E+01 0.132E+01   -.109E+00 0.834E-01 -.834E-01   -.191E-05 0.111E-03 -.111E-03
   -.190E+01 0.396E+01 -.136E+01   0.203E+01 -.423E+01 0.144E+01   -.130E+00 0.274E+00 -.790E-01   -.811E-04 0.386E-03 -.878E-04
   -.420E+00 0.368E+01 0.287E+01   0.435E+00 -.384E+01 -.298E+01   -.117E-01 0.167E+00 0.108E+00   -.134E-04 0.193E-03 0.201E-03
   0.136E+01 -.119E+01 -.127E+01   -.151E+01 0.135E+01 0.143E+01   0.156E+00 -.154E+00 -.157E+00   0.959E-04 -.168E-03 -.160E-03
   0.570E+01 -.629E+01 -.354E+01   -.627E+01 0.688E+01 0.426E+01   0.571E+00 -.587E+00 -.734E+00   0.111E-03 -.338E-03 0.616E-05
   0.210E+01 -.330E+01 0.330E+01   -.210E+01 0.344E+01 -.344E+01   -.465E-02 -.139E+00 0.139E+00   -.102E-03 -.181E-03 0.181E-03
   0.323E+01 0.697E+00 -.278E+01   -.335E+01 -.693E+00 0.297E+01   0.118E+00 -.609E-02 -.190E+00   0.197E-03 0.850E-04 -.307E-03
   0.193E+02 0.508E+01 -.508E+01   -.204E+02 -.512E+01 0.512E+01   0.107E+01 0.402E-01 -.402E-01   0.234E-03 0.385E-04 -.385E-04
   0.570E+01 0.354E+01 0.629E+01   -.627E+01 -.426E+01 -.688E+01   0.571E+00 0.734E+00 0.587E+00   0.111E-03 -.616E-05 0.338E-03
   0.975E+00 0.127E+01 -.127E+01   -.106E+01 -.133E+01 0.133E+01   0.802E-01 0.631E-01 -.631E-01   0.119E-03 0.457E-04 -.457E-04
   0.323E+01 0.278E+01 -.697E+00   -.335E+01 -.297E+01 0.693E+00   0.118E+00 0.190E+00 0.609E-02   0.197E-03 0.307E-03 -.850E-04
   0.136E+01 0.127E+01 0.119E+01   -.151E+01 -.143E+01 -.135E+01   0.156E+00 0.157E+00 0.154E+00   0.959E-04 0.160E-03 0.168E-03
   -.405E+00 -.405E+00 -.482E+00   0.417E+00 0.417E+00 0.550E+00   -.117E-01 -.117E-01 -.650E-01   -.570E-04 -.570E-04 -.162E-04
   0.352E+00 0.352E+00 -.474E+00   -.339E+00 -.339E+00 0.416E+00   -.134E-01 -.134E-01 0.534E-01   0.182E-04 0.181E-04 -.454E-04
   0.847E+00 0.847E+00 -.847E+00   -.842E+00 -.842E+00 0.842E+00   -.321E-02 -.321E-02 0.321E-02   -.424E-04 -.424E-04 0.424E-04
   -.289E+01 0.514E+00 -.290E+01   0.297E+01 -.428E+00 0.296E+01   -.799E-01 -.858E-01 -.603E-01   -.662E-04 -.323E-04 -.119E-04
   -.361E+00 -.311E+01 0.311E+01   0.448E+00 0.323E+01 -.323E+01   -.813E-01 -.113E+00 0.113E+00   0.106E-03 -.144E-04 0.144E-04
   0.352E+00 0.474E+00 -.352E+00   -.339E+00 -.416E+00 0.339E+00   -.134E-01 -.534E-01 0.134E-01   0.182E-04 0.454E-04 -.181E-04
   -.883E+00 0.166E+01 -.166E+01   0.986E+00 -.182E+01 0.182E+01   -.992E-01 0.155E+00 -.155E+00   -.169E-03 0.105E-03 -.105E-03
   -.289E+01 0.290E+01 -.514E+00   0.297E+01 -.296E+01 0.428E+00   -.799E-01 0.603E-01 0.858E-01   -.662E-04 0.119E-04 0.323E-04
   -.405E+00 0.482E+00 0.405E+00   0.417E+00 -.550E+00 -.417E+00   -.117E-01 0.650E-01 0.117E-01   -.570E-04 0.162E-04 0.570E-04
   0.514E+00 -.289E+01 -.290E+01   -.428E+00 0.297E+01 0.296E+01   -.858E-01 -.799E-01 -.603E-01   -.323E-04 -.662E-04 -.119E-04
   -.311E+01 -.361E+00 0.311E+01   0.323E+01 0.448E+00 -.323E+01   -.113E+00 -.813E-01 0.113E+00   -.144E-04 0.106E-03 0.144E-04
   0.474E+00 0.352E+00 -.352E+00   -.416E+00 -.339E+00 0.339E+00   -.534E-01 -.134E-01 0.134E-01   0.454E-04 0.181E-04 -.181E-04
   -.524E+01 -.524E+01 -.174E+02   0.532E+01 0.532E+01 0.183E+02   -.898E-01 -.898E-01 -.959E+00   -.173E-03 -.173E-03 -.379E-04
   -.311E+01 -.311E+01 0.361E+00   0.323E+01 0.323E+01 -.448E+00   -.113E+00 -.113E+00 0.813E-01   -.144E-04 -.144E-04 -.106E-03
   -.268E+01 0.552E+01 -.552E+01   0.347E+01 -.613E+01 0.613E+01   -.770E+00 0.610E+00 -.610E+00   -.117E-03 0.237E-03 -.237E-03
   -.524E+01 0.174E+02 0.524E+01   0.532E+01 -.183E+02 -.532E+01   -.898E-01 0.959E+00 0.898E-01   -.173E-03 0.379E-04 0.173E-03
   0.514E+00 0.290E+01 0.289E+01   -.428E+00 -.296E+01 -.297E+01   -.858E-01 0.603E-01 0.799E-01   -.323E-04 0.119E-04 0.662E-04
   0.166E+01 -.883E+00 -.166E+01   -.182E+01 0.986E+00 0.182E+01   0.155E+00 -.992E-01 -.155E+00   0.105E-03 -.169E-03 -.105E-03
   0.290E+01 -.289E+01 -.514E+00   -.296E+01 0.297E+01 0.428E+00   0.603E-01 -.799E-01 0.858E-01   0.119E-04 -.662E-04 0.323E-04
   0.482E+00 -.405E+00 0.405E+00   -.550E+00 0.417E+00 -.417E+00   0.650E-01 -.117E-01 0.117E-01   0.162E-04 -.570E-04 0.570E-04
   0.552E+01 -.268E+01 -.552E+01   -.613E+01 0.347E+01 0.613E+01   0.610E+00 -.770E+00 -.610E+00   0.237E-03 -.117E-03 -.237E-03
   0.174E+02 -.524E+01 0.524E+01   -.183E+02 0.532E+01 -.532E+01   0.959E+00 -.898E-01 0.898E-01   0.379E-04 -.173E-03 0.173E-03
   0.290E+01 0.514E+00 0.289E+01   -.296E+01 -.428E+00 -.297E+01   0.603E-01 -.858E-01 0.799E-01   0.119E-04 -.323E-04 0.662E-04
   0.384E+01 0.384E+01 -.384E+01   -.400E+01 -.400E+01 0.400E+01   0.161E+00 0.161E+00 -.161E+00   0.325E-03 0.325E-03 -.325E-03
   0.552E+01 0.552E+01 0.268E+01   -.613E+01 -.613E+01 -.347E+01   0.610E+00 0.610E+00 0.770E+00   0.237E-03 0.237E-03 0.117E-03
   0.166E+01 0.166E+01 0.883E+00   -.182E+01 -.182E+01 -.986E+00   0.155E+00 0.155E+00 0.992E-01   0.105E-03 0.105E-03 0.169E-03
   0.127E+01 -.119E+01 -.136E+01   -.143E+01 0.135E+01 0.151E+01   0.157E+00 -.154E+00 -.156E+00   0.160E-03 -.168E-03 -.959E-04
   0.368E+01 -.287E+01 0.420E+00   -.384E+01 0.298E+01 -.435E+00   0.167E+00 -.108E+00 0.117E-01   0.193E-03 -.201E-03 0.134E-04
   0.165E+01 0.102E+00 0.736E-01   -.170E+01 -.442E-01 -.821E-01   0.472E-01 -.548E-01 0.886E-02   -.763E-05 -.535E-04 0.453E-04
   0.278E+01 0.697E+00 -.323E+01   -.297E+01 -.693E+00 0.335E+01   0.190E+00 -.609E-02 -.118E+00   0.307E-03 0.850E-04 -.197E-03
   0.396E+01 0.136E+01 0.190E+01   -.423E+01 -.144E+01 -.203E+01   0.274E+00 0.790E-01 0.130E+00   0.386E-03 0.878E-04 0.811E-04
   0.156E+01 -.194E+00 0.886E+00   -.164E+01 0.902E-01 -.927E+00   0.841E-01 0.105E+00 0.394E-01   0.838E-04 0.706E-04 0.108E-03
   0.127E+01 0.127E+01 -.975E+00   -.133E+01 -.133E+01 0.106E+01   0.631E-01 0.631E-01 -.802E-01   0.457E-04 0.457E-04 -.119E-03
   0.124E+01 0.124E+01 -.145E+01   -.132E+01 -.132E+01 0.134E+01   0.834E-01 0.834E-01 0.109E+00   0.111E-03 0.111E-03 0.191E-05
   0.942E+00 0.942E+00 -.167E+00   -.100E+01 -.100E+01 0.146E+00   0.619E-01 0.619E-01 0.188E-01   -.154E-04 -.154E-04 0.133E-03
   -.330E+01 -.330E+01 -.210E+01   0.344E+01 0.344E+01 0.210E+01   -.139E+00 -.139E+00 0.465E-02   -.181E-03 -.181E-03 0.102E-03
   0.174E+01 0.174E+01 0.495E+01   -.135E+01 -.135E+01 -.556E+01   -.383E+00 -.383E+00 0.568E+00   -.920E-04 -.920E-04 -.164E-03
   0.537E-01 0.537E-01 -.175E+01   0.205E-01 0.205E-01 0.173E+01   -.683E-01 -.683E-01 0.209E-01   -.450E-04 -.450E-04 -.306E-04
   -.629E+01 0.354E+01 -.570E+01   0.688E+01 -.426E+01 0.627E+01   -.587E+00 0.734E+00 -.571E+00   -.338E-03 -.616E-05 -.111E-03
   -.177E+02 -.324E+01 0.531E+01   0.184E+02 0.359E+01 -.584E+01   -.760E+00 -.348E+00 0.522E+00   -.250E-03 -.137E-03 0.266E-03
   -.297E+01 -.170E+01 0.138E+01   0.308E+01 0.169E+01 -.142E+01   -.108E+00 0.865E-03 0.337E-01   -.904E-04 -.117E-04 -.108E-03
   -.119E+01 0.127E+01 -.136E+01   0.135E+01 -.143E+01 0.151E+01   -.154E+00 0.157E+00 -.156E+00   -.168E-03 0.160E-03 -.959E-04
   -.287E+01 0.368E+01 0.420E+00   0.298E+01 -.384E+01 -.435E+00   -.108E+00 0.167E+00 0.117E-01   -.201E-03 0.193E-03 0.134E-04
   0.102E+00 0.165E+01 0.736E-01   -.442E-01 -.170E+01 -.821E-01   -.548E-01 0.472E-01 0.886E-02   -.535E-04 -.764E-05 0.453E-04
   0.354E+01 -.629E+01 -.570E+01   -.426E+01 0.688E+01 0.627E+01   0.734E+00 -.587E+00 -.571E+00   -.617E-05 -.338E-03 -.111E-03
   -.324E+01 -.177E+02 0.531E+01   0.359E+01 0.184E+02 -.584E+01   -.348E+00 -.760E+00 0.522E+00   -.137E-03 -.250E-03 0.266E-03
   -.170E+01 -.297E+01 0.138E+01   0.169E+01 0.308E+01 -.142E+01   0.865E-03 -.108E+00 0.337E-01   -.118E-04 -.904E-04 -.108E-03
   0.508E+01 0.508E+01 -.193E+02   -.512E+01 -.512E+01 0.204E+02   0.402E-01 0.402E-01 -.107E+01   0.385E-04 0.385E-04 -.234E-03
   0.508E+02 0.508E+02 0.538E+02   -.553E+02 -.553E+02 -.586E+02   0.445E+01 0.445E+01 0.470E+01   0.163E-04 0.163E-04 0.332E-03
   0.115E+01 0.115E+01 0.347E+01   -.115E+01 -.115E+01 -.360E+01   -.214E-02 -.214E-02 0.125E+00   0.559E-05 0.560E-05 0.728E-04
   0.697E+00 0.278E+01 -.323E+01   -.693E+00 -.297E+01 0.335E+01   -.609E-02 0.190E+00 -.118E+00   0.850E-04 0.307E-03 -.197E-03
   0.136E+01 0.396E+01 0.190E+01   -.144E+01 -.423E+01 -.203E+01   0.790E-01 0.274E+00 0.130E+00   0.878E-04 0.386E-03 0.811E-04
   -.194E+00 0.156E+01 0.886E+00   0.902E-01 -.164E+01 -.927E+00   0.105E+00 0.841E-01 0.394E-01   0.706E-04 0.838E-04 0.108E-03
   0.492E+00 -.213E+00 0.213E+00   -.544E+00 0.200E+00 -.200E+00   0.517E-01 0.123E-01 -.123E-01   0.949E-05 -.599E-04 0.599E-04
   0.166E+01 0.231E+00 -.433E+00   -.177E+01 -.246E+00 0.494E+00   0.105E+00 0.142E-01 -.596E-01   0.124E-03 -.105E-04 -.126E-03
   0.213E+01 -.188E-02 0.193E+01   -.222E+01 -.399E-01 -.201E+01   0.921E-01 0.435E-01 0.732E-01   0.394E-04 0.758E-04 0.541E-04
   0.213E+01 -.193E+01 0.188E-02   -.222E+01 0.201E+01 0.399E-01   0.921E-01 -.732E-01 -.435E-01   0.394E-04 -.541E-04 -.758E-04
   0.501E+01 -.304E+01 -.317E+01   -.547E+01 0.319E+01 0.325E+01   0.457E+00 -.151E+00 -.848E-01   0.306E-03 -.213E-03 -.112E-03
   0.638E+01 -.346E+01 0.346E+01   -.672E+01 0.380E+01 -.380E+01   0.345E+00 -.346E+00 0.346E+00   0.127E-03 -.217E-03 0.217E-03
   0.166E+01 0.433E+00 -.231E+00   -.177E+01 -.494E+00 0.246E+00   0.105E+00 0.596E-01 -.142E-01   0.124E-03 0.126E-03 0.105E-04
   0.563E+01 0.292E+01 -.292E+01   -.602E+01 -.323E+01 0.323E+01   0.390E+00 0.311E+00 -.311E+00   0.400E-03 0.250E-03 -.250E-03
   0.501E+01 0.317E+01 0.304E+01   -.547E+01 -.325E+01 -.319E+01   0.457E+00 0.848E-01 0.151E+00   0.306E-03 0.112E-03 0.213E-03
   -.123E+01 0.273E+00 -.273E+00   0.129E+01 -.282E+00 0.282E+00   -.596E-01 0.947E-02 -.947E-02   -.728E-04 -.418E-04 0.418E-04
   -.188E+01 0.203E+00 -.238E+00   0.195E+01 -.258E+00 0.266E+00   -.679E-01 0.555E-01 -.249E-01   -.131E-03 0.851E-04 -.481E-04
   -.103E+01 0.198E+01 0.160E+01   0.111E+01 -.203E+01 -.170E+01   -.793E-01 0.416E-01 0.979E-01   -.721E-04 0.765E-04 0.127E-04
   -.103E+01 -.160E+01 -.198E+01   0.111E+01 0.170E+01 0.203E+01   -.793E-01 -.979E-01 -.416E-01   -.721E-04 -.127E-04 -.765E-04
   -.509E+01 -.481E+01 -.202E+01   0.529E+01 0.495E+01 0.215E+01   -.195E+00 -.143E+00 -.137E+00   -.806E-04 -.141E-03 0.843E-04
   0.247E+01 -.234E+01 0.234E+01   -.233E+01 0.240E+01 -.240E+01   -.147E+00 -.711E-01 0.711E-01   -.106E-04 -.205E-04 0.205E-04
   -.188E+01 0.238E+00 -.203E+00   0.195E+01 -.266E+00 0.258E+00   -.679E-01 0.249E-01 -.555E-01   -.131E-03 0.481E-04 -.851E-04
   -.418E+01 0.276E+01 -.276E+01   0.460E+01 -.284E+01 0.284E+01   -.427E+00 0.773E-01 -.773E-01   -.345E-03 0.236E-04 -.236E-04
   -.509E+01 0.202E+01 0.481E+01   0.529E+01 -.215E+01 -.495E+01   -.195E+00 0.137E+00 0.143E+00   -.806E-04 -.843E-04 0.141E-03
   -.964E+00 0.597E+00 -.597E+00   0.101E+01 -.641E+00 0.641E+00   -.509E-01 0.440E-01 -.440E-01   0.638E-04 0.337E-04 -.337E-04
   -.311E+00 0.824E+00 -.160E+01   0.325E+00 -.904E+00 0.169E+01   -.121E-01 0.799E-01 -.974E-01   0.197E-04 0.206E-03 -.608E-04
   -.130E+01 0.211E+01 0.226E+01   0.134E+01 -.221E+01 -.238E+01   -.441E-01 0.101E+00 0.114E+00   0.287E-04 0.215E-03 0.103E-03
   -.130E+01 -.226E+01 -.211E+01   0.134E+01 0.238E+01 0.221E+01   -.441E-01 -.114E+00 -.101E+00   0.287E-04 -.103E-03 -.215E-03
   0.770E+01 -.185E+02 -.177E+02   -.708E+01 0.197E+02 0.186E+02   -.657E+00 -.120E+01 -.826E+00   0.723E-04 -.197E-03 0.191E-03
   -.306E+02 -.828E+01 0.828E+01   0.326E+02 0.675E+01 -.675E+01   -.207E+01 0.153E+01 -.153E+01   -.402E-03 0.111E-03 -.111E-03
   -.311E+00 0.160E+01 -.824E+00   0.325E+00 -.169E+01 0.904E+00   -.121E-01 0.974E-01 -.799E-01   0.197E-04 0.608E-04 -.206E-03
   -.968E+01 0.191E+02 -.191E+02   0.920E+01 -.201E+02 0.201E+02   0.448E+00 0.100E+01 -.100E+01   -.330E-03 -.153E-04 0.153E-04
   0.770E+01 0.177E+02 0.185E+02   -.708E+01 -.186E+02 -.197E+02   -.657E+00 0.826E+00 0.120E+01   0.723E-04 -.191E-03 0.197E-03
   0.273E+00 -.123E+01 -.273E+00   -.282E+00 0.129E+01 0.282E+00   0.947E-02 -.596E-01 -.947E-02   -.418E-04 -.729E-04 0.418E-04
   0.203E+00 -.188E+01 -.238E+00   -.258E+00 0.195E+01 0.266E+00   0.555E-01 -.679E-01 -.249E-01   0.851E-04 -.131E-03 -.481E-04
   0.198E+01 -.103E+01 0.160E+01   -.203E+01 0.111E+01 -.170E+01   0.416E-01 -.793E-01 0.979E-01   0.765E-04 -.721E-04 0.127E-04
   0.597E+00 -.964E+00 -.597E+00   -.641E+00 0.101E+01 0.641E+00   0.440E-01 -.509E-01 -.440E-01   0.337E-04 0.638E-04 -.337E-04
   0.824E+00 -.311E+00 -.160E+01   -.904E+00 0.325E+00 0.169E+01   0.799E-01 -.121E-01 -.974E-01   0.206E-03 0.197E-04 -.608E-04
   0.211E+01 -.130E+01 0.226E+01   -.221E+01 0.134E+01 -.238E+01   0.101E+00 -.441E-01 0.114E+00   0.215E-03 0.287E-04 0.103E-03
   -.213E+00 0.492E+00 0.213E+00   0.200E+00 -.544E+00 -.200E+00   0.123E-01 0.517E-01 -.123E-01   -.599E-04 0.949E-05 0.599E-04
   0.231E+00 0.166E+01 -.433E+00   -.246E+00 -.177E+01 0.494E+00   0.142E-01 0.105E+00 -.596E-01   -.105E-04 0.124E-03 -.126E-03
   -.188E-02 0.213E+01 0.193E+01   -.399E-01 -.222E+01 -.201E+01   0.435E-01 0.921E-01 0.732E-01   0.758E-04 0.393E-04 0.541E-04
   -.160E+01 -.103E+01 -.198E+01   0.170E+01 0.111E+01 0.203E+01   -.979E-01 -.793E-01 -.416E-01   -.127E-04 -.721E-04 -.765E-04
   -.481E+01 -.509E+01 -.202E+01   0.495E+01 0.529E+01 0.215E+01   -.143E+00 -.195E+00 -.137E+00   -.141E-03 -.806E-04 0.843E-04
   -.234E+01 0.247E+01 0.234E+01   0.240E+01 -.233E+01 -.240E+01   -.711E-01 -.147E+00 0.711E-01   -.205E-04 -.106E-04 0.205E-04
   -.226E+01 -.130E+01 -.211E+01   0.238E+01 0.134E+01 0.221E+01   -.114E+00 -.441E-01 -.101E+00   -.103E-03 0.287E-04 -.215E-03
   -.185E+02 0.770E+01 -.177E+02   0.197E+02 -.708E+01 0.186E+02   -.120E+01 -.657E+00 -.826E+00   -.197E-03 0.723E-04 0.191E-03
   -.828E+01 -.306E+02 0.828E+01   0.675E+01 0.326E+02 -.675E+01   0.153E+01 -.207E+01 -.153E+01   0.111E-03 -.402E-03 -.111E-03
   -.193E+01 0.213E+01 0.188E-02   0.201E+01 -.222E+01 0.399E-01   -.732E-01 0.921E-01 -.435E-01   -.541E-04 0.393E-04 -.758E-04
   -.304E+01 0.501E+01 -.317E+01   0.319E+01 -.547E+01 0.325E+01   -.151E+00 0.457E+00 -.848E-01   -.213E-03 0.306E-03 -.112E-03
   -.346E+01 0.638E+01 0.346E+01   0.380E+01 -.672E+01 -.380E+01   -.346E+00 0.345E+00 0.346E+00   -.217E-03 0.127E-03 0.217E-03
   0.238E+00 -.188E+01 -.203E+00   -.266E+00 0.195E+01 0.258E+00   0.249E-01 -.679E-01 -.555E-01   0.481E-04 -.131E-03 -.851E-04
   0.276E+01 -.418E+01 -.276E+01   -.284E+01 0.460E+01 0.284E+01   0.773E-01 -.427E+00 -.773E-01   0.236E-04 -.345E-03 -.236E-04
   0.202E+01 -.509E+01 0.481E+01   -.215E+01 0.529E+01 -.495E+01   0.137E+00 -.195E+00 0.143E+00   -.843E-04 -.806E-04 0.141E-03
   0.160E+01 -.311E+00 -.824E+00   -.169E+01 0.325E+00 0.904E+00   0.974E-01 -.121E-01 -.799E-01   0.608E-04 0.197E-04 -.206E-03
   0.191E+02 -.968E+01 -.191E+02   -.201E+02 0.920E+01 0.201E+02   0.100E+01 0.448E+00 -.100E+01   -.153E-04 -.330E-03 0.153E-04
   0.177E+02 0.770E+01 0.185E+02   -.186E+02 -.708E+01 -.197E+02   0.826E+00 -.657E+00 0.120E+01   -.191E-03 0.723E-04 0.197E-03
   0.433E+00 0.166E+01 -.231E+00   -.494E+00 -.177E+01 0.246E+00   0.596E-01 0.105E+00 -.142E-01   0.126E-03 0.124E-03 0.105E-04
   0.292E+01 0.563E+01 -.292E+01   -.323E+01 -.602E+01 0.323E+01   0.311E+00 0.390E+00 -.311E+00   0.250E-03 0.400E-03 -.250E-03
   0.317E+01 0.501E+01 0.304E+01   -.325E+01 -.547E+01 -.319E+01   0.848E-01 0.457E+00 0.151E+00   0.112E-03 0.306E-03 0.213E-03
   -.213E+00 -.213E+00 -.492E+00   0.200E+00 0.200E+00 0.544E+00   0.123E-01 0.123E-01 -.517E-01   -.599E-04 -.599E-04 -.949E-05
   0.597E+00 0.597E+00 0.964E+00   -.641E+00 -.641E+00 -.101E+01   0.440E-01 0.440E-01 0.509E-01   0.337E-04 0.337E-04 -.638E-04
   0.273E+00 0.273E+00 0.123E+01   -.282E+00 -.282E+00 -.129E+01   0.947E-02 0.947E-02 0.596E-01   -.418E-04 -.418E-04 0.729E-04
   -.188E-02 -.193E+01 -.213E+01   -.399E-01 0.201E+01 0.222E+01   0.435E-01 -.732E-01 -.921E-01   0.758E-04 -.541E-04 -.393E-04
   0.211E+01 -.226E+01 0.130E+01   -.221E+01 0.238E+01 -.134E+01   0.101E+00 -.114E+00 0.441E-01   0.215E-03 -.103E-03 -.287E-04
   0.198E+01 -.160E+01 0.103E+01   -.203E+01 0.170E+01 -.111E+01   0.416E-01 -.979E-01 0.793E-01   0.765E-04 -.127E-04 0.721E-04
   0.231E+00 0.433E+00 -.166E+01   -.246E+00 -.494E+00 0.177E+01   0.142E-01 0.596E-01 -.105E+00   -.105E-04 0.126E-03 -.124E-03
   0.824E+00 0.160E+01 0.311E+00   -.904E+00 -.169E+01 -.325E+00   0.799E-01 0.974E-01 0.121E-01   0.206E-03 0.608E-04 -.197E-04
   0.203E+00 0.238E+00 0.188E+01   -.258E+00 -.266E+00 -.195E+01   0.555E-01 0.249E-01 0.679E-01   0.851E-04 0.481E-04 0.131E-03
   -.193E+01 -.188E-02 -.213E+01   0.201E+01 -.399E-01 0.222E+01   -.732E-01 0.435E-01 -.921E-01   -.541E-04 0.758E-04 -.393E-04
   -.226E+01 0.211E+01 0.130E+01   0.238E+01 -.221E+01 -.134E+01   -.114E+00 0.101E+00 0.441E-01   -.103E-03 0.215E-03 -.287E-04
   -.160E+01 0.198E+01 0.103E+01   0.170E+01 -.203E+01 -.111E+01   -.979E-01 0.416E-01 0.793E-01   -.127E-04 0.765E-04 0.721E-04
   -.346E+01 -.346E+01 -.638E+01   0.380E+01 0.380E+01 0.672E+01   -.346E+00 -.346E+00 -.345E+00   -.217E-03 -.217E-03 -.127E-03
   -.828E+01 -.828E+01 0.306E+02   0.675E+01 0.675E+01 -.326E+02   0.153E+01 0.153E+01 0.207E+01   0.111E-03 0.111E-03 0.402E-03
   -.234E+01 -.234E+01 -.247E+01   0.240E+01 0.240E+01 0.233E+01   -.711E-01 -.711E-01 0.147E+00   -.205E-04 -.205E-04 0.106E-04
   -.304E+01 0.317E+01 -.501E+01   0.319E+01 -.325E+01 0.547E+01   -.151E+00 0.848E-01 -.457E+00   -.213E-03 0.112E-03 -.306E-03
   -.185E+02 0.177E+02 -.770E+01   0.197E+02 -.186E+02 0.708E+01   -.120E+01 0.826E+00 0.657E+00   -.197E-03 -.191E-03 -.723E-04
   -.481E+01 0.202E+01 0.509E+01   0.495E+01 -.215E+01 -.529E+01   -.143E+00 0.137E+00 0.195E+00   -.141E-03 -.843E-04 0.806E-04
   0.433E+00 0.231E+00 -.166E+01   -.494E+00 -.246E+00 0.177E+01   0.596E-01 0.142E-01 -.105E+00   0.126E-03 -.105E-04 -.124E-03
   0.160E+01 0.824E+00 0.311E+00   -.169E+01 -.904E+00 -.325E+00   0.974E-01 0.799E-01 0.121E-01   0.608E-04 0.206E-03 -.197E-04
   0.238E+00 0.203E+00 0.188E+01   -.266E+00 -.258E+00 -.195E+01   0.249E-01 0.555E-01 0.679E-01   0.481E-04 0.851E-04 0.131E-03
   0.317E+01 -.304E+01 -.501E+01   -.325E+01 0.319E+01 0.547E+01   0.848E-01 -.151E+00 -.457E+00   0.112E-03 -.213E-03 -.306E-03
   0.177E+02 -.185E+02 -.770E+01   -.186E+02 0.197E+02 0.708E+01   0.826E+00 -.120E+01 0.657E+00   -.191E-03 -.197E-03 -.723E-04
   0.202E+01 -.481E+01 0.509E+01   -.215E+01 0.495E+01 -.529E+01   0.137E+00 -.143E+00 0.195E+00   -.843E-04 -.141E-03 0.806E-04
   0.292E+01 0.292E+01 -.563E+01   -.323E+01 -.323E+01 0.602E+01   0.311E+00 0.311E+00 -.390E+00   0.250E-03 0.250E-03 -.400E-03
   0.191E+02 0.191E+02 0.968E+01   -.201E+02 -.201E+02 -.920E+01   0.100E+01 0.100E+01 -.448E+00   -.153E-04 -.153E-04 0.330E-03
   0.276E+01 0.276E+01 0.418E+01   -.284E+01 -.284E+01 -.460E+01   0.773E-01 0.773E-01 0.427E+00   0.236E-04 0.236E-04 0.345E-03
   0.117E+01 -.165E+01 -.117E+01   -.125E+01 0.173E+01 0.125E+01   0.825E-01 -.821E-01 -.825E-01   0.944E-04 -.201E-03 -.944E-04
   0.338E+01 -.256E+01 -.838E+00   -.359E+01 0.278E+01 0.607E+00   0.205E+00 -.217E+00 0.234E+00   0.873E-04 -.227E-03 -.132E-05
   0.210E+01 -.211E+01 0.211E+01   -.219E+01 0.220E+01 -.220E+01   0.889E-01 -.870E-01 0.870E-01   -.290E-04 -.973E-04 0.973E-04
   0.288E+01 -.205E+01 -.288E+01   -.313E+01 0.187E+01 0.313E+01   0.255E+00 0.180E+00 -.255E+00   0.255E-03 0.493E-04 -.255E-03
   0.109E+02 -.782E-01 0.782E-01   -.114E+02 0.132E+00 -.132E+00   0.507E+00 -.526E-01 0.526E-01   0.417E-03 -.347E-04 0.347E-04
   0.338E+01 0.838E+00 0.256E+01   -.359E+01 -.607E+00 -.278E+01   0.205E+00 -.234E+00 0.217E+00   0.873E-04 0.132E-05 0.227E-03
   0.151E+01 0.151E+01 -.151E+01   -.164E+01 -.164E+01 0.164E+01   0.127E+00 0.127E+00 -.127E+00   0.162E-03 0.162E-03 -.162E-03
   0.288E+01 0.288E+01 0.205E+01   -.313E+01 -.313E+01 -.187E+01   0.255E+00 0.255E+00 -.180E+00   0.255E-03 0.255E-03 -.493E-04
   0.117E+01 0.117E+01 0.165E+01   -.125E+01 -.125E+01 -.173E+01   0.825E-01 0.825E-01 0.821E-01   0.944E-04 0.944E-04 0.201E-03
   -.211E+01 -.211E+01 -.210E+01   0.220E+01 0.220E+01 0.219E+01   -.870E-01 -.870E-01 -.889E-01   -.973E-04 -.973E-04 0.290E-04
   -.803E+00 -.803E+00 0.381E+01   0.856E+00 0.856E+00 -.379E+01   -.585E-01 -.585E-01 -.118E-01   0.323E-04 0.323E-04 -.273E-04
   -.161E+00 -.161E+00 0.161E+00   0.219E+00 0.219E+00 -.219E+00   -.599E-01 -.599E-01 0.599E-01   0.102E-04 0.102E-04 -.102E-04
   -.256E+01 0.838E+00 -.338E+01   0.278E+01 -.607E+00 0.359E+01   -.217E+00 -.234E+00 -.205E+00   -.227E-03 0.132E-05 -.872E-04
   -.458E+01 -.304E+01 0.304E+01   0.467E+01 0.311E+01 -.311E+01   -.893E-01 -.621E-01 0.621E-01   -.160E-03 -.650E-04 0.650E-04
   -.803E+00 -.381E+01 0.803E+00   0.856E+00 0.379E+01 -.856E+00   -.585E-01 0.118E-01 0.585E-01   0.323E-04 0.273E-04 -.323E-04
   -.165E+01 0.117E+01 -.117E+01   0.173E+01 -.125E+01 0.125E+01   -.821E-01 0.825E-01 -.825E-01   -.201E-03 0.944E-04 -.944E-04
   -.256E+01 0.338E+01 -.838E+00   0.278E+01 -.359E+01 0.607E+00   -.217E+00 0.205E+00 0.234E+00   -.227E-03 0.872E-04 -.132E-05
   -.211E+01 0.210E+01 0.211E+01   0.220E+01 -.219E+01 -.220E+01   -.870E-01 0.889E-01 0.870E-01   -.973E-04 -.290E-04 0.973E-04
   0.838E+00 -.256E+01 -.338E+01   -.607E+00 0.278E+01 0.359E+01   -.234E+00 -.217E+00 -.205E+00   0.132E-05 -.227E-03 -.872E-04
   -.304E+01 -.458E+01 0.304E+01   0.311E+01 0.467E+01 -.311E+01   -.621E-01 -.893E-01 0.621E-01   -.650E-04 -.160E-03 0.650E-04
   -.381E+01 -.803E+00 0.803E+00   0.379E+01 0.856E+00 -.856E+00   0.118E-01 -.585E-01 0.585E-01   0.273E-04 0.323E-04 -.323E-04
   -.782E-01 -.782E-01 -.109E+02   0.132E+00 0.132E+00 0.114E+02   -.526E-01 -.526E-01 -.507E+00   -.347E-04 -.347E-04 -.417E-03
   -.304E+01 -.304E+01 0.458E+01   0.311E+01 0.311E+01 -.467E+01   -.621E-01 -.621E-01 0.893E-01   -.650E-04 -.650E-04 0.160E-03
   -.205E+01 0.288E+01 -.288E+01   0.187E+01 -.313E+01 0.313E+01   0.180E+00 0.255E+00 -.255E+00   0.493E-04 0.255E-03 -.255E-03
   -.782E-01 0.109E+02 0.782E-01   0.132E+00 -.114E+02 -.132E+00   -.526E-01 0.507E+00 0.526E-01   -.347E-04 0.417E-03 0.347E-04
   0.838E+00 0.338E+01 0.256E+01   -.607E+00 -.359E+01 -.278E+01   -.234E+00 0.205E+00 0.217E+00   0.132E-05 0.872E-04 0.227E-03
   -.648E+02 -.648E+02 0.648E+02   0.792E+02 0.792E+02 -.792E+02   -.145E+02 -.145E+02 0.145E+02   0.427E-04 0.427E-04 -.427E-04
 -----------------------------------------------------------------------------------------------
   0.729E+01 0.729E+01 -.729E+01   -.554E-12 -.284E-13 0.313E-12   -.727E+01 -.727E+01 0.727E+01   0.745E-03 0.745E-03 -.745E-03
 
 
 POSITION                                       TOTAL-FORCE (eV/Angst)
 -----------------------------------------------------------------------------------
      0.89234      0.89471      0.89452        -0.000055      0.001440      0.000055
      0.89545      0.89437      4.46837        -0.000631      0.002186     -0.001300
      0.88722      0.89339      8.04091        -0.001261     -0.000506     -0.002385
      0.89664      4.46906      0.89021        -0.000694      0.004689      0.000694
      0.89356      4.47003      4.46737        -0.001040     -0.002233      0.000081
      0.88830      4.46682      8.03930         0.002443      0.003065     -0.000821
      0.89523      8.04148      0.89162         0.001416     -0.001011     -0.001416
      0.89758      8.04282      4.46507         0.002649      0.000275      0.001654
      0.89525      8.03901      8.03801        -0.000133     -0.000239     -0.002002
      4.46709      0.89339      0.89963         0.002385     -0.000506      0.001261
      4.46835      0.89529      4.47284         0.000063      0.001201      0.004356
      4.46106      0.88392      8.04694         0.005741      0.006272     -0.005741
      4.46869      4.46682      0.89856         0.000821      0.003065     -0.002443
      4.48717      4.47597      4.48735         0.003669     -0.000145     -0.002147
      4.45089      4.45794      8.05711         0.000360      0.034683     -0.000360
      4.46998      8.03901      0.89160         0.002002     -0.000239      0.000133
      4.46541      8.04548      4.46926         0.008989      0.000789     -0.009924
      4.47303      8.03057      8.03496         0.001340     -0.003638     -0.001340
      8.03962      0.89437      0.89141         0.001300      0.002186      0.000631
      8.04003      0.89870      4.46796        -0.000161      0.001482      0.000161
      8.03515      0.89529      8.03964        -0.004356      0.001201     -0.000063
      8.04062      4.47003      0.89330        -0.000081     -0.002233      0.001040
      8.11004      4.42406      4.39795        -0.023953      0.151514      0.023953
      8.02064      4.47597      8.02082         0.002147     -0.000145     -0.003669
      8.04292      8.04282      0.88928        -0.001654      0.000275     -0.002649
      8.04305      8.03881      4.46494         0.003317     -0.005498     -0.003317
      8.03873      8.04548      8.04258         0.009924      0.000789     -0.008989
      2.68024      2.68023      0.89963        -0.000506      0.002385      0.001261
      2.68215      2.68149      4.47284         0.001201      0.000063      0.004356
      2.67077      2.67420      8.04694         0.006272      0.005741     -0.005741
      2.68123      6.25277      0.89141         0.002186      0.001300      0.000631
      2.68555      6.25318      4.46796         0.001482     -0.000161      0.000161
      2.68215      6.24830      8.03964         0.001201     -0.004356     -0.000063
      2.68156      9.82662      0.89452         0.001440     -0.000055      0.000055
      2.68123      9.82973      4.46837         0.002186     -0.000631     -0.001300
      2.68024      9.82150      8.04091        -0.000506     -0.001261     -0.002385
      6.25368      2.68183      0.89856         0.003065      0.000821     -0.002443
      6.26282      2.70032      4.48735        -0.000145      0.003669     -0.002147
      6.24479      2.66403      8.05711         0.034683      0.000360     -0.000360
      6.25689      6.25376      0.89330        -0.002233     -0.000081      0.001040
      6.21092      6.32319      4.39795         0.151514     -0.023953      0.023953
      6.26282      6.23378      8.02082        -0.000145      0.002147     -0.003669
      6.25592      9.83092      0.89021         0.004689     -0.000694      0.000694
      6.25689      9.82784      4.46737        -0.002233     -0.001040      0.000081
      6.25368      9.82258      8.03930         0.003065      0.002443     -0.000821
      9.82587      2.68313      0.89160        -0.000239      0.002002      0.000133
      9.83233      2.67856      4.46926         0.000789      0.008989     -0.009924
      9.81743      2.68618      8.03496        -0.003638      0.001340     -0.001340
      9.82967      6.25606      0.88928         0.000275     -0.001654     -0.002649
      9.82566      6.25620      4.46494        -0.005498      0.003317     -0.003317
      9.83233      6.25187      8.04258         0.000789      0.009924     -0.008989
      9.82833      9.82951      0.89162        -0.001011      0.001416     -0.001416
      9.82967      9.83186      4.46507         0.000275      0.002649      0.001654
      9.82587      9.82953      8.03801        -0.000239     -0.000133     -0.002002
      2.68251      0.89565      2.68392         0.000527      0.000527      0.002976
      2.67527      0.88841      6.25728        -0.000376     -0.000376     -0.004073
      2.67644      0.88958      9.83155         0.001802      0.001802     -0.001802
      2.68730      4.46955      2.68721        -0.001879     -0.000157      0.000042
      2.67859      4.46425      6.25689         0.006077     -0.001841      0.001841
      2.67527      4.46386      9.83273        -0.000376      0.004073      0.000376
      2.68381      8.04137      2.67976         0.003378      0.001075     -0.001075
      2.68730      8.03392      6.25158        -0.001879     -0.000042      0.000157
      2.68251      8.03722      9.82548         0.000527     -0.002976     -0.000527
      6.25641      0.90045      2.68721        -0.000157     -0.001879      0.000042
      6.25110      0.89173      6.25689        -0.001841      0.006077      0.001841
      6.25071      0.88841      9.83273         0.004073     -0.000376      0.000376
      6.26223      4.47538      2.69126        -0.003760     -0.003760     -0.003432
      6.25110      4.46425      9.82941        -0.001841     -0.001841     -0.006077
      6.26183      8.05304      2.66810         0.012856      0.000688     -0.000688
      6.26223      8.02987      6.24576        -0.003760      0.003432      0.003760
      6.25641      8.03392      9.82069        -0.000157     -0.000042      0.001879
      9.82823      0.89696      2.67976         0.001075      0.003378     -0.001075
      9.82078      0.90045      6.25158        -0.000042     -0.001879      0.000157
      9.82407      0.89565      9.82548        -0.002976      0.000527     -0.000527
      9.83989      4.47497      2.66810         0.000688      0.012856     -0.000688
      9.81673      4.47538      6.24576         0.003432     -0.003760      0.003760
      9.82078      4.46955      9.82069        -0.000042     -0.000157      0.001879
      9.82959      8.04274      2.67840        -0.000421     -0.000421      0.000421
      9.83989      8.05304      6.24616         0.000688      0.000688     -0.012856
      9.82823      8.04137      9.82418         0.001075      0.001075     -0.003378
      0.89525      2.68313      2.68213        -0.000133      0.002002      0.000239
      0.88830      2.68183      6.25432         0.002443      0.000821     -0.003065
      0.88722      2.68023      9.82775        -0.001261      0.002385      0.000506
      0.89758      6.25606      2.67832         0.002649     -0.001654     -0.000275
      0.89356      6.25376      6.25110        -0.001040     -0.000081      0.002233
      0.89545      6.25277      9.82676        -0.000631      0.001300     -0.002186
      0.89523      9.82951      2.67966         0.001416      0.001416      0.001011
      0.89664      9.83092      6.25207        -0.000694     -0.000694     -0.004689
      0.89234      9.82662      9.82643        -0.000055     -0.000055     -0.001440
      4.47303      2.68618      2.69056         0.001340      0.001340      0.003638
      4.45089      2.66403      6.26320         0.000360      0.000360     -0.034683
      4.46106      2.67420      9.83722         0.005741      0.005741     -0.006272
      4.46541      6.25187      2.67566         0.008989      0.009924     -0.000789
      4.48717      6.23378      6.24517         0.003669      0.002147      0.000145
      4.46835      6.24830      9.82584         0.000063     -0.004356     -0.001201
      4.46998      9.82953      2.68213         0.002002     -0.000133      0.000239
      4.46869      9.82258      6.25432         0.000821      0.002443     -0.003065
      4.46709      9.82150      9.82775         0.002385     -0.001261      0.000506
      8.03873      2.67856      2.67566         0.009924      0.008989     -0.000789
      8.02064      2.70032      6.24517         0.002147      0.003669      0.000145
      8.03515      2.68149      9.82584        -0.004356      0.000063     -0.001201
      8.04305      6.25620      2.68233         0.003317      0.003317      0.005498
      8.11004      6.32319      6.29708        -0.023953     -0.023953     -0.151514
      8.04003      6.25318      9.82244        -0.000161     -0.000161     -0.001482
      8.04292      9.83186      2.67832        -0.001654      0.002649     -0.000275
      8.04062      9.82784      6.25110        -0.000081     -0.001040      0.002233
      8.03962      9.82973      9.82676         0.001300     -0.000631     -0.002186
     10.72007      0.00153     10.71960        -0.000990     -0.000414      0.000414
      0.00146      0.00325      3.57236        -0.002870     -0.001409      0.001663
     10.71683      0.00324      7.14614        -0.000172      0.001739     -0.000694
     10.71683      3.57499     10.71790        -0.000172      0.000694     -0.001739
      0.00147      3.57770      3.57256        -0.000524     -0.001605     -0.002463
     10.71080      3.57999      7.14114         0.000999     -0.001852      0.001852
      0.00146      7.14878     10.71788        -0.002870     -0.001663      0.001409
      0.00088      7.14791      3.57323        -0.003243      0.002309     -0.002309
      0.00147      7.14858      7.14344        -0.000524      0.002463      0.001605
      3.57352     10.71825      0.00289        -0.000330      0.000662     -0.000662
      3.57650      0.00206      3.57597         0.001618      0.000640      0.002601
      3.57156     10.71408      7.14986        -0.000633     -0.002107      0.001356
      3.57156      3.57128      0.00706        -0.000633     -0.001356      0.002107
      3.58659      3.57771      3.58818        -0.003115      0.000679     -0.005650
      3.56226      3.56507      7.15607        -0.007172     -0.007928      0.007928
      3.57650      7.14517     10.71907         0.001618     -0.002601     -0.000640
      3.57799      7.14749      3.57364        -0.001655      0.001697     -0.001697
      3.58659      7.13296      7.14342        -0.003115      0.005650     -0.000679
      7.14683      0.00039     10.72075        -0.005529     -0.000575      0.000575
      7.14894      0.00387      3.57556         0.001858      0.000623     -0.001715
      7.14561     10.71926      7.14626         0.000014     -0.000142     -0.000616
      7.14561      3.57488      0.00187         0.000014      0.000616      0.000142
      7.16053      3.59527      3.58906        -0.034035     -0.009921     -0.000366
      7.10177      3.57500      7.14613        -0.067361      0.002122     -0.002122
      7.14894      7.14558     10.71726         0.001858      0.001715     -0.000623
      7.14403      7.14674      3.57439        -0.035818      0.023567     -0.023567
      7.16053      7.13208      7.12587        -0.034035      0.000366      0.009921
      1.78397      1.78666      0.00289         0.000662     -0.000330     -0.000662
      1.78892      1.78964      3.57597         0.000640      0.001618      0.002601
      1.77980      1.78470      7.14986        -0.002107     -0.000633      0.001356
      1.78724      5.35997     10.72075        -0.000575     -0.005529      0.000575
      1.79073      5.36209      3.57556         0.000623      0.001858     -0.001715
      1.78498      5.35876      7.14626        -0.000142      0.000014     -0.000616
      1.78839      8.93322     10.71960        -0.000414     -0.000990      0.000414
      1.79011      8.93574      3.57236        -0.001409     -0.002870      0.001663
      1.79009      8.92997      7.14614         0.001739     -0.000172     -0.000694
      5.35814      1.78470      0.00706        -0.001356     -0.000633      0.002107
      5.36457      1.79973      3.58818         0.000679     -0.003115     -0.005650
      5.35192      1.77540      7.15607        -0.007928     -0.007172      0.007928
      5.36173      5.35876      0.00187         0.000616      0.000014      0.000142
      5.38213      5.37367      3.58906        -0.009921     -0.034035     -0.000366
      5.36186      5.31491      7.14613         0.002122     -0.067361     -0.002122
      5.36185      8.92997     10.71790         0.000694     -0.000172     -0.001739
      5.36455      8.93575      3.57256        -0.001605     -0.000524     -0.002463
      5.36685      8.92395      7.14114        -0.001852      0.000999      0.001852
      8.93202      1.78964     10.71907        -0.002601      0.001618     -0.000640
      8.93435      1.79114      3.57364         0.001697     -0.001655     -0.001697
      8.91981      1.79973      7.14342         0.005650     -0.003115     -0.000679
      8.93243      5.36209     10.71726         0.001715      0.001858     -0.000623
      8.93360      5.35717      3.57439         0.023567     -0.035818     -0.023567
      8.91893      5.37367      7.12587         0.000366     -0.034035      0.009921
      8.93563      8.93574     10.71788        -0.001663     -0.002870      0.001409
      8.93477      8.93516      3.57323         0.002309     -0.003243     -0.002309
      8.93543      8.93575      7.14344         0.002463     -0.000524      0.001605
      1.78839      0.00153      1.78792        -0.000414     -0.000414      0.000990
      1.78724      0.00039      5.36117        -0.000575     -0.000575      0.005529
      1.78397     10.71825      8.93447         0.000662      0.000662      0.000330
      1.79009      3.57499      1.79116         0.001739      0.000694      0.000172
      1.78498      3.57488      5.36238        -0.000142      0.000616     -0.000014
      1.77980      3.57128      8.93643        -0.002107     -0.001356      0.000633
      1.79011      7.14878      1.78539        -0.001409     -0.001663      0.002870
      1.79073      7.14558      5.35905         0.000623      0.001715     -0.001858
      1.78892      7.14517      8.93150         0.000640     -0.002601     -0.001618
      5.36185      0.00324      1.79116         0.000694      0.001739      0.000172
      5.36173     10.71926      5.36238         0.000616     -0.000142     -0.000014
      5.35814     10.71408      8.93643        -0.001356     -0.002107      0.000633
      5.36685      3.57999      1.79719        -0.001852     -0.001852     -0.000999
      5.36186      3.57500      5.40622         0.002122      0.002122      0.067361
      5.35192      3.56507      8.94573        -0.007928     -0.007928      0.007172
      5.36455      7.14858      1.78539        -0.001605      0.002463      0.000524
      5.38213      7.13208      5.34746        -0.009921      0.000366      0.034035
      5.36457      7.13296      8.92140         0.000679      0.005650      0.003115
      8.93563      0.00325      1.78539        -0.001663     -0.001409      0.002870
      8.93243      0.00387      5.35905         0.001715      0.000623     -0.001858
      8.93202      0.00206      8.93150        -0.002601      0.000640     -0.001618
      8.93543      3.57770      1.78539         0.002463     -0.001605      0.000524
      8.91893      3.59527      5.34746         0.000366     -0.009921      0.034035
      8.91981      3.57771      8.92140         0.005650      0.000679      0.003115
      8.93477      7.14791      1.78598         0.002309      0.002309      0.003243
      8.93360      7.14674      5.36396         0.023567      0.023567      0.035818
      8.93435      7.14749      8.93000         0.001697      0.001697      0.001655
     10.72080      1.79053      1.78719         0.000698     -0.000741     -0.000698
      0.00021      1.78731      5.35889        -0.003445      0.003634      0.003224
     10.71353      1.78951      8.93163        -0.000294      0.000754     -0.000754
      0.00783      5.36226      1.77902         0.000779     -0.004409     -0.000779
     10.71660      5.36420      5.35694         0.004148      0.000970     -0.000970
      0.00021      5.36225      8.93383        -0.003445     -0.003224     -0.003634
      0.00177      8.93605      1.78509        -0.002449     -0.002449      0.002449
      0.00783      8.94211      5.35888         0.000779      0.000779      0.004409
     10.72080      8.93395      8.93061         0.000698      0.000698      0.000741
      3.57636      1.78951      1.79447         0.000754      0.000754      0.000294
      3.56669      1.77983      5.36732        -0.005895     -0.005895      0.010236
      3.56772      1.78086      8.94028        -0.001837     -0.001837      0.001837
      3.57417      5.36225      1.78665         0.003634     -0.003224      0.003445
      3.58053      5.35775      5.36338        -0.000731      0.002021     -0.002021
      3.56669      5.35381      8.94130        -0.005895     -0.010236      0.005895
      3.57739      8.93395      1.78719        -0.000741      0.000698     -0.000698
      3.57417      8.93449      5.35889         0.003634     -0.003445      0.003224
      3.57636      8.92667      8.93163         0.000754     -0.000294     -0.000754
      7.14910      1.78731      1.78665        -0.003224      0.003634      0.003445
      7.14461      1.79368      5.36338         0.002021     -0.000731     -0.002021
      7.14067      1.77983      8.94130        -0.010236     -0.005895      0.005895
      7.15106      5.36420      1.79139         0.000970      0.000970     -0.004148
      7.14461      5.35775      8.92746         0.002021      0.002021      0.000731
      7.14911      8.94211      1.77902        -0.004409      0.000779     -0.000779
      7.15106      8.92975      5.35694         0.000970      0.004148     -0.000970
      7.14910      8.93449      8.93383        -0.003224     -0.003445     -0.003634
      6.17043      4.38358      6.33756        -0.051664     -0.051664      0.051664
 -----------------------------------------------------------------------------------
    total drift:                                0.014064      0.014444     -0.014444


--------------------------------------------------------------------------------------------------------



  FREE ENERGIE OF THE ION-ELECTRON SYSTEM (eV)
  ---------------------------------------------------
  free  energy   TOTEN  =     -1934.98431178 eV

  energy  without entropy=    -1934.98431178  energy(sigma->0) =    -1934.98431178
 


--------------------------------------------------------------------------------------------------------


    POTLOK:  cpu time      0.1044: real time      0.1052


--------------------------------------------------------------------------------------------------------


     LOOP+:  cpu time    121.9657: real time    123.0704
    4ORBIT:  cpu time      0.0000: real time      0.0000



 total charge

# of ion       s       p       d       tot
------------------------------------------
    1        0.829   1.744   0.000   2.573
    2        0.829   1.745   0.000   2.574
    3        0.829   1.745   0.000   2.574
    4        0.829   1.745   0.000   2.574
    5        0.829   1.744   0.000   2.573
    6        0.829   1.743   0.000   2.572
    7        0.829   1.744   0.000   2.573
    8        0.829   1.742   0.000   2.571
    9        0.829   1.745   0.000   2.574
   10        0.829   1.745   0.000   2.574
   11        0.829   1.743   0.000   2.571
   12        0.829   1.747   0.000   2.577
   13        0.829   1.743   0.000   2.572
   14        0.828   1.737   0.000   2.565
   15        0.832   1.752   0.000   2.584
   16        0.829   1.745   0.000   2.574
   17        0.831   1.737   0.000   2.567
   18        0.829   1.744   0.000   2.573
   19        0.829   1.745   0.000   2.574
   20        0.829   1.744   0.000   2.573
   21        0.829   1.743   0.000   2.571
   22        0.829   1.744   0.000   2.573
   23        0.837   1.732   0.000   2.569
   24        0.828   1.737   0.000   2.565
   25        0.829   1.742   0.000   2.571
   26        0.830   1.742   0.000   2.572
   27        0.831   1.737   0.000   2.567
   28        0.829   1.745   0.000   2.574
   29        0.829   1.743   0.000   2.571
   30        0.829   1.747   0.000   2.577
   31        0.829   1.745   0.000   2.574
   32        0.829   1.744   0.000   2.573
   33        0.829   1.743   0.000   2.571
   34        0.829   1.744   0.000   2.573
   35        0.829   1.745   0.000   2.574
   36        0.829   1.745   0.000   2.574
   37        0.829   1.743   0.000   2.572
   38        0.828   1.737   0.000   2.565
   39        0.832   1.752   0.000   2.584
   40        0.829   1.744   0.000   2.573
   41        0.837   1.732   0.000   2.569
   42        0.828   1.737   0.000   2.565
   43        0.829   1.745   0.000   2.574
   44        0.829   1.744   0.000   2.573
   45        0.829   1.743   0.000   2.572
   46        0.829   1.745   0.000   2.574
   47        0.831   1.737   0.000   2.567
   48        0.829   1.744   0.000   2.573
   49        0.829   1.742   0.000   2.571
   50        0.830   1.742   0.000   2.572
   51        0.831   1.737   0.000   2.567
   52        0.829   1.744   0.000   2.573
   53        0.829   1.742   0.000   2.571
   54        0.829   1.745   0.000   2.574
   55        0.829   1.745   0.000   2.574
   56        0.829   1.747   0.000   2.576
   57        0.829   1.745   0.000   2.574
   58        0.828   1.740   0.000   2.568
   59        0.829   1.744   0.000   2.573
   60        0.829   1.747   0.000   2.576
   61        0.829   1.744   0.000   2.573
   62        0.828   1.740   0.000   2.568
   63        0.829   1.745   0.000   2.574
   64        0.828   1.740   0.000   2.568
   65        0.829   1.744   0.000   2.573
   66        0.829   1.747   0.000   2.576
   67        0.830   1.743   0.000   2.573
   68        0.829   1.744   0.000   2.573
   69        0.831   1.741   0.000   2.572
   70        0.830   1.743   0.000   2.573
   71        0.828   1.740   0.000   2.568
   72        0.829   1.744   0.000   2.573
   73        0.828   1.740   0.000   2.568
   74        0.829   1.745   0.000   2.574
   75        0.831   1.741   0.000   2.572
   76        0.830   1.743   0.000   2.573
   77        0.828   1.740   0.000   2.568
   78        0.829   1.743   0.000   2.572
   79        0.831   1.741   0.000   2.572
   80        0.829   1.744   0.000   2.573
   81        0.829   1.745   0.000   2.574
   82        0.829   1.743   0.000   2.572
   83        0.829   1.745   0.000   2.574
   84        0.829   1.742   0.000   2.571
   85        0.829   1.744   0.000   2.573
   86        0.829   1.745   0.000   2.574
   87        0.829   1.744   0.000   2.573
   88        0.829   1.745   0.000   2.574
   89        0.829   1.744   0.000   2.573
   90        0.829   1.744   0.000   2.573
   91        0.832   1.752   0.000   2.584
   92        0.829   1.747   0.000   2.577
   93        0.831   1.737   0.000   2.567
   94        0.828   1.737   0.000   2.565
   95        0.829   1.743   0.000   2.571
   96        0.829   1.745   0.000   2.574
   97        0.829   1.743   0.000   2.572
   98        0.829   1.745   0.000   2.574
   99        0.831   1.737   0.000   2.567
  100        0.828   1.737   0.000   2.565
  101        0.829   1.743   0.000   2.571
  102        0.830   1.742   0.000   2.572
  103        0.837   1.732   0.000   2.569
  104        0.829   1.744   0.000   2.573
  105        0.829   1.742   0.000   2.571
  106        0.829   1.744   0.000   2.573
  107        0.829   1.745   0.000   2.574
  108        0.829   1.743   0.000   2.572
  109        0.829   1.745   0.000   2.574
  110        0.829   1.742   0.000   2.571
  111        0.829   1.742   0.000   2.571
  112        0.829   1.742   0.000   2.571
  113        0.828   1.742   0.000   2.570
  114        0.829   1.745   0.000   2.574
  115        0.829   1.743   0.000   2.571
  116        0.829   1.742   0.000   2.571
  117        0.829   1.742   0.000   2.571
  118        0.829   1.744   0.000   2.573
  119        0.829   1.745   0.000   2.574
  120        0.829   1.745   0.000   2.574
  121        0.828   1.736   0.000   2.564
  122        0.829   1.745   0.000   2.575
  123        0.829   1.744   0.000   2.573
  124        0.829   1.743   0.000   2.572
  125        0.828   1.736   0.000   2.564
  126        0.830   1.749   0.000   2.580
  127        0.829   1.744   0.000   2.573
  128        0.829   1.745   0.000   2.573
  129        0.829   1.745   0.000   2.573
  130        0.829   1.744   0.000   2.573
  131        0.823   1.708   0.000   2.531
  132        0.829   1.744   0.000   2.573
  133        0.830   1.752   0.000   2.582
  134        0.829   1.744   0.000   2.573
  135        0.829   1.742   0.000   2.571
  136        0.829   1.744   0.000   2.573
  137        0.829   1.745   0.000   2.574
  138        0.830   1.749   0.000   2.580
  139        0.829   1.744   0.000   2.573
  140        0.829   1.745   0.000   2.573
  141        0.829   1.743   0.000   2.572
  142        0.829   1.745   0.000   2.574
  143        0.829   1.742   0.000   2.571
  144        0.829   1.745   0.000   2.574
  145        0.828   1.736   0.000   2.564
  146        0.829   1.745   0.000   2.575
  147        0.829   1.745   0.000   2.573
  148        0.829   1.744   0.000   2.573
  149        0.823   1.708   0.000   2.531
  150        0.829   1.742   0.000   2.571
  151        0.829   1.742   0.000   2.571
  152        0.828   1.742   0.000   2.570
  153        0.829   1.744   0.000   2.573
  154        0.829   1.743   0.000   2.572
  155        0.828   1.736   0.000   2.564
  156        0.829   1.744   0.000   2.573
  157        0.830   1.752   0.000   2.582
  158        0.829   1.744   0.000   2.573
  159        0.829   1.745   0.000   2.574
  160        0.829   1.743   0.000   2.571
  161        0.829   1.742   0.000   2.571
  162        0.829   1.743   0.000   2.572
  163        0.830   1.749   0.000   2.580
  164        0.829   1.742   0.000   2.571
  165        0.829   1.742   0.000   2.571
  166        0.829   1.745   0.000   2.573
  167        0.829   1.745   0.000   2.574
  168        0.829   1.745   0.000   2.574
  169        0.829   1.744   0.000   2.573
  170        0.829   1.744   0.000   2.573
  171        0.829   1.742   0.000   2.571
  172        0.829   1.745   0.000   2.573
  173        0.829   1.745   0.000   2.574
  174        0.828   1.742   0.000   2.570
  175        0.823   1.708   0.000   2.531
  176        0.829   1.745   0.000   2.575
  177        0.829   1.742   0.000   2.571
  178        0.829   1.744   0.000   2.573
  179        0.828   1.736   0.000   2.564
  180        0.829   1.745   0.000   2.574
  181        0.829   1.744   0.000   2.573
  182        0.829   1.744   0.000   2.573
  183        0.829   1.742   0.000   2.571
  184        0.829   1.744   0.000   2.573
  185        0.828   1.736   0.000   2.564
  186        0.829   1.743   0.000   2.571
  187        0.830   1.752   0.000   2.582
  188        0.829   1.743   0.000   2.572
  189        0.829   1.743   0.000   2.572
  190        0.830   1.748   0.000   2.578
  191        0.829   1.742   0.000   2.571
  192        0.830   1.750   0.000   2.579
  193        0.829   1.745   0.000   2.574
  194        0.830   1.748   0.000   2.578
  195        0.829   1.744   0.000   2.573
  196        0.830   1.750   0.000   2.579
  197        0.829   1.743   0.000   2.572
  198        0.829   1.742   0.000   2.571
  199        0.830   1.750   0.000   2.580
  200        0.829   1.744   0.000   2.573
  201        0.830   1.748   0.000   2.578
  202        0.829   1.748   0.000   2.578
  203        0.830   1.750   0.000   2.580
  204        0.829   1.743   0.000   2.572
  205        0.830   1.748   0.000   2.578
  206        0.829   1.742   0.000   2.571
  207        0.830   1.748   0.000   2.578
  208        0.829   1.748   0.000   2.578
  209        0.830   1.750   0.000   2.580
  210        0.829   1.745   0.000   2.574
  211        0.829   1.748   0.000   2.578
  212        0.830   1.750   0.000   2.579
  213        0.829   1.745   0.000   2.574
  214        0.830   1.748   0.000   2.578
  215        1.210   2.694   0.000   3.903
--------------------------------------------------
tot        178.649 375.708   0.000 554.357



 magnetization (x)

# of ion       s       p       d       tot
------------------------------------------
    1        0.000   0.001   0.000   0.001
    2        0.000   0.002   0.000   0.002
    3        0.000   0.000   0.000   0.000
    4        0.000   0.001   0.000   0.002
    5        0.000   0.002   0.000   0.002
    6       -0.000   0.000   0.000   0.000
    7        0.000   0.000   0.000   0.000
    8        0.000   0.000   0.000   0.000
    9        0.000   0.001   0.000   0.001
   10        0.000   0.000   0.000   0.000
   11        0.000   0.000   0.000   0.000
   12        0.000  -0.000   0.000   0.000
   13       -0.000   0.000   0.000   0.000
   14        0.001   0.004   0.000   0.005
   15        0.000   0.000   0.000   0.000
   16        0.000   0.001   0.000   0.001
   17        0.004   0.018   0.000   0.023
   18        0.000   0.000   0.000   0.000
   19        0.000   0.002   0.000   0.002
   20        0.000   0.001   0.000   0.001
   21        0.000   0.000   0.000   0.000
   22        0.000   0.002   0.000   0.002
   23        0.040   0.285   0.000   0.325
   24        0.001   0.004   0.000   0.005
   25        0.000   0.000   0.000   0.000
   26        0.001   0.008   0.000   0.009
   27        0.004   0.018   0.000   0.023
   28        0.000   0.000   0.000   0.000
   29        0.000   0.000   0.000   0.000
   30        0.000  -0.000   0.000   0.000
   31        0.000   0.002   0.000   0.002
   32        0.000   0.001   0.000   0.001
   33        0.000   0.000   0.000   0.000
   34        0.000   0.001   0.000   0.001
   35        0.000   0.002   0.000   0.002
   36        0.000   0.000   0.000   0.000
   37       -0.000   0.000   0.000   0.000
   38        0.001   0.004   0.000   0.005
   39        0.000   0.000   0.000   0.000
   40        0.000   0.002   0.000   0.002
   41        0.040   0.285   0.000   0.325
   42        0.001   0.004   0.000   0.005
   43        0.000   0.001   0.000   0.002
   44        0.000   0.002   0.000   0.002
   45       -0.000   0.000   0.000   0.000
   46        0.000   0.001   0.000   0.001
   47        0.004   0.018   0.000   0.023
   48        0.000   0.000   0.000   0.000
   49        0.000   0.000   0.000   0.000
   50        0.001   0.008   0.000   0.009
   51        0.004   0.018   0.000   0.023
   52        0.000   0.000   0.000   0.000
   53        0.000   0.000   0.000   0.000
   54        0.000   0.001   0.000   0.001
   55        0.000   0.000   0.000   0.000
   56        0.000   0.000   0.000   0.000
   57        0.000   0.000   0.000   0.000
   58        0.000   0.000   0.000   0.000
   59        0.000   0.001   0.000   0.001
   60        0.000   0.000   0.000   0.000
   61        0.000   0.001   0.000   0.001
   62        0.000   0.000   0.000   0.000
   63        0.000   0.000   0.000   0.000
   64        0.000   0.000   0.000   0.000
   65        0.000   0.001   0.000   0.001
   66        0.000   0.000   0.000   0.000
   67        0.001   0.007   0.000   0.008
   68        0.000   0.001   0.000   0.001
   69        0.004   0.017   0.000   0.021
   70        0.001   0.007   0.000   0.008
   71        0.000   0.000   0.000   0.000
   72        0.000   0.001   0.000   0.001
   73        0.000   0.000   0.000   0.000
   74        0.000   0.000   0.000   0.000
   75        0.004   0.017   0.000   0.021
   76        0.001   0.007   0.000   0.008
   77        0.000   0.000   0.000   0.000
   78       -0.000   0.000   0.000   0.000
   79        0.004   0.017   0.000   0.021
   80        0.000   0.001   0.000   0.001
   81        0.000   0.001   0.000   0.001
   82       -0.000   0.000   0.000   0.000
   83        0.000   0.000   0.000   0.000
   84        0.000   0.000   0.000   0.000
   85        0.000   0.002   0.000   0.002
   86        0.000   0.002   0.000   0.002
   87        0.000   0.000   0.000   0.000
   88        0.000   0.001   0.000   0.002
   89        0.000   0.001   0.000   0.001
   90        0.000   0.000   0.000   0.000
   91        0.000   0.000   0.000   0.000
   92        0.000  -0.000   0.000   0.000
   93        0.004   0.018   0.000   0.023
   94        0.001   0.004   0.000   0.005
   95        0.000   0.000   0.000   0.000
   96        0.000   0.001   0.000   0.001
   97       -0.000   0.000   0.000   0.000
   98        0.000   0.000   0.000   0.000
   99        0.004   0.018   0.000   0.023
  100        0.001   0.004   0.000   0.005
  101        0.000   0.000   0.000   0.000
  102        0.001   0.008   0.000   0.009
  103        0.040   0.285   0.000   0.325
  104        0.000   0.001   0.000   0.001
  105        0.000   0.000   0.000   0.000
  106        0.000   0.002   0.000   0.002
  107        0.000   0.002   0.000   0.002
  108       -0.000  -0.000   0.000  -0.000
  109       -0.000  -0.000   0.000  -0.000
  110       -0.000  -0.000   0.000  -0.000
  111       -0.000  -0.000   0.000  -0.000
  112       -0.000  -0.001   0.000  -0.001
  113       -0.000  -0.001   0.000  -0.001
  114       -0.000  -0.000   0.000  -0.000
  115       -0.000  -0.000   0.000  -0.001
  116       -0.000  -0.001   0.000  -0.001
  117       -0.000   0.000   0.000   0.000
  118       -0.000  -0.000   0.000  -0.000
  119        0.000  -0.000   0.000  -0.000
  120        0.000  -0.000   0.000  -0.000
  121       -0.000  -0.000   0.000  -0.000
  122       -0.000  -0.000   0.000  -0.000
  123       -0.000  -0.000   0.000  -0.000
  124       -0.000  -0.001   0.000  -0.001
  125       -0.000  -0.000   0.000  -0.000
  126       -0.000   0.002   0.000   0.002
  127       -0.000  -0.000   0.000  -0.000
  128       -0.000  -0.000   0.000  -0.000
  129       -0.000  -0.000   0.000  -0.000
  130       -0.002  -0.005   0.000  -0.007
  131        0.000   0.001   0.000   0.001
  132       -0.000  -0.000   0.000  -0.000
  133       -0.002  -0.009   0.000  -0.012
  134       -0.002  -0.005   0.000  -0.007
  135       -0.000   0.000   0.000   0.000
  136       -0.000  -0.000   0.000  -0.000
  137        0.000  -0.000   0.000  -0.000
  138       -0.000   0.002   0.000   0.002
  139       -0.000  -0.000   0.000  -0.000
  140       -0.000  -0.000   0.000  -0.000
  141       -0.000  -0.000   0.000  -0.000
  142       -0.000  -0.000   0.000  -0.000
  143       -0.000  -0.000   0.000  -0.000
  144        0.000  -0.000   0.000  -0.000
  145       -0.000  -0.000   0.000  -0.000
  146       -0.000  -0.000   0.000  -0.000
  147       -0.000  -0.000   0.000  -0.000
  148       -0.002  -0.005   0.000  -0.007
  149        0.000   0.001   0.000   0.001
  150       -0.000  -0.000   0.000  -0.000
  151       -0.000  -0.001   0.000  -0.001
  152       -0.000  -0.001   0.000  -0.001
  153       -0.000  -0.000   0.000  -0.000
  154       -0.000  -0.001   0.000  -0.001
  155       -0.000  -0.000   0.000  -0.000
  156       -0.000  -0.000   0.000  -0.000
  157       -0.002  -0.009   0.000  -0.012
  158       -0.002  -0.005   0.000  -0.007
  159       -0.000  -0.000   0.000  -0.000
  160       -0.000  -0.000   0.000  -0.001
  161       -0.000  -0.001   0.000  -0.001
  162       -0.000  -0.000   0.000  -0.000
  163       -0.000   0.002   0.000   0.002
  164       -0.000   0.000   0.000   0.000
  165       -0.000  -0.000   0.000  -0.000
  166       -0.000  -0.000   0.000  -0.000
  167        0.000  -0.000   0.000  -0.000
  168       -0.000  -0.000   0.000  -0.000
  169       -0.000  -0.000   0.000  -0.000
  170       -0.000  -0.000   0.000  -0.000
  171       -0.000  -0.000   0.000  -0.000
  172       -0.000  -0.000   0.000  -0.000
  173        0.000  -0.000   0.000  -0.000
  174       -0.000  -0.001   0.000  -0.001
  175        0.000   0.001   0.000   0.001
  176       -0.000  -0.000   0.000  -0.000
  177       -0.000  -0.001   0.000  -0.001
  178       -0.002  -0.005   0.000  -0.007
  179       -0.000  -0.000   0.000  -0.000
  180       -0.000  -0.000   0.000  -0.000
  181       -0.000  -0.000   0.000  -0.000
  182       -0.000  -0.000   0.000  -0.000
  183       -0.000  -0.001   0.000  -0.001
  184       -0.002  -0.005   0.000  -0.007
  185       -0.000  -0.000   0.000  -0.000
  186       -0.000  -0.000   0.000  -0.001
  187       -0.002  -0.009   0.000  -0.012
  188       -0.000  -0.001   0.000  -0.001
  189       -0.000  -0.000   0.000  -0.000
  190        0.001   0.003   0.000   0.004
  191        0.000   0.000   0.000   0.000
  192        0.000   0.002   0.000   0.002
  193       -0.000  -0.001   0.000  -0.001
  194        0.001   0.003   0.000   0.004
  195       -0.000  -0.000   0.000  -0.000
  196        0.000   0.002   0.000   0.002
  197       -0.000  -0.000   0.000  -0.000
  198        0.000   0.000   0.000   0.000
  199        0.000   0.000   0.000   0.000
  200       -0.000   0.000   0.000   0.000
  201        0.001   0.003   0.000   0.004
  202       -0.000  -0.001   0.000  -0.001
  203        0.000   0.000   0.000   0.000
  204       -0.000  -0.000   0.000  -0.000
  205        0.001   0.003   0.000   0.004
  206        0.000   0.000   0.000   0.000
  207        0.001   0.003   0.000   0.004
  208       -0.000  -0.001   0.000  -0.001
  209        0.000   0.000   0.000   0.000
  210       -0.000  -0.001   0.000  -0.001
  211       -0.000  -0.001   0.000  -0.001
  212        0.000   0.002   0.000   0.002
  213       -0.000  -0.001   0.000  -0.001
  214        0.001   0.003   0.000   0.004
  215       -0.001   0.001   0.000  -0.001
--------------------------------------------------
tot          0.160   1.092   0.000   1.252
 

 total amount of memory used by VASP MPI-rank0    69876. kBytes
=======================================================================

   base                                    :      30000. kBytes
   nonlr-proj                              :       7389. kBytes
   fftplans                                :       3375. kBytes
   grid                                    :       8446. kBytes
   one-center                              :        190. kBytes
   wavefun                                 :      20476. kBytes
 
  
  
 General timing and accounting informations for this job:
 ========================================================
  
                  Total CPU time used (sec):      126.156
                            User time (sec):      125.001
                          System time (sec):        1.155
                         Elapsed time (sec):      127.952
  
                   Maximum memory used (kb):      269432.
                   Average memory used (kb):          N/A
  
                          Minor page faults:        35280
                          Major page faults:           35
                 Voluntary context switches:          938
