unknown system                          
   1.00000000000000     
     2.517300    0.000000    0.000000
     1.258650    2.180046    0.000000
     1.258650    0.726682    2.055367
   C 
     2
Direct
   0.250000  0.250000  0.250000
   0.000000  0.000000  0.000000
 
   20   20   20
  14.819      15.768      17.577      18.265      16.870      14.027      10.943      8.5242      7.0571      6.3433    
  6.1379      6.3445      7.0563      8.5209      10.940      14.028      16.873      18.267      17.579      15.768    
  15.768      17.386      18.933      18.785      16.786      13.928      11.272      9.4519      8.4679      8.0689    
  8.0707      8.4708      9.4522      11.269      13.924      16.783      18.786      18.938      17.393      15.770    
  17.577      18.933      19.451      18.397      16.212      13.796      11.908      10.772      10.230      10.077    
  10.232      10.775      11.909      13.795      16.209      18.394      19.451      18.937      17.582      16.869    
  18.265      18.785      18.397      17.075      15.334      13.796      12.765      12.193      11.949      11.950    
  12.194      12.766      13.796      15.334      17.074      18.396      18.784      18.265      17.596      17.595    
  16.870      16.786      16.212      15.334      14.509      13.928      13.547      13.323      13.246      13.324    
  13.548      13.927      14.508      15.333      16.213      16.787      16.872      16.628      16.471      16.627    
  14.027      13.928      13.796      13.796      13.928      14.028      14.023      13.971      13.973      14.026    
  14.030      13.927      13.793      13.793      13.928      14.030      14.026      13.974      13.972      14.022    
  10.943      11.272      11.908      12.765      13.547      14.023      14.189      14.211      14.191      14.026    
  13.550      12.765      11.905      11.268      10.942      10.823      10.790      10.783      10.787      10.821    
  8.5242      9.4519      10.772      12.193      13.323      13.971      14.211      14.209      13.969      13.323    
  12.196      10.774      9.4510      8.5213      8.0155      7.8051      7.7437      7.7439      7.8061      8.0180    
  7.0571      8.4679      10.230      11.949      13.246      13.973      14.191      13.969      13.243      11.949    
  10.232      8.4710      7.0582      6.1373      5.6344      5.4076      5.3464      5.4097      5.6370      6.1386    
  6.3433      8.0689      10.077      11.950      13.324      14.026      14.026      13.323      11.949      10.077    
  8.0692      6.3444      5.1145      4.3530      3.9335      3.7498      3.7503      3.9342      4.3527      5.1133    
  6.1379      8.0707      10.232      12.194      13.548      14.030      13.550      12.196      10.232      8.0692    
  6.1359      4.6820      3.7203      3.1357      2.8189      2.7172      2.8182      3.1345      3.7194      4.6826    
  6.3445      8.4708      10.775      12.766      13.927      13.927      12.765      10.774      8.4710      6.3444    
  4.6820      3.5314      2.7929      2.3485      2.1342      2.1340      2.3481      2.7930      3.5320      4.6825    
  7.0563      9.4522      11.909      13.796      14.508      13.793      11.905      9.4510      7.0582      5.1145    
  3.7203      2.7929      2.2051      1.8714      1.7616      1.8719      2.2060      2.7934      3.7193      5.1121    
  8.5209      11.269      13.795      15.334      15.333      13.793      11.268      8.5213      6.1373      4.3530    
  3.1357      2.3485      1.8714      1.6423      1.6425      1.8718      2.3487      3.1353      4.3519      6.1361    
  10.940      13.924      16.209      17.074      16.213      13.928      10.942      8.0155      5.6344      3.9335    
  2.8189      2.1342      1.7616      1.6425      1.7612      2.1335      2.8185      3.9344      5.6366      8.0170    
  14.028      16.783      18.394      18.396      16.787      14.030      10.823      7.8051      5.4076      3.7498    
  2.7172      2.1340      1.8719      1.8718      2.1335      2.7163      3.7497      5.4095      7.8078      10.824    
  16.873      18.786      19.451      18.784      16.872      14.026      10.790      7.7437      5.3464      3.7503    
  2.8182      2.3481      2.2060      2.3487      2.8185      3.7497      5.3457      7.7434      10.790      14.027    
  18.267      18.938      18.937      18.265      16.628      13.974      10.783      7.7439      5.4097      3.9342    
  3.1345      2.7930      2.7934      3.1353      3.9344      5.4095      7.7434      10.782      13.973      16.629    
  17.579      17.393      17.582      17.596      16.471      13.972      10.787      7.8061      5.6370      4.3527    
  3.7194      3.5320      3.7193      4.3519      5.6366      7.8078      10.790      13.973      16.468      17.591    
  15.768      15.770      16.869      17.595      16.627      14.022      10.821      8.0180      6.1386      5.1133    
  4.6826      4.6825      5.1121      6.1361      8.0170      10.824      14.027      16.629      17.591      16.864    
  15.768      17.387      18.933      18.784      16.786      13.927      11.271      9.4515      8.4682      8.0692    
  8.0705      8.4707      9.4524      11.269      13.923      16.783      18.786      18.938      17.393      15.771    
  17.387      19.116      19.997      19.143      16.991      14.510      12.524      11.308      10.718      10.549    
  10.721      11.312      12.526      14.508      16.985      19.139      19.998      19.123      17.394      16.520    
  18.933      19.997      20.008      18.833      17.041      15.334      14.118      13.398      13.075      13.074    
  13.399      14.121      15.337      17.040      18.829      20.005      19.996      18.936      17.864      17.863    
  18.784      19.143      18.833      18.005      17.040      16.212      15.572      15.149      14.996      15.147    
  15.571      16.213      17.043      18.007      18.832      19.141      18.782      18.092      17.745      18.094    
  16.786      16.991      17.041      17.040      16.990      16.785      16.444      16.161      16.160      16.443    
  16.786      16.991      17.041      17.041      16.991      16.785      16.442      16.160      16.162      16.444    
  13.927      14.510      15.334      16.212      16.785      16.871      16.628      16.470      16.628      16.873    
  16.787      16.212      15.333      14.509      13.928      13.547      13.323      13.247      13.323      13.547    
  11.271      12.524      14.118      15.572      16.444      16.628      16.489      16.488      16.626      16.445    
  15.575      14.119      12.523      11.270      10.514      10.148      10.013      10.014      10.148      10.515    
  9.4515      11.308      13.398      15.149      16.161      16.470      16.488      16.465      16.156      15.149    
  13.401      11.311      9.4526      8.1795      7.4789      7.1719      7.0923      7.1746      7.4820      8.1809    
  8.4682      10.718      13.075      14.996      16.160      16.628      16.626      16.156      14.993      13.074    
  10.720      8.4712      6.7795      5.7305      5.1801      4.9565      4.9580      5.1827      5.7312      6.7776    
  8.0692      10.549      13.074      15.147      16.443      16.873      16.445      15.149      13.074      10.548    
  8.0681      6.0979      4.7830      4.0141      3.6257      3.5083      3.6260      4.0134      4.7811      6.0968    
  8.0705      10.721      13.399      15.571      16.786      16.787      15.575      13.401      10.720      8.0681    
  5.8988      4.3816      3.4351      2.8975      2.6526      2.6523      2.8965      3.4338      4.3814      5.9006    
  8.4707      11.312      14.121      16.213      16.991      16.212      14.119      11.311      8.4712      6.0979    
  4.3816      3.2611      2.5792      2.2085      2.0896      2.2087      2.5796      3.2614      4.3814      6.0972    
  9.4524      12.526      15.337      17.043      17.041      15.333      12.523      9.4526      6.7795      4.7830    
  3.4351      2.5792      2.0706      1.8296      1.8301      2.0717      2.5802      3.4346      4.7808      6.7771    
  11.269      14.508      17.040      18.007      17.041      14.509      11.270      8.1795      5.7305      4.0141    
  2.8975      2.2085      1.8296      1.7077      1.8299      2.2088      2.8975      4.0141      5.7307      8.1795    
  13.923      16.985      18.829      18.832      16.991      13.928      10.514      7.4789      5.1801      3.6257    
  2.6526      2.0896      1.8301      1.8299      2.0890      2.6517      3.6261      5.1827      7.4821      10.514    
  16.783      19.139      20.005      19.141      16.785      13.547      10.148      7.1719      4.9565      3.5083    
  2.6523      2.2087      2.0717      2.2088      2.6517      3.5074      4.9566      7.1736      10.150      13.547    
  18.786      19.998      19.996      18.782      16.442      13.323      10.013      7.0923      4.9580      3.6260    
  2.8965      2.5796      2.5802      2.8975      3.6261      4.9566      7.0902      10.012      13.324      16.445    
  18.938      19.123      18.936      18.092      16.160      13.247      10.014      7.1746      5.1827      4.0134    
  3.4338      3.2614      3.4346      4.0141      5.1827      7.1736      10.012      13.246      16.161      18.094    
  17.393      17.394      17.864      17.745      16.162      13.323      10.148      7.4820      5.7312      4.7811    
  4.3814      4.3814      4.7808      5.7307      7.4821      10.150      13.324      16.161      17.743      17.862    
  15.771      16.520      17.863      18.094      16.444      13.547      10.515      8.1809      6.7776      6.0968    
  5.9006      6.0972      6.7771      8.1795      10.514      13.547      16.445      18.094      17.862      16.519    
  17.579      18.934      19.450      18.396      16.212      13.796      11.907      10.772      10.230      10.077    
  10.231      10.774      11.909      13.795      16.208      18.394      19.452      18.938      17.582      16.870    
  18.934      19.996      20.007      18.832      17.041      15.334      14.118      13.399      13.075      13.075    
  13.399      14.121      15.338      17.040      18.828      20.005      19.997      18.936      17.864      17.863    
  19.450      20.007      19.818      19.022      18.005      17.074      16.326      15.816      15.628      15.812    
  16.323      17.077      18.010      19.025      19.817      20.004      19.446      18.559      18.129      18.562    
  18.396      18.832      19.022      19.022      18.831      18.396      17.796      17.334      17.331      17.790    
  18.393      18.833      19.026      19.026      18.833      18.393      17.790      17.332      17.335      17.796    
  16.212      17.041      18.005      18.831      19.142      18.784      18.094      17.745      18.092      18.782    
  19.141      18.831      18.007      17.044      16.214      15.571      15.147      14.996      15.150      15.573    
  13.796      15.334      17.074      18.396      18.784      18.265      17.595      17.595      18.266      18.785    
  18.396      17.073      15.334      13.797      12.766      12.193      11.950      11.950      12.194      12.765    
  11.907      14.118      16.326      17.796      18.094      17.595      17.255      17.593      18.092      17.796    
  16.327      14.119      11.908      10.283      9.3476      8.9204      8.8049      8.9217      9.3484      10.283    
  10.772      13.399      15.816      17.334      17.745      17.595      17.593      17.739      17.331      15.816    
  13.400      10.775      8.6315      7.2600      6.5431      6.2579      6.2592      6.5454      7.2606      8.6298    
  10.230      13.075      15.628      17.331      18.092      18.266      18.092      17.331      15.627      13.074    
  10.230      7.7524      6.0313      5.0303      4.5428      4.4008      4.5438      5.0302      6.0293      7.7505    
  10.077      13.075      15.812      17.790      18.782      18.785      17.796      15.816      13.074      10.074    
  7.3946      5.4352      4.2124      3.5421      3.2503      3.2501      3.5409      4.2105      5.4345      7.3969    
  10.231      13.399      16.323      18.393      19.141      18.396      16.327      13.400      10.230      7.3946    
  5.2608      3.8629      3.0370      2.6076      2.4739      2.6070      3.0363      3.8629      5.2622      7.3969    
  10.774      14.121      17.077      18.833      18.831      17.073      14.119      10.775      7.7524      5.4352    
  3.8629      2.8831      2.3193      2.0595      2.0598      2.3201      2.8840      3.8630      5.4338      7.7506    
  11.909      15.338      18.010      19.026      18.007      15.334      11.908      8.6315      6.0313      4.2124    
  3.0370      2.3193      1.9282      1.8031      1.9289      2.3203      3.0374      4.2112      6.0291      8.6302    
  13.795      17.040      19.025      19.026      17.044      13.797      10.283      7.2600      5.0303      3.5421    
  2.6076      2.0595      1.8031      1.8030      2.0593      2.6073      3.5423      5.0315      7.2614      10.283    
  16.208      18.828      19.817      18.833      16.214      12.766      9.3476      6.5431      4.5428      3.2503    
  2.4739      2.0598      1.9289      2.0593      2.4728      3.2497      4.5440      6.5460      9.3496      12.765    
  18.394      20.005      20.004      18.393      15.571      12.193      8.9204      6.2579      4.4008      3.2501    
  2.6070      2.3201      2.3203      2.6073      3.2497      4.3997      6.2569      8.9204      12.194      15.572    
  19.452      19.997      19.446      17.790      15.147      11.950      8.8049      6.2592      4.5438      3.5409    
  3.0363      2.8840      3.0374      3.5423      4.5440      6.2569      8.8011      11.948      15.150      17.796    
  18.938      18.936      18.559      17.332      14.996      11.950      8.9217      6.5454      5.0302      4.2105    
  3.8629      3.8630      4.2112      5.0315      6.5460      8.9204      11.948      14.995      17.333      18.563    
  17.582      17.864      18.129      17.335      15.150      12.194      9.3484      7.2606      6.0293      5.4345    
  5.2622      5.4338      6.0291      7.2614      9.3496      12.194      15.150      17.333      18.127      17.862    
  16.870      17.863      18.562      17.796      15.573      12.765      10.283      8.6298      7.7505      7.3969    
  7.3969      7.7506      8.6302      10.283      12.765      15.572      17.796      18.563      17.862      16.869    
  18.265      18.784      18.396      17.074      15.334      13.796      12.765      12.194      11.950      11.950    
  12.193      12.766      13.797      15.334      17.073      18.396      18.785      18.266      17.595      17.595    
  18.784      19.142      18.831      18.005      17.041      16.212      15.573      15.150      14.996      15.147    
  15.571      16.214      17.044      18.007      18.831      19.141      18.782      18.092      17.745      18.094    
  18.396      18.831      19.022      19.022      18.832      18.396      17.796      17.335      17.332      17.790    
  18.393      18.833      19.026      19.026      18.833      18.393      17.790      17.331      17.334      17.796    
  17.074      18.005      19.022      19.818      20.007      19.450      18.562      18.129      18.559      19.446    
  20.004      19.817      19.025      18.010      17.077      16.323      15.812      15.628      15.816      16.326    
  15.334      17.041      18.832      20.007      19.996      18.934      17.863      17.864      18.936      19.997    
  20.005      18.828      17.040      15.338      14.121      13.399      13.075      13.075      13.399      14.118    
  13.796      16.212      18.396      19.450      18.934      17.579      16.870      17.582      18.938      19.452    
  18.394      16.208      13.795      11.909      10.774      10.231      10.077      10.230      10.772      11.907    
  12.765      15.573      17.796      18.562      17.863      16.870      16.869      17.862      18.563      17.796    
  15.572      12.765      10.283      8.6302      7.7506      7.3969      7.3969      7.7505      8.6298      10.283    
  12.194      15.150      17.335      18.129      17.864      17.582      17.862      18.127      17.333      15.150    
  12.194      9.3496      7.2614      6.0291      5.4338      5.2622      5.4345      6.0293      7.2606      9.3484    
  11.950      14.996      17.332      18.559      18.936      18.938      18.563      17.333      14.995      11.948    
  8.9204      6.5460      5.0315      4.2112      3.8630      3.8629      4.2105      5.0302      6.5454      8.9217    
  11.950      15.147      17.790      19.446      19.997      19.452      17.796      15.150      11.948      8.8011    
  6.2569      4.5440      3.5423      3.0374      2.8840      3.0363      3.5409      4.5438      6.2592      8.8049    
  12.193      15.571      18.393      20.004      20.005      18.394      15.572      12.194      8.9204      6.2569    
  4.3997      3.2497      2.6073      2.3203      2.3201      2.6070      3.2501      4.4008      6.2579      8.9204    
  12.766      16.214      18.833      19.817      18.828      16.208      12.765      9.3496      6.5460      4.5440    
  3.2497      2.4728      2.0593      1.9289      2.0598      2.4739      3.2503      4.5428      6.5431      9.3476    
  13.797      17.044      19.026      19.025      17.040      13.795      10.283      7.2614      5.0315      3.5423    
  2.6073      2.0593      1.8030      1.8031      2.0595      2.6076      3.5421      5.0303      7.2600      10.283    
  15.334      18.007      19.026      18.010      15.338      11.909      8.6302      6.0291      4.2112      3.0374    
  2.3203      1.9289      1.8031      1.9282      2.3193      3.0370      4.2124      6.0313      8.6315      11.908    
  17.073      18.831      18.833      17.077      14.121      10.774      7.7506      5.4338      3.8630      2.8840    
  2.3201      2.0598      2.0595      2.3193      2.8831      3.8629      5.4352      7.7524      10.775      14.119    
  18.396      19.141      18.393      16.323      13.399      10.231      7.3969      5.2622      3.8629      3.0363    
  2.6070      2.4739      2.6076      3.0370      3.8629      5.2608      7.3946      10.230      13.400      16.327    
  18.785      18.782      17.790      15.812      13.075      10.077      7.3969      5.4345      4.2105      3.5409    
  3.2501      3.2503      3.5421      4.2124      5.4352      7.3946      10.074      13.074      15.816      17.796    
  18.266      18.092      17.331      15.628      13.075      10.230      7.7505      6.0293      5.0302      4.5438    
  4.4008      4.5428      5.0303      6.0313      7.7524      10.230      13.074      15.627      17.331      18.092    
  17.595      17.745      17.334      15.816      13.399      10.772      8.6298      7.2606      6.5454      6.2592    
  6.2579      6.5431      7.2600      8.6315      10.775      13.400      15.816      17.331      17.739      17.593    
  17.595      18.094      17.796      16.326      14.118      11.907      10.283      9.3484      8.9217      8.8049    
  8.9204      9.3476      10.283      11.908      14.119      16.327      17.796      18.092      17.593      17.255    
  16.871      16.785      16.212      15.334      14.510      13.927      13.547      13.323      13.247      13.323    
  13.547      13.928      14.509      15.333      16.212      16.787      16.873      16.628      16.470      16.628    
  16.785      16.990      17.040      17.041      16.991      16.786      16.444      16.162      16.160      16.442    
  16.785      16.991      17.041      17.041      16.991      16.786      16.443      16.160      16.161      16.444    
  16.212      17.040      18.005      18.833      19.143      18.784      18.094      17.745      18.092      18.782    
  19.141      18.832      18.007      17.043      16.213      15.571      15.147      14.996      15.149      15.572    
  15.334      17.041      18.833      20.008      19.997      18.933      17.863      17.864      18.936      19.996    
  20.005      18.829      17.040      15.337      14.121      13.399      13.074      13.075      13.398      14.118    
  14.510      16.991      19.143      19.997      19.116      17.387      16.520      17.394      19.123      19.998    
  19.139      16.985      14.508      12.526      11.312      10.721      10.549      10.718      11.308      12.524    
  13.927      16.786      18.784      18.933      17.387      15.768      15.771      17.393      18.938      18.786    
  16.783      13.923      11.269      9.4524      8.4707      8.0705      8.0692      8.4682      9.4515      11.271    
  13.547      16.444      18.094      17.863      16.520      15.771      16.519      17.862      18.094      16.445    
  13.547      10.514      8.1795      6.7771      6.0972      5.9006      6.0968      6.7776      8.1809      10.515    
  13.323      16.162      17.745      17.864      17.394      17.393      17.862      17.743      16.161      13.324    
  10.150      7.4821      5.7307      4.7808      4.3814      4.3814      4.7811      5.7312      7.4820      10.148    
  13.247      16.160      18.092      18.936      19.123      18.938      18.094      16.161      13.246      10.012    
  7.1736      5.1827      4.0141      3.4346      3.2614      3.4338      4.0134      5.1827      7.1746      10.014    
  13.323      16.442      18.782      19.996      19.998      18.786      16.445      13.324      10.012      7.0902    
  4.9566      3.6261      2.8975      2.5802      2.5796      2.8965      3.6260      4.9580      7.0923      10.013    
  13.547      16.785      19.141      20.005      19.139      16.783      13.547      10.150      7.1736      4.9566    
  3.5074      2.6517      2.2088      2.0717      2.2087      2.6523      3.5083      4.9565      7.1719      10.148    
  13.928      16.991      18.832      18.829      16.985      13.923      10.514      7.4821      5.1827      3.6261    
  2.6517      2.0890      1.8299      1.8301      2.0896      2.6526      3.6257      5.1801      7.4789      10.514    
  14.509      17.041      18.007      17.040      14.508      11.269      8.1795      5.7307      4.0141      2.8975    
  2.2088      1.8299      1.7077      1.8296      2.2085      2.8975      4.0141      5.7305      8.1795      11.270    
  15.333      17.041      17.043      15.337      12.526      9.4524      6.7771      4.7808      3.4346      2.5802    
  2.0717      1.8301      1.8296      2.0706      2.5792      3.4351      4.7830      6.7795      9.4526      12.523    
  16.212      16.991      16.213      14.121      11.312      8.4707      6.0972      4.3814      3.2614      2.5796    
  2.2087      2.0896      2.2085      2.5792      3.2611      4.3816      6.0979      8.4712      11.311      14.119    
  16.787      16.786      15.571      13.399      10.721      8.0705      5.9006      4.3814      3.4338      2.8965    
  2.6523      2.6526      2.8975      3.4351      4.3816      5.8988      8.0681      10.720      13.401      15.575    
  16.873      16.443      15.147      13.074      10.549      8.0692      6.0968      4.7811      4.0134      3.6260    
  3.5083      3.6257      4.0141      4.7830      6.0979      8.0681      10.548      13.074      15.149      16.445    
  16.628      16.160      14.996      13.075      10.718      8.4682      6.7776      5.7312      5.1827      4.9580    
  4.9565      5.1801      5.7305      6.7795      8.4712      10.720      13.074      14.993      16.156      16.626    
  16.470      16.161      15.149      13.398      11.308      9.4515      8.1809      7.4820      7.1746      7.0923    
  7.1719      7.4789      8.1795      9.4526      11.311      13.401      15.149      16.156      16.465      16.488    
  16.628      16.444      15.572      14.118      12.524      11.271      10.515      10.148      10.014      10.013    
  10.148      10.514      11.270      12.523      14.119      15.575      16.445      16.626      16.488      16.489    
  14.028      13.928      13.796      13.796      13.928      14.027      14.022      13.972      13.974      14.026    
  14.030      13.928      13.793      13.793      13.927      14.030      14.026      13.973      13.971      14.023    
  13.928      14.509      15.334      16.212      16.786      16.870      16.627      16.471      16.628      16.872    
  16.787      16.213      15.333      14.508      13.927      13.548      13.324      13.246      13.323      13.547    
  13.796      15.334      17.075      18.397      18.785      18.265      17.595      17.596      18.265      18.784    
  18.396      17.074      15.334      13.796      12.766      12.194      11.950      11.949      12.193      12.765    
  13.796      16.212      18.397      19.451      18.933      17.577      16.869      17.582      18.937      19.451    
  18.394      16.209      13.795      11.909      10.775      10.232      10.077      10.230      10.772      11.908    
  13.928      16.786      18.785      18.933      17.386      15.768      15.770      17.393      18.938      18.786    
  16.783      13.924      11.269      9.4522      8.4708      8.0707      8.0689      8.4679      9.4519      11.272    
  14.027      16.870      18.265      17.577      15.768      14.819      15.768      17.579      18.267      16.873    
  14.028      10.940      8.5209      7.0563      6.3445      6.1379      6.3433      7.0571      8.5242      10.943    
  14.022      16.627      17.595      16.869      15.770      15.768      16.864      17.591      16.629      14.027    
  10.824      8.0170      6.1361      5.1121      4.6825      4.6826      5.1133      6.1386      8.0180      10.821    
  13.972      16.471      17.596      17.582      17.393      17.579      17.591      16.468      13.973      10.790    
  7.8078      5.6366      4.3519      3.7193      3.5320      3.7194      4.3527      5.6370      7.8061      10.787    
  13.974      16.628      18.265      18.937      18.938      18.267      16.629      13.973      10.782      7.7434    
  5.4095      3.9344      3.1353      2.7934      2.7930      3.1345      3.9342      5.4097      7.7439      10.783    
  14.026      16.872      18.784      19.451      18.786      16.873      14.027      10.790      7.7434      5.3457    
  3.7497      2.8185      2.3487      2.2060      2.3481      2.8182      3.7503      5.3464      7.7437      10.790    
  14.030      16.787      18.396      18.394      16.783      14.028      10.824      7.8078      5.4095      3.7497    
  2.7163      2.1335      1.8718      1.8719      2.1340      2.7172      3.7498      5.4076      7.8051      10.823    
  13.928      16.213      17.074      16.209      13.924      10.940      8.0170      5.6366      3.9344      2.8185    
  2.1335      1.7612      1.6425      1.7616      2.1342      2.8189      3.9335      5.6344      8.0155      10.942    
  13.793      15.333      15.334      13.795      11.269      8.5209      6.1361      4.3519      3.1353      2.3487    
  1.8718      1.6425      1.6423      1.8714      2.3485      3.1357      4.3530      6.1373      8.5213      11.268    
  13.793      14.508      13.796      11.909      9.4522      7.0563      5.1121      3.7193      2.7934      2.2060    
  1.8719      1.7616      1.8714      2.2051      2.7929      3.7203      5.1145      7.0582      9.4510      11.905    
  13.927      13.927      12.766      10.775      8.4708      6.3445      4.6825      3.5320      2.7930      2.3481    
  2.1340      2.1342      2.3485      2.7929      3.5314      4.6820      6.3444      8.4710      10.774      12.765    
  14.030      13.548      12.194      10.232      8.0707      6.1379      4.6826      3.7194      3.1345      2.8182    
  2.7172      2.8189      3.1357      3.7203      4.6820      6.1359      8.0692      10.232      12.196      13.550    
  14.026      13.324      11.950      10.077      8.0689      6.3433      5.1133      4.3527      3.9342      3.7503    
  3.7498      3.9335      4.3530      5.1145      6.3444      8.0692      10.077      11.949      13.323      14.026    
  13.973      13.246      11.949      10.230      8.4679      7.0571      6.1386      5.6370      5.4097      5.3464    
  5.4076      5.6344      6.1373      7.0582      8.4710      10.232      11.949      13.243      13.969      14.191    
  13.971      13.323      12.193      10.772      9.4519      8.5242      8.0180      7.8061      7.7439      7.7437    
  7.8051      8.0155      8.5213      9.4510      10.774      12.196      13.323      13.969      14.209      14.211    
  14.023      13.547      12.765      11.908      11.272      10.943      10.821      10.787      10.783      10.790    
  10.823      10.942      11.268      11.905      12.765      13.550      14.026      14.191      14.211      14.189    
  10.944      11.271      11.907      12.765      13.547      14.021      14.189      14.212      14.192      14.026    
  13.550      12.766      11.905      11.267      10.941      10.824      10.790      10.782      10.788      10.823    
  11.271      12.522      14.117      15.573      16.444      16.627      16.490      16.489      16.626      16.444    
  15.575      14.120      12.523      11.269      10.513      10.149      10.014      10.013      10.149      10.516    
  11.907      14.117      16.326      17.797      18.094      17.594      17.255      17.594      18.091      17.795    
  16.327      14.120      11.908      10.282      9.3477      8.9213      8.8048      8.9209      9.3486      10.284    
  12.765      15.573      17.797      18.563      17.862      16.868      16.869      17.863      18.562      17.796    
  15.573      12.765      10.283      8.6296      7.7510      7.3974      7.3964      7.7498      8.6303      10.284    
  13.547      16.444      18.094      17.862      16.518      15.770      16.519      17.862      18.094      16.445    
  13.548      10.514      8.1791      6.7768      6.0976      5.9008      6.0965      6.7775      8.1819      10.516    
  14.021      16.627      17.594      16.868      15.770      15.768      16.864      17.592      16.629      14.027    
  10.825      8.0171      6.1358      5.1120      4.6828      4.6827      5.1132      6.1389      8.0186      10.822    
  14.189      16.490      17.255      16.869      16.519      16.864      17.249      16.486      14.191      11.053    
  8.0321      5.8003      4.4746      3.8232      3.6311      3.8239      4.4764      5.8012      8.0293      11.047    
  14.212      16.489      17.594      17.863      17.862      17.592      16.486      14.210      11.155      8.0900    
  5.6588      4.1065      3.2693      2.9146      2.9145      3.2693      4.1064      5.6577      8.0881      11.155    
  14.192      16.626      18.091      18.562      18.094      16.629      14.191      11.155      8.1153      5.6117    
  3.9168      2.9346      2.4483      2.3028      2.4476      2.9338      3.9165      5.6121      8.1170      11.157    
  14.026      16.444      17.795      17.796      16.445      14.027      11.053      8.0900      5.6117      3.8574    
  2.7713      2.1737      1.9124      1.9123      2.1735      2.7714      3.8577      5.6120      8.0902      11.052    
  13.550      15.575      16.327      15.573      13.548      10.825      8.0321      5.6588      3.9168      2.7713    
  2.0806      1.7153      1.6011      1.7158      2.0815      2.7718      3.9161      5.6569      8.0304      10.825    
  12.766      14.120      14.120      12.765      10.514      8.0171      5.8003      4.1065      2.9346      2.1737    
  1.7153      1.4972      1.4974      1.7157      2.1743      2.9349      4.1062      5.7996      8.0168      10.515    
  11.905      12.523      11.908      10.283      8.1791      6.1358      4.4746      3.2693      2.4483      1.9124    
  1.6011      1.4974      1.6008      1.9119      2.4481      3.2703      4.4768      6.1376      8.1786      10.280    
  11.267      11.269      10.282      8.6296      6.7768      5.1120      3.8232      2.9146      2.3028      1.9123    
  1.7158      1.7157      1.9119      2.3017      2.9138      3.8240      5.1141      6.7780      8.6282      10.279    
  10.941      10.513      9.3477      7.7510      6.0976      4.6828      3.6311      2.9145      2.4476      2.1735    
  2.0815      2.1743      2.4481      2.9138      3.6294      4.6813      6.0973      7.7519      9.3491      10.514    
  10.824      10.149      8.9213      7.3974      5.9008      4.6827      3.8239      3.2693      2.9338      2.7714    
  2.7718      2.9349      3.2703      3.8240      4.6813      5.8989      7.3968      8.9227      10.151      10.825    
  10.790      10.014      8.8048      7.3964      6.0965      5.1132      4.4764      4.1064      3.9165      3.8577    
  3.9161      4.1062      4.4768      5.1141      6.0973      7.3968      8.8045      10.013      10.790      11.053    
  10.782      10.013      8.9209      7.7498      6.7775      6.1389      5.8012      5.6577      5.6121      5.6120    
  5.6569      5.7996      6.1376      6.7780      7.7519      8.9227      10.013      10.781      11.156      11.157    
  10.788      10.149      9.3486      8.6303      8.1819      8.0186      8.0293      8.0881      8.1170      8.0902    
  8.0304      8.0168      8.1786      8.6282      9.3491      10.151      10.790      11.156      11.268      11.154    
  10.823      10.516      10.284      10.284      10.516      10.822      11.047      11.155      11.157      11.052    
  10.825      10.515      10.280      10.279      10.514      10.825      11.053      11.157      11.154      11.048    
  8.5243      9.4508      10.771      12.193      13.322      13.971      14.211      14.210      13.970      13.323    
  12.196      10.775      9.4512      8.5207      8.0153      7.8058      7.7440      7.7435      7.8063      8.0189    
  9.4508      11.306      13.397      15.150      16.161      16.470      16.489      16.466      16.156      15.148    
  13.401      11.312      9.4525      8.1787      7.4790      7.1729      7.0926      7.1742      7.4823      8.1815    
  10.771      13.397      15.816      17.335      17.745      17.595      17.593      17.740      17.330      15.815    
  13.401      10.775      8.6311      7.2593      6.5435      6.2587      6.2590      6.5447      7.2608      8.6300    
  12.193      15.150      17.335      18.130      17.863      17.581      17.863      18.128      17.333      15.149    
  12.195      9.3502      7.2608      6.0285      5.4344      5.2627      5.4339      6.0288      7.2612      9.3490    
  13.322      16.161      17.745      17.863      17.393      17.392      17.863      17.743      16.161      13.324    
  10.150      7.4823      5.7301      4.7806      4.3820      4.3817      4.7806      5.7313      7.4830      10.149    
  13.971      16.470      17.595      17.581      17.392      17.579      17.592      16.469      13.973      10.790    
  7.8081      5.6366      4.3515      3.7193      3.5325      3.7196      4.3525      5.6374      7.8068      10.787    
  14.211      16.489      17.593      17.863      17.863      17.592      16.487      14.210      11.155      8.0899    
  5.6589      4.1064      3.2691      2.9147      2.9147      3.2693      4.1063      5.6578      8.0881      11.154    
  14.210      16.466      17.740      18.128      17.743      16.469      14.210      11.266      8.2396      5.7039    
  3.9754      2.9758      2.4843      2.3382      2.4838      2.9748      3.9744      5.7040      8.2417      11.268    
  13.970      16.156      17.330      17.333      16.161      13.973      11.155      8.2396      5.7225      3.9151    
  2.8002      2.1965      1.9372      1.9369      2.1958      2.7993      3.9153      5.7247      8.2428      11.156    
  13.323      15.148      15.815      15.149      13.324      10.790      8.0899      5.7039      3.9151      2.7396    
  2.0450      1.6878      1.5785      1.6880      2.0451      2.7397      3.9152      5.7042      8.0900      10.790    
  12.196      13.401      13.401      12.195      10.150      7.8081      5.6589      3.9754      2.8002      2.0450    
  1.6011      1.3953      1.3955      1.6017      2.0456      2.8002      3.9745      5.6575      7.8072      10.151    
  10.775      11.312      10.775      9.3502      7.4823      5.6366      4.1064      2.9758      2.1965      1.6878    
  1.3953      1.2988      1.3953      1.6880      2.1968      2.9763      4.1069      5.6366      7.4819      9.3494    
  9.4512      9.4525      8.6311      7.2608      5.7301      4.3515      3.2691      2.4843      1.9372      1.5785    
  1.3955      1.3953      1.5778      1.9363      2.4842      3.2706      4.3538      5.7313      7.2595      8.6285    
  8.5207      8.1787      7.2593      6.0285      4.7806      3.7193      2.9147      2.3382      1.9369      1.6880    
  1.6017      1.6880      1.9363      2.3369      2.9136      3.7196      4.7820      6.0297      7.2594      8.1782    
  8.0153      7.4790      6.5435      5.4344      4.3820      3.5325      2.9147      2.4838      2.1958      2.0451    
  2.0456      2.1968      2.4842      2.9136      3.5302      4.3800      5.4343      6.5455      7.4817      8.0166    
  7.8058      7.1729      6.2587      5.2627      4.3817      3.7196      3.2693      2.9748      2.7993      2.7397    
  2.8002      2.9763      3.2706      3.7196      4.3800      5.2606      6.2581      7.1742      7.8075      8.0308    
  7.7440      7.0926      6.2590      5.4339      4.7806      4.3525      4.1063      3.9744      3.9153      3.9152    
  3.9745      4.1069      4.3538      4.7820      5.4343      6.2581      7.0913      7.7433      8.0903      8.0905    
  7.7435      7.1742      6.5447      6.0288      5.7313      5.6374      5.6578      5.7040      5.7247      5.7042    
  5.6575      5.6366      5.7313      6.0297      6.5455      7.1742      7.7433      8.1165      8.2426      8.1166    
  7.8063      7.4823      7.2608      7.2612      7.4830      7.8068      8.0881      8.2417      8.2428      8.0900    
  7.8072      7.4819      7.2595      7.2594      7.4817      7.8075      8.0903      8.2426      8.2413      8.0878    
  8.0189      8.1815      8.6300      9.3490      10.149      10.787      11.154      11.268      11.156      10.790    
  10.151      9.3494      8.6285      8.1782      8.0166      8.0308      8.0905      8.1166      8.0878      8.0297    
  7.0572      8.4674      10.229      11.950      13.247      13.973      14.191      13.970      13.243      11.949    
  10.232      8.4714      7.0583      6.1368      5.6343      5.4081      5.3465      5.4092      5.6369      6.1391    
  8.4674      10.717      13.074      14.997      16.160      16.628      16.626      16.157      14.992      13.074    
  10.720      8.4718      6.7794      5.7299      5.1803      4.9573      4.9580      5.1821      5.7311      6.7778    
  10.229      13.074      15.629      17.333      18.092      18.266      18.092      17.331      15.626      13.073    
  10.231      7.7530      6.0309      5.0297      4.5432      4.4014      4.5434      5.0294      6.0291      7.7503    
  11.950      14.997      17.333      18.560      18.936      18.937      18.563      17.333      14.994      11.947    
  8.9210      6.5464      5.0309      4.2108      3.8636      3.8632      4.2097      5.0295      6.5456      8.9218    
  13.247      16.160      18.092      18.936      19.122      18.938      18.095      16.161      13.245      10.012    
  7.1743      5.1828      4.0135      3.4346      3.2621      3.4339      4.0127      5.1827      7.1753      10.014    
  13.973      16.628      18.266      18.937      18.938      18.268      16.630      13.973      10.781      7.7434    
  5.4099      3.9342      3.1348      2.7936      2.7935      3.1345      3.9338      5.4099      7.7442      10.782    
  14.191      16.626      18.092      18.563      18.095      16.630      14.192      11.155      8.1147      5.6116    
  3.9170      2.9344      2.4480      2.3030      2.4479      2.9336      3.9162      5.6121      8.1167      11.156    
  13.970      16.157      17.331      17.333      16.161      13.973      11.155      8.2391      5.7221      3.9151    
  2.8002      2.1963      1.9371      1.9371      2.1958      2.7991      3.9150      5.7245      8.2424      11.156    
  13.243      14.992      15.626      14.994      13.245      10.781      8.1147      5.7221      3.9142      2.7273    
  2.0318      1.6785      1.5713      1.6785      2.0314      2.7267      3.9148      5.7241      8.1162      10.781    
  11.949      13.074      13.073      11.947      10.012      7.7434      5.6116      3.9151      2.7273      1.9728    
  1.5388      1.3419      1.3422      1.5391      1.9728      2.7269      3.9143      5.6108      7.7430      10.013    
  10.232      10.720      10.231      8.9210      7.1743      5.4099      3.9170      2.8002      2.0318      1.5388    
  1.2622      1.1728      1.2625      1.5392      2.0321      2.7998      3.9157      5.4084      7.1740      8.9225    
  8.4714      8.4718      7.7530      6.5464      5.1828      3.9342      2.9344      2.1963      1.6785      1.3419    
  1.1728      1.1727      1.3417      1.6785      2.1969      2.9352      3.9347      5.1825      6.5455      7.7521    
  7.0583      6.7794      6.0309      5.0309      4.0135      3.1348      2.4480      1.9371      1.5713      1.3422    
  1.2625      1.3417      1.5705      1.9365      2.4484      3.1363      4.0150      5.0313      6.0298      6.7782    
  6.1368      5.7299      5.0297      4.2108      3.4346      2.7936      2.3030      1.9371      1.6785      1.5391    
  1.5392      1.6785      1.9365      2.3019      2.7926      3.4345      4.2118      5.0313      5.7312      6.1374    
  5.6343      5.1803      4.5432      3.8636      3.2621      2.7935      2.4479      2.1958      2.0314      1.9728    
  2.0321      2.1969      2.4484      2.7926      3.2599      3.8617      4.5434      5.1826      5.6366      5.7994    
  5.4081      4.9573      4.4014      3.8632      3.4339      3.1345      2.9336      2.7991      2.7267      2.7269    
  2.7998      2.9352      3.1363      3.4345      3.8617      4.3991      4.9560      5.4084      5.6576      5.6571    
  5.3465      4.9580      4.5434      4.2097      4.0127      3.9338      3.9162      3.9150      3.9148      3.9143    
  3.9157      3.9347      4.0150      4.2118      4.5434      4.9560      5.3443      5.6108      5.7043      5.6120    
  5.4092      5.1821      5.0294      5.0295      5.1827      5.4099      5.6121      5.7245      5.7241      5.6108    
  5.4084      5.1825      5.0313      5.0313      5.1826      5.4084      5.6108      5.7242      5.7244      5.6116    
  5.6369      5.7311      6.0291      6.5456      7.1753      7.7442      8.1167      8.2424      8.1162      7.7430    
  7.1740      6.5455      6.0298      5.7312      5.6366      5.6576      5.7043      5.7244      5.7033      5.6571    
  6.1391      6.7778      7.7503      8.9218      10.014      10.782      11.156      11.156      10.781      10.013    
  8.9225      7.7521      6.7782      6.1374      5.7994      5.6571      5.6120      5.6116      5.6571      5.8012    
  6.3441      8.0691      10.077      11.950      13.323      14.025      14.025      13.323      11.949      10.077    
  8.0691      6.3448      5.1147      4.3527      3.9333      3.7500      3.7503      3.9338      4.3527      5.1141    
  8.0691      10.549      13.075      15.148      16.443      16.872      16.445      15.149      13.074      10.547    
  8.0682      6.0984      4.7829      4.0136      3.6258      3.5088      3.6260      4.0128      4.7811      6.0974    
  10.077      13.075      15.813      17.791      18.782      18.785      17.796      15.816      13.073      10.073    
  7.3950      5.4356      4.2120      3.5416      3.2507      3.2505      3.5404      4.2097      5.4345      7.3971    
  11.950      15.148      17.791      19.447      19.996      19.451      17.796      15.149      11.947      8.8008    
  6.2576      4.5443      3.5417      3.0371      2.8846      3.0364      3.5400      4.5432      6.2596      8.8054    
  13.323      16.443      18.782      19.996      19.997      18.785      16.446      13.324      10.011      7.0904    
  4.9573      3.6261      2.8969      2.5802      2.5802      2.8963      3.6253      4.9580      7.0931      10.014    
  14.025      16.872      18.785      19.451      18.785      16.874      14.027      10.790      7.7429      5.3460    
  3.7502      2.8182      2.3483      2.2063      2.3486      2.8180      3.7498      5.3467      7.7442      10.790    
  14.025      16.445      17.796      17.796      16.446      14.027      11.053      8.0892      5.6111      3.8576    
  2.7715      2.1734      1.9122      1.9126      2.1738      2.7710      3.8573      5.6120      8.0900      11.052    
  13.323      15.149      15.816      15.149      13.324      10.790      8.0892      5.7030      3.9148      2.7399    
  2.0451      1.6876      1.5784      1.6882      2.0451      2.7393      3.9149      5.7041      8.0898      10.789    
  11.949      13.074      13.073      11.947      10.011      7.7429      5.6111      3.9148      2.7274      1.9730    
  1.5388      1.3418      1.3422      1.5392      1.9727      2.7267      3.9143      5.6108      7.7431      10.013    
  10.077      10.547      10.073      8.8008      7.0904      5.3460      3.8576      2.7399      1.9730      1.4856    
  1.2157      1.1293      1.2161      1.4859      1.9727      2.7388      3.8557      5.3445      7.0912      8.8044    
  8.0691      8.0682      7.3950      6.2576      4.9573      3.7502      2.7715      2.0451      1.5388      1.2157    
  1.0565      1.0566      1.2159      1.5393      2.0454      2.7709      3.7487      4.9560      6.2579      7.3966    
  6.3448      6.0984      5.4356      4.5443      3.6261      2.8182      2.1734      1.6876      1.3418      1.1293    
  1.0566      1.1291      1.3418      1.6881      2.1744      2.8190      3.6260      4.5432      5.4342      6.0975    
  5.1147      4.7829      4.2120      3.5417      2.8969      2.3483      1.9122      1.5784      1.3422      1.2161    
  1.2159      1.3418      1.5781      1.9123      2.3490      2.8980      3.5424      4.2118      4.7821      5.1143    
  4.3527      4.0136      3.5416      3.0371      2.5802      2.2063      1.9126      1.6882      1.5392      1.4859    
  1.5393      1.6881      1.9123      2.2057      2.5796      3.0371      3.5426      4.0152      4.3539      4.4767    
  3.9333      3.6258      3.2507      2.8846      2.5802      2.3486      2.1738      2.0451      1.9727      1.9727    
  2.0454      2.1744      2.3490      2.5796      2.8830      3.2494      3.6261      3.9347      4.1067      4.1059    
  3.7500      3.5088      3.2505      3.0364      2.8963      2.8180      2.7710      2.7393      2.7267      2.7388    
  2.7709      2.8190      2.8980      3.0371      3.2494      3.5067      3.7484      3.9155      3.9744      3.9161    
  3.7503      3.6260      3.5404      3.5400      3.6253      3.7498      3.8573      3.9149      3.9143      3.8557    
  3.7487      3.6260      3.5424      3.5426      3.6261      3.7484      3.8555      3.9143      3.9152      3.8576    
  3.9338      4.0128      4.2097      4.5432      4.9580      5.3467      5.6120      5.7041      5.6108      5.3445    
  4.9560      4.5432      4.2118      4.0152      3.9347      3.9155      3.9143      3.9150      3.9150      3.9160    
  4.3527      4.7811      5.4345      6.2596      7.0931      7.7442      8.0900      8.0898      7.7431      7.0912    
  6.2579      5.4342      4.7821      4.3539      4.1067      3.9744      3.9152      3.9150      3.9739      4.1059    
  5.1141      6.0974      7.3971      8.8054      10.014      10.790      11.052      10.789      10.013      8.8044    
  7.3966      6.0975      5.1143      4.4767      4.1059      3.9161      3.8576      3.9160      4.1059      4.4767    
  6.1387      8.0705      10.231      12.194      13.547      14.029      13.550      12.197      10.233      8.0691    
  6.1358      4.6823      3.7205      3.1354      2.8186      2.7174      2.8185      3.1345      3.7198      4.6836    
  8.0705      10.720      13.398      15.571      16.785      16.787      15.575      13.402      10.720      8.0678    
  5.8988      4.3820      3.4351      2.8970      2.6526      2.6528      2.8966      3.4337      4.3818      5.9013    
  10.231      13.398      16.323      18.394      19.141      18.396      16.327      13.401      10.230      7.3942    
  5.2611      3.8634      3.0367      2.6072      2.4742      2.6075      3.0360      3.8624      5.2625      7.3973    
  12.194      15.571      18.394      20.004      20.004      18.393      15.572      12.194      8.9199      6.2568    
  4.4003      3.2499      2.6067      2.3201      2.3206      2.6071      3.2494      4.4005      6.2586      8.9211    
  13.547      16.785      19.141      20.004      19.138      16.783      13.548      10.150      7.1734      4.9570    
  3.5081      2.6517      2.2082      2.0718      2.2093      2.6521      3.5078      4.9569      7.1731      10.148    
  14.029      16.787      18.396      18.393      16.783      14.028      10.825      7.8078      5.4094      3.7502    
  2.7168      2.1332      1.8714      1.8722      2.1344      2.7169      3.7495      5.4083      7.8059      10.823    
  13.550      15.575      16.327      15.572      13.548      10.825      8.0322      5.6584      3.9167      2.7717    
  2.0808      1.7149      1.6010      1.7162      2.0816      2.7714      3.9160      5.6573      8.0306      10.824    
  12.197      13.402      13.401      12.194      10.150      7.8078      5.6584      3.9749      2.8003      2.0454    
  1.6011      1.3950      1.3956      1.6020      2.0455      2.7998      3.9744      5.6577      7.8073      10.151    
  10.233      10.720      10.230      8.9199      7.1734      5.4094      3.9167      2.8003      2.0323      1.5392    
  1.2623      1.1727      1.2627      1.5394      2.0319      2.7996      3.9158      5.4088      7.1745      8.9231    
  8.0691      8.0678      7.3942      6.2568      4.9570      3.7502      2.7717      2.0454      1.5392      1.2159    
  1.0565      1.0565      1.2160      1.5393      2.0453      2.7709      3.7489      4.9564      6.2582      7.3969    
  6.1358      5.8988      5.2611      4.4003      3.5081      2.7168      2.0808      1.6011      1.2623      1.0565    
 0.98680      1.0565      1.2626      1.6018      2.0814      2.7165      3.5069      4.3990      5.2604      5.8987    
  4.6823      4.3820      3.8634      3.2499      2.6517      2.1332      1.7149      1.3950      1.1727      1.0565    
  1.0565      1.1728      1.3954      1.7158      2.1343      2.6523      3.2493      3.8615      4.3799      4.6814    
  3.7205      3.4351      3.0367      2.6067      2.2082      1.8714      1.6010      1.3956      1.2627      1.2160    
  1.2626      1.3954      1.6008      1.8717      2.2091      2.6077      3.0371      3.4345      3.7198      3.8243    
  3.1354      2.8970      2.6072      2.3201      2.0718      1.8722      1.7162      1.6020      1.5394      1.5393    
  1.6018      1.7158      1.8717      2.0714      2.3201      2.6078      2.8982      3.1365      3.2707      3.2703    
  2.8186      2.6526      2.4742      2.3206      2.2093      2.1344      2.0816      2.0455      2.0319      2.0453    
  2.0814      2.1343      2.2091      2.3201      2.4736      2.6524      2.8190      2.9351      2.9761      2.9345    
  2.7174      2.6528      2.6075      2.6071      2.6521      2.7169      2.7714      2.7998      2.7996      2.7709    
  2.7165      2.6523      2.6077      2.6078      2.6524      2.7164      2.7707      2.7997      2.8001      2.7718    
  2.8185      2.8966      3.0360      3.2494      3.5078      3.7495      3.9160      3.9744      3.9158      3.7489    
  3.5069      3.2493      3.0371      2.8982      2.8190      2.7707      2.7388      2.7271      2.7399      2.7716    
  3.1345      3.4337      3.8624      4.4005      4.9569      5.4083      5.6573      5.6577      5.4088      4.9564    
  4.3990      3.8615      3.4345      3.1365      2.9351      2.7997      2.7271      2.7273      2.7995      2.9337    
  3.7198      4.3818      5.2625      6.2586      7.1731      7.8059      8.0306      7.8073      7.1745      6.2582    
  5.2604      4.3799      3.7198      3.2707      2.9761      2.8001      2.7399      2.7995      2.9746      3.2691    
  4.6836      5.9013      7.3973      8.9211      10.148      10.823      10.824      10.151      8.9231      7.3969    
  5.8987      4.6814      3.8243      3.2703      2.9345      2.7718      2.7716      2.9337      3.2691      3.8245    
  6.3447      8.4701      10.774      12.766      13.927      13.927      12.765      10.775      8.4716      6.3442    
  4.6817      3.5318      2.7932      2.3481      2.1339      2.1344      2.3486      2.7929      3.5321      4.6831    
  8.4701      11.311      14.120      16.213      16.991      16.212      14.120      11.312      8.4715      6.0974    
  4.3815      3.2616      2.5793      2.2081      2.0896      2.2093      2.5799      3.2613      4.3816      6.0975    
  10.774      14.120      17.077      18.834      18.831      17.074      14.120      10.775      7.7521      5.4346    
  3.8631      2.8835      2.3190      2.0591      2.0601      2.3206      2.8838      3.8626      5.4339      7.7506    
  12.766      16.213      18.834      19.817      18.828      16.208      12.765      9.3499      6.5455      4.5438    
  3.2502      2.4731      2.0588      1.9287      2.0603      2.4742      3.2498      4.5426      6.5436      9.3478    
  13.927      16.991      18.831      18.828      16.984      13.923      10.515      7.4824      5.1825      3.6263    
  2.6523      2.0889      1.8294      1.8302      2.0902      2.6525      3.6253      5.1805      7.4798      10.514    
  13.927      16.212      17.074      16.208      13.923      10.941      8.0181      5.6369      3.9343      2.8188    
  2.1338      1.7609      1.6422      1.7619      2.1346      2.8187      3.9334      5.6351      8.0161      10.941    
  12.765      14.120      14.120      12.765      10.515      8.0181      5.8008      4.1063      2.9345      2.1740    
  1.7153      1.4968      1.4973      1.7161      2.1744      2.9346      4.1062      5.8001      8.0168      10.514    
  10.775      11.312      10.775      9.3499      7.4824      5.6369      4.1063      2.9755      2.1966      1.6881    
  1.3952      1.2985      1.3954      1.6883      2.1967      2.9760      4.1070      5.6369      7.4818      9.3491    
  8.4716      8.4715      7.7521      6.5455      5.1825      3.9343      2.9345      2.1966      1.6789      1.3422    
  1.1727      1.1725      1.3418      1.6787      2.1967      2.9350      3.9350      5.1829      6.5458      7.7523    
  6.3442      6.0974      5.4346      4.5438      3.6263      2.8188      2.1740      1.6881      1.3422      1.1293    
  1.0564      1.1290      1.3419      1.6882      2.1743      2.8191      3.6264      4.5436      5.4343      6.0973    
  4.6817      4.3815      3.8631      3.2502      2.6523      2.1338      1.7153      1.3952      1.1727      1.0564    
  1.0564      1.1727      1.3954      1.7157      2.1343      2.6524      3.2495      3.8615      4.3797      4.6809    
  3.5318      3.2616      2.8835      2.4731      2.0889      1.7609      1.4968      1.2985      1.1725      1.1290    
  1.1727      1.2987      1.4969      1.7612      2.0896      2.4735      2.8828      3.2597      3.5301      3.6295    
  2.7932      2.5793      2.3190      2.0588      1.8294      1.6422      1.4973      1.3954      1.3418      1.3419    
  1.3954      1.4969      1.6417      1.8295      2.0597      2.3201      2.5796      2.7927      2.9139      2.9142    
  2.3481      2.2081      2.0591      1.9287      1.8302      1.7619      1.7161      1.6883      1.6787      1.6882    
  1.7157      1.7612      1.8295      1.9287      2.0598      2.2092      2.3492      2.4486      2.4843      2.4480    
  2.1339      2.0896      2.0601      2.0603      2.0902      2.1346      2.1744      2.1967      2.1967      2.1743    
  2.1343      2.0896      2.0597      2.0598      2.0897      2.1344      2.1744      2.1968      2.1966      2.1739    
  2.1344      2.2093      2.3206      2.4742      2.6525      2.8187      2.9346      2.9760      2.9350      2.8191    
  2.6524      2.4735      2.3201      2.2092      2.1344      2.0813      2.0453      2.0320      2.0456      2.0815    
  2.3486      2.5799      2.8838      3.2498      3.6253      3.9334      4.1062      4.1070      3.9350      3.6264    
  3.2495      2.8828      2.5796      2.3492      2.1744      2.0453      1.9729      1.9731      2.0455      2.1739    
  2.7929      3.2613      3.8626      4.5426      5.1805      5.6351      5.8001      5.6369      5.1829      4.5436    
  3.8615      3.2597      2.7927      2.4486      2.1968      2.0320      1.9731      2.0319      2.1959      2.4475    
  3.5321      4.3816      5.4339      6.5436      7.4798      8.0161      8.0168      7.4818      6.5458      5.4343    
  4.3797      3.5301      2.9139      2.4843      2.1966      2.0456      2.0455      2.1959      2.4833      2.9141    
  4.6831      6.0975      7.7506      9.3478      10.514      10.941      10.514      9.3491      7.7523      6.0973    
  4.6809      3.6295      2.9142      2.4480      2.1739      2.0815      2.1739      2.4475      2.9141      3.6312    
  7.0566      9.4518      11.908      13.797      14.509      13.792      11.904      9.4513      7.0585      5.1142    
  3.7200      2.7932      2.2054      1.8711      1.7613      1.8722      2.2063      2.7931      3.7190      5.1124    
  9.4518      12.525      15.337      17.044      17.042      15.333      12.523      9.4533      6.7795      4.7823    
  3.4349      2.5797      2.0707      1.8291      1.8301      2.0723      2.5804      3.4342      4.7806      6.7772    
  11.908      15.337      18.010      19.027      18.007      15.334      11.908      8.6317      6.0307      4.2116    
  3.0372      2.3197      1.9279      1.8026      1.9292      2.3208      3.0371      4.2105      6.0287      8.6299    
  13.797      17.044      19.027      19.026      17.040      13.795      10.283      7.2613      5.0307      3.5419    
  2.6077      2.0595      1.8025      1.8028      2.0600      2.6078      3.5414      5.0298      7.2601      10.283    
  14.509      17.042      18.007      17.040      14.507      11.269      8.1800      5.7306      4.0136      2.8976    
  2.2093      1.8298      1.7072      1.8297      2.2091      2.8974      4.0136      5.7306      8.1800      11.270    
  13.792      15.333      15.334      13.795      11.269      8.5218      6.1369      4.3518      3.1349      2.3489    
  1.8721      1.6422      1.6420      1.8717      2.3488      3.1355      4.3528      6.1377      8.5215      11.267    
  11.904      12.523      11.908      10.283      8.1800      6.1369      4.4749      3.2687      2.4478      1.9125    
  1.6011      1.4970      1.6007      1.9122      2.4482      3.2700      4.4767      6.1377      8.1781      10.279    
  9.4513      9.4533      8.6317      7.2613      5.7306      4.3518      3.2687      2.4836      1.9369      1.5786    
  1.3954      1.3950      1.5779      1.9366      2.4841      3.2703      4.3538      5.7313      7.2591      8.6279    
  7.0585      6.7795      6.0307      5.0307      4.0136      3.1349      2.4478      1.9369      1.5715      1.3423    
  1.2624      1.3415      1.5707      1.9366      2.4482      3.1361      4.0152      5.0314      6.0297      6.7781    
  5.1142      4.7823      4.2116      3.5419      2.8976      2.3489      1.9125      1.5786      1.3423      1.2160    
  1.2157      1.3418      1.5782      1.9123      2.3489      2.8981      3.5427      4.2119      4.7818      5.1138    
  3.7200      3.4349      3.0372      2.6077      2.2093      1.8721      1.6011      1.3954      1.2624      1.2157    
  1.2624      1.3954      1.6008      1.8717      2.2091      2.6078      3.0371      3.4342      3.7192      3.8236    
  2.7932      2.5797      2.3197      2.0595      1.8298      1.6422      1.4970      1.3950      1.3415      1.3418    
  1.3954      1.4969      1.6417      1.8295      2.0597      2.3200      2.5794      2.7924      2.9134      2.9139    
  2.2054      2.0707      1.9279      1.8025      1.7072      1.6420      1.6007      1.5779      1.5707      1.5782    
  1.6008      1.6417      1.7069      1.8027      1.9286      2.0713      2.2057      2.3020      2.3371      2.3021    
  1.8711      1.8291      1.8026      1.8028      1.8297      1.8717      1.9122      1.9366      1.9366      1.9123    
  1.8717      1.8295      1.8027      1.8027      1.8296      1.8717      1.9124      1.9367      1.9364      1.9118    
  1.7613      1.8301      1.9292      2.0600      2.2091      2.3488      2.4482      2.4841      2.4482      2.3489    
  2.2091      2.0597      1.9286      1.8296      1.7613      1.7158      1.6881      1.6784      1.6877      1.7154    
  1.8722      2.0723      2.3208      2.6078      2.8974      3.1355      3.2700      3.2703      3.1361      2.8981    
  2.6078      2.3200      2.0713      1.8717      1.7158      1.6017      1.5391      1.5391      1.6017      1.7158    
  2.2063      2.5804      3.0371      3.5414      4.0136      4.3528      4.4767      4.3538      4.0152      3.5427    
  3.0371      2.5794      2.2057      1.9124      1.6881      1.5391      1.4859      1.5394      1.6882      1.9125    
  2.7931      3.4342      4.2105      5.0298      5.7306      6.1377      6.1377      5.7313      5.0314      4.2119    
  3.4342      2.7924      2.3020      1.9367      1.6784      1.5391      1.5394      1.6788      1.9368      2.3024    
  3.7190      4.7806      6.0287      7.2601      8.1800      8.5215      8.1781      7.2591      6.0297      4.7818    
  3.7192      2.9134      2.3371      1.9364      1.6877      1.6017      1.6882      1.9368      2.3374      2.9138    
  5.1124      6.7772      8.6299      10.283      11.270      11.267      10.279      8.6279      6.7781      5.1138    
  3.8236      2.9139      2.3021      1.9118      1.7154      1.7158      1.9125      2.3024      2.9138      3.8230    
  8.5218      11.269      13.795      15.334      15.333      13.792      11.267      8.5215      6.1377      4.3528    
  3.1355      2.3488      1.8717      1.6420      1.6422      1.8721      2.3489      3.1349      4.3518      6.1369    
  11.269      14.507      17.040      18.007      17.042      14.509      11.270      8.1800      5.7306      4.0136    
  2.8974      2.2091      1.8297      1.7072      1.8298      2.2093      2.8976      4.0136      5.7306      8.1800    
  13.795      17.040      19.026      19.027      17.044      13.797      10.283      7.2601      5.0298      3.5414    
  2.6078      2.0600      1.8028      1.8025      2.0595      2.6077      3.5419      5.0307      7.2613      10.283    
  15.334      18.007      19.027      18.010      15.337      11.908      8.6299      6.0287      4.2105      3.0371    
  2.3208      1.9292      1.8026      1.9279      2.3197      3.0372      4.2116      6.0307      8.6317      11.908    
  15.333      17.042      17.044      15.337      12.525      9.4518      6.7772      4.7806      3.4342      2.5804    
  2.0723      1.8301      1.8291      2.0707      2.5797      3.4349      4.7823      6.7795      9.4533      12.523    
  13.792      14.509      13.797      11.908      9.4518      7.0566      5.1124      3.7190      2.7931      2.2063    
  1.8722      1.7613      1.8711      2.2054      2.7932      3.7200      5.1142      7.0585      9.4513      11.904    
  11.267      11.270      10.283      8.6299      6.7772      5.1124      3.8230      2.9138      2.3024      1.9125    
  1.7158      1.7154      1.9118      2.3021      2.9139      3.8236      5.1138      6.7781      8.6279      10.279    
  8.5215      8.1800      7.2601      6.0287      4.7806      3.7190      2.9138      2.3374      1.9368      1.6882    
  1.6017      1.6877      1.9364      2.3371      2.9134      3.7192      4.7818      6.0297      7.2591      8.1781    
  6.1377      5.7306      5.0298      4.2105      3.4342      2.7931      2.3024      1.9368      1.6788      1.5394    
  1.5391      1.6784      1.9367      2.3020      2.7924      3.4342      4.2119      5.0314      5.7313      6.1377    
  4.3528      4.0136      3.5414      3.0371      2.5804      2.2063      1.9125      1.6882      1.5394      1.4859    
  1.5391      1.6881      1.9124      2.2057      2.5794      3.0371      3.5427      4.0152      4.3538      4.4767    
  3.1355      2.8974      2.6078      2.3208      2.0723      1.8722      1.7158      1.6017      1.5391      1.5391    
  1.6017      1.7158      1.8717      2.0713      2.3200      2.6078      2.8981      3.1361      3.2703      3.2700    
  2.3488      2.2091      2.0600      1.9292      1.8301      1.7613      1.7154      1.6877      1.6784      1.6881    
  1.7158      1.7613      1.8296      1.9286      2.0597      2.2091      2.3489      2.4482      2.4841      2.4482    
  1.8717      1.8297      1.8028      1.8026      1.8291      1.8711      1.9118      1.9364      1.9367      1.9124    
  1.8717      1.8296      1.8027      1.8027      1.8295      1.8717      1.9123      1.9366      1.9366      1.9122    
  1.6420      1.7072      1.8025      1.9279      2.0707      2.2054      2.3021      2.3371      2.3020      2.2057    
  2.0713      1.9286      1.8027      1.7069      1.6417      1.6008      1.5782      1.5707      1.5779      1.6007    
  1.6422      1.8298      2.0595      2.3197      2.5797      2.7932      2.9139      2.9134      2.7924      2.5794    
  2.3200      2.0597      1.8295      1.6417      1.4969      1.3954      1.3418      1.3415      1.3950      1.4970    
  1.8721      2.2093      2.6077      3.0372      3.4349      3.7200      3.8236      3.7192      3.4342      3.0371    
  2.6078      2.2091      1.8717      1.6008      1.3954      1.2624      1.2157      1.2624      1.3954      1.6011    
  2.3489      2.8976      3.5419      4.2116      4.7823      5.1142      5.1138      4.7818      4.2119      3.5427    
  2.8981      2.3489      1.9123      1.5782      1.3418      1.2157      1.2160      1.3423      1.5786      1.9125    
  3.1349      4.0136      5.0307      6.0307      6.7795      7.0585      6.7781      6.0297      5.0314      4.0152    
  3.1361      2.4482      1.9366      1.5707      1.3415      1.2624      1.3423      1.5715      1.9369      2.4478    
  4.3518      5.7306      7.2613      8.6317      9.4533      9.4513      8.6279      7.2591      5.7313      4.3538    
  3.2703      2.4841      1.9366      1.5779      1.3950      1.3954      1.5786      1.9369      2.4836      3.2687    
  6.1369      8.1800      10.283      11.908      12.523      11.904      10.279      8.1781      6.1377      4.4767    
  3.2700      2.4482      1.9122      1.6007      1.4970      1.6011      1.9125      2.4478      3.2687      4.4749    
  10.941      13.923      16.208      17.074      16.212      13.927      10.941      8.0161      5.6351      3.9334    
  2.8187      2.1346      1.7619      1.6422      1.7609      2.1338      2.8188      3.9343      5.6369      8.0181    
  13.923      16.984      18.828      18.831      16.991      13.927      10.514      7.4798      5.1805      3.6253    
  2.6525      2.0902      1.8302      1.8294      2.0889      2.6523      3.6263      5.1825      7.4824      10.515    
  16.208      18.828      19.817      18.834      16.213      12.766      9.3478      6.5436      4.5426      3.2498    
  2.4742      2.0603      1.9287      2.0588      2.4731      3.2502      4.5438      6.5455      9.3499      12.765    
  17.074      18.831      18.834      17.077      14.120      10.774      7.7506      5.4339      3.8626      2.8838    
  2.3206      2.0601      2.0591      2.3190      2.8835      3.8631      5.4346      7.7521      10.775      14.120    
  16.212      16.991      16.213      14.120      11.311      8.4701      6.0975      4.3816      3.2613      2.5799    
  2.2093      2.0896      2.2081      2.5793      3.2616      4.3815      6.0974      8.4715      11.312      14.120    
  13.927      13.927      12.766      10.774      8.4701      6.3447      4.6831      3.5321      2.7929      2.3486    
  2.1344      2.1339      2.3481      2.7932      3.5318      4.6817      6.3442      8.4716      10.775      12.765    
  10.941      10.514      9.3478      7.7506      6.0975      4.6831      3.6312      2.9141      2.4475      2.1739    
  2.0815      2.1739      2.4480      2.9142      3.6295      4.6809      6.0973      7.7523      9.3491      10.514    
  8.0161      7.4798      6.5436      5.4339      4.3816      3.5321      2.9141      2.4833      2.1959      2.0455    
  2.0456      2.1966      2.4843      2.9139      3.5301      4.3797      5.4343      6.5458      7.4818      8.0168    
  5.6351      5.1805      4.5426      3.8626      3.2613      2.7929      2.4475      2.1959      2.0319      1.9731    
  2.0320      2.1968      2.4486      2.7927      3.2597      3.8615      4.5436      5.1829      5.6369      5.8001    
  3.9334      3.6253      3.2498      2.8838      2.5799      2.3486      2.1739      2.0455      1.9731      1.9729    
  2.0453      2.1744      2.3492      2.5796      2.8828      3.2495      3.6264      3.9350      4.1070      4.1062    
  2.8187      2.6525      2.4742      2.3206      2.2093      2.1344      2.0815      2.0456      2.0320      2.0453    
  2.0813      2.1344      2.2092      2.3201      2.4735      2.6524      2.8191      2.9350      2.9760      2.9346    
  2.1346      2.0902      2.0603      2.0601      2.0896      2.1339      2.1739      2.1966      2.1968      2.1744    
  2.1344      2.0897      2.0598      2.0597      2.0896      2.1343      2.1743      2.1967      2.1967      2.1744    
  1.7619      1.8302      1.9287      2.0591      2.2081      2.3481      2.4480      2.4843      2.4486      2.3492    
  2.2092      2.0598      1.9287      1.8295      1.7612      1.7157      1.6882      1.6787      1.6883      1.7161    
  1.6422      1.8294      2.0588      2.3190      2.5793      2.7932      2.9142      2.9139      2.7927      2.5796    
  2.3201      2.0597      1.8295      1.6417      1.4969      1.3954      1.3419      1.3418      1.3954      1.4973    
  1.7609      2.0889      2.4731      2.8835      3.2616      3.5318      3.6295      3.5301      3.2597      2.8828    
  2.4735      2.0896      1.7612      1.4969      1.2987      1.1727      1.1290      1.1725      1.2985      1.4968    
  2.1338      2.6523      3.2502      3.8631      4.3815      4.6817      4.6809      4.3797      3.8615      3.2495    
  2.6524      2.1343      1.7157      1.3954      1.1727      1.0564      1.0564      1.1727      1.3952      1.7153    
  2.8188      3.6263      4.5438      5.4346      6.0974      6.3442      6.0973      5.4343      4.5436      3.6264    
  2.8191      2.1743      1.6882      1.3419      1.1290      1.0564      1.1293      1.3422      1.6881      2.1740    
  3.9343      5.1825      6.5455      7.7521      8.4715      8.4716      7.7523      6.5458      5.1829      3.9350    
  2.9350      2.1967      1.6787      1.3418      1.1725      1.1727      1.3422      1.6789      2.1966      2.9345    
  5.6369      7.4824      9.3499      10.775      11.312      10.775      9.3491      7.4818      5.6369      4.1070    
  2.9760      2.1967      1.6883      1.3954      1.2985      1.3952      1.6881      2.1966      2.9755      4.1063    
  8.0181      10.515      12.765      14.120      14.120      12.765      10.514      8.0168      5.8001      4.1062    
  2.9346      2.1744      1.7161      1.4973      1.4968      1.7153      2.1740      2.9345      4.1063      5.8008    
  14.028      16.783      18.393      18.396      16.787      14.029      10.823      7.8059      5.4083      3.7495    
  2.7169      2.1344      1.8722      1.8714      2.1332      2.7168      3.7502      5.4094      7.8078      10.825    
  16.783      19.138      20.004      19.141      16.785      13.547      10.148      7.1731      4.9569      3.5078    
  2.6521      2.2093      2.0718      2.2082      2.6517      3.5081      4.9570      7.1734      10.150      13.548    
  18.393      20.004      20.004      18.394      15.571      12.194      8.9211      6.2586      4.4005      3.2494    
  2.6071      2.3206      2.3201      2.6067      3.2499      4.4003      6.2568      8.9199      12.194      15.572    
  18.396      19.141      18.394      16.323      13.398      10.231      7.3973      5.2625      3.8624      3.0360    
  2.6075      2.4742      2.6072      3.0367      3.8634      5.2611      7.3942      10.230      13.401      16.327    
  16.787      16.785      15.571      13.398      10.720      8.0705      5.9013      4.3818      3.4337      2.8966    
  2.6528      2.6526      2.8970      3.4351      4.3820      5.8988      8.0678      10.720      13.402      15.575    
  14.029      13.547      12.194      10.231      8.0705      6.1387      4.6836      3.7198      3.1345      2.8185    
  2.7174      2.8186      3.1354      3.7205      4.6823      6.1358      8.0691      10.233      12.197      13.550    
  10.823      10.148      8.9211      7.3973      5.9013      4.6836      3.8245      3.2691      2.9337      2.7716    
  2.7718      2.9345      3.2703      3.8243      4.6814      5.8987      7.3969      8.9231      10.151      10.824    
  7.8059      7.1731      6.2586      5.2625      4.3818      3.7198      3.2691      2.9746      2.7995      2.7399    
  2.8001      2.9761      3.2707      3.7198      4.3799      5.2604      6.2582      7.1745      7.8073      8.0306    
  5.4083      4.9569      4.4005      3.8624      3.4337      3.1345      2.9337      2.7995      2.7273      2.7271    
  2.7997      2.9351      3.1365      3.4345      3.8615      4.3990      4.9564      5.4088      5.6577      5.6573    
  3.7495      3.5078      3.2494      3.0360      2.8966      2.8185      2.7716      2.7399      2.7271      2.7388    
  2.7707      2.8190      2.8982      3.0371      3.2493      3.5069      3.7489      3.9158      3.9744      3.9160    
  2.7169      2.6521      2.6071      2.6075      2.6528      2.7174      2.7718      2.8001      2.7997      2.7707    
  2.7164      2.6524      2.6078      2.6077      2.6523      2.7165      2.7709      2.7996      2.7998      2.7714    
  2.1344      2.2093      2.3206      2.4742      2.6526      2.8186      2.9345      2.9761      2.9351      2.8190    
  2.6524      2.4736      2.3201      2.2091      2.1343      2.0814      2.0453      2.0319      2.0455      2.0816    
  1.8722      2.0718      2.3201      2.6072      2.8970      3.1354      3.2703      3.2707      3.1365      2.8982    
  2.6078      2.3201      2.0714      1.8717      1.7158      1.6018      1.5393      1.5394      1.6020      1.7162    
  1.8714      2.2082      2.6067      3.0367      3.4351      3.7205      3.8243      3.7198      3.4345      3.0371    
  2.6077      2.2091      1.8717      1.6008      1.3954      1.2626      1.2160      1.2627      1.3956      1.6010    
  2.1332      2.6517      3.2499      3.8634      4.3820      4.6823      4.6814      4.3799      3.8615      3.2493    
  2.6523      2.1343      1.7158      1.3954      1.1728      1.0565      1.0565      1.1727      1.3950      1.7149    
  2.7168      3.5081      4.4003      5.2611      5.8988      6.1358      5.8987      5.2604      4.3990      3.5069    
  2.7165      2.0814      1.6018      1.2626      1.0565     0.98680      1.0565      1.2623      1.6011      2.0808    
  3.7502      4.9570      6.2568      7.3942      8.0678      8.0691      7.3969      6.2582      4.9564      3.7489    
  2.7709      2.0453      1.5393      1.2160      1.0565      1.0565      1.2159      1.5392      2.0454      2.7717    
  5.4094      7.1734      8.9199      10.230      10.720      10.233      8.9231      7.1745      5.4088      3.9158    
  2.7996      2.0319      1.5394      1.2627      1.1727      1.2623      1.5392      2.0323      2.8003      3.9167    
  7.8078      10.150      12.194      13.401      13.402      12.197      10.151      7.8073      5.6577      3.9744    
  2.7998      2.0455      1.6020      1.3956      1.3950      1.6011      2.0454      2.8003      3.9749      5.6584    
  10.825      13.548      15.572      16.327      15.575      13.550      10.824      8.0306      5.6573      3.9160    
  2.7714      2.0816      1.7162      1.6010      1.7149      2.0808      2.7717      3.9167      5.6584      8.0322    
  16.874      18.785      19.451      18.785      16.872      14.025      10.790      7.7442      5.3467      3.7498    
  2.8180      2.3486      2.2063      2.3483      2.8182      3.7502      5.3460      7.7429      10.790      14.027    
  18.785      19.997      19.996      18.782      16.443      13.323      10.014      7.0931      4.9580      3.6253    
  2.8963      2.5802      2.5802      2.8969      3.6261      4.9573      7.0904      10.011      13.324      16.446    
  19.451      19.996      19.447      17.791      15.148      11.950      8.8054      6.2596      4.5432      3.5400    
  3.0364      2.8846      3.0371      3.5417      4.5443      6.2576      8.8008      11.947      15.149      17.796    
  18.785      18.782      17.791      15.813      13.075      10.077      7.3971      5.4345      4.2097      3.5404    
  3.2505      3.2507      3.5416      4.2120      5.4356      7.3950      10.073      13.073      15.816      17.796    
  16.872      16.443      15.148      13.075      10.549      8.0691      6.0974      4.7811      4.0128      3.6260    
  3.5088      3.6258      4.0136      4.7829      6.0984      8.0682      10.547      13.074      15.149      16.445    
  14.025      13.323      11.950      10.077      8.0691      6.3441      5.1141      4.3527      3.9338      3.7503    
  3.7500      3.9333      4.3527      5.1147      6.3448      8.0691      10.077      11.949      13.323      14.025    
  10.790      10.014      8.8054      7.3971      6.0974      5.1141      4.4767      4.1059      3.9160      3.8576    
  3.9161      4.1059      4.4767      5.1143      6.0975      7.3966      8.8044      10.013      10.789      11.052    
  7.7442      7.0931      6.2596      5.4345      4.7811      4.3527      4.1059      3.9739      3.9150      3.9152    
  3.9744      4.1067      4.3539      4.7821      5.4342      6.2579      7.0912      7.7431      8.0898      8.0900    
  5.3467      4.9580      4.5432      4.2097      4.0128      3.9338      3.9160      3.9150      3.9150      3.9143    
  3.9155      3.9347      4.0152      4.2118      4.5432      4.9560      5.3445      5.6108      5.7041      5.6120    
  3.7498      3.6253      3.5400      3.5404      3.6260      3.7503      3.8576      3.9152      3.9143      3.8555    
  3.7484      3.6261      3.5426      3.5424      3.6260      3.7487      3.8557      3.9143      3.9149      3.8573    
  2.8180      2.8963      3.0364      3.2505      3.5088      3.7500      3.9161      3.9744      3.9155      3.7484    
  3.5067      3.2494      3.0371      2.8980      2.8190      2.7709      2.7388      2.7267      2.7393      2.7710    
  2.3486      2.5802      2.8846      3.2507      3.6258      3.9333      4.1059      4.1067      3.9347      3.6261    
  3.2494      2.8830      2.5796      2.3490      2.1744      2.0454      1.9727      1.9727      2.0451      2.1738    
  2.2063      2.5802      3.0371      3.5416      4.0136      4.3527      4.4767      4.3539      4.0152      3.5426    
  3.0371      2.5796      2.2057      1.9123      1.6881      1.5393      1.4859      1.5392      1.6882      1.9126    
  2.3483      2.8969      3.5417      4.2120      4.7829      5.1147      5.1143      4.7821      4.2118      3.5424    
  2.8980      2.3490      1.9123      1.5781      1.3418      1.2159      1.2161      1.3422      1.5784      1.9122    
  2.8182      3.6261      4.5443      5.4356      6.0984      6.3448      6.0975      5.4342      4.5432      3.6260    
  2.8190      2.1744      1.6881      1.3418      1.1291      1.0566      1.1293      1.3418      1.6876      2.1734    
  3.7502      4.9573      6.2576      7.3950      8.0682      8.0691      7.3966      6.2579      4.9560      3.7487    
  2.7709      2.0454      1.5393      1.2159      1.0566      1.0565      1.2157      1.5388      2.0451      2.7715    
  5.3460      7.0904      8.8008      10.073      10.547      10.077      8.8044      7.0912      5.3445      3.8557    
  2.7388      1.9727      1.4859      1.2161      1.1293      1.2157      1.4856      1.9730      2.7399      3.8576    
  7.7429      10.011      11.947      13.073      13.074      11.949      10.013      7.7431      5.6108      3.9143    
  2.7267      1.9727      1.5392      1.3422      1.3418      1.5388      1.9730      2.7274      3.9148      5.6111    
  10.790      13.324      15.149      15.816      15.149      13.323      10.789      8.0898      5.7041      3.9149    
  2.7393      2.0451      1.6882      1.5784      1.6876      2.0451      2.7399      3.9148      5.7030      8.0892    
  14.027      16.446      17.796      17.796      16.445      14.025      11.052      8.0900      5.6120      3.8573    
  2.7710      2.1738      1.9126      1.9122      2.1734      2.7715      3.8576      5.6111      8.0892      11.053    
  18.268      18.938      18.937      18.266      16.628      13.973      10.782      7.7442      5.4099      3.9338    
  3.1345      2.7935      2.7936      3.1348      3.9342      5.4099      7.7434      10.781      13.973      16.630    
  18.938      19.122      18.936      18.092      16.160      13.247      10.014      7.1753      5.1827      4.0127    
  3.4339      3.2621      3.4346      4.0135      5.1828      7.1743      10.012      13.245      16.161      18.095    
  18.937      18.936      18.560      17.333      14.997      11.950      8.9218      6.5456      5.0295      4.2097    
  3.8632      3.8636      4.2108      5.0309      6.5464      8.9210      11.947      14.994      17.333      18.563    
  18.266      18.092      17.333      15.629      13.074      10.229      7.7503      6.0291      5.0294      4.5434    
  4.4014      4.5432      5.0297      6.0309      7.7530      10.231      13.073      15.626      17.331      18.092    
  16.628      16.160      14.997      13.074      10.717      8.4674      6.7778      5.7311      5.1821      4.9580    
  4.9573      5.1803      5.7299      6.7794      8.4718      10.720      13.074      14.992      16.157      16.626    
  13.973      13.247      11.950      10.229      8.4674      7.0572      6.1391      5.6369      5.4092      5.3465    
  5.4081      5.6343      6.1368      7.0583      8.4714      10.232      11.949      13.243      13.970      14.191    
  10.782      10.014      8.9218      7.7503      6.7778      6.1391      5.8012      5.6571      5.6116      5.6120    
  5.6571      5.7994      6.1374      6.7782      7.7521      8.9225      10.013      10.781      11.156      11.156    
  7.7442      7.1753      6.5456      6.0291      5.7311      5.6369      5.6571      5.7033      5.7244      5.7043    
  5.6576      5.6366      5.7312      6.0298      6.5455      7.1740      7.7430      8.1162      8.2424      8.1167    
  5.4099      5.1827      5.0295      5.0294      5.1821      5.4092      5.6116      5.7244      5.7242      5.6108    
  5.4084      5.1826      5.0313      5.0313      5.1825      5.4084      5.6108      5.7241      5.7245      5.6121    
  3.9338      4.0127      4.2097      4.5434      4.9580      5.3465      5.6120      5.7043      5.6108      5.3443    
  4.9560      4.5434      4.2118      4.0150      3.9347      3.9157      3.9143      3.9148      3.9150      3.9162    
  3.1345      3.4339      3.8632      4.4014      4.9573      5.4081      5.6571      5.6576      5.4084      4.9560    
  4.3991      3.8617      3.4345      3.1363      2.9352      2.7998      2.7269      2.7267      2.7991      2.9336    
  2.7935      3.2621      3.8636      4.5432      5.1803      5.6343      5.7994      5.6366      5.1826      4.5434    
  3.8617      3.2599      2.7926      2.4484      2.1969      2.0321      1.9728      2.0314      2.1958      2.4479    
  2.7936      3.4346      4.2108      5.0297      5.7299      6.1368      6.1374      5.7312      5.0313      4.2118    
  3.4345      2.7926      2.3019      1.9365      1.6785      1.5392      1.5391      1.6785      1.9371      2.3030    
  3.1348      4.0135      5.0309      6.0309      6.7794      7.0583      6.7782      6.0298      5.0313      4.0150    
  3.1363      2.4484      1.9365      1.5705      1.3417      1.2625      1.3422      1.5713      1.9371      2.4480    
  3.9342      5.1828      6.5464      7.7530      8.4718      8.4714      7.7521      6.5455      5.1825      3.9347    
  2.9352      2.1969      1.6785      1.3417      1.1727      1.1728      1.3419      1.6785      2.1963      2.9344    
  5.4099      7.1743      8.9210      10.231      10.720      10.232      8.9225      7.1740      5.4084      3.9157    
  2.7998      2.0321      1.5392      1.2625      1.1728      1.2622      1.5388      2.0318      2.8002      3.9170    
  7.7434      10.012      11.947      13.073      13.074      11.949      10.013      7.7430      5.6108      3.9143    
  2.7269      1.9728      1.5391      1.3422      1.3419      1.5388      1.9728      2.7273      3.9151      5.6116    
  10.781      13.245      14.994      15.626      14.992      13.243      10.781      8.1162      5.7241      3.9148    
  2.7267      2.0314      1.6785      1.5713      1.6785      2.0318      2.7273      3.9142      5.7221      8.1147    
  13.973      16.161      17.333      17.331      16.157      13.970      11.156      8.2424      5.7245      3.9150    
  2.7991      2.1958      1.9371      1.9371      2.1963      2.8002      3.9151      5.7221      8.2391      11.155    
  16.630      18.095      18.563      18.092      16.626      14.191      11.156      8.1167      5.6121      3.9162    
  2.9336      2.4479      2.3030      2.4480      2.9344      3.9170      5.6116      8.1147      11.155      14.192    
  17.579      17.392      17.581      17.595      16.470      13.971      10.787      7.8068      5.6374      4.3525    
  3.7196      3.5325      3.7193      4.3515      5.6366      7.8081      10.790      13.973      16.469      17.592    
  17.392      17.393      17.863      17.745      16.161      13.322      10.149      7.4830      5.7313      4.7806    
  4.3817      4.3820      4.7806      5.7301      7.4823      10.150      13.324      16.161      17.743      17.863    
  17.581      17.863      18.130      17.335      15.150      12.193      9.3490      7.2612      6.0288      5.4339    
  5.2627      5.4344      6.0285      7.2608      9.3502      12.195      15.149      17.333      18.128      17.863    
  17.595      17.745      17.335      15.816      13.397      10.771      8.6300      7.2608      6.5447      6.2590    
  6.2587      6.5435      7.2593      8.6311      10.775      13.401      15.815      17.330      17.740      17.593    
  16.470      16.161      15.150      13.397      11.306      9.4508      8.1815      7.4823      7.1742      7.0926    
  7.1729      7.4790      8.1787      9.4525      11.312      13.401      15.148      16.156      16.466      16.489    
  13.971      13.322      12.193      10.771      9.4508      8.5243      8.0189      7.8063      7.7435      7.7440    
  7.8058      8.0153      8.5207      9.4512      10.775      12.196      13.323      13.970      14.210      14.211    
  10.787      10.149      9.3490      8.6300      8.1815      8.0189      8.0297      8.0878      8.1166      8.0905    
  8.0308      8.0166      8.1782      8.6285      9.3494      10.151      10.790      11.156      11.268      11.154    
  7.8068      7.4830      7.2612      7.2608      7.4823      7.8063      8.0878      8.2413      8.2426      8.0903    
  7.8075      7.4817      7.2594      7.2595      7.4819      7.8072      8.0900      8.2428      8.2417      8.0881    
  5.6374      5.7313      6.0288      6.5447      7.1742      7.7435      8.1166      8.2426      8.1165      7.7433    
  7.1742      6.5455      6.0297      5.7313      5.6366      5.6575      5.7042      5.7247      5.7040      5.6578    
  4.3525      4.7806      5.4339      6.2590      7.0926      7.7440      8.0905      8.0903      7.7433      7.0913    
  6.2581      5.4343      4.7820      4.3538      4.1069      3.9745      3.9152      3.9153      3.9744      4.1063    
  3.7196      4.3817      5.2627      6.2587      7.1729      7.8058      8.0308      7.8075      7.1742      6.2581    
  5.2606      4.3800      3.7196      3.2706      2.9763      2.8002      2.7397      2.7993      2.9748      3.2693    
  3.5325      4.3820      5.4344      6.5435      7.4790      8.0153      8.0166      7.4817      6.5455      5.4343    
  4.3800      3.5302      2.9136      2.4842      2.1968      2.0456      2.0451      2.1958      2.4838      2.9147    
  3.7193      4.7806      6.0285      7.2593      8.1787      8.5207      8.1782      7.2594      6.0297      4.7820    
  3.7196      2.9136      2.3369      1.9363      1.6880      1.6017      1.6880      1.9369      2.3382      2.9147    
  4.3515      5.7301      7.2608      8.6311      9.4525      9.4512      8.6285      7.2595      5.7313      4.3538    
  3.2706      2.4842      1.9363      1.5778      1.3953      1.3955      1.5785      1.9372      2.4843      3.2691    
  5.6366      7.4823      9.3502      10.775      11.312      10.775      9.3494      7.4819      5.6366      4.1069    
  2.9763      2.1968      1.6880      1.3953      1.2988      1.3953      1.6878      2.1965      2.9758      4.1064    
  7.8081      10.150      12.195      13.401      13.401      12.196      10.151      7.8072      5.6575      3.9745    
  2.8002      2.0456      1.6017      1.3955      1.3953      1.6011      2.0450      2.8002      3.9754      5.6589    
  10.790      13.324      15.149      15.815      15.148      13.323      10.790      8.0900      5.7042      3.9152    
  2.7397      2.0451      1.6880      1.5785      1.6878      2.0450      2.7396      3.9151      5.7039      8.0899    
  13.973      16.161      17.333      17.330      16.156      13.970      11.156      8.2428      5.7247      3.9153    
  2.7993      2.1958      1.9369      1.9372      2.1965      2.8002      3.9151      5.7225      8.2396      11.155    
  16.469      17.743      18.128      17.740      16.466      14.210      11.268      8.2417      5.7040      3.9744    
  2.9748      2.4838      2.3382      2.4843      2.9758      3.9754      5.7039      8.2396      11.266      14.210    
  17.592      17.863      17.863      17.593      16.489      14.211      11.154      8.0881      5.6578      4.1063    
  3.2693      2.9147      2.9147      3.2691      4.1064      5.6589      8.0899      11.155      14.210      16.487    
  15.768      15.770      16.868      17.594      16.627      14.021      10.822      8.0186      6.1389      5.1132    
  4.6827      4.6828      5.1120      6.1358      8.0171      10.825      14.027      16.629      17.592      16.864    
  15.770      16.518      17.862      18.094      16.444      13.547      10.516      8.1819      6.7775      6.0965    
  5.9008      6.0976      6.7768      8.1791      10.514      13.548      16.445      18.094      17.862      16.519    
  16.868      17.862      18.563      17.797      15.573      12.765      10.284      8.6303      7.7498      7.3964    
  7.3974      7.7510      8.6296      10.283      12.765      15.573      17.796      18.562      17.863      16.869    
  17.594      18.094      17.797      16.326      14.117      11.907      10.284      9.3486      8.9209      8.8048    
  8.9213      9.3477      10.282      11.908      14.120      16.327      17.795      18.091      17.594      17.255    
  16.627      16.444      15.573      14.117      12.522      11.271      10.516      10.149      10.013      10.014    
  10.149      10.513      11.269      12.523      14.120      15.575      16.444      16.626      16.489      16.490    
  14.021      13.547      12.765      11.907      11.271      10.944      10.823      10.788      10.782      10.790    
  10.824      10.941      11.267      11.905      12.766      13.550      14.026      14.192      14.212      14.189    
  10.822      10.516      10.284      10.284      10.516      10.823      11.048      11.154      11.157      11.053    
  10.825      10.514      10.279      10.280      10.515      10.825      11.052      11.157      11.155      11.047    
  8.0186      8.1819      8.6303      9.3486      10.149      10.788      11.154      11.268      11.156      10.790    
  10.151      9.3491      8.6282      8.1786      8.0168      8.0304      8.0902      8.1170      8.0881      8.0293    
  6.1389      6.7775      7.7498      8.9209      10.013      10.782      11.157      11.156      10.781      10.013    
  8.9227      7.7519      6.7780      6.1376      5.7996      5.6569      5.6120      5.6121      5.6577      5.8012    
  5.1132      6.0965      7.3964      8.8048      10.014      10.790      11.053      10.790      10.013      8.8045    
  7.3968      6.0973      5.1141      4.4768      4.1062      3.9161      3.8577      3.9165      4.1064      4.4764    
  4.6827      5.9008      7.3974      8.9213      10.149      10.824      10.825      10.151      8.9227      7.3968    
  5.8989      4.6813      3.8240      3.2703      2.9349      2.7718      2.7714      2.9338      3.2693      3.8239    
  4.6828      6.0976      7.7510      9.3477      10.513      10.941      10.514      9.3491      7.7519      6.0973    
  4.6813      3.6294      2.9138      2.4481      2.1743      2.0815      2.1735      2.4476      2.9145      3.6311    
  5.1120      6.7768      8.6296      10.282      11.269      11.267      10.279      8.6282      6.7780      5.1141    
  3.8240      2.9138      2.3017      1.9119      1.7157      1.7158      1.9123      2.3028      2.9146      3.8232    
  6.1358      8.1791      10.283      11.908      12.523      11.905      10.280      8.1786      6.1376      4.4768    
  3.2703      2.4481      1.9119      1.6008      1.4974      1.6011      1.9124      2.4483      3.2693      4.4746    
  8.0171      10.514      12.765      14.120      14.120      12.766      10.515      8.0168      5.7996      4.1062    
  2.9349      2.1743      1.7157      1.4974      1.4972      1.7153      2.1737      2.9346      4.1065      5.8003    
  10.825      13.548      15.573      16.327      15.575      13.550      10.825      8.0304      5.6569      3.9161    
  2.7718      2.0815      1.7158      1.6011      1.7153      2.0806      2.7713      3.9168      5.6588      8.0321    
  14.027      16.445      17.796      17.795      16.444      14.026      11.052      8.0902      5.6120      3.8577    
  2.7714      2.1735      1.9123      1.9124      2.1737      2.7713      3.8574      5.6117      8.0900      11.053    
  16.629      18.094      18.562      18.091      16.626      14.192      11.157      8.1170      5.6121      3.9165    
  2.9338      2.4476      2.3028      2.4483      2.9346      3.9168      5.6117      8.1153      11.155      14.191    
  17.592      17.862      17.863      17.594      16.489      14.212      11.155      8.0881      5.6577      4.1064    
  3.2693      2.9145      2.9146      3.2693      4.1065      5.6588      8.0900      11.155      14.210      16.486    
  16.864      16.519      16.869      17.255      16.490      14.189      11.047      8.0293      5.8012      4.4764    
  3.8239      3.6311      3.8232      4.4746      5.8003      8.0321      11.053      14.191      16.486      17.249    
