 vasp.6.5.1 10Mar25 (build Feb 13 2026 23:13:13) complex                        
  
 executed on             LinuxIFC date 2026.06.23  04:04:04
 running   28 mpi-ranks, with    1 threads/rank, on    1 nodes
 distrk:  each k-point on   28 cores,    1 groups
 distr:  one band on NCORE=   7 cores,    4 groups


--------------------------------------------------------------------------------------------------------


 INCAR:
   ALGO = Fast
   NELMIN = 4
   EDIFF = 1E-6
   ENCUT = 250
   PREC = Normal
   LREAL = .FALSE.
   ISMEAR = 0
   SIGMA = 0.2
   ISPIN = 1
   NSW = 0
   LWAVE = .FALSE.
   NPAR = 4
   NCORE = 7

 POTCAR:    PAW_PBE C 08Apr2002                   
 POTCAR:    PAW_PBE C 08Apr2002                   
   SHA256 =  253f7b50bb8d59471dbedb8285d89021f4a42ed1a2c5d38a03a736e69125dd95 C/POTCAR              
   COPYR  = (c) Copyright 08Apr2002 Georg Kresse                                                    
   COPYR  = This file is part of the software VASP. Any use, copying, and all other rights are regul
   COPYR  = If you do not have a valid VASP license, you may not use, copy or distribute this file. 
   VRHFIN =C: s2p2                                                                                  
   LEXCH  = PE                                                                                      
   EATOM  =   147.1560 eV,   10.8157 Ry                                                             
                                                                                                    
   TITEL  = PAW_PBE C 08Apr2002                                                                     
   LULTRA =        F    use ultrasoft PP ?                                                          
   IUNSCR =        1    unscreen: 0-lin 1-nonlin 2-no                                               
   RPACOR =    1.200    partial core radius                                                         
   POMASS =   12.011; ZVAL   =    4.000    mass and valenz                                          
   RCORE  =    1.500    outmost cutoff radius                                                       
   RWIGS  =    1.630; RWIGS  =    0.863    wigner-seitz radius (au A)                               
   ENMAX  =  400.000; ENMIN  =  300.000 eV                                                          
   ICORE  =        2    local potential                                                             
   LCOR   =        T    correct aug charges                                                         
   LPAW   =        T    paw PP                                                                      
   EAUG   =  644.873                                                                                
   DEXC   =    0.000                                                                                
   RMAX   =    1.529    core radius for proj-oper                                                   
   RAUG   =    1.300    factor for augmentation sphere                                              
   RDEP   =    1.501    radius for radial grids                                                     
   RDEPT  =    1.300    core radius for aug-charge                                                  
                                                                                                    
   Atomic configuration                                                                             
    4 entries                                                                                       
     n  l   j            E        occ.                                                              
     1  0  0.50      -273.3789   2.0000                                                             
     2  0  0.50       -13.7508   2.0000                                                             
     2  1  0.50        -5.2854   2.0000                                                             
     3  2  1.50        -5.4423   0.0000                                                             
   Description                                                                                      
     l       E           TYP  RCUT    TYP  RCUT                                                     
     0    -13.7508458     23  1.200                                                                 
     0     -8.2022199     23  1.200                                                                 
     1     -5.2854383     23  1.500                                                                 
     1     34.0145650     23  1.500                                                                 
     2     -5.4423304      7  1.500                                                                 
  local pseudopotential read in
  partial core-charges read in
  partial kinetic energy density read in
  atomic valenz-charges read in
  non local Contribution for L=           0  read in
    real space projection operators read in
  non local Contribution for L=           0  read in
    real space projection operators read in
  non local Contribution for L=           1  read in
    real space projection operators read in
  non local Contribution for L=           1  read in
    real space projection operators read in
    PAW grid and wavefunctions read in
 
   number of l-projection  operators is LMAX  =           4
   number of lm-projection operators is LMMAX =           8
 
  PAW_PBE C 08Apr2002                   :
 energy of atom  1       EATOM= -147.1560
 kinetic energy error for atom=    0.6876 (will be added to EATOM!!)
 
 
 POSCAR: C8
  positions in direct lattice
  No initial velocities read in


 exchange-correlation table for PE
   RHO(1)=    0.500       N(1)  =     2000
   RHO(2)=  100.500       N(2)  =     4000
 


--------------------------------------------------------------------------------------------------------


 ion  position               nearest neighbor table
   1  0.250  0.250  0.250-   2 1.54   2 1.54   2 1.54   2 1.54
   2  0.000  0.000  0.000-   1 1.54   1 1.54   1 1.54   1 1.54
 
  LATTYP: Found a face centered cubic cell.
 ALAT       =     3.5599999829
  
  Lattice vectors:
  
 A1 = (   2.5173001289,   0.0000000000,   0.0000000000)
 A2 = (   1.2586500645,   2.1800458606,   0.0000000000)
 A3 = (   1.2586500645,   0.7266819535,   2.0553669484)


Analysis of symmetry for initial positions (statically):
=====================================================================
 Subroutine PRICEL returns:
 Original cell was already a primitive cell.
 

 Routine SETGRP: Setting up the symmetry group for a 
 face centered cubic supercell.


 Subroutine GETGRP returns: Found 48 space group operations
 (whereof 24 operations were pure point group operations)
 out of a pool of 48 trial point group operations.


The static configuration has the point symmetry T_d .
 The point group associated with its full space group is O_h .


Analysis of symmetry for dynamics (positions and initial velocities):
=====================================================================
 Subroutine PRICEL returns:
 Original cell was already a primitive cell.
 

 Routine SETGRP: Setting up the symmetry group for a 
 face centered cubic supercell.


 Subroutine GETGRP returns: Found 48 space group operations
 (whereof 24 operations were pure point group operations)
 out of a pool of 48 trial point group operations.


The dynamic configuration has the point symmetry T_d .
 The point group associated with its full space group is O_h .


 Subroutine INISYM returns: Found 48 space group operations
 (whereof 24 operations are pure point group operations),
 and found     1 'primitive' translations


----------------------------------------------------------------------------------------

                                     Primitive cell                                     

  volume of cell :      11.2795

  direct lattice vectors                    reciprocal lattice vectors
     2.517300129  0.000000000  0.000000000     0.397251003 -0.229352973 -0.162177043
     1.258650065  2.180045861  0.000000000     0.000000000  0.458705947 -0.162177043
     1.258650065  0.726681953  2.055366948     0.000000000  0.000000000  0.486531128

  length of vectors
     2.517300129  2.517300129  2.517300129     0.486531128  0.486531128  0.486531128

  position of ions in fractional coordinates (direct lattice)
     0.250000000  0.250000000  0.250000000
     0.000000000  0.000000000  0.000000000

  ion indices of the primitive-cell ions
   primitive index   ion index
                 1           1
                 2           2

----------------------------------------------------------------------------------------

 
 
 KPOINTS: k-density: 4.0                          

Automatic generation of k-mesh.
 Grid dimensions read from file:
 generate k-points for:   10   10   10

 Generating k-lattice:

  Cartesian coordinates                     Fractional coordinates (reciprocal lattice)
     0.039725100 -0.022935297 -0.016217704     0.100000000 -0.000000000 -0.000000000
     0.000000000  0.045870595 -0.016217704     0.000000000  0.100000000 -0.000000000
     0.000000000  0.000000000  0.048653113     0.000000000  0.000000000  0.100000000

  Length of vectors
     0.048653113  0.048653113  0.048653113

  Shift w.r.t. Gamma in fractional coordinates (k-lattice)
     0.000000000  0.000000000  0.000000000

 
 Subroutine IBZKPT returns following result:
 ===========================================
 
 Found     47 irreducible k-points:
 
 Following reciprocal coordinates:
            Coordinates               Weight
  0.000000  0.000000  0.000000      1.000000
  0.100000  0.000000  0.000000      8.000000
  0.200000  0.000000  0.000000      8.000000
  0.300000  0.000000  0.000000      8.000000
  0.400000  0.000000  0.000000      8.000000
  0.500000  0.000000  0.000000      4.000000
  0.100000  0.100000  0.000000      6.000000
  0.200000  0.100000  0.000000     24.000000
  0.300000  0.100000  0.000000     24.000000
  0.400000  0.100000  0.000000     24.000000
  0.500000  0.100000  0.000000     24.000000
 -0.400000  0.100000  0.000000     24.000000
 -0.300000  0.100000  0.000000     24.000000
 -0.200000  0.100000  0.000000     24.000000
 -0.100000  0.100000  0.000000     12.000000
  0.200000  0.200000  0.000000      6.000000
  0.300000  0.200000  0.000000     24.000000
  0.400000  0.200000  0.000000     24.000000
  0.500000  0.200000  0.000000     24.000000
 -0.400000  0.200000  0.000000     24.000000
 -0.300000  0.200000  0.000000     24.000000
 -0.200000  0.200000  0.000000     12.000000
  0.300000  0.300000  0.000000      6.000000
  0.400000  0.300000  0.000000     24.000000
  0.500000  0.300000  0.000000     24.000000
 -0.400000  0.300000  0.000000     24.000000
 -0.300000  0.300000  0.000000     12.000000
  0.400000  0.400000  0.000000      6.000000
  0.500000  0.400000  0.000000     24.000000
 -0.400000  0.400000  0.000000     12.000000
  0.500000  0.500000  0.000000      3.000000
  0.300000  0.200000  0.100000     24.000000
  0.400000  0.200000  0.100000     48.000000
  0.500000  0.200000  0.100000     48.000000
 -0.400000  0.200000  0.100000     24.000000
  0.400000  0.300000  0.100000     24.000000
  0.500000  0.300000  0.100000     48.000000
 -0.400000  0.300000  0.100000     48.000000
 -0.300000  0.300000  0.100000     48.000000
 -0.200000  0.300000  0.100000     24.000000
  0.500000  0.400000  0.100000     24.000000
 -0.400000  0.400000  0.100000     48.000000
 -0.300000  0.400000  0.100000     24.000000
 -0.400000  0.500000  0.100000     12.000000
 -0.400000  0.400000  0.200000     24.000000
 -0.300000  0.400000  0.200000     24.000000
 -0.300000  0.500000  0.200000     12.000000
 
 Following cartesian coordinates:
            Coordinates               Weight
  0.000000  0.000000  0.000000      1.000000
  0.039725 -0.022935 -0.016218      8.000000
  0.079450 -0.045871 -0.032435      8.000000
  0.119175 -0.068806 -0.048653      8.000000
  0.158900 -0.091741 -0.064871      8.000000
  0.198626 -0.114676 -0.081089      4.000000
  0.039725  0.022935 -0.032435      6.000000
  0.079450 -0.000000 -0.048653     24.000000
  0.119175 -0.022935 -0.064871     24.000000
  0.158900 -0.045871 -0.081089     24.000000
  0.198626 -0.068806 -0.097306     24.000000
 -0.158900  0.137612  0.048653     24.000000
 -0.119175  0.114676  0.032435     24.000000
 -0.079450  0.091741  0.016218     24.000000
 -0.039725  0.068806  0.000000     12.000000
  0.079450  0.045871 -0.064871      6.000000
  0.119175  0.022935 -0.081089     24.000000
  0.158900 -0.000000 -0.097306     24.000000
  0.198626 -0.022935 -0.113524     24.000000
 -0.158900  0.183482  0.032435     24.000000
 -0.119175  0.160547  0.016218     24.000000
 -0.079450  0.137612  0.000000     12.000000
  0.119175  0.068806 -0.097306      6.000000
  0.158900  0.045871 -0.113524     24.000000
  0.198626  0.022935 -0.129742     24.000000
 -0.158900  0.229353  0.016218     24.000000
 -0.119175  0.206418  0.000000     12.000000
  0.158900  0.091741 -0.129742      6.000000
  0.198626  0.068806 -0.145959     24.000000
 -0.158900  0.275224  0.000000     12.000000
  0.198626  0.114676 -0.162177      3.000000
  0.119175  0.022935 -0.032435     24.000000
  0.158900 -0.000000 -0.048653     48.000000
  0.198626 -0.022935 -0.064871     48.000000
 -0.158900  0.183482  0.081089     24.000000
  0.158900  0.045871 -0.064871     24.000000
  0.198626  0.022935 -0.081089     48.000000
 -0.158900  0.229353  0.064871     48.000000
 -0.119175  0.206418  0.048653     48.000000
 -0.079450  0.183482  0.032435     24.000000
  0.198626  0.068806 -0.097306     24.000000
 -0.158900  0.275224  0.048653     48.000000
 -0.119175  0.252288  0.032435     24.000000
 -0.158900  0.321094  0.032435     12.000000
 -0.158900  0.275224  0.097306     24.000000
 -0.119175  0.252288  0.081089     24.000000
 -0.119175  0.298159  0.064871     12.000000
 


--------------------------------------------------------------------------------------------------------




 Dimension of arrays:
   k-points           NKPTS =     47   k-points in BZ     NKDIM =     47   number of bands    NBANDS=      8
   number of dos      NEDOS =    301   number of ions     NIONS =      2
   non local maximal  LDIM  =      4   non local SUM 2l+1 LMDIM =      8
   total plane-waves  NPLWV =   1000
   max r-space proj   IRMAX =      1   max aug-charges    IRDMAX=   1246
   dimension x,y,z NGX =    10 NGY =   10 NGZ =   10
   dimension x,y,z NGXF=    20 NGYF=   20 NGZF=   20
   support grid    NGXF=    20 NGYF=   20 NGZF=   20
   ions per type =               2
   NGX,Y,Z   is equivalent  to a cutoff of   6.60,  6.60,  6.60 a.u.
   NGXF,Y,Z  is equivalent  to a cutoff of  13.21, 13.21, 13.21 a.u.

 SYSTEM =  unknown system                          
 POSCAR =  C8                                      

 Startparameter for this run:
   NWRITE =      2    write-flag & timer
   PREC   = normal    normal or accurate (medium, high low for compatibility)
   ISTART =      0    job   : 0-new  1-cont  2-samecut
   ICHARG =      2    charge: 1-file 2-atom 10-const
   ISPIN  =      1    spin polarized calculation?
   LNONCOLLINEAR =      F non collinear calculations
   LSORBIT =      F    spin-orbit coupling
   INIWAV =      1    electr: 0-lowe 1-rand  2-diag
   LASPH  =      F    aspherical Exc in radial PAW
 Electronic Relaxation 1
   ENCUT  =  250.0 eV  18.37 Ry    4.29 a.u.   3.25  3.25  3.25*2*pi/ulx,y,z
   ENINI  =  250.0     initial cutoff
   ENAUG  =  644.9 eV  augmentation charge cutoff
   NELM   =     60;   NELMIN=  4; NELMDL= -5     # of ELM steps 
   EDIFF  = 0.1E-05   stopping-criterion for ELM
   LREAL  =      F    real-space projection
   NLSPLINE    = F    spline interpolate recip. space projectors
   LCOMPAT=      F    compatible to vasp.4.4
   GGA_COMPAT  = T    GGA compatible to vasp.4.4-vasp.4.6
   LMAXPAW     = -100 max onsite density
   LMAXMIX     =    2 max onsite mixed and CHGCAR
   VOSKOWN=      0    Vosko Wilk Nusair interpolation
   ROPT   =    0.00000
 Ionic relaxation
   EDIFFG = 0.1E-04   stopping-criterion for IOM
   NSW    =      0    number of steps for IOM
   NBLOCK =      1;   KBLOCK =      1    inner block; outer block 
   IBRION =     -1    ionic relax: 0-MD 1-quasi-New 2-CG
   NFREE  =      0    steps in history (QN), initial steepest desc. (CG)
   ISIF   =      2    stress and relaxation
   IWAVPR =     10    prediction:  0-non 1-charg 2-wave 3-comb
   ISYM   =      2    0-nonsym 1-usesym 2-fastsym
   LCORR  =      T    Harris-Foulkes like correction to forces

   POTIM  = 0.5000    time-step for ionic-motion
   TEIN   =    0.0    initial temperature
   TEBEG  =    0.0;   TEEND  =   0.0 temperature during run
   SMASS  =  -3.00    Nose mass-parameter (am)
   estimated Nose-frequenzy (Omega)   =  0.10E-29 period in steps = 0.13E+47 mass=  -0.145E-27a.u.
   SCALEE = 1.0000    scale energy and forces
   NPACO  =    256;   APACO  = 10.0  distance and # of slots for P.C.
   PSTRESS=    0.0 pullay stress

  Mass of Ions in am
   POMASS =  12.01
  Ionic Valenz
   ZVAL   =   4.00
  Atomic Wigner-Seitz radii
   RWIGS  =  -1.00
  virtual crystal weights 
   VCA    =   1.00
   NELECT =       8.0000    total number of electrons
   NUPDOWN=      -1.0000    fix difference up-down

 DOS related values:
   EMIN   =  10.00;   EMAX   =-10.00  energy-range for DOS
   EFERMI =   0.00;   METHOD = LEGACY      
   ISMEAR =     0;   SIGMA  =   0.20  broadening in eV -4-tet -1-fermi 0-gaus
   EFERMI_NEDOS =   21; number of points for ismear=-14 and -15

 Electronic relaxation 2 (details)
   IALGO  =     68    algorithm
   LDIAG  =      T    sub-space diagonalisation (order eigenvalues)
   LSUBROT=      F    optimize rotation matrix (better conditioning)
   LROBUST=      F    robust break criterion during scf (extrapolated energy error)
   ISEARCH=      0    line search for conjugate gradient (0, 1=use gradient)
   TURBO    =      0    0=normal 1=particle mesh
   IRESTART =      0    0=no restart 2=restart with 2 vectors
   NREBOOT  =      0    no. of reboots
   NMIN     =      0    reboot dimension
   EREF     =   0.00    reference energy to select bands
   IMIX   =      4    mixing-type and parameters
     AMIX     =   0.40;   BMIX     =  1.00
     AMIX_MAG =   1.60;   BMIX_MAG =  1.00
     AMIN     =   0.10
     WC   =   100.;   INIMIX=   1;  MIXPRE=   1;  MAXMIX= -45

 Intra band minimization:
   WEIMIN = 0.0000     energy-eigenvalue tresh-hold
   EBREAK =  0.31E-07  absolut break condition
   DEPER  =   0.30     relativ break condition  

   TIME   =   0.40     timestep for ELM

  volume/ion in A,a.u.               =       5.64        38.06
  Fermi-wavevector in a.u.,A,eV,Ry     =   1.459962  2.758928 29.000661  2.131488
  Thomas-Fermi vector in A             =   2.576467
 
 Write flags
   LWAVE        =      F    write WAVECAR
   LDOWNSAMPLE  =      F    k-point downsampling of WAVECAR
   LCHARG       =      T    write CHGCAR
   LVTOT        =      F    write LOCPOT, total local potential
   LVHAR        =      F    write LOCPOT, Hartree potential only
   WRT_POTENTIAL= false  ! write potential to hdf5 file
   LELF         =      F    write electronic localiz. function (ELF)
   LORBIT       =      0    0 simple, 1 ext, 2 COOP (PROOUT), +10 PAW based schemes


 Python interface
   PLUGINS active      =      F    recompile with -DPLUGINS to activate
 
 Dipole corrections
   LMONO      =      F    monopole corrections only (constant potential shift)
   LDIPOL     =      F    correct potential (dipole corrections)
   IDIPOL     =      0    1-x, 2-y, 3-z, 4-all directions 
   EPSILON    =  1.0000000 bulk dielectric constant
   LVACPOTAV  =      F  vacuum potentials using an averaging scheme for the charge density
   VACPOTFLAT =  0.1000000 required flatness to determine vacuum potential
 
Coulomb truncation method
  LTRUNCATE          =      F  Coulomb kernel truncation to be used

 
 Exchange correlation treatment:
   GGA     = PE    functional components
   XC_C    = 1    coefficients multiplying the functional components
   LIBXC   =     F    Libxc                    
   VOSKOWN =     0    Vosko Wilk Nusair interpolation
   LHFCALC =     F    Hartree Fock is set to
   LHFONE  =     F    Hartree Fock one center treatment
   AEXX    =    0.0000 exact exchange contribution

 Parameters of functionals:
   PE:
     No parameter
 
 Van der Waals corrections
   IVDW    =     0    specifies the selected vdW correction

 Linear response parameters
   LEPSILON=     F    determine dielectric tensor
   LRPA    =     F    only Hartree local field effects (RPA)
   LNABLA  =     F    use nabla operator in PAW spheres
   LVEL    =     F    velocity operator in full k-point grid
   CSHIFT  =0.1000    complex shift for real part using Kramers Kronig
   OMEGAMAX=  -1.0    maximum frequency
   DEG_THRESHOLD= 0.2000000E-02 threshold for treating states as degnerate
   RTIME   =   -0.100 relaxation time in fs
  (WPLASMAI=    0.000 imaginary part of plasma frequency in eV, 0.658/RTIME)
   DFIELD  = 0.0000000 0.0000000 0.0000000 field for delta impulse in time
 
  Optional k-point grid parameters
   LKPOINTS_OPT  =     F    use optional k-point grid
   KPOINTS_OPT_MODE=     1    mode for optional k-point grid
 
 Orbital magnetization related:
   ORBITALMAG=     F  switch on orbital magnetization
   LCHIMAG   =     F  perturbation theory with respect to B field
   DQ        =  0.001000  dq finite difference perturbation B field
   LLRAUG    =     F  two centre corrections for induced B field
   LBONE     =     F  B-component reconstruction in AE one-centre
   LVGVCALC  =     T  calculate vGv susceptibility
   LVGVAPPL  =     F  apply vGv susceptibility instead of pGv for G=0

 Random number generation:
   RANDOM_GENERATOR = DEFAULT
   PCG_SEED         = not used


--------------------------------------------------------------------------------------------------------


 Static calculation
 charge density and potential will be updated during run
 non-spin polarized calculation
 RMM-DIIS sequential band-by-band and
  variant of blocked Davidson during initial phase
 perform sub-space diagonalisation
    before iterative eigenvector-optimisation
 modified Broyden-mixing scheme, WC =      100.0
 initial mixing is a Kerker type mixing with AMIX =  0.4000 and BMIX =      1.0000
 Hartree-type preconditioning will be used
 using additional bands            4
 reciprocal scheme for non local part
 use partial core corrections
 calculate Harris-corrections to forces 
   (improved forces if not selfconsistent)
 use gradient corrections 
 use of overlap-Matrix (Vanderbilt PP)
 Gauss-broadening in eV      SIGMA  =   0.20


--------------------------------------------------------------------------------------------------------


  energy-cutoff  :      250.00
  volume of cell :       11.28
      direct lattice vectors                 reciprocal lattice vectors
     2.517300129  0.000000000  0.000000000     0.397251003 -0.229352973 -0.162177043
     1.258650065  2.180045861  0.000000000     0.000000000  0.458705947 -0.162177043
     1.258650065  0.726681953  2.055366948     0.000000000  0.000000000  0.486531128

  length of vectors
     2.517300129  2.517300129  2.517300129     0.486531128  0.486531128  0.486531128


 
 k-points in units of 2pi/SCALE and weight: k-density: 4.0                          
   0.00000000  0.00000000  0.00000000       0.001
   0.03972510 -0.02293530 -0.01621770       0.008
   0.07945020 -0.04587059 -0.03243541       0.008
   0.11917530 -0.06880589 -0.04865311       0.008
   0.15890040 -0.09174119 -0.06487082       0.008
   0.19862550 -0.11467649 -0.08108852       0.004
   0.03972510  0.02293530 -0.03243541       0.006
   0.07945020 -0.00000000 -0.04865311       0.024
   0.11917530 -0.02293530 -0.06487082       0.024
   0.15890040 -0.04587059 -0.08108852       0.024
   0.19862550 -0.06880589 -0.09730623       0.024
  -0.15890040  0.13761178  0.04865311       0.024
  -0.11917530  0.11467649  0.03243541       0.024
  -0.07945020  0.09174119  0.01621770       0.024
  -0.03972510  0.06880589  0.00000000       0.012
   0.07945020  0.04587059 -0.06487082       0.006
   0.11917530  0.02293530 -0.08108852       0.024
   0.15890040 -0.00000000 -0.09730623       0.024
   0.19862550 -0.02293530 -0.11352393       0.024
  -0.15890040  0.18348238  0.03243541       0.024
  -0.11917530  0.16054708  0.01621770       0.024
  -0.07945020  0.13761178  0.00000000       0.012
   0.11917530  0.06880589 -0.09730623       0.006
   0.15890040  0.04587059 -0.11352393       0.024
   0.19862550  0.02293530 -0.12974163       0.024
  -0.15890040  0.22935297  0.01621770       0.024
  -0.11917530  0.20641768  0.00000000       0.012
   0.15890040  0.09174119 -0.12974163       0.006
   0.19862550  0.06880589 -0.14595934       0.024
  -0.15890040  0.27522357  0.00000000       0.012
   0.19862550  0.11467649 -0.16217704       0.003
   0.11917530  0.02293530 -0.03243541       0.024
   0.15890040 -0.00000000 -0.04865311       0.048
   0.19862550 -0.02293530 -0.06487082       0.048
  -0.15890040  0.18348238  0.08108852       0.024
   0.15890040  0.04587059 -0.06487082       0.024
   0.19862550  0.02293530 -0.08108852       0.048
  -0.15890040  0.22935297  0.06487082       0.048
  -0.11917530  0.20641768  0.04865311       0.048
  -0.07945020  0.18348238  0.03243541       0.024
   0.19862550  0.06880589 -0.09730623       0.024
  -0.15890040  0.27522357  0.04865311       0.048
  -0.11917530  0.25228827  0.03243541       0.024
  -0.15890040  0.32109416  0.03243541       0.012
  -0.15890040  0.27522357  0.09730623       0.024
  -0.11917530  0.25228827  0.08108852       0.024
  -0.11917530  0.29815887  0.06487082       0.012
 
 k-points in reciprocal lattice and weights: k-density: 4.0                          
   0.00000000  0.00000000  0.00000000       0.001
   0.10000000  0.00000000  0.00000000       0.008
   0.20000000  0.00000000  0.00000000       0.008
   0.30000000  0.00000000  0.00000000       0.008
   0.40000000  0.00000000  0.00000000       0.008
   0.50000000  0.00000000  0.00000000       0.004
   0.10000000  0.10000000  0.00000000       0.006
   0.20000000  0.10000000  0.00000000       0.024
   0.30000000  0.10000000  0.00000000       0.024
   0.40000000  0.10000000  0.00000000       0.024
   0.50000000  0.10000000  0.00000000       0.024
  -0.40000000  0.10000000  0.00000000       0.024
  -0.30000000  0.10000000  0.00000000       0.024
  -0.20000000  0.10000000  0.00000000       0.024
  -0.10000000  0.10000000  0.00000000       0.012
   0.20000000  0.20000000  0.00000000       0.006
   0.30000000  0.20000000  0.00000000       0.024
   0.40000000  0.20000000  0.00000000       0.024
   0.50000000  0.20000000  0.00000000       0.024
  -0.40000000  0.20000000  0.00000000       0.024
  -0.30000000  0.20000000  0.00000000       0.024
  -0.20000000  0.20000000  0.00000000       0.012
   0.30000000  0.30000000  0.00000000       0.006
   0.40000000  0.30000000  0.00000000       0.024
   0.50000000  0.30000000  0.00000000       0.024
  -0.40000000  0.30000000  0.00000000       0.024
  -0.30000000  0.30000000  0.00000000       0.012
   0.40000000  0.40000000  0.00000000       0.006
   0.50000000  0.40000000  0.00000000       0.024
  -0.40000000  0.40000000  0.00000000       0.012
   0.50000000  0.50000000  0.00000000       0.003
   0.30000000  0.20000000  0.10000000       0.024
   0.40000000  0.20000000  0.10000000       0.048
   0.50000000  0.20000000  0.10000000       0.048
  -0.40000000  0.20000000  0.10000000       0.024
   0.40000000  0.30000000  0.10000000       0.024
   0.50000000  0.30000000  0.10000000       0.048
  -0.40000000  0.30000000  0.10000000       0.048
  -0.30000000  0.30000000  0.10000000       0.048
  -0.20000000  0.30000000  0.10000000       0.024
   0.50000000  0.40000000  0.10000000       0.024
  -0.40000000  0.40000000  0.10000000       0.048
  -0.30000000  0.40000000  0.10000000       0.024
  -0.40000000  0.50000000  0.10000000       0.012
  -0.40000000  0.40000000  0.20000000       0.024
  -0.30000000  0.40000000  0.20000000       0.024
  -0.30000000  0.50000000  0.20000000       0.012
 
 position of ions in fractional coordinates (direct lattice) 
   0.25000000  0.25000000  0.25000000
   0.00000000  0.00000000  0.00000000
 
 position of ions in cartesian coordinates  (Angst):
   1.25865006  0.72668195  0.51384174
   0.00000000  0.00000000  0.00000000
 


--------------------------------------------------------------------------------------------------------


 k-point     1 :   0.0000 0.0000 0.0000  plane waves:     113
 k-point     2 :   0.1000 0.0000 0.0000  plane waves:     107
 k-point     3 :   0.2000 0.0000 0.0000  plane waves:     104
 k-point     4 :   0.3000 0.0000 0.0000  plane waves:      98
 k-point     5 :   0.4000 0.0000 0.0000  plane waves:      99
 k-point     6 :   0.5000 0.0000 0.0000  plane waves:     108
 k-point     7 :   0.1000 0.1000 0.0000  plane waves:     109
 k-point     8 :   0.2000 0.1000 0.0000  plane waves:     102
 k-point     9 :   0.3000 0.1000 0.0000  plane waves:     105
 k-point    10 :   0.4000 0.1000 0.0000  plane waves:     101
 k-point    11 :   0.5000 0.1000 0.0000  plane waves:     101
 k-point    12 :  -0.4000 0.1000 0.0000  plane waves:     103
 k-point    13 :  -0.3000 0.1000 0.0000  plane waves:     100
 k-point    14 :  -0.2000 0.1000 0.0000  plane waves:     104
 k-point    15 :  -0.1000 0.1000 0.0000  plane waves:     105
 k-point    16 :   0.2000 0.2000 0.0000  plane waves:     101
 k-point    17 :   0.3000 0.2000 0.0000  plane waves:      97
 k-point    18 :   0.4000 0.2000 0.0000  plane waves:      97
 k-point    19 :   0.5000 0.2000 0.0000  plane waves:      99
 k-point    20 :  -0.4000 0.2000 0.0000  plane waves:     101
 k-point    21 :  -0.3000 0.2000 0.0000  plane waves:      99
 k-point    22 :  -0.2000 0.2000 0.0000  plane waves:      99
 k-point    23 :   0.3000 0.3000 0.0000  plane waves:     100
 k-point    24 :   0.4000 0.3000 0.0000  plane waves:     103
 k-point    25 :   0.5000 0.3000 0.0000  plane waves:     102
 k-point    26 :  -0.4000 0.3000 0.0000  plane waves:     101
 k-point    27 :  -0.3000 0.3000 0.0000  plane waves:     101
 k-point    28 :   0.4000 0.4000 0.0000  plane waves:     100
 k-point    29 :   0.5000 0.4000 0.0000  plane waves:     101
 k-point    30 :  -0.4000 0.4000 0.0000  plane waves:     102
 k-point    31 :   0.5000 0.5000 0.0000  plane waves:     108
 k-point    32 :   0.3000 0.2000 0.1000  plane waves:     100
 k-point    33 :   0.4000 0.2000 0.1000  plane waves:     100
 k-point    34 :   0.5000 0.2000 0.1000  plane waves:      99
 k-point    35 :  -0.4000 0.2000 0.1000  plane waves:     100
 k-point    36 :   0.4000 0.3000 0.1000  plane waves:      98
 k-point    37 :   0.5000 0.3000 0.1000  plane waves:     103
 k-point    38 :  -0.4000 0.3000 0.1000  plane waves:     103
 k-point    39 :  -0.3000 0.3000 0.1000  plane waves:     100
 k-point    40 :  -0.2000 0.3000 0.1000  plane waves:     100
 k-point    41 :   0.5000 0.4000 0.1000  plane waves:     102
 k-point    42 :  -0.4000 0.4000 0.1000  plane waves:     103
 k-point    43 :  -0.3000 0.4000 0.1000  plane waves:     101
 k-point    44 :  -0.4000 0.5000 0.1000  plane waves:     104
 k-point    45 :  -0.4000 0.4000 0.2000  plane waves:     105
 k-point    46 :  -0.3000 0.4000 0.2000  plane waves:     102
 k-point    47 :  -0.3000 0.5000 0.2000  plane waves:     104

 maximum and minimum number of plane-waves per node :        19       12

 maximum number of plane-waves:       113
 maximum index in each direction: 
   IXMAX=    3   IYMAX=    3   IZMAX=    3
   IXMIN=   -3   IYMIN=   -3   IZMIN=   -3


 parallel 3D FFT for wavefunctions:
    minimum data exchange during FFTs selected (reduces bandwidth)
 parallel 3D FFT for charge:
    minimum data exchange during FFTs selected (reduces bandwidth)


 total amount of memory used by VASP MPI-rank0    30151. kBytes
=======================================================================

   base                                    :      30000. kBytes
   nonl-proj                               :         60. kBytes
   fftplans                                :         18. kBytes
   grid                                    :         28. kBytes
   one-center                              :          3. kBytes
   wavefun                                 :         42. kBytes
 
     INWAV:  cpu time      0.0000: real time      0.0002
 Broyden mixing: mesh for mixing (old mesh)
   NGX =  7   NGY =  7   NGZ =  7
  (NGX  = 20   NGY  = 20   NGZ  = 20)
  gives a total of    343 points

 initial charge density was supplied:
 charge density of overlapping atoms calculated
 number of electron       8.0000000 magnetization 
 keeping initial charge density in first step


--------------------------------------------------------------------------------------------------------


 Maximum index for augmentation-charges          109 (set IRDMAX)


--------------------------------------------------------------------------------------------------------


 First call to EWALD:  gamma=   0.790
 Maximum number of real-space cells   3x   3x   3
 Maximum number of reciprocal cells   3x   3x   3

    FEWALD:  cpu time      0.0009: real time      0.0009


--------------------------------------- Ionic step        1  -------------------------------------------




--------------------------------------- Iteration      1(   1)  ---------------------------------------


    POTLOK:  cpu time      0.0025: real time      0.0026
    SETDIJ:  cpu time      0.0014: real time      0.0014
     EDDAV:  cpu time      0.0626: real time      0.0631
       DOS:  cpu time      0.0008: real time      0.0008
    --------------------------------------------
      LOOP:  cpu time      0.0673: real time      0.0679

 eigenvalue-minimisations  :   936
 total energy-change (2. order) :-0.1366015E+02  (-0.3111605E+03)
 number of electron       8.0000000 magnetization 
 augmentation part        8.0000000 magnetization 

 Free energy of the ion-electron system (eV)
  ---------------------------------------------------
  alpha Z        PSCENC =        29.13132251
  Ewald energy   TEWEN  =      -348.62358043
  -Hartree energ DENC   =       -17.48913656
  -exchange      EXHF   =         0.00000000
  -V(xc)+E(xc)   XCENC  =        27.44127340
  PAW double counting   =       217.04409276     -218.18290438
  entropy T*S    EENTRO =        -0.00073252
  eigenvalues    EBANDS =         4.08264141
  atomic energy  EATOM  =       292.93687403
  Solvation  Ediel_sol  =         0.00000000
  ---------------------------------------------------
  free energy    TOTEN  =       -13.66014979 eV

  energy without entropy =      -13.65941727  energy(sigma->0) =      -13.65978353


--------------------------------------------------------------------------------------------------------




--------------------------------------- Iteration      1(   2)  ---------------------------------------


     EDDAV:  cpu time      0.0665: real time      0.0675
       DOS:  cpu time      0.0002: real time      0.0002
    --------------------------------------------
      LOOP:  cpu time      0.0667: real time      0.0677

 eigenvalue-minimisations  :  1080
 total energy-change (2. order) :-0.5194113E+01  (-0.5070198E+01)
 number of electron       8.0000000 magnetization 
 augmentation part        8.0000000 magnetization 

 Free energy of the ion-electron system (eV)
  ---------------------------------------------------
  alpha Z        PSCENC =        29.13132251
  Ewald energy   TEWEN  =      -348.62358043
  -Hartree energ DENC   =       -17.48913656
  -exchange      EXHF   =         0.00000000
  -V(xc)+E(xc)   XCENC  =        27.44127340
  PAW double counting   =       217.04409276     -218.18290438
  entropy T*S    EENTRO =        -0.00000000
  eigenvalues    EBANDS =        -1.11220412
  atomic energy  EATOM  =       292.93687403
  Solvation  Ediel_sol  =         0.00000000
  ---------------------------------------------------
  free energy    TOTEN  =       -18.85426280 eV

  energy without entropy =      -18.85426280  energy(sigma->0) =      -18.85426280


--------------------------------------------------------------------------------------------------------




--------------------------------------- Iteration      1(   3)  ---------------------------------------


     EDDAV:  cpu time      0.0501: real time      0.0506
       DOS:  cpu time      0.0002: real time      0.0002
    --------------------------------------------
      LOOP:  cpu time      0.0503: real time      0.0508

 eigenvalue-minimisations  :   848
 total energy-change (2. order) :-0.2114436E-01  (-0.2114436E-01)
 number of electron       8.0000000 magnetization 
 augmentation part        8.0000000 magnetization 

 Free energy of the ion-electron system (eV)
  ---------------------------------------------------
  alpha Z        PSCENC =        29.13132251
  Ewald energy   TEWEN  =      -348.62358043
  -Hartree energ DENC   =       -17.48913656
  -exchange      EXHF   =         0.00000000
  -V(xc)+E(xc)   XCENC  =        27.44127340
  PAW double counting   =       217.04409276     -218.18290438
  entropy T*S    EENTRO =        -0.00000000
  eigenvalues    EBANDS =        -1.13334848
  atomic energy  EATOM  =       292.93687403
  Solvation  Ediel_sol  =         0.00000000
  ---------------------------------------------------
  free energy    TOTEN  =       -18.87540715 eV

  energy without entropy =      -18.87540715  energy(sigma->0) =      -18.87540715


--------------------------------------------------------------------------------------------------------




--------------------------------------- Iteration      1(   4)  ---------------------------------------


     EDDAV:  cpu time      0.0586: real time      0.0591
       DOS:  cpu time      0.0002: real time      0.0002
    --------------------------------------------
      LOOP:  cpu time      0.0588: real time      0.0593

 eigenvalue-minimisations  :  1000
 total energy-change (2. order) :-0.1647642E-04  (-0.1647639E-04)
 number of electron       8.0000000 magnetization 
 augmentation part        8.0000000 magnetization 

 Free energy of the ion-electron system (eV)
  ---------------------------------------------------
  alpha Z        PSCENC =        29.13132251
  Ewald energy   TEWEN  =      -348.62358043
  -Hartree energ DENC   =       -17.48913656
  -exchange      EXHF   =         0.00000000
  -V(xc)+E(xc)   XCENC  =        27.44127340
  PAW double counting   =       217.04409276     -218.18290438
  entropy T*S    EENTRO =        -0.00000000
  eigenvalues    EBANDS =        -1.13336495
  atomic energy  EATOM  =       292.93687403
  Solvation  Ediel_sol  =         0.00000000
  ---------------------------------------------------
  free energy    TOTEN  =       -18.87542363 eV

  energy without entropy =      -18.87542363  energy(sigma->0) =      -18.87542363


--------------------------------------------------------------------------------------------------------




--------------------------------------- Iteration      1(   5)  ---------------------------------------


     EDDAV:  cpu time      0.0499: real time      0.0503
       DOS:  cpu time      0.0002: real time      0.0002
    CHARGE:  cpu time      0.0020: real time      0.0021
    MIXING:  cpu time      0.0002: real time      0.0002
    --------------------------------------------
      LOOP:  cpu time      0.0523: real time      0.0528

 eigenvalue-minimisations  :   856
 total energy-change (2. order) :-0.9551229E-08  (-0.9551198E-08)
 number of electron       7.9999959 magnetization 
 augmentation part        0.1635879 magnetization 

 Broyden mixing:
  rms(total) = 0.50386E+00    rms(broyden)= 0.50265E+00
  rms(prec ) = 0.17332E+01
  weight for this iteration     100.00

 Free energy of the ion-electron system (eV)
  ---------------------------------------------------
  alpha Z        PSCENC =        29.13132251
  Ewald energy   TEWEN  =      -348.62358043
  -Hartree energ DENC   =       -17.48913656
  -exchange      EXHF   =         0.00000000
  -V(xc)+E(xc)   XCENC  =        27.44127340
  PAW double counting   =       217.04409276     -218.18290438
  entropy T*S    EENTRO =        -0.00000000
  eigenvalues    EBANDS =        -1.13336496
  atomic energy  EATOM  =       292.93687403
  Solvation  Ediel_sol  =         0.00000000
  ---------------------------------------------------
  free energy    TOTEN  =       -18.87542364 eV

  energy without entropy =      -18.87542364  energy(sigma->0) =      -18.87542364


--------------------------------------------------------------------------------------------------------




--------------------------------------- Iteration      1(   6)  ---------------------------------------


    POTLOK:  cpu time      0.0016: real time      0.0017
    SETDIJ:  cpu time      0.0011: real time      0.0011
    EDDIAG:  cpu time      0.0440: real time      0.0443
  RMM-DIIS:  cpu time      0.0161: real time      0.0162
    ORTHCH:  cpu time      0.0037: real time      0.0037
       DOS:  cpu time      0.0002: real time      0.0002
    CHARGE:  cpu time      0.0014: real time      0.0015
    MIXING:  cpu time      0.0002: real time      0.0002
    --------------------------------------------
      LOOP:  cpu time      0.0682: real time      0.0688

 eigenvalue-minimisations  :   763
 total energy-change (2. order) : 0.3548656E+00  (-0.1724465E-01)
 number of electron       7.9999960 magnetization 
 augmentation part        0.1622400 magnetization 

 Broyden mixing:
  rms(total) = 0.29285E+00    rms(broyden)= 0.29273E+00
  rms(prec ) = 0.96868E+00
  weight for this iteration     100.00

 eigenvalues of (default mixing * dielectric matrix)
  average eigenvalue GAMMA=   2.3450
  2.3450

 Free energy of the ion-electron system (eV)
  ---------------------------------------------------
  alpha Z        PSCENC =        29.13132251
  Ewald energy   TEWEN  =      -348.62358043
  -Hartree energ DENC   =       -20.91015591
  -exchange      EXHF   =         0.00000000
  -V(xc)+E(xc)   XCENC  =        27.75415695
  PAW double counting   =       355.27381346     -356.42830715
  entropy T*S    EENTRO =        -0.00000000
  eigenvalues    EBANDS =         2.34531850
  atomic energy  EATOM  =       292.93687403
  Solvation  Ediel_sol  =         0.00000000
  ---------------------------------------------------
  free energy    TOTEN  =       -18.52055805 eV

  energy without entropy =      -18.52055805  energy(sigma->0) =      -18.52055805


--------------------------------------------------------------------------------------------------------




--------------------------------------- Iteration      1(   7)  ---------------------------------------


    POTLOK:  cpu time      0.0013: real time      0.0014
    SETDIJ:  cpu time      0.0010: real time      0.0010
    EDDIAG:  cpu time      0.0331: real time      0.0333
  RMM-DIIS:  cpu time      0.0174: real time      0.0175
    ORTHCH:  cpu time      0.0036: real time      0.0036
       DOS:  cpu time      0.0002: real time      0.0002
    CHARGE:  cpu time      0.0014: real time      0.0014
    MIXING:  cpu time      0.0001: real time      0.0001
    --------------------------------------------
      LOOP:  cpu time      0.0580: real time      0.0586

 eigenvalue-minimisations  :   830
 total energy-change (2. order) : 0.1344711E+00  (-0.2789695E-01)
 number of electron       7.9999960 magnetization 
 augmentation part        0.1595046 magnetization 

 Broyden mixing:
  rms(total) = 0.46427E-01    rms(broyden)= 0.46301E-01
  rms(prec ) = 0.85780E-01
  weight for this iteration     100.00

 eigenvalues of (default mixing * dielectric matrix)
  average eigenvalue GAMMA=   2.6425
  2.2590  3.0260

 Free energy of the ion-electron system (eV)
  ---------------------------------------------------
  alpha Z        PSCENC =        29.13132251
  Ewald energy   TEWEN  =      -348.62358043
  -Hartree energ DENC   =       -25.64660147
  -exchange      EXHF   =         0.00000000
  -V(xc)+E(xc)   XCENC  =        28.20297922
  PAW double counting   =       608.28300666     -609.44075791
  entropy T*S    EENTRO =        -0.00000000
  eigenvalues    EBANDS =         6.77067045
  atomic energy  EATOM  =       292.93687403
  Solvation  Ediel_sol  =         0.00000000
  ---------------------------------------------------
  free energy    TOTEN  =       -18.38608695 eV

  energy without entropy =      -18.38608695  energy(sigma->0) =      -18.38608695


--------------------------------------------------------------------------------------------------------




--------------------------------------- Iteration      1(   8)  ---------------------------------------


    POTLOK:  cpu time      0.0011: real time      0.0013
    SETDIJ:  cpu time      0.0010: real time      0.0010
    EDDIAG:  cpu time      0.0303: real time      0.0305
  RMM-DIIS:  cpu time      0.0173: real time      0.0174
    ORTHCH:  cpu time      0.0036: real time      0.0036
       DOS:  cpu time      0.0002: real time      0.0002
    CHARGE:  cpu time      0.0014: real time      0.0014
    MIXING:  cpu time      0.0001: real time      0.0001
    --------------------------------------------
      LOOP:  cpu time      0.0550: real time      0.0555

 eigenvalue-minimisations  :   784
 total energy-change (2. order) :-0.2189298E-02  (-0.1361110E-02)
 number of electron       7.9999961 magnetization 
 augmentation part        0.1586300 magnetization 

 Broyden mixing:
  rms(total) = 0.32675E-02    rms(broyden)= 0.31745E-02
  rms(prec ) = 0.11824E-01
  weight for this iteration     100.00

 eigenvalues of (default mixing * dielectric matrix)
  average eigenvalue GAMMA=   2.0782
  2.6498  1.7924  1.7924

 Free energy of the ion-electron system (eV)
  ---------------------------------------------------
  alpha Z        PSCENC =        29.13132251
  Ewald energy   TEWEN  =      -348.62358043
  -Hartree energ DENC   =       -25.59237048
  -exchange      EXHF   =         0.00000000
  -V(xc)+E(xc)   XCENC  =        28.20487181
  PAW double counting   =       665.43258683     -666.55624856
  entropy T*S    EENTRO =        -0.00000000
  eigenvalues    EBANDS =         6.67826805
  atomic energy  EATOM  =       292.93687403
  Solvation  Ediel_sol  =         0.00000000
  ---------------------------------------------------
  free energy    TOTEN  =       -18.38827624 eV

  energy without entropy =      -18.38827624  energy(sigma->0) =      -18.38827624


--------------------------------------------------------------------------------------------------------




--------------------------------------- Iteration      1(   9)  ---------------------------------------


    POTLOK:  cpu time      0.0011: real time      0.0012
    SETDIJ:  cpu time      0.0010: real time      0.0010
    EDDIAG:  cpu time      0.0293: real time      0.0295
  RMM-DIIS:  cpu time      0.0181: real time      0.0182
    ORTHCH:  cpu time      0.0036: real time      0.0037
       DOS:  cpu time      0.0002: real time      0.0002
    CHARGE:  cpu time      0.0014: real time      0.0014
    MIXING:  cpu time      0.0001: real time      0.0001
    --------------------------------------------
      LOOP:  cpu time      0.0548: real time      0.0553

 eigenvalue-minimisations  :   827
 total energy-change (2. order) :-0.1032093E-03  (-0.1377392E-03)
 number of electron       7.9999961 magnetization 
 augmentation part        0.1584710 magnetization 

 Broyden mixing:
  rms(total) = 0.40446E-02    rms(broyden)= 0.40368E-02
  rms(prec ) = 0.80273E-02
  weight for this iteration     100.00

 eigenvalues of (default mixing * dielectric matrix)
  average eigenvalue GAMMA=   1.6823
  2.6858  1.8670  1.8670  0.3093

 Free energy of the ion-electron system (eV)
  ---------------------------------------------------
  alpha Z        PSCENC =        29.13132251
  Ewald energy   TEWEN  =      -348.62358043
  -Hartree energ DENC   =       -25.65271599
  -exchange      EXHF   =         0.00000000
  -V(xc)+E(xc)   XCENC  =        28.21018943
  PAW double counting   =       664.34420357     -665.46991042
  entropy T*S    EENTRO =        -0.00000000
  eigenvalues    EBANDS =         6.73523786
  atomic energy  EATOM  =       292.93687403
  Solvation  Ediel_sol  =         0.00000000
  ---------------------------------------------------
  free energy    TOTEN  =       -18.38837945 eV

  energy without entropy =      -18.38837945  energy(sigma->0) =      -18.38837945


--------------------------------------------------------------------------------------------------------




--------------------------------------- Iteration      1(  10)  ---------------------------------------


    POTLOK:  cpu time      0.0011: real time      0.0012
    SETDIJ:  cpu time      0.0010: real time      0.0010
    EDDIAG:  cpu time      0.0289: real time      0.0291
  RMM-DIIS:  cpu time      0.0167: real time      0.0168
    ORTHCH:  cpu time      0.0036: real time      0.0037
       DOS:  cpu time      0.0002: real time      0.0002
    CHARGE:  cpu time      0.0014: real time      0.0014
    MIXING:  cpu time      0.0001: real time      0.0002
    --------------------------------------------
      LOOP:  cpu time      0.0530: real time      0.0534

 eigenvalue-minimisations  :   792
 total energy-change (2. order) :-0.1467453E-04  (-0.1400768E-04)
 number of electron       7.9999961 magnetization 
 augmentation part        0.1584346 magnetization 

 Broyden mixing:
  rms(total) = 0.10458E-02    rms(broyden)= 0.10406E-02
  rms(prec ) = 0.39926E-02
  weight for this iteration     100.00

 eigenvalues of (default mixing * dielectric matrix)
  average eigenvalue GAMMA=   1.9477
  2.9880  2.5582  2.2151  0.9885  0.9885

 Free energy of the ion-electron system (eV)
  ---------------------------------------------------
  alpha Z        PSCENC =        29.13132251
  Ewald energy   TEWEN  =      -348.62358043
  -Hartree energ DENC   =       -25.60787121
  -exchange      EXHF   =         0.00000000
  -V(xc)+E(xc)   XCENC  =        28.20633990
  PAW double counting   =       665.55554617     -666.67904140
  entropy T*S    EENTRO =        -0.00000000
  eigenvalues    EBANDS =         6.69201630
  atomic energy  EATOM  =       292.93687403
  Solvation  Ediel_sol  =         0.00000000
  ---------------------------------------------------
  free energy    TOTEN  =       -18.38839413 eV

  energy without entropy =      -18.38839413  energy(sigma->0) =      -18.38839413


--------------------------------------------------------------------------------------------------------




--------------------------------------- Iteration      1(  11)  ---------------------------------------


    POTLOK:  cpu time      0.0011: real time      0.0012
    SETDIJ:  cpu time      0.0010: real time      0.0010
    EDDIAG:  cpu time      0.0284: real time      0.0286
  RMM-DIIS:  cpu time      0.0186: real time      0.0187
    ORTHCH:  cpu time      0.0036: real time      0.0036
       DOS:  cpu time      0.0002: real time      0.0002
    CHARGE:  cpu time      0.0014: real time      0.0014
    MIXING:  cpu time      0.0001: real time      0.0001
    --------------------------------------------
      LOOP:  cpu time      0.0544: real time      0.0548

 eigenvalue-minimisations  :   843
 total energy-change (2. order) : 0.3077298E-05  (-0.2116350E-05)
 number of electron       7.9999961 magnetization 
 augmentation part        0.1584285 magnetization 

 Broyden mixing:
  rms(total) = 0.38063E-03    rms(broyden)= 0.36757E-03
  rms(prec ) = 0.54478E-03
  weight for this iteration     100.00

 eigenvalues of (default mixing * dielectric matrix)
  average eigenvalue GAMMA=   2.3540
  4.8079  2.9055  2.4869  2.0243  0.9824  0.9168

 Free energy of the ion-electron system (eV)
  ---------------------------------------------------
  alpha Z        PSCENC =        29.13132251
  Ewald energy   TEWEN  =      -348.62358043
  -Hartree energ DENC   =       -25.62914207
  -exchange      EXHF   =         0.00000000
  -V(xc)+E(xc)   XCENC  =        28.20820225
  PAW double counting   =       665.33283166     -666.45722356
  entropy T*S    EENTRO =        -0.00000000
  eigenvalues    EBANDS =         6.71232457
  atomic energy  EATOM  =       292.93687403
  Solvation  Ediel_sol  =         0.00000000
  ---------------------------------------------------
  free energy    TOTEN  =       -18.38839105 eV

  energy without entropy =      -18.38839105  energy(sigma->0) =      -18.38839105


--------------------------------------------------------------------------------------------------------




--------------------------------------- Iteration      1(  12)  ---------------------------------------


    POTLOK:  cpu time      0.0011: real time      0.0012
    SETDIJ:  cpu time      0.0010: real time      0.0010
    EDDIAG:  cpu time      0.0282: real time      0.0284
  RMM-DIIS:  cpu time      0.0135: real time      0.0136
    ORTHCH:  cpu time      0.0036: real time      0.0036
       DOS:  cpu time      0.0002: real time      0.0002
    --------------------------------------------
      LOOP:  cpu time      0.0476: real time      0.0481

 eigenvalue-minimisations  :   642
 total energy-change (2. order) : 0.9964833E-07  (-0.2159254E-06)
 number of electron       7.9999961 magnetization 
 augmentation part        0.1584285 magnetization 

 Free energy of the ion-electron system (eV)
  ---------------------------------------------------
  alpha Z        PSCENC =        29.13132251
  Ewald energy   TEWEN  =      -348.62358043
  -Hartree energ DENC   =       -25.63033256
  -exchange      EXHF   =         0.00000000
  -V(xc)+E(xc)   XCENC  =        28.20831297
  PAW double counting   =       665.57399822     -666.69840660
  entropy T*S    EENTRO =        -0.00000000
  eigenvalues    EBANDS =         6.71342092
  atomic energy  EATOM  =       292.93687403
  Solvation  Ediel_sol  =         0.00000000
  ---------------------------------------------------
  free energy    TOTEN  =       -18.38839095 eV

  energy without entropy =      -18.38839095  energy(sigma->0) =      -18.38839095


--------------------------------------------------------------------------------------------------------




 average (electrostatic) potential at core
  the test charge radii are     0.6991
  (the norm of the test charge is              1.0000)
       1 -45.7499       2 -45.7499
 
 
 
 E-fermi :  10.7206     XC(G=0): -13.2932     alpha+bet :-17.7709

 val. band max:        9.8076245356   @ k =   0.0000   0.0000   0.0000
 cond. band min:      14.0666019175   @ k =   0.4000   0.4000   0.0000
 fundamental gap:      4.2589773819
 Fermi energy:        10.7206177264

 k-point     1 :       0.0000    0.0000    0.0000
  band No.  band energies     occupation 
      1     -11.8094      2.00000
      2       9.7960      2.00000
      3       9.7960      2.00000
      4       9.8076      2.00000
      5      15.7691      0.00000
      6      15.7691      0.00000
      7      15.7762      0.00000
      8      23.0974      0.00000

 k-point     2 :       0.1000    0.0000    0.0000
  band No.  band energies     occupation 
      1     -11.5299      2.00000
      2       8.3314      2.00000
      3       9.4370      2.00000
      4       9.4457      2.00000
      5      16.3749      0.00000
      6      16.3816      0.00000
      7      16.7475      0.00000
      8      23.3918      0.00000

 k-point     3 :       0.2000    0.0000    0.0000
  band No.  band energies     occupation 
      1     -10.7011      2.00000
      2       5.0282      2.00000
      3       8.5644      2.00000
      4       8.5724      2.00000
      5      17.6070      0.00000
      6      17.6134      0.00000
      7      17.9659      0.00000
      8      24.3362      0.00000

 k-point     4 :       0.3000    0.0000    0.0000
  band No.  band energies     occupation 
      1      -9.3367      2.00000
      2       1.5521      2.00000
      3       7.8891      2.00000
      4       7.8954      2.00000
      5      18.4293      0.00000
      6      18.4511      0.00000
      7      18.4571      0.00000
      8      25.4406      0.00000

 k-point     5 :       0.4000    0.0000    0.0000
  band No.  band energies     occupation 
      1      -7.5156      2.00000
      2      -1.6392      2.00000
      3       7.3565      2.00000
      4       7.3628      2.00000
      5      18.6042      0.00000
      6      18.7268      0.00000
      7      18.7322      0.00000
      8      25.9766      0.00000

 k-point     6 :       0.5000    0.0000    0.0000
  band No.  band energies     occupation 
      1      -6.0143      2.00000
      2      -3.6422      2.00000
      3       7.1362      2.00000
      4       7.1428      2.00000
      5      18.5475      0.00000
      6      18.5555      0.00000
      7      18.6439      0.00000
      8      26.0715      0.00000

 k-point     7 :       0.1000    0.1000    0.0000
  band No.  band energies     occupation 
      1     -11.4368      2.00000
      2       8.6190      2.00000
      3       8.6255      2.00000
      4       9.1171      2.00000
      5      15.4418      0.00000
      6      17.3193      0.00000
      7      17.3254      0.00000
      8      23.2732      0.00000

 k-point     8 :       0.2000    0.1000    0.0000
  band No.  band energies     occupation 
      1     -10.7893      2.00000
      2       6.2035      2.00000
      3       7.7124      2.00000
      4       8.6094      2.00000
      5      15.9059      0.00000
      6      18.7719      0.00000
      7      18.8082      0.00000
      8      23.3489      0.00000

 k-point     9 :       0.3000    0.1000    0.0000
  band No.  band energies     occupation 
      1      -9.6078      2.00000
      2       2.7899      2.00000
      3       6.9343      2.00000
      4       7.7047      2.00000
      5      16.8880      0.00000
      6      19.4478      0.00000
      7      19.6800      0.00000
      8      23.7354      0.00000

 k-point    10 :       0.4000    0.1000    0.0000
  band No.  band energies     occupation 
      1      -7.9296      2.00000
      2      -0.4467      2.00000
      3       6.6257      2.00000
      4       6.8405      2.00000
      5      17.6563      0.00000
      6      19.6922      0.00000
      7      19.9961      0.00000
      8      24.8105      0.00000

 k-point    11 :       0.5000    0.1000    0.0000
  band No.  band energies     occupation 
      1      -6.0617      2.00000
      2      -3.0708      2.00000
      3       6.2227      2.00000
      4       6.6540      2.00000
      5      18.0435      0.00000
      6      19.6258      0.00000
      7      19.7586      0.00000
      8      25.9980      0.00000

 k-point    12 :      -0.4000    0.1000    0.0000
  band No.  band energies     occupation 
      1      -6.6406      2.00000
      2      -2.3506      2.00000
      3       5.8657      2.00000
      4       7.0681      2.00000
      5      18.4552      0.00000
      6      19.2439      0.00000
      7      19.6826      0.00000
      8      26.0012      0.00000

 k-point    13 :      -0.3000    0.1000    0.0000
  band No.  band energies     occupation 
      1      -8.5375      2.00000
      2       0.6151      2.00000
      3       5.9659      2.00000
      4       7.8364      2.00000
      5      18.6525      0.00000
      6      18.8221      0.00000
      7      19.5493      0.00000
      8      25.1263      0.00000

 k-point    14 :      -0.2000    0.1000    0.0000
  band No.  band energies     occupation 
      1     -10.0627      2.00000
      2       3.9342      2.00000
      3       6.4792      2.00000
      4       8.7634      2.00000
      5      17.5927      0.00000
      6      18.7141      0.00000
      7      18.8342      0.00000
      8      24.1577      0.00000

 k-point    15 :      -0.1000    0.1000    0.0000
  band No.  band energies     occupation 
      1     -11.0654      2.00000
      2       7.0426      2.00000
      3       7.5365      2.00000
      4       9.4376      2.00000
      5      16.5548      0.00000
      6      17.5283      0.00000
      7      17.9592      0.00000
      8      23.6783      0.00000

 k-point    16 :       0.2000    0.2000    0.0000
  band No.  band energies     occupation 
      1     -10.3325      2.00000
      2       6.6777      2.00000
      3       6.6830      2.00000
      4       6.9333      2.00000
      5      14.7956      0.00000
      6      20.5632      0.00000
      7      20.5703      0.00000
      8      21.7630      0.00000

 k-point    17 :       0.3000    0.2000    0.0000
  band No.  band energies     occupation 
      1      -9.3265      2.00000
      2       4.0781      2.00000
      3       5.8901      2.00000
      4       6.3293      2.00000
      5      15.2282      0.00000
      6      20.7414      0.00000
      7      21.8760      0.00000
      8      21.9561      0.00000

 k-point    18 :       0.4000    0.2000    0.0000
  band No.  band energies     occupation 
      1      -7.8185      2.00000
      2       1.0013      2.00000
      3       5.2421      2.00000
      4       5.5574      2.00000
      5      16.1723      0.00000
      6      21.3060      0.00000
      7      22.2941      0.00000
      8      22.3930      0.00000

 k-point    19 :       0.5000    0.2000    0.0000
  band No.  band energies     occupation 
      1      -5.9567      2.00000
      2      -1.7608      2.00000
      3       4.1992      2.00000
      4       5.5759      2.00000
      5      16.7199      0.00000
      6      22.1649      0.00000
      7      22.2775      0.00000
      8      23.5662      0.00000

 k-point    20 :      -0.4000    0.2000    0.0000
  band No.  band energies     occupation 
      1      -5.4076      2.00000
      2      -2.4248      2.00000
      3       3.4686      2.00000
      4       6.0560      2.00000
      5      17.2952      0.00000
      6      21.3480      0.00000
      7      22.1645      0.00000
      8      25.7603      0.00000

 k-point    21 :      -0.3000    0.2000    0.0000
  band No.  band energies     occupation 
      1      -7.2342      2.00000
      2       0.1177      2.00000
      3       3.2535      2.00000
      4       6.9748      2.00000
      5      18.0880      0.00000
      6      20.2585      0.00000
      7      21.9796      0.00000
      8      24.8213      0.00000

 k-point    22 :      -0.2000    0.2000    0.0000
  band No.  band energies     occupation 
      1      -8.8866      2.00000
      2       2.8831      2.00000
      3       3.8364      2.00000
      4       7.9908      2.00000
      5      18.7972      0.00000
      6      18.8233      0.00000
      7      20.8809      0.00000
      8      23.7850      0.00000

 k-point    23 :       0.3000    0.3000    0.0000
  band No.  band energies     occupation 
      1      -8.5109      2.00000
      2       3.8011      2.00000
      3       4.9942      2.00000
      4       4.9988      2.00000
      5      14.2198      0.00000
      6      18.5879      0.00000
      7      23.7183      0.00000
      8      23.7270      0.00000

 k-point    24 :       0.4000    0.3000    0.0000
  band No.  band energies     occupation 
      1      -7.1951      2.00000
      2       1.7343      2.00000
      3       3.8652      2.00000
      4       4.5175      2.00000
      5      14.7393      0.00000
      6      17.9055      0.00000
      7      24.7583      0.00000
      8      24.8401      0.00000

 k-point    25 :       0.5000    0.3000    0.0000
  band No.  band energies     occupation 
      1      -5.4489      2.00000
      2      -0.4740      2.00000
      3       2.2965      2.00000
      4       4.5241      2.00000
      5      15.4749      0.00000
      6      19.5635      0.00000
      7      24.9151      0.00000
      8      24.9989      0.00000

 k-point    26 :      -0.4000    0.3000    0.0000
  band No.  band energies     occupation 
      1      -4.0935      2.00000
      2      -1.9123      2.00000
      3       1.1458      2.00000
      4       4.9892      2.00000
      5      16.0604      0.00000
      6      22.8425      0.00000
      7      23.9802      0.00000
      8      24.9369      0.00000

 k-point    27 :      -0.3000    0.3000    0.0000
  band No.  band energies     occupation 
      1      -5.5316      2.00000
      2      -0.3794      2.00000
      3       0.9540      2.00000
      4       5.8613      2.00000
      5      16.9506      0.00000
      6      22.3841      0.00000
      7      24.6121      0.00000
      8      24.7565      0.00000

 k-point    28 :       0.4000    0.4000    0.0000
  band No.  band energies     occupation 
      1      -6.0493      2.00000
      2       0.3328      2.00000
      3       3.9252      2.00000
      4       3.9295      2.00000
      5      14.0666      0.00000
      6      16.0543      0.00000
      7      26.7497      0.00000
      8      26.7552      0.00000

 k-point    29 :       0.5000    0.4000    0.0000
  band No.  band energies     occupation 
      1      -4.4645      2.00000
      2      -1.3251      2.00000
      3       2.7826      2.00000
      4       3.8195      2.00000
      5      14.7176      0.00000
      6      16.2109      0.00000
      7      27.1365      0.00000
      8      27.1552      0.00000

 k-point    30 :      -0.4000    0.4000    0.0000
  band No.  band energies     occupation 
      1      -2.9994      2.00000
      2      -2.3759      2.00000
      3       1.0243      2.00000
      4       4.1836      2.00000
      5      15.2274      0.00000
      6      19.0096      0.00000
      7      26.1071      0.00000
      8      26.6070      0.00000

 k-point    31 :       0.5000    0.5000    0.0000
  band No.  band energies     occupation 
      1      -3.0455      2.00000
      2      -3.0454      2.00000
      3       3.4761      2.00000
      4       3.4813      2.00000
      5      14.6063      0.00000
      6      14.6065      0.00000
      7      27.7233      0.00000
      8      27.7345      0.00000

 k-point    32 :       0.3000    0.2000    0.1000
  band No.  band energies     occupation 
      1      -9.9677      2.00000
      2       4.8931      2.00000
      3       5.6485      2.00000
      4       8.0496      2.00000
      5      16.2963      0.00000
      6      19.8311      0.00000
      7      20.4846      0.00000
      8      22.6406      0.00000

 k-point    33 :       0.4000    0.2000    0.1000
  band No.  band energies     occupation 
      1      -8.6183      2.00000
      2       1.9573      2.00000
      3       4.7906      2.00000
      4       7.1293      2.00000
      5      17.4345      0.00000
      6      19.8479      0.00000
      7      21.6450      0.00000
      8      22.8638      0.00000

 k-point    34 :       0.5000    0.2000    0.1000
  band No.  band energies     occupation 
      1      -6.8265      2.00000
      2      -1.0501      2.00000
      3       4.5605      2.00000
      4       6.2880      2.00000
      5      18.1872      0.00000
      6      19.4752      0.00000
      7      22.1305      0.00000
      8      24.5115      0.00000

 k-point    35 :      -0.4000    0.2000    0.1000
  band No.  band energies     occupation 
      1      -5.3551      2.00000
      2      -2.9589      2.00000
      3       4.5486      2.00000
      4       5.8954      2.00000
      5      18.3837      0.00000
      6      19.2381      0.00000
      7      22.2599      0.00000
      8      25.8302      0.00000

 k-point    36 :       0.4000    0.3000    0.1000
  band No.  band energies     occupation 
      1      -8.1676      2.00000
      2       2.7801      2.00000
      3       4.0585      2.00000
      4       5.6099      2.00000
      5      15.7820      0.00000
      6      19.7200      0.00000
      7      22.3715      0.00000
      8      23.8881      0.00000

 k-point    37 :       0.5000    0.3000    0.1000
  band No.  band energies     occupation 
      1      -6.5349      2.00000
      2       0.3650      2.00000
      3       3.1335      2.00000
      4       4.6875      2.00000
      5      16.8809      0.00000
      6      20.3478      0.00000
      7      22.0582      0.00000
      8      24.8500      0.00000

 k-point    38 :      -0.4000    0.3000    0.1000
  band No.  band energies     occupation 
      1      -4.7450      2.00000
      2      -1.9132      2.00000
      3       2.4771      2.00000
      4       4.5176      2.00000
      5      17.4643      0.00000
      6      21.2522      0.00000
      7      23.2138      0.00000
      8      24.8923      0.00000

 k-point    39 :      -0.3000    0.3000    0.1000
  band No.  band energies     occupation 
      1      -5.3115      2.00000
      2      -1.1827      2.00000
      3       2.0043      2.00000
      4       5.1568      2.00000
      5      18.1661      0.00000
      6      20.5953      0.00000
      7      23.8391      0.00000
      8      25.0877      0.00000

 k-point    40 :      -0.2000    0.3000    0.1000
  band No.  band energies     occupation 
      1      -7.1366      2.00000
      2       1.1128      2.00000
      3       2.3205      2.00000
      4       6.1361      2.00000
      5      19.0880      0.00000
      6      19.1627      0.00000
      7      22.6609      0.00000
      8      23.9133      0.00000

 k-point    41 :       0.5000    0.4000    0.1000
  band No.  band energies     occupation 
      1      -5.7388      2.00000
      2       0.2350      2.00000
      3       3.0510      2.00000
      4       3.5566      2.00000
      5      15.5962      0.00000
      6      17.4140      0.00000
      7      24.8917      0.00000
      8      26.5407      0.00000

 k-point    42 :      -0.4000    0.4000    0.1000
  band No.  band energies     occupation 
      1      -3.9625      2.00000
      2      -1.3319      2.00000
      3       1.4641      2.00000
      4       3.4315      2.00000
      5      16.5555      0.00000
      6      19.2682      0.00000
      7      24.4192      0.00000
      8      26.2111      0.00000

 k-point    43 :      -0.3000    0.4000    0.1000
  band No.  band energies     occupation 
      1      -3.6679      2.00000
      2      -1.4962      2.00000
      3       0.5037      2.00000
      4       4.1078      2.00000
      5      17.2077      0.00000
      6      22.6483      0.00000
      7      23.4345      0.00000
      8      24.5980      0.00000

 k-point    44 :      -0.4000    0.5000    0.1000
  band No.  band energies     occupation 
      1      -2.8215      2.00000
      2      -2.8214      2.00000
      3       2.8228      2.00000
      4       2.8263      2.00000
      5      16.0810      0.00000
      6      16.0824      0.00000
      7      26.7967      0.00000
      8      26.8053      0.00000

 k-point    45 :      -0.4000    0.4000    0.2000
  band No.  band energies     occupation 
      1      -4.8495      2.00000
      2      -0.4197      2.00000
      3       1.4845      2.00000
      4       3.4369      2.00000
      5      19.0706      0.00000
      6      19.9680      0.00000
      7      21.8335      0.00000
      8      25.7171      0.00000

 k-point    46 :      -0.3000    0.4000    0.2000
  band No.  band energies     occupation 
      1      -3.4777      2.00000
      2      -1.6257      2.00000
      3       1.1905      2.00000
      4       2.8787      2.00000
      5      19.6052      0.00000
      6      20.7243      0.00000
      7      23.3089      0.00000
      8      23.5631      0.00000

 k-point    47 :      -0.3000    0.5000    0.2000
  band No.  band energies     occupation 
      1      -2.3574      2.00000
      2      -2.3573      2.00000
      3       1.6871      2.00000
      4       1.6900      2.00000
      5      19.4379      0.00000
      6      19.4409      0.00000
      7      23.8449      0.00000
      8      23.8500      0.00000


--------------------------------------------------------------------------------------------------------


 soft charge-density along one line, spin component           1
         0         1         2         3         4         5         6         7         8         9
 total charge-density along one line
 
 pseudopotential strength for first ion, spin component:           1
  9.422  12.512   0.000   0.000   0.000  -0.000  -0.000  -0.000
 12.512  16.615   0.000   0.000   0.000  -0.000  -0.000  -0.000
  0.000   0.000  -3.697  -0.000  -0.000   7.247   0.000   0.000
  0.000   0.000  -0.000  -3.697  -0.000   0.000   7.247   0.000
  0.000   0.000  -0.000  -0.000  -3.697   0.000   0.000   7.247
 -0.000  -0.000   7.247   0.000   0.000 -16.304  -0.000  -0.000
 -0.000  -0.000   0.000   7.247   0.000  -0.000 -16.304  -0.000
 -0.000  -0.000   0.000   0.000   7.247  -0.000  -0.000 -16.304
 total augmentation occupancy for first ion, spin component:           1
  4.835  -1.996   0.000   0.000   0.000   0.000  -0.000  -0.000
 -1.996   1.083  -0.000  -0.000   0.000  -0.000  -0.000   0.000
  0.000  -0.000   1.772  -0.000   0.000   0.217  -0.000   0.000
  0.000  -0.000  -0.000   1.772   0.000  -0.000   0.217   0.000
  0.000   0.000   0.000   0.000   1.772   0.000   0.000   0.217
  0.000  -0.000   0.217  -0.000   0.000   0.028  -0.000   0.000
 -0.000  -0.000  -0.000   0.217   0.000  -0.000   0.028   0.000
 -0.000   0.000   0.000   0.000   0.217   0.000   0.000   0.028


------------------------ aborting loop because EDIFF is reached ----------------------------------------


    CHARGE:  cpu time      0.0014: real time      0.0014
    FORLOC:  cpu time      0.0001: real time      0.0001
    FORNL :  cpu time      0.0011: real time      0.0011
    STRESS:  cpu time      0.0056: real time      0.0057
    FORCOR:  cpu time      0.0008: real time      0.0008
    FORHAR:  cpu time      0.0003: real time      0.0003
    MIXING:  cpu time      0.0001: real time      0.0002
    OFIELD:  cpu time      0.0000: real time      0.0000

  FORCE on cell =-STRESS in cart. coord.  units (eV):
  Direction    XX          YY          ZZ          XY          YZ          ZX
  --------------------------------------------------------------------------------------
  Alpha Z    29.13132    29.13132    29.13132
  Ewald    -116.20791  -116.20791  -116.20791    -0.00000     0.00000    -0.00000
  Hartree     8.54221     8.54221     8.54221     0.00000     0.00000     0.00000
  E(xc)     -30.43365   -30.43365   -30.43365    -0.00000    -0.00000    -0.00000
  Local     -13.87549   -13.87504   -13.87493    -0.00039    -0.00006    -0.00010
  n-local    -6.63751    -6.41990    -7.08263    -0.71726    -0.09810     0.29330
  augment    -0.58895    -0.58898    -0.58899     0.00003     0.00001     0.00002
  Kinetic   124.55426   126.29691   129.98721     5.44354     1.95202     0.75199
  Fock        0.00000     0.00000     0.00000     0.00000     0.00000     0.00000
  -------------------------------------------------------------------------------------
  Total      -3.19937    -3.19937    -3.19937    -0.00000     0.00000    -0.00000
  in kB    -454.44959  -454.44959  -454.44959    -0.00000     0.00000    -0.00000
  external pressure =     -454.45 kB  Pullay stress =        0.00 kB


 VOLUME and BASIS-vectors are now :
 -----------------------------------------------------------------------------
  energy-cutoff  :      250.00
  volume of cell :       11.28
      direct lattice vectors                 reciprocal lattice vectors
     2.517300129  0.000000000  0.000000000     0.397251003 -0.229352973 -0.162177043
     1.258650065  2.180045861  0.000000000     0.000000000  0.458705947 -0.162177043
     1.258650065  0.726681953  2.055366948     0.000000000  0.000000000  0.486531128

  length of vectors
     2.517300129  2.517300129  2.517300129     0.486531128  0.486531128  0.486531128


 FORCES acting on ions
    electron-ion (+dipol)            ewald-force                    non-local-force                 convergence-correction
 -----------------------------------------------------------------------------------------------
   -.532E-04 -.307E-04 -.889E-04   -.514E-08 0.327E-08 -.272E-08   -.108E-15 -.230E-16 -.383E-16   -.102E-06 -.591E-07 -.419E-07
   0.532E-04 0.307E-04 0.889E-04   0.514E-08 -.327E-08 0.272E-08   0.948E-16 0.328E-16 0.435E-16   0.102E-06 0.591E-07 0.419E-07
 -----------------------------------------------------------------------------------------------
   0.732E-14 0.226E-13 0.369E-13   -.598E-16 0.887E-16 0.222E-15   -.136E-16 0.972E-17 0.522E-17   0.360E-14 0.202E-14 0.135E-13
 
 
 POSITION                                       TOTAL-FORCE (eV/Angst)
 -----------------------------------------------------------------------------------
      1.25865      0.72668      0.51384         0.000000     -0.000000      0.000000
      0.00000      0.00000      0.00000        -0.000000      0.000000     -0.000000
 -----------------------------------------------------------------------------------
    total drift:                                0.000000      0.000000      0.000000


--------------------------------------------------------------------------------------------------------



  FREE ENERGIE OF THE ION-ELECTRON SYSTEM (eV)
  ---------------------------------------------------
  free  energy   TOTEN  =       -18.38839095 eV

  energy  without entropy=      -18.38839095  energy(sigma->0) =      -18.38839095
 


--------------------------------------------------------------------------------------------------------


    POTLOK:  cpu time      0.0022: real time      0.0022


--------------------------------------------------------------------------------------------------------


     LOOP+:  cpu time      0.7078: real time      0.7187
    4ORBIT:  cpu time      0.0000: real time      0.0000

 total amount of memory used by VASP MPI-rank0    30151. kBytes
=======================================================================

   base                                    :      30000. kBytes
   nonl-proj                               :         60. kBytes
   fftplans                                :         18. kBytes
   grid                                    :         28. kBytes
   one-center                              :          3. kBytes
   wavefun                                 :         42. kBytes
 
  
  
 General timing and accounting informations for this job:
 ========================================================
  
                  Total CPU time used (sec):        1.142
                            User time (sec):        0.824
                          System time (sec):        0.318
                         Elapsed time (sec):        1.642
  
                   Maximum memory used (kb):      168516.
                   Average memory used (kb):          N/A
  
                          Minor page faults:         9809
                          Major page faults:           60
                 Voluntary context switches:         1217
