  215  215    1    2
  0.5731707E+01  0.1072114E-08  0.1072114E-08  0.1072114E-08  0.5000000E-15
  1.000000000000000E-004
  CAR 
 unknown system                          
    862      1    540
 
  0.1276756E-14  0.1276756E-14  0.1276756E-14  0.1000000E+01
      1        -11.910872      -11.898630   1.000000   1.000000
      2        -11.243013      -11.198486   1.000000   1.000000
      3        -10.875789      -10.873052   1.000000   1.000000
      4        -10.875789      -10.873052   1.000000   1.000000
      5        -10.820881      -10.815145   1.000000   1.000000
      6        -10.820881      -10.815145   1.000000   1.000000
      7        -10.754866      -10.742659   1.000000   1.000000
      8        -10.331329      -10.303945   1.000000   1.000000
      9         -9.886099       -9.882918   1.000000   1.000000
     10         -9.886099       -9.882918   1.000000   1.000000
     11         -9.865414       -9.863201   1.000000   1.000000
     12         -9.865414       -9.863201   1.000000   1.000000
     13         -9.842615       -9.839166   1.000000   1.000000
     14         -9.826191       -9.821710   1.000000   1.000000
     15         -9.818193       -9.812814   1.000000   1.000000
     16         -9.818193       -9.812814   1.000000   1.000000
     17         -9.758954       -9.745336   1.000000   1.000000
     18         -9.758954       -9.745336   1.000000   1.000000
     19         -9.604807       -9.583250   1.000000   1.000000
     20         -9.157378       -9.139505   1.000000   1.000000
     21         -8.851172       -8.845969   1.000000   1.000000
     22         -8.851172       -8.844656   1.000000   1.000000
     23         -8.850576       -8.844656   1.000000   1.000000
     24         -8.814512       -8.807479   1.000000   1.000000
     25         -8.812435       -8.799858   1.000000   1.000000
     26         -8.812435       -8.799858   1.000000   1.000000
     27         -8.653583       -8.631626   1.000000   1.000000
     28         -8.099385       -8.073787   1.000000   1.000000
     29         -7.863985       -7.858221   1.000000   1.000000
     30         -7.863985       -7.858221   1.000000   1.000000
     31         -7.836844       -7.828869   1.000000   1.000000
     32         -7.836844       -7.828869   1.000000   1.000000
     33         -7.784670       -7.777104   1.000000   1.000000
     34         -7.518302       -7.493699   1.000000   1.000000
     35         -7.007262       -6.999922   1.000000   1.000000
     36         -7.007262       -6.999922   1.000000   1.000000
     37         -6.971438       -6.968778   1.000000   1.000000
     38         -6.971438       -6.968778   1.000000   1.000000
     39         -6.962328       -6.961492   1.000000   1.000000
     40         -6.951286       -6.947398   1.000000   1.000000
     41         -6.951286       -6.947398   1.000000   1.000000
     42         -6.948657       -6.946101   1.000000   1.000000
     43         -6.942046       -6.939590   1.000000   1.000000
     44         -6.942046       -6.939387   1.000000   1.000000
     45         -6.941958       -6.939387   1.000000   1.000000
     46         -6.917465       -6.915821   1.000000   1.000000
     47         -6.915623       -6.911781   1.000000   1.000000
     48         -6.915623       -6.911781   1.000000   1.000000
     49         -6.888435       -6.879340   1.000000   1.000000
     50         -6.888435       -6.879340   1.000000   1.000000
     51         -6.870072       -6.861604   1.000000   1.000000
     52         -6.868836       -6.860994   1.000000   1.000000
     53         -6.868836       -6.859079   1.000000   1.000000
     54         -6.866414       -6.859079   1.000000   1.000000
     55         -6.784203       -6.763832   1.000000   1.000000
     56         -6.784203       -6.763832   1.000000   1.000000
     57         -6.626834       -6.614950   1.000000   1.000000
     58         -6.449245       -6.440281   1.000000   1.000000
     59         -6.235290       -6.230570   1.000000   1.000000
     60         -6.235290       -6.230570   1.000000   1.000000
     61         -6.179829       -6.176260   1.000000   1.000000
     62         -6.173393       -6.169143   1.000000   1.000000
     63         -6.173393       -6.169143   1.000000   1.000000
     64         -6.162607       -6.157639   1.000000   1.000000
     65         -6.159394       -6.154573   1.000000   1.000000
     66         -6.159364       -6.154510   1.000000   1.000000
     67         -6.159364       -6.154510   1.000000   1.000000
     68         -6.134500       -6.130517   1.000000   1.000000
     69         -6.134500       -6.130517   1.000000   1.000000
     70         -6.119048       -6.113193   1.000000   1.000000
     71         -6.119048       -6.113193   1.000000   1.000000
     72         -6.111654       -6.103124   1.000000   1.000000
     73         -6.091033       -6.086148   1.000000   1.000000
     74         -6.091033       -6.086148   1.000000   1.000000
     75         -6.051650       -6.041748   1.000000   1.000000
     76         -6.048818       -6.037597   1.000000   1.000000
     77         -6.048818       -6.037597   1.000000   1.000000
     78         -6.008647       -5.997670   1.000000   1.000000
     79         -5.883137       -5.830154   1.000000   1.000000
     80         -5.883137       -5.830154   1.000000   1.000000
     81         -5.245922       -5.191934   1.000000   1.000000
     82         -4.681970       -4.668163   1.000000   1.000000
     83         -4.517555       -4.512199   1.000000   1.000000
     84         -4.517555       -4.512199   1.000000   1.000000
     85         -4.461840       -4.452618   1.000000   1.000000
     86         -4.461840       -4.452618   1.000000   1.000000
     87         -4.453013       -4.447837   1.000000   1.000000
     88         -4.448421       -4.441683   1.000000   1.000000
     89         -4.448421       -4.441683   1.000000   1.000000
     90         -4.438399       -4.433497   1.000000   1.000000
     91         -4.385882       -4.359738   1.000000   1.000000
     92         -4.385882       -4.359738   1.000000   1.000000
     93         -4.044262       -3.991945   1.000000   1.000000
     94         -3.262763       -3.246734   1.000000   1.000000
     95         -3.208931       -3.203928   1.000000   1.000000
     96         -3.208931       -3.203928   1.000000   1.000000
     97         -3.177671       -3.171251   1.000000   1.000000
     98         -3.177671       -3.171251   1.000000   1.000000
     99         -3.136096       -3.129957   1.000000   1.000000
    100         -2.947007       -2.921822   1.000000   1.000000
    101         -2.803704       -2.794844   1.000000   1.000000
    102         -2.803704       -2.794844   1.000000   1.000000
    103         -2.704120       -2.703498   1.000000   1.000000
    104         -2.704120       -2.701783   1.000000   1.000000
    105         -2.703964       -2.701783   1.000000   1.000000
    106         -2.693725       -2.691248   1.000000   1.000000
    107         -2.693725       -2.691248   1.000000   1.000000
    108         -2.690465       -2.687031   1.000000   1.000000
    109         -2.686304       -2.680928   1.000000   1.000000
    110         -2.686304       -2.680928   1.000000   1.000000
    111         -2.674494       -2.672634   1.000000   1.000000
    112         -2.644946       -2.642049   1.000000   1.000000
    113         -2.644946       -2.642049   1.000000   1.000000
    114         -2.626978       -2.620153   1.000000   1.000000
    115         -2.601481       -2.591783   1.000000   1.000000
    116         -2.577648       -2.568766   1.000000   1.000000
    117         -2.577648       -2.568766   1.000000   1.000000
    118         -2.561935       -2.551438   1.000000   1.000000
    119         -2.561935       -2.551438   1.000000   1.000000
    120         -2.546231       -2.541444   1.000000   1.000000
    121         -2.527353       -2.515086   1.000000   1.000000
    122         -2.527353       -2.515086   1.000000   1.000000
    123         -2.515208       -2.510899   1.000000   1.000000
    124         -2.485207       -2.480023   1.000000   1.000000
    125         -2.485207       -2.480023   1.000000   1.000000
    126         -2.484017       -2.474869   1.000000   1.000000
    127         -2.463714       -2.459841   1.000000   1.000000
    128         -2.455004       -2.450321   1.000000   1.000000
    129         -2.455004       -2.450321   1.000000   1.000000
    130         -2.451245       -2.449211   1.000000   1.000000
    131         -2.443135       -2.434701   1.000000   1.000000
    132         -2.440845       -2.434701   1.000000   1.000000
    133         -2.440845       -2.433777   1.000000   1.000000
    134         -2.417293       -2.413497   1.000000   1.000000
    135         -2.417293       -2.413497   1.000000   1.000000
    136         -2.393457       -2.387774   1.000000   1.000000
    137         -2.393457       -2.387774   1.000000   1.000000
    138         -2.383814       -2.377980   1.000000   1.000000
    139         -2.379711       -2.374446   1.000000   1.000000
    140         -2.379711       -2.374445   1.000000   1.000000
    141         -2.377805       -2.359249   1.000000   1.000000
    142         -2.377805       -2.359249   1.000000   1.000000
    143         -2.359828       -2.329260   1.000000   1.000000
    144         -2.164875       -2.144935   1.000000   1.000000
    145         -2.025319       -1.984818   1.000000   1.000000
    146         -2.025319       -1.984818   1.000000   1.000000
    147         -1.652653       -1.632830   1.000000   1.000000
    148         -1.413021       -1.405189   1.000000   1.000000
    149         -1.413021       -1.405189   1.000000   1.000000
    150         -1.407954       -1.388151   1.000000   1.000000
    151         -1.352922       -1.348935   1.000000   1.000000
    152         -1.352922       -1.348935   1.000000   1.000000
    153         -1.349670       -1.345762   1.000000   1.000000
    154         -1.340903       -1.333190   1.000000   1.000000
    155         -1.318023       -1.311975   1.000000   1.000000
    156         -1.318023       -1.311975   1.000000   1.000000
    157         -1.173252       -1.122732   1.000000   1.000000
    158         -1.173252       -1.122732   1.000000   1.000000
    159         -0.239750       -0.172605   1.000000   1.000000
    160          0.070049        0.082639   1.000000   1.000000
    161          0.070049        0.082639   1.000000   1.000000
    162          0.123683        0.136773   1.000000   1.000000
    163          0.188355        0.196161   1.000000   1.000000
    164          0.199401        0.205478   1.000000   1.000000
    165          0.201980        0.206665   1.000000   1.000000
    166          0.201980        0.206665   1.000000   1.000000
    167          0.205443        0.207837   1.000000   1.000000
    168          0.205443        0.207837   1.000000   1.000000
    169          0.217879        0.220541   1.000000   1.000000
    170          0.219436        0.226022   1.000000   1.000000
    171          0.232723        0.239694   1.000000   1.000000
    172          0.237641        0.241880   1.000000   1.000000
    173          0.237641        0.241881   1.000000   1.000000
    174          0.260995        0.268821   1.000000   1.000000
    175          0.260995        0.268821   1.000000   1.000000
    176          0.366506        0.380353   1.000000   1.000000
    177          0.366506        0.380353   1.000000   1.000000
    178          0.370561        0.383715   1.000000   1.000000
    179          0.410991        0.428868   1.000000   1.000000
    180          0.720478        0.731298   1.000000   1.000000
    181          0.720479        0.731298   1.000000   1.000000
    182          0.765486        0.789864   1.000000   1.000000
    183          0.846143        0.848521   1.000000   1.000000
    184          0.855555        0.858048   1.000000   1.000000
    185          0.855555        0.858048   1.000000   1.000000
    186          0.857989        0.859494   1.000000   1.000000
    187          0.860072        0.865070   1.000000   1.000000
    188          0.860072        0.865070   1.000000   1.000000
    189          0.868216        0.874189   1.000000   1.000000
    190          0.868216        0.874189   1.000000   1.000000
    191          0.880913        0.888478   1.000000   1.000000
    192          0.885981        0.896786   1.000000   1.000000
    193          0.892090        0.896786   1.000000   1.000000
    194          0.892090        0.898746   1.000000   1.000000
    195          0.892232        0.900453   1.000000   1.000000
    196          0.892232        0.900453   1.000000   1.000000
    197          0.907990        0.918935   1.000000   1.000000
    198          0.931251        0.940963   1.000000   1.000000
    199          0.931251        0.940963   1.000000   1.000000
    200          0.938127        0.945817   1.000000   1.000000
    201          1.147757        1.196675   1.000000   1.000000
    202          1.147757        1.196675   1.000000   1.000000
    203          1.594055        1.606802   1.000000   1.000000
    204          1.594055        1.606802   1.000000   1.000000
    205          1.651672        1.668606   1.000000   1.000000
    206          1.717580        1.719522   1.000000   1.000000
    207          1.717580        1.719522   1.000000   1.000000
    208          1.718187        1.722888   1.000000   1.000000
    209          1.722582        1.725105   1.000000   1.000000
    210          1.722582        1.725584   1.000000   1.000000
    211          1.723382        1.725584   1.000000   1.000000
    212          1.738055        1.739774   1.000000   1.000000
    213          1.742911        1.746715   1.000000   1.000000
    214          1.742911        1.746715   1.000000   1.000000
    215          1.766180        1.769869   1.000000   1.000000
    216          1.766180        1.769869   1.000000   1.000000
    217          1.817428        1.823657   1.000000   1.000000
    218          1.817428        1.823657   1.000000   1.000000
    219          1.826119        1.832816   1.000000   1.000000
    220          1.838644        1.848487   1.000000   1.000000
    221          1.848748        1.854860   1.000000   1.000000
    222          1.875644        1.887306   1.000000   1.000000
    223          1.875644        1.887306   1.000000   1.000000
    224          1.910508        1.922632   1.000000   1.000000
    225          1.945548        1.954255   1.000000   1.000000
    226          1.945548        1.954255   1.000000   1.000000
    227          2.014198        2.046864   1.000000   1.000000
    228          2.121965        2.130736   1.000000   1.000000
    229          2.121965        2.130736   1.000000   1.000000
    230          2.219759        2.232831   1.000000   1.000000
    231          2.237362        2.240357   1.000000   1.000000
    232          2.237362        2.240357   1.000000   1.000000
    233          2.258281        2.262203   1.000000   1.000000
    234          2.265393        2.269006   1.000000   1.000000
    235          2.265393        2.269006   1.000000   1.000000
    236          2.270537        2.274949   1.000000   1.000000
    237          2.272792        2.279366   1.000000   1.000000
    238          2.273616        2.279366   1.000000   1.000000
    239          2.273616        2.282199   1.000000   1.000000
    240          2.284745        2.290889   1.000000   1.000000
    241          2.284745        2.290889   1.000000   1.000000
    242          2.295242        2.301523   1.000000   1.000000
    243          2.301790        2.314225   1.000000   1.000000
    244          2.315840        2.327063   1.000000   1.000000
    245          2.315840        2.327063   1.000000   1.000000
    246          2.326809        2.330063   1.000000   1.000000
    247          2.346176        2.355721   1.000000   1.000000
    248          2.346176        2.355721   1.000000   1.000000
    249          2.348726        2.367089   1.000000   1.000000
    250          2.379276        2.391085   1.000000   1.000000
    251          2.379276        2.391085   1.000000   1.000000
    252          2.415861        2.429729   1.000000   1.000000
    253          2.415861        2.429729   1.000000   1.000000
    254          2.686548        2.721469   1.000000   1.000000
    255          2.752412        2.788843   1.000000   1.000000
    256          2.752412        2.788843   1.000000   1.000000
    257          3.233357        3.243017   1.000000   1.000000
    258          3.233357        3.243017   1.000000   1.000000
    259          3.312665        3.320062   1.000000   1.000000
    260          3.313048        3.330024   1.000000   1.000000
    261          3.346740        3.360994   1.000000   1.000000
    262          3.346740        3.360994   1.000000   1.000000
    263          3.447999        3.517387   1.000000   1.000000
    264          3.740216        3.756646   1.000000   1.000000
    265          3.740216        3.756646   1.000000   1.000000
    266          3.841540        3.853483   1.000000   1.000000
    267          3.851645        3.854755   1.000000   1.000000
    268          3.851645        3.854755   1.000000   1.000000
    269          3.874354        3.877886   1.000000   1.000000
    270          3.877524        3.883572   1.000000   1.000000
    271          3.877524        3.883572   1.000000   1.000000
    272          3.900252        3.918211   1.000000   1.000000
    273          3.957734        3.970892   1.000000   1.000000
    274          3.957734        3.970892   1.000000   1.000000
    275          4.084261        4.093880   1.000000   1.000000
    276          4.084261        4.093880   1.000000   1.000000
    277          4.212586        4.237442   1.000000   1.000000
    278          4.262967        4.267080   1.000000   1.000000
    279          4.264704        4.272120   1.000000   1.000000
    280          4.266870        4.272120   1.000000   1.000000
    281          4.266870        4.284245   1.000000   1.000000
    282          4.280284        4.289306   1.000000   1.000000
    283          4.280284        4.289306   1.000000   1.000000
    284          4.307478        4.314255   1.000000   1.000000
    285          4.329854        4.338814   1.000000   1.000000
    286          4.329854        4.338814   1.000000   1.000000
    287          4.341799        4.356352   1.000000   1.000000
    288          4.447802        4.458022   1.000000   1.000000
    289          4.447802        4.458022   1.000000   1.000000
    290          4.482687        4.486894   1.000000   1.000000
    291          4.507729        4.510844   1.000000   1.000000
    292          4.515402        4.518796   1.000000   1.000000
    293          4.515402        4.518796   1.000000   1.000000
    294          4.528958        4.532166   1.000000   1.000000
    295          4.533475        4.535933   1.000000   1.000000
    296          4.533475        4.535933   1.000000   1.000000
    297          4.536034        4.539688   1.000000   1.000000
    298          4.536034        4.539688   1.000000   1.000000
    299          4.546113        4.548320   1.000000   1.000000
    300          4.553885        4.556386   1.000000   1.000000
    301          4.553885        4.556386   1.000000   1.000000
    302          4.557435        4.562874   1.000000   1.000000
    303          4.584308        4.589859   1.000000   1.000000
    304          4.584308        4.589859   1.000000   1.000000
    305          4.594586        4.598828   1.000000   1.000000
    306          4.602964        4.609187   1.000000   1.000000
    307          4.602964        4.609187   1.000000   1.000000
    308          4.605551        4.616385   1.000000   1.000000
    309          4.605551        4.616385   1.000000   1.000000
    310          4.621605        4.629021   1.000000   1.000000
    311          4.665370        4.671157   1.000000   1.000000
    312          4.665370        4.671157   1.000000   1.000000
    313          4.693582        4.701238   1.000000   1.000000
    314          4.716237        4.723213   1.000000   1.000000
    315          4.720517        4.723213   1.000000   1.000000
    316          4.720517        4.725135   1.000000   1.000000
    317          4.723664        4.730342   1.000000   1.000000
    318          4.728402        4.731545   1.000000   1.000000
    319          4.734944        4.737297   1.000000   1.000000
    320          4.734944        4.737297   1.000000   1.000000
    321          4.740047        4.743080   1.000000   1.000000
    322          4.740047        4.743080   1.000000   1.000000
    323          4.752275        4.756878   1.000000   1.000000
    324          4.753857        4.756878   1.000000   1.000000
    325          4.753857        4.756934   1.000000   1.000000
    326          4.755289        4.758495   1.000000   1.000000
    327          4.759050        4.765316   1.000000   1.000000
    328          4.759050        4.765316   1.000000   1.000000
    329          4.764996        4.769370   1.000000   1.000000
    330          4.764996        4.769370   1.000000   1.000000
    331          4.766960        4.771089   1.000000   1.000000
    332          4.772757        4.777070   1.000000   1.000000
    333          4.783597        4.788883   1.000000   1.000000
    334          4.783597        4.788883   1.000000   1.000000
    335          4.789518        4.800835   1.000000   1.000000
    336          4.796701        4.804362   1.000000   1.000000
    337          4.796701        4.804362   1.000000   1.000000
    338          4.797415        4.810128   1.000000   1.000000
    339          4.807678        4.820768   1.000000   1.000000
    340          4.807678        4.820768   1.000000   1.000000
    341          4.832620        4.839002   1.000000   1.000000
    342          4.832620        4.839002   1.000000   1.000000
    343          4.834933        4.843268   1.000000   1.000000
    344          4.853913        4.859166   1.000000   1.000000
    345          4.853913        4.859166   1.000000   1.000000
    346          4.893777        4.905910   1.000000   1.000000
    347          4.894369        4.905910   1.000000   1.000000
    348          4.894369        4.922088   1.000000   1.000000
    349          4.921059        4.933954   1.000000   1.000000
    350          4.949966        4.953998   1.000000   1.000000
    351          4.952815        4.972116   1.000000   1.000000
    352          4.952815        4.972116   1.000000   1.000000
    353          4.962636        4.974669   1.000000   1.000000
    354          5.071306        5.102675   1.000000   1.000000
    355          5.071306        5.102675   1.000000   1.000000
    356          5.305384        5.325004   1.000000   1.000000
    357          5.323347        5.338844   1.000000   1.000000
    358          5.323347        5.338844   1.000000   1.000000
    359          5.480873        5.487384   1.000000   1.000000
    360          5.480873        5.487384   1.000000   1.000000
    361          5.552419        5.554867   1.000000   1.000000
    362          5.555816        5.559045   1.000000   1.000000
    363          5.555816        5.559045   1.000000   1.000000
    364          5.562910        5.564711   1.000000   1.000000
    365          5.593404        5.598324   1.000000   1.000000
    366          5.593404        5.598324   1.000000   1.000000
    367          5.598315        5.602311   1.000000   1.000000
    368          5.602830        5.615344   1.000000   1.000000
    369          5.624015        5.631172   1.000000   1.000000
    370          5.624015        5.631172   1.000000   1.000000
    371          5.629794        5.636516   1.000000   1.000000
    372          5.634822        5.647746   1.000000   1.000000
    373          5.634822        5.647746   1.000000   1.000000
    374          5.644970        5.661318   1.000000   1.000000
    375          5.644970        5.661318   1.000000   1.000000
    376          5.668203        5.673174   1.000000   1.000000
    377          5.716012        5.744835   1.000000   1.000000
    378          5.716012        5.744835   1.000000   1.000000
    379          5.793257        5.821817   1.000000   1.000000
    380          6.305009        6.387233   1.000000   1.000000
    381          6.545446        6.599062   1.000000   1.000000
    382          6.545446        6.599062   1.000000   1.000000
    383          6.853697        6.914047   1.000000   1.000000
    384          6.899527        6.914047   1.000000   1.000000
    385          6.899527        6.971110   1.000000   1.000000
    386          6.967918        6.971110   1.000000   1.000000
    387          6.967918        6.979172   1.000000   1.000000
    388          6.975321        6.980601   1.000000   1.000000
    389          6.998746        7.001071   1.000000   1.000000
    390          7.004275        7.018376   1.000000   1.000000
    391          7.007524        7.018376   1.000000   1.000000
    392          7.007524        7.034782   1.000000   1.000000
    393          7.065206        7.069999   1.000000   1.000000
    394          7.065206        7.069999   1.000000   1.000000
    395          7.085941        7.094561   1.000000   1.000000
    396          7.159044        7.163434   1.000000   1.000000
    397          7.159044        7.163434   1.000000   1.000000
    398          7.223059        7.231963   1.000000   1.000000
    399          7.230675        7.236345   1.000000   1.000000
    400          7.230675        7.236345   1.000000   1.000000
    401          7.236504        7.242577   1.000000   1.000000
    402          7.236504        7.242577   1.000000   1.000000
    403          7.242934        7.253917   1.000000   1.000000
    404          7.242934        7.253917   1.000000   1.000000
    405          7.254998        7.259488   1.000000   1.000000
    406          7.276107        7.286645   1.000000   1.000000
    407          7.276107        7.286645   1.000000   1.000000
    408          7.301385        7.314674   1.000000   1.000000
    409          7.307821        7.320755   1.000000   1.000000
    410          7.307821        7.320755   1.000000   1.000000
    411          7.310316        7.325717   1.000000   1.000000
    412          7.331299        7.339864   1.000000   1.000000
    413          7.331299        7.339864   1.000000   1.000000
    414          7.816187        7.888536   1.000000   1.000000
    415          7.920219        7.943950   1.000000   1.000000
    416          7.920219        7.943950   1.000000   1.000000
    417          8.095821        8.140057   1.000000   1.000000
    418          8.132198        8.140057   1.000000   1.000000
    419          8.132198        8.150693   1.000000   1.000000
    420          8.148640        8.183909   1.000000   1.000000
    421          8.177083        8.183909   1.000000   1.000000
    422          8.177083        8.184244   1.000000   1.000000
    423          8.181104        8.229740   1.000000   1.000000
    424          8.219593        8.270727   1.000000   1.000000
    425          8.254246        8.270727   1.000000   1.000000
    426          8.254246        8.403093   1.000000   1.000000
    427          9.317293        9.439269   1.000000   1.000000
    428          9.410459        9.439269   1.000000   1.000000
    429          9.410459        9.445084   1.000000   1.000000
    430         10.094803       10.828739   1.000000   0.000000
    431         11.677621       12.658206   1.000000   1.000000
    432         11.677621       12.658206   1.000000   0.000000
    433         13.669820       13.673770   0.000000   0.000000
    434         13.669820       13.673770   0.000000   0.000000
    435         13.677840       13.692942   0.000000   0.000000
    436         13.728368       13.739627   0.000000   0.000000
    437         13.728368       13.739627   0.000000   0.000000
    438         13.746678       13.756455   0.000000   0.000000
    439         14.219335       14.230542   0.000000   0.000000
    440         14.308776       14.315861   0.000000   0.000000
    441         14.308776       14.315861   0.000000   0.000000
    442         14.327952       14.333692   0.000000   0.000000
    443         14.327952       14.333692   0.000000   0.000000
    444         14.388417       14.397706   0.000000   0.000000
    445         14.455832       14.460928   0.000000   0.000000
    446         14.455832       14.460928   0.000000   0.000000
    447         14.507121       14.535880   0.000000   0.000000
    448         14.559733       14.576000   0.000000   0.000000
    449         14.559733       14.576000   0.000000   0.000000
    450         14.582378       14.592562   0.000000   0.000000
    451         15.185136       15.202728   0.000000   0.000000
    452         15.185136       15.202728   0.000000   0.000000
    453         15.206822       15.218706   0.000000   0.000000
    454         15.719295       15.737751   0.000000   0.000000
    455         15.838089       15.841290   0.000000   0.000000
    456         15.838089       15.841290   0.000000   0.000000
    457         15.858373       15.860766   0.000000   0.000000
    458         15.886755       15.895115   0.000000   0.000000
    459         15.886755       15.895115   0.000000   0.000000
    460         15.903848       15.909080   0.000000   0.000000
    461         15.903848       15.909080   0.000000   0.000000
    462         15.908332       15.914226   0.000000   0.000000
    463         15.920189       15.924655   0.000000   0.000000
    464         15.920189       15.924655   0.000000   0.000000
    465         15.957953       15.965352   0.000000   0.000000
    466         16.332078       16.348474   0.000000   0.000000
    467         16.540285       16.544310   0.000000   0.000000
    468         16.540285       16.544310   0.000000   0.000000
    469         16.583184       16.585798   0.000000   0.000000
    470         16.588843       16.592147   0.000000   0.000000
    471         16.588843       16.592147   0.000000   0.000000
    472         16.594065       16.596749   0.000000   0.000000
    473         16.596589       16.601201   0.000000   0.000000
    474         16.596589       16.601201   0.000000   0.000000
    475         16.605390       16.611025   0.000000   0.000000
    476         16.605390       16.611025   0.000000   0.000000
    477         16.619261       16.625270   0.000000   0.000000
    478         16.619261       16.625270   0.000000   0.000000
    479         16.625411       16.630228   0.000000   0.000000
    480         16.629890       16.634656   0.000000   0.000000
    481         16.651596       16.657114   0.000000   0.000000
    482         16.655726       16.663915   0.000000   0.000000
    483         16.655726       16.663915   0.000000   0.000000
    484         16.699448       16.705189   0.000000   0.000000
    485         16.699448       16.705189   0.000000   0.000000
    486         16.723249       16.732577   0.000000   0.000000
    487         16.737318       16.745121   0.000000   0.000000
    488         16.737318       16.745121   0.000000   0.000000
    489         16.741179       16.749388   0.000000   0.000000
    490         16.977415       16.990249   0.000000   0.000000
    491         17.003156       17.012810   0.000000   0.000000
    492         17.003159       17.012831   0.000000   0.000000
    493         17.075963       17.077730   0.000000   0.000000
    494         17.080702       17.082047   0.000000   0.000000
    495         17.091069       17.093845   0.000000   0.000000
    496         17.091105       17.093850   0.000000   0.000000
    497         17.100865       17.104184   0.000000   0.000000
    498         17.100886       17.104213   0.000000   0.000000
    499         17.110941       17.113125   0.000000   0.000000
    500         17.120571       17.122935   0.000000   0.000000
    501         17.120603       17.122958   0.000000   0.000000
    502         17.137158       17.140730   0.000000   0.000000
    503         17.153529       17.157659   0.000000   0.000000
    504         17.153542       17.157693   0.000000   0.000000
    505         17.182053       17.186063   0.000000   0.000000
    506         17.182082       17.186102   0.000000   0.000000
    507         17.184890       17.188322   0.000000   0.000000
    508         17.195017       17.204762   0.000000   0.000000
    509         17.200967       17.204805   0.000000   0.000000
    510         17.200975       17.206678   0.000000   0.000000
    511         17.209163       17.212485   0.000000   0.000000
    512         17.225188       17.233416   0.000000   0.000000
    513         17.225272       17.233500   0.000000   0.000000
    514         17.236380       17.239906   0.000000   0.000000
    515         17.243201       17.253152   0.000000   0.000000
    516         17.243249       17.253286   0.000000   0.000000
    517         17.246859       17.259120   0.000000   0.000000
    518         17.246942       17.259241   0.000000   0.000000
    519         17.256439       17.264858   0.000000   0.000000
    520         17.256552       17.264997   0.000000   0.000000
    521         17.269907       17.275431   0.000000   0.000000
    522         17.283924       17.289670   0.000000   0.000000
    523         17.284183       17.289870   0.000000   0.000000
    524         17.321455       17.328484   0.000000   0.000000
    525         17.322299       17.330150   0.000000   0.000000
    526         17.375705       17.387642   0.000000   0.000000
    527         17.387304       17.393700   0.000000   0.000000
    528         17.387859       17.395325   0.000000   0.000000
    529         17.450497       17.460374   0.000000   0.000000
    530         17.453906       17.461887   0.000000   0.000000
    531         17.464925       17.473002   0.000000   0.000000
    532         17.586669       17.589906   0.000000   0.000000
    533         17.669528       17.693387   0.000000   0.000000
    534         17.694881       17.702109   0.000000   0.000000
    535         17.717010       17.712597   0.000000   0.000000
    536         17.730192       17.743068   0.000000   0.000000
    537         17.741090       17.745770   0.000000   0.000000
    538         17.750663       17.756670   0.000000   0.000000
    539         17.767386       17.768669   0.000000   0.000000
    540         17.778650       17.792307   0.000000   0.000000
