/var/spool/slurmd/job07668/slurm_script: line 11: !#SBATCH: command not found
real-time non-blocking time  (microseconds, -R) unlimited
core file size              (blocks, -c) unlimited
data seg size               (kbytes, -d) unlimited
scheduling priority                 (-e) 0
file size                   (blocks, -f) unlimited
pending signals                     (-i) 505933
max locked memory           (kbytes, -l) unlimited
max memory size             (kbytes, -m) 114688000
open files                          (-n) 1024
pipe size                (512 bytes, -p) 8
POSIX message queues         (bytes, -q) 819200
real-time priority                  (-r) 0
stack size                  (kbytes, -s) unlimited
cpu time                   (seconds, -t) unlimited
max user processes                  (-u) 125621
virtual memory              (kbytes, -v) unlimited
file locks                          (-x) unlimited
 running   28 mpi-ranks, with    1 threads/rank, on    1 nodes
 distrk:  each k-point on   28 cores,    1 groups
 distr:  one band on    7 cores,    4 groups
 vasp.6.5.1 10Mar25 (build Feb 13 2026 23:13:13) complex                        
  
 POSCAR found type information on POSCAR C N 
 POSCAR found :  2 types and     215 ions
 -----------------------------------------------------------------------------
|                                                                             |
|           W    W    AA    RRRRR   N    N  II  N    N   GGGG   !!!           |
|           W    W   A  A   R    R  NN   N  II  NN   N  G    G  !!!           |
|           W    W  A    A  R    R  N N  N  II  N N  N  G       !!!           |
|           W WW W  AAAAAA  RRRRR   N  N N  II  N  N N  G  GGG   !            |
|           WW  WW  A    A  R   R   N   NN  II  N   NN  G    G                |
|           W    W  A    A  R    R  N    N  II  N    N   GGGG   !!!           |
|                                                                             |
|     You requested a magnetic or noncollinear calculation, but did not       |
|     specify the initial magnetic moment with the MAGMOM tag. Note that      |
|     a default of 9.302e-3 will be used for all atoms. This                  |
|     ferromagnetic setup may break the symmetry of the crystal, in           |
|     particular it may rule out finding an antiferromagnetic solution.       |
|     Thence, we recommend setting the initial magnetic moment manually       |
|     or verifying carefully that this magnetic setup is desired.             |
|                                                                             |
 -----------------------------------------------------------------------------

 scaLAPACK will be used
 LDA part: xc-table for (Slater+PW92), standard interpolation
 POSCAR, INCAR and KPOINTS ok, starting setup
 FFT: planning ... GRIDC
 FFT: planning ... GRID_SOFT
 FFT: planning ... GRID
 WAVECAR not read
 entering main loop
       N       E                     dE             d eps       ncg     rms          rms(c)
DAV:   1     0.295994962192E+04    0.29599E+04   -0.45420E+05  2160   0.153E+03
DAV:   2    -0.174532866925E+04   -0.47053E+04   -0.45099E+04  2624   0.298E+02
DAV:   3    -0.199663854110E+04   -0.25131E+03   -0.24888E+03  2592   0.668E+01
DAV:   4    -0.200324305106E+04   -0.66045E+01   -0.65877E+01  2664   0.105E+01
DAV:   5    -0.200339621914E+04   -0.15317E+00   -0.15292E+00  2592   0.167E+00BRMIX: very serious problems
 the old and the new charge density differ
 old charge density:   861.00000 new  861.99988
    0.579E+01
DAV:   6    -0.195161168054E+04    0.51785E+02   -0.40586E+01  2488   0.844E+00    0.344E+01
DAV:   7    -0.193450166562E+04    0.17110E+02   -0.47639E+01  2496   0.915E+00    0.814E+00
DAV:   8    -0.193480199277E+04   -0.30033E+00   -0.21415E+00  2592   0.199E+00    0.420E+00
DAV:   9    -0.193480998728E+04   -0.79945E-02   -0.27023E-01  2568   0.899E-01    0.106E+00
DAV:  10    -0.193481382621E+04   -0.38389E-02   -0.59818E-02  2544   0.375E-01    0.432E-01
DAV:  11    -0.193481380809E+04    0.18113E-04   -0.63192E-03  2608   0.127E-01    0.149E-01
DAV:  12    -0.193481433304E+04   -0.52494E-03   -0.14615E-03  2584   0.655E-02    0.744E-02
DAV:  13    -0.193481459207E+04   -0.25903E-03   -0.33547E-04  2608   0.317E-02    0.388E-02
DAV:  14    -0.193481468501E+04   -0.92949E-04   -0.78735E-05  2608   0.159E-02    0.176E-02
DAV:  15    -0.193481469668E+04   -0.11663E-04   -0.15050E-05  2472   0.683E-03    0.719E-03
DAV:  16    -0.193481469696E+04   -0.28672E-06   -0.28726E-06  1960   0.290E-03
   1 F= -.19348147E+04 E0= -.19348147E+04  d E =-.201866-129  mag=     2.0000
