unknown system                          
           1
    10.721136    0.000000    0.000000
     0.000000   10.721136    0.000000
     0.000000    0.000000   10.721136
   C    N 
   214     1
Direct configuration=     1
   0.08331664  0.08327876  0.08335003
   0.08376105  0.08298768  0.41676463
   0.08315863  0.08349643  0.74995778
   0.08372107  0.41664798  0.08294560
   0.08317659  0.41664286  0.41672032
   0.08315455  0.41675086  0.74993042
   0.08313372  0.74988820  0.08353295
   0.08314324  0.74988586  0.41684115
   0.08358488  0.75000937  0.75009635
   0.41670888  0.08349643  0.08350803
   0.41687452  0.08359566  0.41685359
   0.41652118  0.08306111  0.75014549
   0.41673624  0.41675086  0.08351212
   0.41800454  0.41780563  0.41775672
   0.41616951  0.41621714  0.75049715
   0.41657032  0.75000937  0.08308179
   0.41513313  0.75126760  0.41688273
   0.41717835  0.74943232  0.74948831
   0.74990203  0.08298768  0.08290562
   0.75001440  0.08325426  0.41665227
   0.74981307  0.08359566  0.74979214
   0.74994635  0.41664286  0.08349008
   0.75810192  0.40752227  0.40856475
   0.74890995  0.41780563  0.74866212
   0.74982551  0.74988586  0.08352343
   0.74927274  0.74893461  0.41739393
   0.74978394  0.75126760  0.75153354
   0.25016309  0.25004222  0.08350803
   0.25026233  0.25020786  0.41685359
   0.24972778  0.24985451  0.75014549
   0.24965435  0.58323537  0.08290562
   0.24992093  0.58334773  0.41665227
   0.25026233  0.58314641  0.74979214
   0.24994543  0.91664997  0.08335003
   0.24965435  0.91709438  0.41676463
   0.25016309  0.91649197  0.74995778
   0.58341752  0.25006958  0.08351212
   0.58447229  0.25133788  0.41775672
   0.58288380  0.24950285  0.75049715
   0.58330952  0.58327968  0.08349008
   0.57418893  0.59143525  0.40856475
   0.58447229  0.58224328  0.74866212
   0.58331464  0.91705440  0.08294560
   0.58330952  0.91650992  0.41672032
   0.58341752  0.91648788  0.74993042
   0.91667604  0.24990365  0.08308179
   0.91793426  0.24846646  0.41688273
   0.91609899  0.25051169  0.74948831
   0.91655253  0.58315885  0.08352343
   0.91560128  0.58260607  0.41739393
   0.91793426  0.58311727  0.75153354
   0.91655486  0.91646705  0.08353295
   0.91655253  0.91647657  0.41684115
   0.91667604  0.91691821  0.75009635
   0.25015098  0.08348431  0.25007751
   0.25004077  0.08337411  0.58342695
   0.24994541  0.08327874  0.91672126
   0.25027452  0.41683709  0.25028650
   0.24991431  0.41667356  0.58332644
   0.25004077  0.41657305  0.91662589
   0.24962534  0.75008049  0.24991951
   0.25027452  0.74971350  0.58316291
   0.25015098  0.74992249  0.91651569
   0.58350376  0.08360785  0.25028650
   0.58334022  0.08324764  0.58332644
   0.58323971  0.08337411  0.91662589
   0.58396657  0.41729990  0.25105055
   0.58334022  0.41667356  0.91675236
   0.58329757  0.75097112  0.24902888
   0.58396657  0.74894945  0.58270010
   0.58350376  0.74971350  0.91639215
   0.91674716  0.08295867  0.24991951
   0.91638016  0.08360785  0.58316291
   0.91658915  0.08348431  0.91651569
   0.91763779  0.41663091  0.24902888
   0.91561612  0.41729990  0.58270010
   0.91638016  0.41683709  0.91639215
   0.91614136  0.74947470  0.25052530
   0.91763779  0.75097112  0.58336909
   0.91674716  0.75008049  0.91704133
   0.08358488  0.24990365  0.24999063
   0.08315455  0.25006958  0.58324914
   0.08315863  0.25004222  0.91650357
   0.08314324  0.58315885  0.25011414
   0.08317659  0.58327968  0.58335714
   0.08376105  0.58323537  0.91701232
   0.08313372  0.91646705  0.25011180
   0.08372107  0.91705440  0.58335202
   0.08331664  0.91664997  0.91672124
   0.41717835  0.25051169  0.25056768
   0.41616951  0.24950285  0.58378286
   0.41652118  0.24985451  0.91693889
   0.41513313  0.58311727  0.24873240
   0.41800454  0.58224328  0.58219437
   0.41687452  0.58314641  0.91640434
   0.41657032  0.91691821  0.24999063
   0.41673624  0.91648788  0.58324914
   0.41670888  0.91649197  0.91650357
   0.74978394  0.24846646  0.24873240
   0.74890995  0.25133788  0.58219437
   0.74981307  0.25020786  0.91640434
   0.74927274  0.58260607  0.25106539
   0.75810192  0.59143525  0.59247773
   0.75001440  0.58334773  0.91674574
   0.74982551  0.91647657  0.25011414
   0.74994635  0.91650992  0.58335714
   0.74990203  0.91709438  0.91701232
   0.99993103  0.99997128  0.00002872
   0.00000820  0.99975287  0.33335628
   0.99986554  0.00028055  0.66674801
   0.99986554  0.33325199  0.99971945
   0.00025066  0.33305421  0.33325142
   0.99924139  0.33388844  0.66611156
   0.00000820  0.66664372  0.00024713
   0.99931260  0.66606484  0.33393516
   0.00025066  0.66674858  0.66694579
   0.33334354  0.99997838  0.00002162
   0.33337194  0.00028523  0.33335440
   0.33343504  0.99984831  0.66669393
   0.33343504  0.33330607  0.00015169
   0.33433042  0.33372579  0.33422941
   0.33296726  0.33314423  0.66685577
   0.33337194  0.66664560  0.99971477
   0.33280939  0.66688692  0.33311308
   0.33433042  0.66577059  0.66627421
   0.66668922  0.00020903  0.99979097
   0.66659560  0.99993447  0.33351314
   0.66664472  0.99992925  0.66657383
   0.66664472  0.33342617  0.00007075
   0.66843364  0.33378714  0.33386024
   0.66411839  0.33448982  0.66551018
   0.66659560  0.66648686  0.00006553
   0.66539607  0.66569507  0.33430493
   0.66843364  0.66613976  0.66621286
   0.16664504  0.16667687  0.00002162
   0.16695189  0.16670527  0.33335440
   0.16651498  0.16676837  0.66669393
   0.16687570  0.50002256  0.99979097
   0.16660114  0.49992894  0.33351314
   0.16659592  0.49997806  0.66657383
   0.16663795  0.83326437  0.00002872
   0.16641954  0.83334153  0.33335628
   0.16694722  0.83319887  0.66674801
   0.49997273  0.16676837  0.00015169
   0.50039245  0.16766376  0.33422941
   0.49981090  0.16630060  0.66685577
   0.50009284  0.49997806  0.00007075
   0.50045380  0.50176698  0.33386024
   0.50115649  0.49745173  0.66551018
   0.49991866  0.83319887  0.99971945
   0.49972087  0.83358399  0.33325142
   0.50055511  0.83257472  0.66611156
   0.83331227  0.16670527  0.99971477
   0.83355358  0.16614272  0.33311308
   0.83243725  0.16766376  0.66627421
   0.83315353  0.49992894  0.00006553
   0.83236174  0.49872940  0.33430493
   0.83280643  0.50176698  0.66621286
   0.83331038  0.83334153  0.00024713
   0.83273151  0.83264593  0.33393516
   0.83341525  0.83358399  0.66694579
   0.16663795  0.99997128  0.16673563
   0.16687570  0.00020903  0.49997744
   0.16664504  0.99997838  0.83332313
   0.16694722  0.33325199  0.16680113
   0.16659592  0.33342617  0.50002194
   0.16651498  0.33330607  0.83323163
   0.16641954  0.66664372  0.16665847
   0.16660114  0.66648686  0.50007106
   0.16695189  0.66664560  0.83329473
   0.49991866  0.00028055  0.16680113
   0.50009284  0.99992925  0.50002194
   0.49997273  0.99984831  0.83323163
   0.50055511  0.33388844  0.16742528
   0.50115649  0.33448982  0.50254827
   0.49981090  0.33314423  0.83369940
   0.49972087  0.66674858  0.16641601
   0.50045380  0.66613976  0.49823302
   0.50039245  0.66577059  0.83233624
   0.83331038  0.99975287  0.16665847
   0.83315353  0.99993447  0.50007106
   0.83331227  0.00028523  0.83329473
   0.83341525  0.33305421  0.16641601
   0.83280643  0.33378714  0.49823302
   0.83243725  0.33372579  0.83233624
   0.83273151  0.66606484  0.16735407
   0.83236174  0.66569507  0.50127060
   0.83355358  0.66688692  0.83385728
   0.00003946  0.16658593  0.16662720
   0.00065153  0.16594852  0.49978655
   0.99968949  0.16693620  0.83306380
   0.00052916  0.49972862  0.16613750
   0.99930380  0.49995164  0.50004836
   0.00065153  0.50021345  0.83405148
   0.99968998  0.83302331  0.16697669
   0.00052916  0.83386250  0.50027138
   0.00003946  0.83337280  0.83341407
   0.33360287  0.16693620  0.16697717
   0.33333772  0.16667105  0.50011123
   0.33325794  0.16659127  0.83340873
   0.33261519  0.50021345  0.16601514
   0.33365812  0.50001450  0.49998550
   0.33333772  0.49988877  0.83332895
   0.33325259  0.83337280  0.16662720
   0.33261519  0.83398486  0.49978655
   0.33360287  0.83302283  0.83306380
   0.66688012  0.16594852  0.16601514
   0.66668116  0.16699146  0.49998550
   0.66655544  0.16667105  0.83332895
   0.66661830  0.49995164  0.16736287
   0.66668116  0.50001450  0.83300854
   0.66639529  0.83386250  0.16613750
   0.66661830  0.83263713  0.50004836
   0.66688012  0.83398486  0.83405148
   0.57844159  0.41177493  0.58822507
