   2   2   1   0
  0.5705170E+01  0.2526996E-09  0.2526996E-09  0.2526996E-09  0.5000000E-15
  1.000000000000000E-004
  CAR 
 unknown system                          
     28.27151236    -13.65883174  301      9.69986412      1.00000000
    -13.659  0.0000E+00  0.0000E+00
    -13.519  0.0000E+00  0.0000E+00
    -13.379  0.0000E+00  0.0000E+00
    -13.240  0.0000E+00  0.0000E+00
    -13.100  0.0000E+00  0.0000E+00
    -12.960  0.0000E+00  0.0000E+00
    -12.820  0.0000E+00  0.0000E+00
    -12.680  0.0000E+00  0.0000E+00
    -12.541  0.0000E+00  0.0000E+00
    -12.401  0.0000E+00  0.0000E+00
    -12.261  0.0000E+00  0.0000E+00
    -12.121  0.0000E+00  0.0000E+00
    -11.982  0.0000E+00  0.0000E+00
    -11.842  0.0000E+00  0.0000E+00
    -11.702  0.7412E-02  0.1110E-02
    -11.562  0.5296E-02  0.5111E-02
    -11.423  0.5425E-02  0.1328E-01
    -11.283  0.2544E-01  0.2452E-01
    -11.143  0.6326E-01  0.3929E-01
    -11.003  0.1908E-01  0.4778E-01
    -10.863  0.2597E-01  0.6444E-01
    -10.724  0.5405E-01  0.7904E-01
    -10.584  0.1330E-01  0.9393E-01
    -10.444  0.6323E-02  0.1090E+00
    -10.304  0.6360E-01  0.1339E+00
    -10.165  0.5088E-01  0.1544E+00
    -10.025  0.3262E-01  0.1697E+00
     -9.885  0.2344E-01  0.1986E+00
     -9.745  0.7950E-01  0.2141E+00
     -9.606  0.7255E-01  0.2430E+00
     -9.466  0.3622E-01  0.2628E+00
     -9.326  0.1688E-09  0.2844E+00
     -9.186  0.6360E-01  0.3170E+00
     -9.046  0.3813E-01  0.3441E+00
     -8.907  0.5084E-01  0.3707E+00
     -8.767  0.6354E-01  0.3947E+00
     -8.627  0.4968E-01  0.4289E+00
     -8.487  0.1048E+00  0.4580E+00
     -8.348  0.8790E-01  0.4881E+00
     -8.208  0.5224E-01  0.5151E+00
     -8.068  0.1081E-01  0.5490E+00
     -7.928  0.2471E-01  0.5794E+00
     -7.789  0.1018E+00  0.6195E+00
     -7.649  0.7424E-01  0.6516E+00
     -7.509  0.7792E-01  0.6913E+00
     -7.369  0.8302E-01  0.7228E+00
     -7.230  0.1133E+00  0.7590E+00
     -7.090  0.1126E+00  0.8051E+00
     -6.950  0.1396E+00  0.8409E+00
     -6.810  0.9351E-01  0.8764E+00
     -6.670  0.8476E-01  0.9116E+00
     -6.531  0.9307E-01  0.9608E+00
     -6.391  0.5947E-01  0.1001E+01
     -6.251  0.1050E+00  0.1050E+01
     -6.111  0.8674E-01  0.1090E+01
     -5.972  0.1817E+00  0.1152E+01
     -5.832  0.7483E-01  0.1203E+01
     -5.692  0.9667E-01  0.1256E+01
     -5.552  0.8258E-01  0.1297E+01
     -5.413  0.1717E+00  0.1356E+01
     -5.273  0.7838E-01  0.1407E+01
     -5.133  0.8904E-01  0.1448E+01
     -4.993  0.8377E-01  0.1487E+01
     -4.853  0.1656E+00  0.1546E+01
     -4.714  0.4462E-04  0.1582E+01
     -4.574  0.1119E+00  0.1619E+01
     -4.434  0.6774E-01  0.1659E+01
     -4.294  0.1307E+00  0.1697E+01
     -4.155  0.5088E-01  0.1737E+01
     -4.015  0.9374E-01  0.1765E+01
     -3.875  0.7615E-01  0.1803E+01
     -3.735  0.1014E+00  0.1839E+01
     -3.596  0.6926E-01  0.1865E+01
     -3.456  0.7718E-01  0.1900E+01
     -3.316  0.4662E-01  0.1939E+01
     -3.176  0.3816E-01  0.1976E+01
     -3.036  0.1003E+00  0.2022E+01
     -2.897  0.5949E-01  0.2056E+01
     -2.757  0.4610E-01  0.2089E+01
     -2.617  0.2630E-01  0.2125E+01
     -2.477  0.7412E-01  0.2161E+01
     -2.338  0.7781E-01  0.2213E+01
     -2.198  0.8904E-01  0.2254E+01
     -2.058  0.7139E-01  0.2312E+01
     -1.918  0.1413E+00  0.2385E+01
     -1.779  0.2300E+00  0.2476E+01
     -1.639  0.1701E+00  0.2570E+01
     -1.499  0.7766E-01  0.2633E+01
     -1.359  0.1734E+00  0.2696E+01
     -1.219  0.1533E+00  0.2779E+01
     -1.080  0.1012E+00  0.2815E+01
     -0.940  0.7347E-01  0.2857E+01
     -0.800  0.1308E+00  0.2928E+01
     -0.660  0.1180E+00  0.2971E+01
     -0.521  0.1064E+00  0.3004E+01
     -0.381  0.1200E+00  0.3054E+01
     -0.241  0.7366E-01  0.3099E+01
     -0.101  0.1017E+00  0.3135E+01
      0.038  0.6160E-01  0.3169E+01
      0.178  0.1326E+00  0.3209E+01
      0.318  0.7357E-01  0.3244E+01
      0.458  0.5067E-01  0.3286E+01
      0.597  0.1274E+00  0.3347E+01
      0.737  0.2744E-01  0.3390E+01
      0.877  0.1065E+00  0.3462E+01
      1.017  0.1566E+00  0.3534E+01
      1.157  0.2106E+00  0.3618E+01
      1.296  0.1199E+00  0.3670E+01
      1.436  0.8871E-01  0.3756E+01
      1.576  0.2397E+00  0.3836E+01
      1.716  0.9419E-01  0.3887E+01
      1.855  0.1824E+00  0.3964E+01
      1.995  0.1459E+00  0.4049E+01
      2.135  0.6362E-01  0.4099E+01
      2.275  0.2763E+00  0.4198E+01
      2.414  0.1772E+00  0.4270E+01
      2.554  0.1485E+00  0.4332E+01
      2.694  0.1898E+00  0.4432E+01
      2.834  0.2190E+00  0.4518E+01
      2.974  0.1904E+00  0.4584E+01
      3.113  0.2754E+00  0.4687E+01
      3.253  0.6803E-01  0.4779E+01
      3.393  0.1909E+00  0.4874E+01
      3.533  0.2744E+00  0.5000E+01
      3.672  0.1806E+00  0.5104E+01
      3.812  0.3506E+00  0.5224E+01
      3.952  0.2381E+00  0.5329E+01
      4.092  0.2474E+00  0.5445E+01
      4.231  0.2163E+00  0.5533E+01
      4.371  0.3165E+00  0.5641E+01
      4.511  0.2146E+00  0.5767E+01
      4.651  0.1943E+00  0.5853E+01
      4.791  0.2625E+00  0.5945E+01
      4.930  0.2126E+00  0.6070E+01
      5.070  0.2973E+00  0.6161E+01
      5.210  0.2024E+00  0.6253E+01
      5.350  0.2321E+00  0.6366E+01
      5.489  0.1234E+00  0.6432E+01
      5.629  0.1868E+00  0.6548E+01
      5.769  0.1249E+00  0.6638E+01
      5.909  0.1906E+00  0.6733E+01
      6.048  0.1471E+00  0.6833E+01
      6.188  0.1142E+00  0.6904E+01
      6.328  0.2758E+00  0.7019E+01
      6.468  0.8669E-01  0.7089E+01
      6.608  0.2533E+00  0.7190E+01
      6.747  0.1783E+00  0.7281E+01
      6.887  0.1631E+00  0.7353E+01
      7.027  0.1640E+00  0.7444E+01
      7.167  0.8619E-01  0.7491E+01
      7.306  0.1156E+00  0.7558E+01
      7.446  0.1131E+00  0.7610E+01
      7.586  0.1606E+00  0.7655E+01
      7.726  0.7668E-01  0.7694E+01
      7.865  0.1059E+00  0.7734E+01
      8.005  0.7837E-01  0.7777E+01
      8.145  0.6373E-01  0.7804E+01
      8.285  0.6746E-01  0.7839E+01
      8.424  0.8379E-01  0.7863E+01
      8.564  0.5623E-01  0.7891E+01
      8.704  0.5186E-01  0.7913E+01
      8.844  0.4254E-01  0.7932E+01
      8.984  0.1272E-01  0.7948E+01
      9.123  0.2544E-01  0.7968E+01
      9.263  0.3328E-02  0.7977E+01
      9.403  0.1967E-09  0.7988E+01
      9.543  0.1034E-02  0.7997E+01
      9.682  0.1590E-02  0.8000E+01
      9.822  0.0000E+00  0.8000E+01
      9.962  0.0000E+00  0.8000E+01
     10.102  0.0000E+00  0.8000E+01
     10.241  0.0000E+00  0.8000E+01
     10.381  0.0000E+00  0.8000E+01
     10.521  0.0000E+00  0.8000E+01
     10.661  0.0000E+00  0.8000E+01
     10.801  0.0000E+00  0.8000E+01
     10.940  0.0000E+00  0.8000E+01
     11.080  0.0000E+00  0.8000E+01
     11.220  0.0000E+00  0.8000E+01
     11.360  0.0000E+00  0.8000E+01
     11.499  0.0000E+00  0.8000E+01
     11.639  0.0000E+00  0.8000E+01
     11.779  0.0000E+00  0.8000E+01
     11.919  0.0000E+00  0.8000E+01
     12.058  0.0000E+00  0.8000E+01
     12.198  0.0000E+00  0.8000E+01
     12.338  0.0000E+00  0.8000E+01
     12.478  0.0000E+00  0.8000E+01
     12.618  0.0000E+00  0.8000E+01
     12.757  0.0000E+00  0.8000E+01
     12.897  0.0000E+00  0.8000E+01
     13.037  0.0000E+00  0.8000E+01
     13.177  0.0000E+00  0.8000E+01
     13.316  0.0000E+00  0.8000E+01
     13.456  0.0000E+00  0.8000E+01
     13.596  0.0000E+00  0.8000E+01
     13.736  0.3730E-15  0.8000E+01
     13.875  0.2860E-01  0.8005E+01
     14.015  0.2280E-01  0.8016E+01
     14.155  0.1291E-01  0.8028E+01
     14.295  0.3816E-01  0.8052E+01
     14.434  0.2544E-01  0.8074E+01
     14.574  0.1165E+00  0.8116E+01
     14.714  0.7632E-01  0.8144E+01
     14.854  0.1145E+00  0.8185E+01
     14.994  0.1579E+00  0.8235E+01
     15.133  0.1354E+00  0.8278E+01
     15.273  0.1532E+00  0.8342E+01
     15.413  0.1132E+00  0.8396E+01
     15.553  0.1158E+00  0.8459E+01
     15.692  0.1524E+00  0.8521E+01
     15.832  0.1618E+00  0.8599E+01
     15.972  0.1733E+00  0.8667E+01
     16.112  0.1343E+00  0.8746E+01
     16.251  0.1946E+00  0.8831E+01
     16.391  0.2086E+00  0.8899E+01
     16.531  0.8971E-01  0.8974E+01
     16.671  0.1293E+00  0.9070E+01
     16.811  0.1777E+00  0.9175E+01
     16.950  0.1392E+00  0.9264E+01
     17.090  0.2771E+00  0.9366E+01
     17.230  0.1654E+00  0.9462E+01
     17.370  0.2658E+00  0.9576E+01
     17.509  0.1852E+00  0.9696E+01
     17.649  0.4444E+00  0.9818E+01
     17.789  0.2287E+00  0.9953E+01
     17.929  0.4493E+00  0.1012E+02
     18.068  0.2036E+00  0.1028E+02
     18.208  0.2358E+00  0.1041E+02
     18.348  0.3884E+00  0.1055E+02
     18.488  0.2499E+00  0.1068E+02
     18.628  0.2908E+00  0.1082E+02
     18.767  0.2564E+00  0.1097E+02
     18.907  0.2316E+00  0.1108E+02
     19.047  0.2563E+00  0.1119E+02
     19.187  0.2548E+00  0.1132E+02
     19.326  0.1664E+00  0.1145E+02
     19.466  0.1672E+00  0.1153E+02
     19.606  0.2920E+00  0.1165E+02
     19.746  0.2621E+00  0.1175E+02
     19.885  0.2721E+00  0.1188E+02
     20.025  0.1305E+00  0.1201E+02
     20.165  0.2807E+00  0.1212E+02
     20.305  0.1937E-02  0.1217E+02
     20.445  0.1452E+00  0.1224E+02
     20.584  0.1374E+00  0.1234E+02
     20.724  0.2278E+00  0.1246E+02
     20.864  0.8856E-01  0.1251E+02
     21.004  0.1711E+00  0.1259E+02
     21.143  0.2274E+00  0.1268E+02
     21.283  0.1142E+00  0.1275E+02
     21.423  0.3010E+00  0.1286E+02
     21.563  0.2194E+00  0.1300E+02
     21.702  0.1178E+00  0.1306E+02
     21.842  0.2846E+00  0.1313E+02
     21.982  0.1797E+00  0.1323E+02
     22.122  0.2488E+00  0.1333E+02
     22.261  0.3224E+00  0.1348E+02
     22.401  0.1347E+00  0.1356E+02
     22.541  0.1839E+00  0.1366E+02
     22.681  0.2796E+00  0.1377E+02
     22.821  0.2875E+00  0.1385E+02
     22.960  0.2495E+00  0.1398E+02
     23.100  0.2285E+00  0.1412E+02
     23.240  0.3830E+00  0.1428E+02
     23.380  0.1306E+00  0.1438E+02
     23.519  0.1495E+00  0.1449E+02
     23.659  0.1704E+00  0.1460E+02
     23.799  0.2331E+00  0.1472E+02
     23.939  0.3157E+00  0.1484E+02
     24.078  0.3073E+00  0.1499E+02
     24.218  0.1521E+00  0.1509E+02
     24.358  0.2809E+00  0.1521E+02
     24.498  0.3664E+00  0.1531E+02
     24.638  0.2104E+00  0.1544E+02
     24.777  0.3655E-01  0.1550E+02
     24.917  0.1879E+00  0.1560E+02
     25.057  0.1860E+00  0.1568E+02
     25.197  0.1950E+00  0.1577E+02
     25.336  0.6573E-01  0.1584E+02
     25.476  0.5154E-01  0.1587E+02
     25.616  0.1986E-01  0.1590E+02
     25.756  0.5604E-01  0.1593E+02
     25.895  0.5079E-01  0.1596E+02
     26.035  0.2827E-01  0.1597E+02
     26.175  0.6422E-02  0.1599E+02
     26.315  0.3812E-01  0.1600E+02
     26.455  0.0000E+00  0.1600E+02
     26.594  0.0000E+00  0.1600E+02
     26.734  0.0000E+00  0.1600E+02
     26.874  0.0000E+00  0.1600E+02
     27.014  0.0000E+00  0.1600E+02
     27.153  0.0000E+00  0.1600E+02
     27.293  0.0000E+00  0.1600E+02
     27.433  0.0000E+00  0.1600E+02
     27.573  0.0000E+00  0.1600E+02
     27.712  0.0000E+00  0.1600E+02
     27.852  0.0000E+00  0.1600E+02
     27.992  0.0000E+00  0.1600E+02
     28.132  0.0000E+00  0.1600E+02
     28.272  0.0000E+00  0.1600E+02
     28.27151236    -13.65883174  301      9.69986412      1.00000000
    -13.659  0.0000E+00  0.0000E+00  0.0000E+00  0.0000E+00  0.0000E+00  0.0000E+00  0.0000E+00  0.0000E+00  0.0000E+00
    -13.519  0.0000E+00  0.0000E+00  0.0000E+00  0.0000E+00  0.0000E+00  0.0000E+00  0.0000E+00  0.0000E+00  0.0000E+00
    -13.379  0.0000E+00  0.0000E+00  0.0000E+00  0.0000E+00  0.0000E+00  0.0000E+00  0.0000E+00  0.0000E+00  0.0000E+00
    -13.240  0.0000E+00  0.0000E+00  0.0000E+00  0.0000E+00  0.0000E+00  0.0000E+00  0.0000E+00  0.0000E+00  0.0000E+00
    -13.100  0.0000E+00  0.0000E+00  0.0000E+00  0.0000E+00  0.0000E+00  0.0000E+00  0.0000E+00  0.0000E+00  0.0000E+00
    -12.960  0.0000E+00  0.0000E+00  0.0000E+00  0.0000E+00  0.0000E+00  0.0000E+00  0.0000E+00  0.0000E+00  0.0000E+00
    -12.820  0.0000E+00  0.0000E+00  0.0000E+00  0.0000E+00  0.0000E+00  0.0000E+00  0.0000E+00  0.0000E+00  0.0000E+00
    -12.680  0.0000E+00  0.0000E+00  0.0000E+00  0.0000E+00  0.0000E+00  0.0000E+00  0.0000E+00  0.0000E+00  0.0000E+00
    -12.541  0.0000E+00  0.0000E+00  0.0000E+00  0.0000E+00  0.0000E+00  0.0000E+00  0.0000E+00  0.0000E+00  0.0000E+00
    -12.401  0.0000E+00  0.0000E+00  0.0000E+00  0.0000E+00  0.0000E+00  0.0000E+00  0.0000E+00  0.0000E+00  0.0000E+00
    -12.261  0.0000E+00  0.0000E+00  0.0000E+00  0.0000E+00  0.0000E+00  0.0000E+00  0.0000E+00  0.0000E+00  0.0000E+00
    -12.121  0.0000E+00  0.0000E+00  0.0000E+00  0.0000E+00  0.0000E+00  0.0000E+00  0.0000E+00  0.0000E+00  0.0000E+00
    -11.982  0.0000E+00  0.0000E+00  0.0000E+00  0.0000E+00  0.0000E+00  0.0000E+00  0.0000E+00  0.0000E+00  0.0000E+00
    -11.842  0.0000E+00  0.0000E+00  0.0000E+00  0.0000E+00  0.0000E+00  0.0000E+00  0.0000E+00  0.0000E+00  0.0000E+00
    -11.702  0.2043E-02  0.1159E-05  0.1159E-05  0.1159E-05  0.0000E+00  0.0000E+00  0.0000E+00  0.0000E+00  0.0000E+00
    -11.562  0.1452E-02  0.4144E-05  0.4144E-05  0.4144E-05  0.0000E+00  0.0000E+00  0.0000E+00  0.0000E+00  0.0000E+00
    -11.423  0.1481E-02  0.7858E-05  0.7858E-05  0.7858E-05  0.0000E+00  0.0000E+00  0.0000E+00  0.0000E+00  0.0000E+00
    -11.283  0.6916E-02  0.4997E-04  0.4997E-04  0.4997E-04  0.0000E+00  0.0000E+00  0.0000E+00  0.0000E+00  0.0000E+00
    -11.143  0.1712E-01  0.1645E-03  0.1645E-03  0.1645E-03  0.0000E+00  0.0000E+00  0.0000E+00  0.0000E+00  0.0000E+00
    -11.003  0.5140E-02  0.6173E-04  0.6173E-04  0.6173E-04  0.0000E+00  0.0000E+00  0.0000E+00  0.0000E+00  0.0000E+00
    -10.863  0.6969E-02  0.9767E-04  0.9767E-04  0.9767E-04  0.0000E+00  0.0000E+00  0.0000E+00  0.0000E+00  0.0000E+00
    -10.724  0.1444E-01  0.2389E-03  0.2389E-03  0.2389E-03  0.0000E+00  0.0000E+00  0.0000E+00  0.0000E+00  0.0000E+00
    -10.584  0.3536E-02  0.6777E-04  0.6777E-04  0.6777E-04  0.0000E+00  0.0000E+00  0.0000E+00  0.0000E+00  0.0000E+00
    -10.444  0.1674E-02  0.3571E-04  0.3571E-04  0.3571E-04  0.0000E+00  0.0000E+00  0.0000E+00  0.0000E+00  0.0000E+00
    -10.304  0.1678E-01  0.3905E-03  0.3905E-03  0.3905E-03  0.0000E+00  0.0000E+00  0.0000E+00  0.0000E+00  0.0000E+00
    -10.165  0.1336E-01  0.3448E-03  0.3448E-03  0.3448E-03  0.0000E+00  0.0000E+00  0.0000E+00  0.0000E+00  0.0000E+00
    -10.025  0.8534E-02  0.2399E-03  0.2399E-03  0.2399E-03  0.0000E+00  0.0000E+00  0.0000E+00  0.0000E+00  0.0000E+00
     -9.885  0.6099E-02  0.1884E-03  0.1884E-03  0.1884E-03  0.0000E+00  0.0000E+00  0.0000E+00  0.0000E+00  0.0000E+00
     -9.745  0.2062E-01  0.6745E-03  0.6745E-03  0.6745E-03  0.0000E+00  0.0000E+00  0.0000E+00  0.0000E+00  0.0000E+00
     -9.606  0.1874E-01  0.6601E-03  0.6601E-03  0.6601E-03  0.0000E+00  0.0000E+00  0.0000E+00  0.0000E+00  0.0000E+00
     -9.466  0.9330E-02  0.3478E-03  0.3478E-03  0.3478E-03  0.0000E+00  0.0000E+00  0.0000E+00  0.0000E+00  0.0000E+00
     -9.326  0.4341E-10  0.1708E-11  0.1708E-11  0.1708E-11  0.0000E+00  0.0000E+00  0.0000E+00  0.0000E+00  0.0000E+00
     -9.186  0.1623E-01  0.6849E-03  0.6849E-03  0.6849E-03  0.0000E+00  0.0000E+00  0.0000E+00  0.0000E+00  0.0000E+00
     -9.046  0.9720E-02  0.4270E-03  0.4270E-03  0.4270E-03  0.0000E+00  0.0000E+00  0.0000E+00  0.0000E+00  0.0000E+00
     -8.907  0.1293E-01  0.5931E-03  0.5931E-03  0.5931E-03  0.0000E+00  0.0000E+00  0.0000E+00  0.0000E+00  0.0000E+00
     -8.767  0.1604E-01  0.7922E-03  0.7922E-03  0.7922E-03  0.0000E+00  0.0000E+00  0.0000E+00  0.0000E+00  0.0000E+00
     -8.627  0.1248E-01  0.6493E-03  0.6493E-03  0.6493E-03  0.0000E+00  0.0000E+00  0.0000E+00  0.0000E+00  0.0000E+00
     -8.487  0.2633E-01  0.1405E-02  0.1405E-02  0.1405E-02  0.0000E+00  0.0000E+00  0.0000E+00  0.0000E+00  0.0000E+00
     -8.348  0.2199E-01  0.1230E-02  0.1230E-02  0.1230E-02  0.0000E+00  0.0000E+00  0.0000E+00  0.0000E+00  0.0000E+00
     -8.208  0.1310E-01  0.7403E-03  0.7403E-03  0.7403E-03  0.0000E+00  0.0000E+00  0.0000E+00  0.0000E+00  0.0000E+00
     -8.068  0.2728E-02  0.1533E-03  0.1533E-03  0.1533E-03  0.0000E+00  0.0000E+00  0.0000E+00  0.0000E+00  0.0000E+00
     -7.928  0.6106E-02  0.3877E-03  0.3877E-03  0.3877E-03  0.0000E+00  0.0000E+00  0.0000E+00  0.0000E+00  0.0000E+00
     -7.789  0.2509E-01  0.1644E-02  0.1644E-02  0.1644E-02  0.0000E+00  0.0000E+00  0.0000E+00  0.0000E+00  0.0000E+00
     -7.649  0.1813E-01  0.1266E-02  0.1266E-02  0.1266E-02  0.0000E+00  0.0000E+00  0.0000E+00  0.0000E+00  0.0000E+00
     -7.509  0.1935E-01  0.1280E-02  0.1280E-02  0.1280E-02  0.0000E+00  0.0000E+00  0.0000E+00  0.0000E+00  0.0000E+00
     -7.369  0.2037E-01  0.1451E-02  0.1451E-02  0.1451E-02  0.0000E+00  0.0000E+00  0.0000E+00  0.0000E+00  0.0000E+00
     -7.230  0.2776E-01  0.2030E-02  0.2030E-02  0.2030E-02  0.0000E+00  0.0000E+00  0.0000E+00  0.0000E+00  0.0000E+00
     -7.090  0.2751E-01  0.2073E-02  0.2073E-02  0.2073E-02  0.0000E+00  0.0000E+00  0.0000E+00  0.0000E+00  0.0000E+00
     -6.950  0.3467E-01  0.2490E-02  0.2490E-02  0.2490E-02  0.0000E+00  0.0000E+00  0.0000E+00  0.0000E+00  0.0000E+00
     -6.810  0.2278E-01  0.1807E-02  0.1807E-02  0.1807E-02  0.0000E+00  0.0000E+00  0.0000E+00  0.0000E+00  0.0000E+00
     -6.670  0.2057E-01  0.1689E-02  0.1689E-02  0.1689E-02  0.0000E+00  0.0000E+00  0.0000E+00  0.0000E+00  0.0000E+00
     -6.531  0.2303E-01  0.1781E-02  0.1781E-02  0.1781E-02  0.0000E+00  0.0000E+00  0.0000E+00  0.0000E+00  0.0000E+00
     -6.391  0.1412E-01  0.1294E-02  0.1294E-02  0.1294E-02  0.0000E+00  0.0000E+00  0.0000E+00  0.0000E+00  0.0000E+00
     -6.251  0.2633E-01  0.2001E-02  0.2001E-02  0.2001E-02  0.0000E+00  0.0000E+00  0.0000E+00  0.0000E+00  0.0000E+00
     -6.111  0.2225E-01  0.1584E-02  0.1584E-02  0.1584E-02  0.0000E+00  0.0000E+00  0.0000E+00  0.0000E+00  0.0000E+00
     -5.972  0.4554E-01  0.3623E-02  0.3623E-02  0.3623E-02  0.0000E+00  0.0000E+00  0.0000E+00  0.0000E+00  0.0000E+00
     -5.832  0.1837E-01  0.1608E-02  0.1608E-02  0.1608E-02  0.0000E+00  0.0000E+00  0.0000E+00  0.0000E+00  0.0000E+00
     -5.692  0.2476E-01  0.1880E-02  0.1880E-02  0.1880E-02  0.0000E+00  0.0000E+00  0.0000E+00  0.0000E+00  0.0000E+00
     -5.552  0.2115E-01  0.1642E-02  0.1642E-02  0.1642E-02  0.0000E+00  0.0000E+00  0.0000E+00  0.0000E+00  0.0000E+00
     -5.413  0.4257E-01  0.3805E-02  0.3805E-02  0.3805E-02  0.0000E+00  0.0000E+00  0.0000E+00  0.0000E+00  0.0000E+00
     -5.273  0.1961E-01  0.1724E-02  0.1724E-02  0.1724E-02  0.0000E+00  0.0000E+00  0.0000E+00  0.0000E+00  0.0000E+00
     -5.133  0.2270E-01  0.1907E-02  0.1907E-02  0.1907E-02  0.0000E+00  0.0000E+00  0.0000E+00  0.0000E+00  0.0000E+00
     -4.993  0.2099E-01  0.1911E-02  0.1911E-02  0.1911E-02  0.0000E+00  0.0000E+00  0.0000E+00  0.0000E+00  0.0000E+00
     -4.853  0.4196E-01  0.3754E-02  0.3754E-02  0.3754E-02  0.0000E+00  0.0000E+00  0.0000E+00  0.0000E+00  0.0000E+00
     -4.714  0.1015E-04  0.1272E-05  0.1272E-05  0.1272E-05  0.0000E+00  0.0000E+00  0.0000E+00  0.0000E+00  0.0000E+00
     -4.574  0.2704E-01  0.2900E-02  0.2900E-02  0.2900E-02  0.0000E+00  0.0000E+00  0.0000E+00  0.0000E+00  0.0000E+00
     -4.434  0.1709E-01  0.1642E-02  0.1642E-02  0.1642E-02  0.0000E+00  0.0000E+00  0.0000E+00  0.0000E+00  0.0000E+00
     -4.294  0.3262E-01  0.3292E-02  0.3292E-02  0.3292E-02  0.0000E+00  0.0000E+00  0.0000E+00  0.0000E+00  0.0000E+00
     -4.155  0.1239E-01  0.1365E-02  0.1365E-02  0.1365E-02  0.0000E+00  0.0000E+00  0.0000E+00  0.0000E+00  0.0000E+00
     -4.015  0.2314E-01  0.2501E-02  0.2501E-02  0.2501E-02  0.0000E+00  0.0000E+00  0.0000E+00  0.0000E+00  0.0000E+00
     -3.875  0.1881E-01  0.2065E-02  0.2065E-02  0.2065E-02  0.0000E+00  0.0000E+00  0.0000E+00  0.0000E+00  0.0000E+00
     -3.735  0.2386E-01  0.3031E-02  0.3031E-02  0.3031E-02  0.0000E+00  0.0000E+00  0.0000E+00  0.0000E+00  0.0000E+00
     -3.596  0.1519E-01  0.2326E-02  0.2326E-02  0.2326E-02  0.0000E+00  0.0000E+00  0.0000E+00  0.0000E+00  0.0000E+00
     -3.456  0.1620E-01  0.2772E-02  0.2772E-02  0.2772E-02  0.0000E+00  0.0000E+00  0.0000E+00  0.0000E+00  0.0000E+00
     -3.316  0.6650E-02  0.2332E-02  0.2332E-02  0.2332E-02  0.0000E+00  0.0000E+00  0.0000E+00  0.0000E+00  0.0000E+00
     -3.176  0.5258E-02  0.1964E-02  0.1964E-02  0.1964E-02  0.0000E+00  0.0000E+00  0.0000E+00  0.0000E+00  0.0000E+00
     -3.036  0.1604E-01  0.4743E-02  0.4743E-02  0.4743E-02  0.0000E+00  0.0000E+00  0.0000E+00  0.0000E+00  0.0000E+00
     -2.897  0.1157E-01  0.2422E-02  0.2422E-02  0.2422E-02  0.0000E+00  0.0000E+00  0.0000E+00  0.0000E+00  0.0000E+00
     -2.757  0.5681E-02  0.2552E-02  0.2552E-02  0.2552E-02  0.0000E+00  0.0000E+00  0.0000E+00  0.0000E+00  0.0000E+00
     -2.617  0.2609E-02  0.1598E-02  0.1598E-02  0.1598E-02  0.0000E+00  0.0000E+00  0.0000E+00  0.0000E+00  0.0000E+00
     -2.477  0.1012E-01  0.3962E-02  0.3962E-02  0.3962E-02  0.0000E+00  0.0000E+00  0.0000E+00  0.0000E+00  0.0000E+00
     -2.338  0.1196E-01  0.3932E-02  0.3932E-02  0.3932E-02  0.0000E+00  0.0000E+00  0.0000E+00  0.0000E+00  0.0000E+00
     -2.198  0.9664E-02  0.5341E-02  0.5341E-02  0.5341E-02  0.0000E+00  0.0000E+00  0.0000E+00  0.0000E+00  0.0000E+00
     -2.058  0.9524E-02  0.3976E-02  0.3976E-02  0.3976E-02  0.0000E+00  0.0000E+00  0.0000E+00  0.0000E+00  0.0000E+00
     -1.918  0.2047E-01  0.7575E-02  0.7575E-02  0.7575E-02  0.0000E+00  0.0000E+00  0.0000E+00  0.0000E+00  0.0000E+00
     -1.779  0.3602E-01  0.1194E-01  0.1194E-01  0.1194E-01  0.0000E+00  0.0000E+00  0.0000E+00  0.0000E+00  0.0000E+00
     -1.639  0.2491E-01  0.9213E-02  0.9213E-02  0.9213E-02  0.0000E+00  0.0000E+00  0.0000E+00  0.0000E+00  0.0000E+00
     -1.499  0.9540E-02  0.4585E-02  0.4585E-02  0.4585E-02  0.0000E+00  0.0000E+00  0.0000E+00  0.0000E+00  0.0000E+00
     -1.359  0.2946E-01  0.8739E-02  0.8739E-02  0.8739E-02  0.0000E+00  0.0000E+00  0.0000E+00  0.0000E+00  0.0000E+00
     -1.219  0.2050E-01  0.8855E-02  0.8855E-02  0.8855E-02  0.0000E+00  0.0000E+00  0.0000E+00  0.0000E+00  0.0000E+00
     -1.080  0.1464E-01  0.5695E-02  0.5695E-02  0.5695E-02  0.0000E+00  0.0000E+00  0.0000E+00  0.0000E+00  0.0000E+00
     -0.940  0.1236E-01  0.3846E-02  0.3846E-02  0.3846E-02  0.0000E+00  0.0000E+00  0.0000E+00  0.0000E+00  0.0000E+00
     -0.800  0.2208E-01  0.6901E-02  0.6901E-02  0.6901E-02  0.0000E+00  0.0000E+00  0.0000E+00  0.0000E+00  0.0000E+00
     -0.660  0.1673E-01  0.6862E-02  0.6862E-02  0.6862E-02  0.0000E+00  0.0000E+00  0.0000E+00  0.0000E+00  0.0000E+00
     -0.521  0.1589E-01  0.6078E-02  0.6078E-02  0.6078E-02  0.0000E+00  0.0000E+00  0.0000E+00  0.0000E+00  0.0000E+00
     -0.381  0.1859E-01  0.6782E-02  0.6782E-02  0.6782E-02  0.0000E+00  0.0000E+00  0.0000E+00  0.0000E+00  0.0000E+00
     -0.241  0.8971E-02  0.4651E-02  0.4651E-02  0.4651E-02  0.0000E+00  0.0000E+00  0.0000E+00  0.0000E+00  0.0000E+00
     -0.101  0.1586E-01  0.5839E-02  0.5839E-02  0.5839E-02  0.0000E+00  0.0000E+00  0.0000E+00  0.0000E+00  0.0000E+00
      0.038  0.9477E-02  0.3590E-02  0.3590E-02  0.3590E-02  0.0000E+00  0.0000E+00  0.0000E+00  0.0000E+00  0.0000E+00
      0.178  0.1856E-01  0.8107E-02  0.8107E-02  0.8107E-02  0.0000E+00  0.0000E+00  0.0000E+00  0.0000E+00  0.0000E+00
      0.318  0.8095E-02  0.4932E-02  0.4932E-02  0.4932E-02  0.0000E+00  0.0000E+00  0.0000E+00  0.0000E+00  0.0000E+00
      0.458  0.6213E-02  0.3320E-02  0.3320E-02  0.3320E-02  0.0000E+00  0.0000E+00  0.0000E+00  0.0000E+00  0.0000E+00
      0.597  0.7326E-02  0.9941E-02  0.9941E-02  0.9941E-02  0.0000E+00  0.0000E+00  0.0000E+00  0.0000E+00  0.0000E+00
      0.737  0.2742E-02  0.1916E-02  0.1916E-02  0.1916E-02  0.0000E+00  0.0000E+00  0.0000E+00  0.0000E+00  0.0000E+00
      0.877  0.5079E-02  0.8641E-02  0.8641E-02  0.8641E-02  0.0000E+00  0.0000E+00  0.0000E+00  0.0000E+00  0.0000E+00
      1.017  0.1247E-01  0.1180E-01  0.1180E-01  0.1180E-01  0.0000E+00  0.0000E+00  0.0000E+00  0.0000E+00  0.0000E+00
      1.157  0.1028E-01  0.1724E-01  0.1724E-01  0.1724E-01  0.0000E+00  0.0000E+00  0.0000E+00  0.0000E+00  0.0000E+00
      1.296  0.1155E-01  0.8778E-02  0.8778E-02  0.8778E-02  0.0000E+00  0.0000E+00  0.0000E+00  0.0000E+00  0.0000E+00
      1.436  0.4414E-02  0.7289E-02  0.7289E-02  0.7289E-02  0.0000E+00  0.0000E+00  0.0000E+00  0.0000E+00  0.0000E+00
      1.576  0.1534E-01  0.1933E-01  0.1933E-01  0.1933E-01  0.0000E+00  0.0000E+00  0.0000E+00  0.0000E+00  0.0000E+00
      1.716  0.4796E-02  0.7882E-02  0.7882E-02  0.7882E-02  0.0000E+00  0.0000E+00  0.0000E+00  0.0000E+00  0.0000E+00
      1.855  0.9773E-02  0.1524E-01  0.1524E-01  0.1524E-01  0.0000E+00  0.0000E+00  0.0000E+00  0.0000E+00  0.0000E+00
      1.995  0.1039E-01  0.1175E-01  0.1175E-01  0.1175E-01  0.0000E+00  0.0000E+00  0.0000E+00  0.0000E+00  0.0000E+00
      2.135  0.1939E-02  0.5792E-02  0.5792E-02  0.5792E-02  0.0000E+00  0.0000E+00  0.0000E+00  0.0000E+00  0.0000E+00
      2.275  0.1427E-01  0.2382E-01  0.2382E-01  0.2382E-01  0.0000E+00  0.0000E+00  0.0000E+00  0.0000E+00  0.0000E+00
      2.414  0.1035E-01  0.1506E-01  0.1506E-01  0.1506E-01  0.0000E+00  0.0000E+00  0.0000E+00  0.0000E+00  0.0000E+00
      2.554  0.1133E-01  0.1227E-01  0.1227E-01  0.1227E-01  0.0000E+00  0.0000E+00  0.0000E+00  0.0000E+00  0.0000E+00
      2.694  0.1103E-01  0.1638E-01  0.1638E-01  0.1638E-01  0.0000E+00  0.0000E+00  0.0000E+00  0.0000E+00  0.0000E+00
      2.834  0.8943E-02  0.1985E-01  0.1985E-01  0.1985E-01  0.0000E+00  0.0000E+00  0.0000E+00  0.0000E+00  0.0000E+00
      2.974  0.4686E-02  0.1806E-01  0.1806E-01  0.1806E-01  0.0000E+00  0.0000E+00  0.0000E+00  0.0000E+00  0.0000E+00
      3.113  0.1396E-01  0.2474E-01  0.2474E-01  0.2474E-01  0.0000E+00  0.0000E+00  0.0000E+00  0.0000E+00  0.0000E+00
      3.253  0.1856E-02  0.6670E-02  0.6670E-02  0.6670E-02  0.0000E+00  0.0000E+00  0.0000E+00  0.0000E+00  0.0000E+00
      3.393  0.4400E-02  0.1879E-01  0.1879E-01  0.1879E-01  0.0000E+00  0.0000E+00  0.0000E+00  0.0000E+00  0.0000E+00
      3.533  0.9414E-02  0.2639E-01  0.2639E-01  0.2639E-01  0.0000E+00  0.0000E+00  0.0000E+00  0.0000E+00  0.0000E+00
      3.672  0.5572E-02  0.1763E-01  0.1763E-01  0.1763E-01  0.0000E+00  0.0000E+00  0.0000E+00  0.0000E+00  0.0000E+00
      3.812  0.1146E-01  0.3443E-01  0.3443E-01  0.3443E-01  0.0000E+00  0.0000E+00  0.0000E+00  0.0000E+00  0.0000E+00
      3.952  0.5573E-02  0.2373E-01  0.2373E-01  0.2373E-01  0.0000E+00  0.0000E+00  0.0000E+00  0.0000E+00  0.0000E+00
      4.092  0.5244E-02  0.2517E-01  0.2517E-01  0.2517E-01  0.0000E+00  0.0000E+00  0.0000E+00  0.0000E+00  0.0000E+00
      4.231  0.3815E-02  0.2220E-01  0.2220E-01  0.2220E-01  0.0000E+00  0.0000E+00  0.0000E+00  0.0000E+00  0.0000E+00
      4.371  0.5190E-02  0.3296E-01  0.3296E-01  0.3296E-01  0.0000E+00  0.0000E+00  0.0000E+00  0.0000E+00  0.0000E+00
      4.511  0.8680E-02  0.2084E-01  0.2084E-01  0.2084E-01  0.0000E+00  0.0000E+00  0.0000E+00  0.0000E+00  0.0000E+00
      4.651  0.6316E-02  0.1963E-01  0.1963E-01  0.1963E-01  0.0000E+00  0.0000E+00  0.0000E+00  0.0000E+00  0.0000E+00
      4.791  0.4814E-02  0.2735E-01  0.2735E-01  0.2735E-01  0.0000E+00  0.0000E+00  0.0000E+00  0.0000E+00  0.0000E+00
      4.930  0.2515E-02  0.2297E-01  0.2297E-01  0.2297E-01  0.0000E+00  0.0000E+00  0.0000E+00  0.0000E+00  0.0000E+00
      5.070  0.5004E-02  0.3157E-01  0.3157E-01  0.3157E-01  0.0000E+00  0.0000E+00  0.0000E+00  0.0000E+00  0.0000E+00
      5.210  0.4654E-02  0.2116E-01  0.2116E-01  0.2116E-01  0.0000E+00  0.0000E+00  0.0000E+00  0.0000E+00  0.0000E+00
      5.350  0.4678E-02  0.2462E-01  0.2462E-01  0.2462E-01  0.0000E+00  0.0000E+00  0.0000E+00  0.0000E+00  0.0000E+00
      5.489  0.1698E-02  0.1339E-01  0.1339E-01  0.1339E-01  0.0000E+00  0.0000E+00  0.0000E+00  0.0000E+00  0.0000E+00
      5.629  0.2381E-02  0.2042E-01  0.2042E-01  0.2042E-01  0.0000E+00  0.0000E+00  0.0000E+00  0.0000E+00  0.0000E+00
      5.769  0.2090E-02  0.1359E-01  0.1359E-01  0.1359E-01  0.0000E+00  0.0000E+00  0.0000E+00  0.0000E+00  0.0000E+00
      5.909  0.3205E-02  0.2077E-01  0.2077E-01  0.2077E-01  0.0000E+00  0.0000E+00  0.0000E+00  0.0000E+00  0.0000E+00
      6.048  0.3533E-02  0.1588E-01  0.1588E-01  0.1588E-01  0.0000E+00  0.0000E+00  0.0000E+00  0.0000E+00  0.0000E+00
      6.188  0.1147E-02  0.1285E-01  0.1285E-01  0.1285E-01  0.0000E+00  0.0000E+00  0.0000E+00  0.0000E+00  0.0000E+00
      6.328  0.2164E-02  0.3145E-01  0.3145E-01  0.3145E-01  0.0000E+00  0.0000E+00  0.0000E+00  0.0000E+00  0.0000E+00
      6.468  0.1183E-02  0.9812E-02  0.9812E-02  0.9812E-02  0.0000E+00  0.0000E+00  0.0000E+00  0.0000E+00  0.0000E+00
      6.608  0.2575E-02  0.2871E-01  0.2871E-01  0.2871E-01  0.0000E+00  0.0000E+00  0.0000E+00  0.0000E+00  0.0000E+00
      6.747  0.1369E-02  0.2067E-01  0.2067E-01  0.2067E-01  0.0000E+00  0.0000E+00  0.0000E+00  0.0000E+00  0.0000E+00
      6.887  0.1767E-02  0.1879E-01  0.1879E-01  0.1879E-01  0.0000E+00  0.0000E+00  0.0000E+00  0.0000E+00  0.0000E+00
      7.027  0.1246E-02  0.1917E-01  0.1917E-01  0.1917E-01  0.0000E+00  0.0000E+00  0.0000E+00  0.0000E+00  0.0000E+00
      7.167  0.7511E-03  0.1010E-01  0.1010E-01  0.1010E-01  0.0000E+00  0.0000E+00  0.0000E+00  0.0000E+00  0.0000E+00
      7.306  0.6781E-03  0.1356E-01  0.1356E-01  0.1356E-01  0.0000E+00  0.0000E+00  0.0000E+00  0.0000E+00  0.0000E+00
      7.446  0.1093E-02  0.1313E-01  0.1313E-01  0.1313E-01  0.0000E+00  0.0000E+00  0.0000E+00  0.0000E+00  0.0000E+00
      7.586  0.1346E-02  0.1880E-01  0.1880E-01  0.1880E-01  0.0000E+00  0.0000E+00  0.0000E+00  0.0000E+00  0.0000E+00
      7.726  0.8279E-03  0.8983E-02  0.8983E-02  0.8983E-02  0.0000E+00  0.0000E+00  0.0000E+00  0.0000E+00  0.0000E+00
      7.865  0.1503E-02  0.1237E-01  0.1237E-01  0.1237E-01  0.0000E+00  0.0000E+00  0.0000E+00  0.0000E+00  0.0000E+00
      8.005  0.9154E-03  0.9261E-02  0.9261E-02  0.9261E-02  0.0000E+00  0.0000E+00  0.0000E+00  0.0000E+00  0.0000E+00
      8.145  0.6213E-03  0.7515E-02  0.7515E-02  0.7515E-02  0.0000E+00  0.0000E+00  0.0000E+00  0.0000E+00  0.0000E+00
      8.285  0.4717E-03  0.8021E-02  0.8021E-02  0.8021E-02  0.0000E+00  0.0000E+00  0.0000E+00  0.0000E+00  0.0000E+00
      8.424  0.2089E-03  0.1016E-01  0.1016E-01  0.1016E-01  0.0000E+00  0.0000E+00  0.0000E+00  0.0000E+00  0.0000E+00
      8.564  0.3018E-03  0.6815E-02  0.6815E-02  0.6815E-02  0.0000E+00  0.0000E+00  0.0000E+00  0.0000E+00  0.0000E+00
      8.704  0.3597E-03  0.6308E-02  0.6308E-02  0.6308E-02  0.0000E+00  0.0000E+00  0.0000E+00  0.0000E+00  0.0000E+00
      8.844  0.2761E-03  0.5177E-02  0.5177E-02  0.5177E-02  0.0000E+00  0.0000E+00  0.0000E+00  0.0000E+00  0.0000E+00
      8.984  0.1021E-12  0.1590E-02  0.1590E-02  0.1590E-02  0.0000E+00  0.0000E+00  0.0000E+00  0.0000E+00  0.0000E+00
      9.123  0.9023E-04  0.3137E-02  0.3137E-02  0.3137E-02  0.0000E+00  0.0000E+00  0.0000E+00  0.0000E+00  0.0000E+00
      9.263  0.5208E-04  0.3986E-03  0.3986E-03  0.3986E-03  0.0000E+00  0.0000E+00  0.0000E+00  0.0000E+00  0.0000E+00
      9.403  0.7169E-12  0.2437E-10  0.2437E-10  0.2437E-10  0.0000E+00  0.0000E+00  0.0000E+00  0.0000E+00  0.0000E+00
      9.543  0.4497E-05  0.1281E-03  0.1281E-03  0.1281E-03  0.0000E+00  0.0000E+00  0.0000E+00  0.0000E+00  0.0000E+00
      9.682  0.2412E-14  0.1993E-03  0.1993E-03  0.1993E-03  0.0000E+00  0.0000E+00  0.0000E+00  0.0000E+00  0.0000E+00
      9.822  0.0000E+00  0.0000E+00  0.0000E+00  0.0000E+00  0.0000E+00  0.0000E+00  0.0000E+00  0.0000E+00  0.0000E+00
      9.962  0.0000E+00  0.0000E+00  0.0000E+00  0.0000E+00  0.0000E+00  0.0000E+00  0.0000E+00  0.0000E+00  0.0000E+00
     10.102  0.0000E+00  0.0000E+00  0.0000E+00  0.0000E+00  0.0000E+00  0.0000E+00  0.0000E+00  0.0000E+00  0.0000E+00
     10.241  0.0000E+00  0.0000E+00  0.0000E+00  0.0000E+00  0.0000E+00  0.0000E+00  0.0000E+00  0.0000E+00  0.0000E+00
     10.381  0.0000E+00  0.0000E+00  0.0000E+00  0.0000E+00  0.0000E+00  0.0000E+00  0.0000E+00  0.0000E+00  0.0000E+00
     10.521  0.0000E+00  0.0000E+00  0.0000E+00  0.0000E+00  0.0000E+00  0.0000E+00  0.0000E+00  0.0000E+00  0.0000E+00
     10.661  0.0000E+00  0.0000E+00  0.0000E+00  0.0000E+00  0.0000E+00  0.0000E+00  0.0000E+00  0.0000E+00  0.0000E+00
     10.801  0.0000E+00  0.0000E+00  0.0000E+00  0.0000E+00  0.0000E+00  0.0000E+00  0.0000E+00  0.0000E+00  0.0000E+00
     10.940  0.0000E+00  0.0000E+00  0.0000E+00  0.0000E+00  0.0000E+00  0.0000E+00  0.0000E+00  0.0000E+00  0.0000E+00
     11.080  0.0000E+00  0.0000E+00  0.0000E+00  0.0000E+00  0.0000E+00  0.0000E+00  0.0000E+00  0.0000E+00  0.0000E+00
     11.220  0.0000E+00  0.0000E+00  0.0000E+00  0.0000E+00  0.0000E+00  0.0000E+00  0.0000E+00  0.0000E+00  0.0000E+00
     11.360  0.0000E+00  0.0000E+00  0.0000E+00  0.0000E+00  0.0000E+00  0.0000E+00  0.0000E+00  0.0000E+00  0.0000E+00
     11.499  0.0000E+00  0.0000E+00  0.0000E+00  0.0000E+00  0.0000E+00  0.0000E+00  0.0000E+00  0.0000E+00  0.0000E+00
     11.639  0.0000E+00  0.0000E+00  0.0000E+00  0.0000E+00  0.0000E+00  0.0000E+00  0.0000E+00  0.0000E+00  0.0000E+00
     11.779  0.0000E+00  0.0000E+00  0.0000E+00  0.0000E+00  0.0000E+00  0.0000E+00  0.0000E+00  0.0000E+00  0.0000E+00
     11.919  0.0000E+00  0.0000E+00  0.0000E+00  0.0000E+00  0.0000E+00  0.0000E+00  0.0000E+00  0.0000E+00  0.0000E+00
     12.058  0.0000E+00  0.0000E+00  0.0000E+00  0.0000E+00  0.0000E+00  0.0000E+00  0.0000E+00  0.0000E+00  0.0000E+00
     12.198  0.0000E+00  0.0000E+00  0.0000E+00  0.0000E+00  0.0000E+00  0.0000E+00  0.0000E+00  0.0000E+00  0.0000E+00
     12.338  0.0000E+00  0.0000E+00  0.0000E+00  0.0000E+00  0.0000E+00  0.0000E+00  0.0000E+00  0.0000E+00  0.0000E+00
     12.478  0.0000E+00  0.0000E+00  0.0000E+00  0.0000E+00  0.0000E+00  0.0000E+00  0.0000E+00  0.0000E+00  0.0000E+00
     12.618  0.0000E+00  0.0000E+00  0.0000E+00  0.0000E+00  0.0000E+00  0.0000E+00  0.0000E+00  0.0000E+00  0.0000E+00
     12.757  0.0000E+00  0.0000E+00  0.0000E+00  0.0000E+00  0.0000E+00  0.0000E+00  0.0000E+00  0.0000E+00  0.0000E+00
     12.897  0.0000E+00  0.0000E+00  0.0000E+00  0.0000E+00  0.0000E+00  0.0000E+00  0.0000E+00  0.0000E+00  0.0000E+00
     13.037  0.0000E+00  0.0000E+00  0.0000E+00  0.0000E+00  0.0000E+00  0.0000E+00  0.0000E+00  0.0000E+00  0.0000E+00
     13.177  0.0000E+00  0.0000E+00  0.0000E+00  0.0000E+00  0.0000E+00  0.0000E+00  0.0000E+00  0.0000E+00  0.0000E+00
     13.316  0.0000E+00  0.0000E+00  0.0000E+00  0.0000E+00  0.0000E+00  0.0000E+00  0.0000E+00  0.0000E+00  0.0000E+00
     13.456  0.0000E+00  0.0000E+00  0.0000E+00  0.0000E+00  0.0000E+00  0.0000E+00  0.0000E+00  0.0000E+00  0.0000E+00
     13.596  0.0000E+00  0.0000E+00  0.0000E+00  0.0000E+00  0.0000E+00  0.0000E+00  0.0000E+00  0.0000E+00  0.0000E+00
     13.736  0.4095E-16  0.1207E-16  0.1207E-16  0.1207E-16  0.0000E+00  0.0000E+00  0.0000E+00  0.0000E+00  0.0000E+00
     13.875  0.3047E-02  0.9894E-03  0.9894E-03  0.9894E-03  0.0000E+00  0.0000E+00  0.0000E+00  0.0000E+00  0.0000E+00
     14.015  0.2295E-02  0.8712E-03  0.8712E-03  0.8712E-03  0.0000E+00  0.0000E+00  0.0000E+00  0.0000E+00  0.0000E+00
     14.155  0.1255E-02  0.5349E-03  0.5349E-03  0.5349E-03  0.0000E+00  0.0000E+00  0.0000E+00  0.0000E+00  0.0000E+00
     14.295  0.4277E-02  0.1032E-02  0.1032E-02  0.1032E-02  0.0000E+00  0.0000E+00  0.0000E+00  0.0000E+00  0.0000E+00
     14.434  0.2617E-02  0.8801E-03  0.8801E-03  0.8801E-03  0.0000E+00  0.0000E+00  0.0000E+00  0.0000E+00  0.0000E+00
     14.574  0.1120E-01  0.4391E-02  0.4391E-02  0.4391E-02  0.0000E+00  0.0000E+00  0.0000E+00  0.0000E+00  0.0000E+00
     14.714  0.5869E-02  0.3979E-02  0.3979E-02  0.3979E-02  0.0000E+00  0.0000E+00  0.0000E+00  0.0000E+00  0.0000E+00
     14.854  0.1054E-01  0.4814E-02  0.4814E-02  0.4814E-02  0.0000E+00  0.0000E+00  0.0000E+00  0.0000E+00  0.0000E+00
     14.994  0.1359E-01  0.7071E-02  0.7071E-02  0.7071E-02  0.0000E+00  0.0000E+00  0.0000E+00  0.0000E+00  0.0000E+00
     15.133  0.8834E-02  0.7936E-02  0.7936E-02  0.7936E-02  0.0000E+00  0.0000E+00  0.0000E+00  0.0000E+00  0.0000E+00
     15.273  0.1130E-01  0.7930E-02  0.7930E-02  0.7930E-02  0.0000E+00  0.0000E+00  0.0000E+00  0.0000E+00  0.0000E+00
     15.413  0.1025E-01  0.4150E-02  0.4150E-02  0.4150E-02  0.0000E+00  0.0000E+00  0.0000E+00  0.0000E+00  0.0000E+00
     15.553  0.7329E-02  0.6691E-02  0.6691E-02  0.6691E-02  0.0000E+00  0.0000E+00  0.0000E+00  0.0000E+00  0.0000E+00
     15.692  0.7804E-02  0.1048E-01  0.1048E-01  0.1048E-01  0.0000E+00  0.0000E+00  0.0000E+00  0.0000E+00  0.0000E+00
     15.832  0.1091E-01  0.8809E-02  0.8809E-02  0.8809E-02  0.0000E+00  0.0000E+00  0.0000E+00  0.0000E+00  0.0000E+00
     15.972  0.1296E-01  0.8499E-02  0.8499E-02  0.8499E-02  0.0000E+00  0.0000E+00  0.0000E+00  0.0000E+00  0.0000E+00
     16.112  0.9196E-02  0.6952E-02  0.6952E-02  0.6952E-02  0.0000E+00  0.0000E+00  0.0000E+00  0.0000E+00  0.0000E+00
     16.251  0.1288E-01  0.1087E-01  0.1087E-01  0.1087E-01  0.0000E+00  0.0000E+00  0.0000E+00  0.0000E+00  0.0000E+00
     16.391  0.1024E-01  0.1449E-01  0.1449E-01  0.1449E-01  0.0000E+00  0.0000E+00  0.0000E+00  0.0000E+00  0.0000E+00
     16.531  0.4503E-02  0.6211E-02  0.6211E-02  0.6211E-02  0.0000E+00  0.0000E+00  0.0000E+00  0.0000E+00  0.0000E+00
     16.671  0.6588E-02  0.8546E-02  0.8546E-02  0.8546E-02  0.0000E+00  0.0000E+00  0.0000E+00  0.0000E+00  0.0000E+00
     16.811  0.8057E-02  0.1246E-01  0.1246E-01  0.1246E-01  0.0000E+00  0.0000E+00  0.0000E+00  0.0000E+00  0.0000E+00
     16.950  0.8219E-02  0.8261E-02  0.8261E-02  0.8261E-02  0.0000E+00  0.0000E+00  0.0000E+00  0.0000E+00  0.0000E+00
     17.090  0.1470E-01  0.1752E-01  0.1752E-01  0.1752E-01  0.0000E+00  0.0000E+00  0.0000E+00  0.0000E+00  0.0000E+00
     17.230  0.5845E-02  0.1295E-01  0.1295E-01  0.1295E-01  0.0000E+00  0.0000E+00  0.0000E+00  0.0000E+00  0.0000E+00
     17.370  0.1220E-01  0.1982E-01  0.1982E-01  0.1982E-01  0.0000E+00  0.0000E+00  0.0000E+00  0.0000E+00  0.0000E+00
     17.509  0.9501E-02  0.1113E-01  0.1113E-01  0.1113E-01  0.0000E+00  0.0000E+00  0.0000E+00  0.0000E+00  0.0000E+00
     17.649  0.1820E-01  0.3373E-01  0.3373E-01  0.3373E-01  0.0000E+00  0.0000E+00  0.0000E+00  0.0000E+00  0.0000E+00
     17.789  0.9538E-02  0.1526E-01  0.1526E-01  0.1526E-01  0.0000E+00  0.0000E+00  0.0000E+00  0.0000E+00  0.0000E+00
     17.929  0.1750E-01  0.3323E-01  0.3323E-01  0.3323E-01  0.0000E+00  0.0000E+00  0.0000E+00  0.0000E+00  0.0000E+00
     18.068  0.8660E-02  0.1483E-01  0.1483E-01  0.1483E-01  0.0000E+00  0.0000E+00  0.0000E+00  0.0000E+00  0.0000E+00
     18.208  0.1272E-01  0.1716E-01  0.1716E-01  0.1716E-01  0.0000E+00  0.0000E+00  0.0000E+00  0.0000E+00  0.0000E+00
     18.348  0.2794E-01  0.2636E-01  0.2636E-01  0.2636E-01  0.0000E+00  0.0000E+00  0.0000E+00  0.0000E+00  0.0000E+00
     18.488  0.2037E-01  0.1673E-01  0.1673E-01  0.1673E-01  0.0000E+00  0.0000E+00  0.0000E+00  0.0000E+00  0.0000E+00
     18.628  0.2122E-01  0.1860E-01  0.1860E-01  0.1860E-01  0.0000E+00  0.0000E+00  0.0000E+00  0.0000E+00  0.0000E+00
     18.767  0.2550E-01  0.1520E-01  0.1520E-01  0.1520E-01  0.0000E+00  0.0000E+00  0.0000E+00  0.0000E+00  0.0000E+00
     18.907  0.1206E-01  0.1636E-01  0.1636E-01  0.1636E-01  0.0000E+00  0.0000E+00  0.0000E+00  0.0000E+00  0.0000E+00
     19.047  0.1942E-01  0.1704E-01  0.1704E-01  0.1704E-01  0.0000E+00  0.0000E+00  0.0000E+00  0.0000E+00  0.0000E+00
     19.187  0.2274E-01  0.1720E-01  0.1720E-01  0.1720E-01  0.0000E+00  0.0000E+00  0.0000E+00  0.0000E+00  0.0000E+00
     19.326  0.1160E-01  0.1116E-01  0.1116E-01  0.1116E-01  0.0000E+00  0.0000E+00  0.0000E+00  0.0000E+00  0.0000E+00
     19.466  0.8005E-02  0.1327E-01  0.1327E-01  0.1327E-01  0.0000E+00  0.0000E+00  0.0000E+00  0.0000E+00  0.0000E+00
     19.606  0.1478E-01  0.2180E-01  0.2180E-01  0.2180E-01  0.0000E+00  0.0000E+00  0.0000E+00  0.0000E+00  0.0000E+00
     19.746  0.1482E-01  0.2099E-01  0.2099E-01  0.2099E-01  0.0000E+00  0.0000E+00  0.0000E+00  0.0000E+00  0.0000E+00
     19.885  0.1571E-01  0.2051E-01  0.2051E-01  0.2051E-01  0.0000E+00  0.0000E+00  0.0000E+00  0.0000E+00  0.0000E+00
     20.025  0.9175E-02  0.8080E-02  0.8080E-02  0.8080E-02  0.0000E+00  0.0000E+00  0.0000E+00  0.0000E+00  0.0000E+00
     20.165  0.1153E-01  0.2241E-01  0.2241E-01  0.2241E-01  0.0000E+00  0.0000E+00  0.0000E+00  0.0000E+00  0.0000E+00
     20.305  0.8780E-04  0.1636E-03  0.1636E-03  0.1636E-03  0.0000E+00  0.0000E+00  0.0000E+00  0.0000E+00  0.0000E+00
     20.445  0.3904E-02  0.1236E-01  0.1236E-01  0.1236E-01  0.0000E+00  0.0000E+00  0.0000E+00  0.0000E+00  0.0000E+00
     20.584  0.7887E-02  0.1223E-01  0.1223E-01  0.1223E-01  0.0000E+00  0.0000E+00  0.0000E+00  0.0000E+00  0.0000E+00
     20.724  0.1378E-01  0.1805E-01  0.1805E-01  0.1805E-01  0.0000E+00  0.0000E+00  0.0000E+00  0.0000E+00  0.0000E+00
     20.864  0.8405E-02  0.6030E-02  0.6030E-02  0.6030E-02  0.0000E+00  0.0000E+00  0.0000E+00  0.0000E+00  0.0000E+00
     21.004  0.9653E-02  0.1151E-01  0.1151E-01  0.1151E-01  0.0000E+00  0.0000E+00  0.0000E+00  0.0000E+00  0.0000E+00
     21.143  0.1108E-01  0.2072E-01  0.2072E-01  0.2072E-01  0.0000E+00  0.0000E+00  0.0000E+00  0.0000E+00  0.0000E+00
     21.283  0.6814E-02  0.9074E-02  0.9074E-02  0.9074E-02  0.0000E+00  0.0000E+00  0.0000E+00  0.0000E+00  0.0000E+00
     21.423  0.2802E-01  0.2358E-01  0.2358E-01  0.2358E-01  0.0000E+00  0.0000E+00  0.0000E+00  0.0000E+00  0.0000E+00
     21.563  0.1029E-01  0.1977E-01  0.1977E-01  0.1977E-01  0.0000E+00  0.0000E+00  0.0000E+00  0.0000E+00  0.0000E+00
     21.702  0.8985E-02  0.1041E-01  0.1041E-01  0.1041E-01  0.0000E+00  0.0000E+00  0.0000E+00  0.0000E+00  0.0000E+00
     21.842  0.2632E-01  0.1994E-01  0.1994E-01  0.1994E-01  0.0000E+00  0.0000E+00  0.0000E+00  0.0000E+00  0.0000E+00
     21.982  0.1696E-01  0.1390E-01  0.1390E-01  0.1390E-01  0.0000E+00  0.0000E+00  0.0000E+00  0.0000E+00  0.0000E+00
     22.122  0.2248E-01  0.1811E-01  0.1811E-01  0.1811E-01  0.0000E+00  0.0000E+00  0.0000E+00  0.0000E+00  0.0000E+00
     22.261  0.2759E-01  0.2689E-01  0.2689E-01  0.2689E-01  0.0000E+00  0.0000E+00  0.0000E+00  0.0000E+00  0.0000E+00
     22.401  0.9502E-02  0.1108E-01  0.1108E-01  0.1108E-01  0.0000E+00  0.0000E+00  0.0000E+00  0.0000E+00  0.0000E+00
     22.541  0.1147E-01  0.1665E-01  0.1665E-01  0.1665E-01  0.0000E+00  0.0000E+00  0.0000E+00  0.0000E+00  0.0000E+00
     22.681  0.2459E-01  0.2047E-01  0.2047E-01  0.2047E-01  0.0000E+00  0.0000E+00  0.0000E+00  0.0000E+00  0.0000E+00
     22.821  0.2155E-01  0.2503E-01  0.2503E-01  0.2503E-01  0.0000E+00  0.0000E+00  0.0000E+00  0.0000E+00  0.0000E+00
     22.960  0.3420E-01  0.1745E-01  0.1745E-01  0.1745E-01  0.0000E+00  0.0000E+00  0.0000E+00  0.0000E+00  0.0000E+00
     23.100  0.3067E-01  0.1485E-01  0.1485E-01  0.1485E-01  0.0000E+00  0.0000E+00  0.0000E+00  0.0000E+00  0.0000E+00
     23.240  0.4531E-01  0.2844E-01  0.2844E-01  0.2844E-01  0.0000E+00  0.0000E+00  0.0000E+00  0.0000E+00  0.0000E+00
     23.380  0.2003E-01  0.8452E-02  0.8452E-02  0.8452E-02  0.0000E+00  0.0000E+00  0.0000E+00  0.0000E+00  0.0000E+00
     23.519  0.9327E-02  0.1408E-01  0.1408E-01  0.1408E-01  0.0000E+00  0.0000E+00  0.0000E+00  0.0000E+00  0.0000E+00
     23.659  0.8567E-02  0.1644E-01  0.1644E-01  0.1644E-01  0.0000E+00  0.0000E+00  0.0000E+00  0.0000E+00  0.0000E+00
     23.799  0.1661E-01  0.2142E-01  0.2142E-01  0.2142E-01  0.0000E+00  0.0000E+00  0.0000E+00  0.0000E+00  0.0000E+00
     23.939  0.1910E-01  0.3070E-01  0.3070E-01  0.3070E-01  0.0000E+00  0.0000E+00  0.0000E+00  0.0000E+00  0.0000E+00
     24.078  0.1666E-01  0.2998E-01  0.2998E-01  0.2998E-01  0.0000E+00  0.0000E+00  0.0000E+00  0.0000E+00  0.0000E+00
     24.218  0.7704E-02  0.1561E-01  0.1561E-01  0.1561E-01  0.0000E+00  0.0000E+00  0.0000E+00  0.0000E+00  0.0000E+00
     24.358  0.1196E-01  0.3021E-01  0.3021E-01  0.3021E-01  0.0000E+00  0.0000E+00  0.0000E+00  0.0000E+00  0.0000E+00
     24.498  0.1508E-01  0.3847E-01  0.3847E-01  0.3847E-01  0.0000E+00  0.0000E+00  0.0000E+00  0.0000E+00  0.0000E+00
     24.638  0.8913E-02  0.2226E-01  0.2226E-01  0.2226E-01  0.0000E+00  0.0000E+00  0.0000E+00  0.0000E+00  0.0000E+00
     24.777  0.1652E-02  0.4153E-02  0.4153E-02  0.4153E-02  0.0000E+00  0.0000E+00  0.0000E+00  0.0000E+00  0.0000E+00
     24.917  0.6754E-02  0.1961E-01  0.1961E-01  0.1961E-01  0.0000E+00  0.0000E+00  0.0000E+00  0.0000E+00  0.0000E+00
     25.057  0.4882E-02  0.2052E-01  0.2052E-01  0.2052E-01  0.0000E+00  0.0000E+00  0.0000E+00  0.0000E+00  0.0000E+00
     25.197  0.2898E-02  0.2168E-01  0.2168E-01  0.2168E-01  0.0000E+00  0.0000E+00  0.0000E+00  0.0000E+00  0.0000E+00
     25.336  0.1625E-02  0.8050E-02  0.8050E-02  0.8050E-02  0.0000E+00  0.0000E+00  0.0000E+00  0.0000E+00  0.0000E+00
     25.476  0.4943E-03  0.6715E-02  0.6715E-02  0.6715E-02  0.0000E+00  0.0000E+00  0.0000E+00  0.0000E+00  0.0000E+00
     25.616  0.2310E-03  0.2569E-02  0.2569E-02  0.2569E-02  0.0000E+00  0.0000E+00  0.0000E+00  0.0000E+00  0.0000E+00
     25.756  0.1158E-02  0.7182E-02  0.7182E-02  0.7182E-02  0.0000E+00  0.0000E+00  0.0000E+00  0.0000E+00  0.0000E+00
     25.895  0.7008E-03  0.6669E-02  0.6669E-02  0.6669E-02  0.0000E+00  0.0000E+00  0.0000E+00  0.0000E+00  0.0000E+00
     26.035  0.1094E-04  0.3876E-02  0.3876E-02  0.3876E-02  0.0000E+00  0.0000E+00  0.0000E+00  0.0000E+00  0.0000E+00
     26.175  0.4561E-06  0.8875E-03  0.8875E-03  0.8875E-03  0.0000E+00  0.0000E+00  0.0000E+00  0.0000E+00  0.0000E+00
     26.315  0.4965E-04  0.5290E-02  0.5290E-02  0.5290E-02  0.0000E+00  0.0000E+00  0.0000E+00  0.0000E+00  0.0000E+00
     26.455  0.0000E+00  0.0000E+00  0.0000E+00  0.0000E+00  0.0000E+00  0.0000E+00  0.0000E+00  0.0000E+00  0.0000E+00
     26.594  0.0000E+00  0.0000E+00  0.0000E+00  0.0000E+00  0.0000E+00  0.0000E+00  0.0000E+00  0.0000E+00  0.0000E+00
     26.734  0.0000E+00  0.0000E+00  0.0000E+00  0.0000E+00  0.0000E+00  0.0000E+00  0.0000E+00  0.0000E+00  0.0000E+00
     26.874  0.0000E+00  0.0000E+00  0.0000E+00  0.0000E+00  0.0000E+00  0.0000E+00  0.0000E+00  0.0000E+00  0.0000E+00
     27.014  0.0000E+00  0.0000E+00  0.0000E+00  0.0000E+00  0.0000E+00  0.0000E+00  0.0000E+00  0.0000E+00  0.0000E+00
     27.153  0.0000E+00  0.0000E+00  0.0000E+00  0.0000E+00  0.0000E+00  0.0000E+00  0.0000E+00  0.0000E+00  0.0000E+00
     27.293  0.0000E+00  0.0000E+00  0.0000E+00  0.0000E+00  0.0000E+00  0.0000E+00  0.0000E+00  0.0000E+00  0.0000E+00
     27.433  0.0000E+00  0.0000E+00  0.0000E+00  0.0000E+00  0.0000E+00  0.0000E+00  0.0000E+00  0.0000E+00  0.0000E+00
     27.573  0.0000E+00  0.0000E+00  0.0000E+00  0.0000E+00  0.0000E+00  0.0000E+00  0.0000E+00  0.0000E+00  0.0000E+00
     27.712  0.0000E+00  0.0000E+00  0.0000E+00  0.0000E+00  0.0000E+00  0.0000E+00  0.0000E+00  0.0000E+00  0.0000E+00
     27.852  0.0000E+00  0.0000E+00  0.0000E+00  0.0000E+00  0.0000E+00  0.0000E+00  0.0000E+00  0.0000E+00  0.0000E+00
     27.992  0.0000E+00  0.0000E+00  0.0000E+00  0.0000E+00  0.0000E+00  0.0000E+00  0.0000E+00  0.0000E+00  0.0000E+00
     28.132  0.0000E+00  0.0000E+00  0.0000E+00  0.0000E+00  0.0000E+00  0.0000E+00  0.0000E+00  0.0000E+00  0.0000E+00
     28.272  0.0000E+00  0.0000E+00  0.0000E+00  0.0000E+00  0.0000E+00  0.0000E+00  0.0000E+00  0.0000E+00  0.0000E+00
     28.27151236    -13.65883174  301      9.69986412      1.00000000
    -13.659  0.0000E+00  0.0000E+00  0.0000E+00  0.0000E+00  0.0000E+00  0.0000E+00  0.0000E+00  0.0000E+00  0.0000E+00
    -13.519  0.0000E+00  0.0000E+00  0.0000E+00  0.0000E+00  0.0000E+00  0.0000E+00  0.0000E+00  0.0000E+00  0.0000E+00
    -13.379  0.0000E+00  0.0000E+00  0.0000E+00  0.0000E+00  0.0000E+00  0.0000E+00  0.0000E+00  0.0000E+00  0.0000E+00
    -13.240  0.0000E+00  0.0000E+00  0.0000E+00  0.0000E+00  0.0000E+00  0.0000E+00  0.0000E+00  0.0000E+00  0.0000E+00
    -13.100  0.0000E+00  0.0000E+00  0.0000E+00  0.0000E+00  0.0000E+00  0.0000E+00  0.0000E+00  0.0000E+00  0.0000E+00
    -12.960  0.0000E+00  0.0000E+00  0.0000E+00  0.0000E+00  0.0000E+00  0.0000E+00  0.0000E+00  0.0000E+00  0.0000E+00
    -12.820  0.0000E+00  0.0000E+00  0.0000E+00  0.0000E+00  0.0000E+00  0.0000E+00  0.0000E+00  0.0000E+00  0.0000E+00
    -12.680  0.0000E+00  0.0000E+00  0.0000E+00  0.0000E+00  0.0000E+00  0.0000E+00  0.0000E+00  0.0000E+00  0.0000E+00
    -12.541  0.0000E+00  0.0000E+00  0.0000E+00  0.0000E+00  0.0000E+00  0.0000E+00  0.0000E+00  0.0000E+00  0.0000E+00
    -12.401  0.0000E+00  0.0000E+00  0.0000E+00  0.0000E+00  0.0000E+00  0.0000E+00  0.0000E+00  0.0000E+00  0.0000E+00
    -12.261  0.0000E+00  0.0000E+00  0.0000E+00  0.0000E+00  0.0000E+00  0.0000E+00  0.0000E+00  0.0000E+00  0.0000E+00
    -12.121  0.0000E+00  0.0000E+00  0.0000E+00  0.0000E+00  0.0000E+00  0.0000E+00  0.0000E+00  0.0000E+00  0.0000E+00
    -11.982  0.0000E+00  0.0000E+00  0.0000E+00  0.0000E+00  0.0000E+00  0.0000E+00  0.0000E+00  0.0000E+00  0.0000E+00
    -11.842  0.0000E+00  0.0000E+00  0.0000E+00  0.0000E+00  0.0000E+00  0.0000E+00  0.0000E+00  0.0000E+00  0.0000E+00
    -11.702  0.2043E-02  0.1159E-05  0.1159E-05  0.1159E-05  0.0000E+00  0.0000E+00  0.0000E+00  0.0000E+00  0.0000E+00
    -11.562  0.1452E-02  0.4144E-05  0.4144E-05  0.4144E-05  0.0000E+00  0.0000E+00  0.0000E+00  0.0000E+00  0.0000E+00
    -11.423  0.1481E-02  0.7858E-05  0.7858E-05  0.7858E-05  0.0000E+00  0.0000E+00  0.0000E+00  0.0000E+00  0.0000E+00
    -11.283  0.6916E-02  0.4997E-04  0.4997E-04  0.4997E-04  0.0000E+00  0.0000E+00  0.0000E+00  0.0000E+00  0.0000E+00
    -11.143  0.1712E-01  0.1645E-03  0.1645E-03  0.1645E-03  0.0000E+00  0.0000E+00  0.0000E+00  0.0000E+00  0.0000E+00
    -11.003  0.5140E-02  0.6173E-04  0.6173E-04  0.6173E-04  0.0000E+00  0.0000E+00  0.0000E+00  0.0000E+00  0.0000E+00
    -10.863  0.6969E-02  0.9767E-04  0.9767E-04  0.9767E-04  0.0000E+00  0.0000E+00  0.0000E+00  0.0000E+00  0.0000E+00
    -10.724  0.1444E-01  0.2389E-03  0.2389E-03  0.2389E-03  0.0000E+00  0.0000E+00  0.0000E+00  0.0000E+00  0.0000E+00
    -10.584  0.3536E-02  0.6777E-04  0.6777E-04  0.6777E-04  0.0000E+00  0.0000E+00  0.0000E+00  0.0000E+00  0.0000E+00
    -10.444  0.1674E-02  0.3571E-04  0.3571E-04  0.3571E-04  0.0000E+00  0.0000E+00  0.0000E+00  0.0000E+00  0.0000E+00
    -10.304  0.1678E-01  0.3905E-03  0.3905E-03  0.3905E-03  0.0000E+00  0.0000E+00  0.0000E+00  0.0000E+00  0.0000E+00
    -10.165  0.1336E-01  0.3448E-03  0.3448E-03  0.3448E-03  0.0000E+00  0.0000E+00  0.0000E+00  0.0000E+00  0.0000E+00
    -10.025  0.8534E-02  0.2399E-03  0.2399E-03  0.2399E-03  0.0000E+00  0.0000E+00  0.0000E+00  0.0000E+00  0.0000E+00
     -9.885  0.6099E-02  0.1884E-03  0.1884E-03  0.1884E-03  0.0000E+00  0.0000E+00  0.0000E+00  0.0000E+00  0.0000E+00
     -9.745  0.2062E-01  0.6745E-03  0.6745E-03  0.6745E-03  0.0000E+00  0.0000E+00  0.0000E+00  0.0000E+00  0.0000E+00
     -9.606  0.1874E-01  0.6601E-03  0.6601E-03  0.6601E-03  0.0000E+00  0.0000E+00  0.0000E+00  0.0000E+00  0.0000E+00
     -9.466  0.9330E-02  0.3478E-03  0.3478E-03  0.3478E-03  0.0000E+00  0.0000E+00  0.0000E+00  0.0000E+00  0.0000E+00
     -9.326  0.4341E-10  0.1708E-11  0.1708E-11  0.1708E-11  0.0000E+00  0.0000E+00  0.0000E+00  0.0000E+00  0.0000E+00
     -9.186  0.1623E-01  0.6849E-03  0.6849E-03  0.6849E-03  0.0000E+00  0.0000E+00  0.0000E+00  0.0000E+00  0.0000E+00
     -9.046  0.9720E-02  0.4270E-03  0.4270E-03  0.4270E-03  0.0000E+00  0.0000E+00  0.0000E+00  0.0000E+00  0.0000E+00
     -8.907  0.1293E-01  0.5931E-03  0.5931E-03  0.5931E-03  0.0000E+00  0.0000E+00  0.0000E+00  0.0000E+00  0.0000E+00
     -8.767  0.1604E-01  0.7922E-03  0.7922E-03  0.7922E-03  0.0000E+00  0.0000E+00  0.0000E+00  0.0000E+00  0.0000E+00
     -8.627  0.1248E-01  0.6493E-03  0.6493E-03  0.6493E-03  0.0000E+00  0.0000E+00  0.0000E+00  0.0000E+00  0.0000E+00
     -8.487  0.2633E-01  0.1405E-02  0.1405E-02  0.1405E-02  0.0000E+00  0.0000E+00  0.0000E+00  0.0000E+00  0.0000E+00
     -8.348  0.2199E-01  0.1230E-02  0.1230E-02  0.1230E-02  0.0000E+00  0.0000E+00  0.0000E+00  0.0000E+00  0.0000E+00
     -8.208  0.1310E-01  0.7403E-03  0.7403E-03  0.7403E-03  0.0000E+00  0.0000E+00  0.0000E+00  0.0000E+00  0.0000E+00
     -8.068  0.2728E-02  0.1533E-03  0.1533E-03  0.1533E-03  0.0000E+00  0.0000E+00  0.0000E+00  0.0000E+00  0.0000E+00
     -7.928  0.6106E-02  0.3877E-03  0.3877E-03  0.3877E-03  0.0000E+00  0.0000E+00  0.0000E+00  0.0000E+00  0.0000E+00
     -7.789  0.2509E-01  0.1644E-02  0.1644E-02  0.1644E-02  0.0000E+00  0.0000E+00  0.0000E+00  0.0000E+00  0.0000E+00
     -7.649  0.1813E-01  0.1266E-02  0.1266E-02  0.1266E-02  0.0000E+00  0.0000E+00  0.0000E+00  0.0000E+00  0.0000E+00
     -7.509  0.1935E-01  0.1280E-02  0.1280E-02  0.1280E-02  0.0000E+00  0.0000E+00  0.0000E+00  0.0000E+00  0.0000E+00
     -7.369  0.2037E-01  0.1451E-02  0.1451E-02  0.1451E-02  0.0000E+00  0.0000E+00  0.0000E+00  0.0000E+00  0.0000E+00
     -7.230  0.2776E-01  0.2030E-02  0.2030E-02  0.2030E-02  0.0000E+00  0.0000E+00  0.0000E+00  0.0000E+00  0.0000E+00
     -7.090  0.2751E-01  0.2073E-02  0.2073E-02  0.2073E-02  0.0000E+00  0.0000E+00  0.0000E+00  0.0000E+00  0.0000E+00
     -6.950  0.3467E-01  0.2490E-02  0.2490E-02  0.2490E-02  0.0000E+00  0.0000E+00  0.0000E+00  0.0000E+00  0.0000E+00
     -6.810  0.2278E-01  0.1807E-02  0.1807E-02  0.1807E-02  0.0000E+00  0.0000E+00  0.0000E+00  0.0000E+00  0.0000E+00
     -6.670  0.2057E-01  0.1689E-02  0.1689E-02  0.1689E-02  0.0000E+00  0.0000E+00  0.0000E+00  0.0000E+00  0.0000E+00
     -6.531  0.2303E-01  0.1781E-02  0.1781E-02  0.1781E-02  0.0000E+00  0.0000E+00  0.0000E+00  0.0000E+00  0.0000E+00
     -6.391  0.1412E-01  0.1294E-02  0.1294E-02  0.1294E-02  0.0000E+00  0.0000E+00  0.0000E+00  0.0000E+00  0.0000E+00
     -6.251  0.2633E-01  0.2001E-02  0.2001E-02  0.2001E-02  0.0000E+00  0.0000E+00  0.0000E+00  0.0000E+00  0.0000E+00
     -6.111  0.2225E-01  0.1584E-02  0.1584E-02  0.1584E-02  0.0000E+00  0.0000E+00  0.0000E+00  0.0000E+00  0.0000E+00
     -5.972  0.4554E-01  0.3623E-02  0.3623E-02  0.3623E-02  0.0000E+00  0.0000E+00  0.0000E+00  0.0000E+00  0.0000E+00
     -5.832  0.1837E-01  0.1608E-02  0.1608E-02  0.1608E-02  0.0000E+00  0.0000E+00  0.0000E+00  0.0000E+00  0.0000E+00
     -5.692  0.2476E-01  0.1880E-02  0.1880E-02  0.1880E-02  0.0000E+00  0.0000E+00  0.0000E+00  0.0000E+00  0.0000E+00
     -5.552  0.2115E-01  0.1642E-02  0.1642E-02  0.1642E-02  0.0000E+00  0.0000E+00  0.0000E+00  0.0000E+00  0.0000E+00
     -5.413  0.4257E-01  0.3805E-02  0.3805E-02  0.3805E-02  0.0000E+00  0.0000E+00  0.0000E+00  0.0000E+00  0.0000E+00
     -5.273  0.1961E-01  0.1724E-02  0.1724E-02  0.1724E-02  0.0000E+00  0.0000E+00  0.0000E+00  0.0000E+00  0.0000E+00
     -5.133  0.2270E-01  0.1907E-02  0.1907E-02  0.1907E-02  0.0000E+00  0.0000E+00  0.0000E+00  0.0000E+00  0.0000E+00
     -4.993  0.2099E-01  0.1911E-02  0.1911E-02  0.1911E-02  0.0000E+00  0.0000E+00  0.0000E+00  0.0000E+00  0.0000E+00
     -4.853  0.4196E-01  0.3754E-02  0.3754E-02  0.3754E-02  0.0000E+00  0.0000E+00  0.0000E+00  0.0000E+00  0.0000E+00
     -4.714  0.1015E-04  0.1272E-05  0.1272E-05  0.1272E-05  0.0000E+00  0.0000E+00  0.0000E+00  0.0000E+00  0.0000E+00
     -4.574  0.2704E-01  0.2900E-02  0.2900E-02  0.2900E-02  0.0000E+00  0.0000E+00  0.0000E+00  0.0000E+00  0.0000E+00
     -4.434  0.1709E-01  0.1642E-02  0.1642E-02  0.1642E-02  0.0000E+00  0.0000E+00  0.0000E+00  0.0000E+00  0.0000E+00
     -4.294  0.3262E-01  0.3292E-02  0.3292E-02  0.3292E-02  0.0000E+00  0.0000E+00  0.0000E+00  0.0000E+00  0.0000E+00
     -4.155  0.1239E-01  0.1365E-02  0.1365E-02  0.1365E-02  0.0000E+00  0.0000E+00  0.0000E+00  0.0000E+00  0.0000E+00
     -4.015  0.2314E-01  0.2501E-02  0.2501E-02  0.2501E-02  0.0000E+00  0.0000E+00  0.0000E+00  0.0000E+00  0.0000E+00
     -3.875  0.1881E-01  0.2065E-02  0.2065E-02  0.2065E-02  0.0000E+00  0.0000E+00  0.0000E+00  0.0000E+00  0.0000E+00
     -3.735  0.2386E-01  0.3031E-02  0.3031E-02  0.3031E-02  0.0000E+00  0.0000E+00  0.0000E+00  0.0000E+00  0.0000E+00
     -3.596  0.1519E-01  0.2326E-02  0.2326E-02  0.2326E-02  0.0000E+00  0.0000E+00  0.0000E+00  0.0000E+00  0.0000E+00
     -3.456  0.1620E-01  0.2772E-02  0.2772E-02  0.2772E-02  0.0000E+00  0.0000E+00  0.0000E+00  0.0000E+00  0.0000E+00
     -3.316  0.6650E-02  0.2332E-02  0.2332E-02  0.2332E-02  0.0000E+00  0.0000E+00  0.0000E+00  0.0000E+00  0.0000E+00
     -3.176  0.5258E-02  0.1964E-02  0.1964E-02  0.1964E-02  0.0000E+00  0.0000E+00  0.0000E+00  0.0000E+00  0.0000E+00
     -3.036  0.1604E-01  0.4743E-02  0.4743E-02  0.4743E-02  0.0000E+00  0.0000E+00  0.0000E+00  0.0000E+00  0.0000E+00
     -2.897  0.1157E-01  0.2422E-02  0.2422E-02  0.2422E-02  0.0000E+00  0.0000E+00  0.0000E+00  0.0000E+00  0.0000E+00
     -2.757  0.5681E-02  0.2552E-02  0.2552E-02  0.2552E-02  0.0000E+00  0.0000E+00  0.0000E+00  0.0000E+00  0.0000E+00
     -2.617  0.2609E-02  0.1598E-02  0.1598E-02  0.1598E-02  0.0000E+00  0.0000E+00  0.0000E+00  0.0000E+00  0.0000E+00
     -2.477  0.1012E-01  0.3962E-02  0.3962E-02  0.3962E-02  0.0000E+00  0.0000E+00  0.0000E+00  0.0000E+00  0.0000E+00
     -2.338  0.1196E-01  0.3932E-02  0.3932E-02  0.3932E-02  0.0000E+00  0.0000E+00  0.0000E+00  0.0000E+00  0.0000E+00
     -2.198  0.9664E-02  0.5341E-02  0.5341E-02  0.5341E-02  0.0000E+00  0.0000E+00  0.0000E+00  0.0000E+00  0.0000E+00
     -2.058  0.9524E-02  0.3976E-02  0.3976E-02  0.3976E-02  0.0000E+00  0.0000E+00  0.0000E+00  0.0000E+00  0.0000E+00
     -1.918  0.2047E-01  0.7575E-02  0.7575E-02  0.7575E-02  0.0000E+00  0.0000E+00  0.0000E+00  0.0000E+00  0.0000E+00
     -1.779  0.3602E-01  0.1194E-01  0.1194E-01  0.1194E-01  0.0000E+00  0.0000E+00  0.0000E+00  0.0000E+00  0.0000E+00
     -1.639  0.2491E-01  0.9213E-02  0.9213E-02  0.9213E-02  0.0000E+00  0.0000E+00  0.0000E+00  0.0000E+00  0.0000E+00
     -1.499  0.9540E-02  0.4585E-02  0.4585E-02  0.4585E-02  0.0000E+00  0.0000E+00  0.0000E+00  0.0000E+00  0.0000E+00
     -1.359  0.2946E-01  0.8739E-02  0.8739E-02  0.8739E-02  0.0000E+00  0.0000E+00  0.0000E+00  0.0000E+00  0.0000E+00
     -1.219  0.2050E-01  0.8855E-02  0.8855E-02  0.8855E-02  0.0000E+00  0.0000E+00  0.0000E+00  0.0000E+00  0.0000E+00
     -1.080  0.1464E-01  0.5695E-02  0.5695E-02  0.5695E-02  0.0000E+00  0.0000E+00  0.0000E+00  0.0000E+00  0.0000E+00
     -0.940  0.1236E-01  0.3846E-02  0.3846E-02  0.3846E-02  0.0000E+00  0.0000E+00  0.0000E+00  0.0000E+00  0.0000E+00
     -0.800  0.2208E-01  0.6901E-02  0.6901E-02  0.6901E-02  0.0000E+00  0.0000E+00  0.0000E+00  0.0000E+00  0.0000E+00
     -0.660  0.1673E-01  0.6862E-02  0.6862E-02  0.6862E-02  0.0000E+00  0.0000E+00  0.0000E+00  0.0000E+00  0.0000E+00
     -0.521  0.1589E-01  0.6078E-02  0.6078E-02  0.6078E-02  0.0000E+00  0.0000E+00  0.0000E+00  0.0000E+00  0.0000E+00
     -0.381  0.1859E-01  0.6782E-02  0.6782E-02  0.6782E-02  0.0000E+00  0.0000E+00  0.0000E+00  0.0000E+00  0.0000E+00
     -0.241  0.8971E-02  0.4651E-02  0.4651E-02  0.4651E-02  0.0000E+00  0.0000E+00  0.0000E+00  0.0000E+00  0.0000E+00
     -0.101  0.1586E-01  0.5839E-02  0.5839E-02  0.5839E-02  0.0000E+00  0.0000E+00  0.0000E+00  0.0000E+00  0.0000E+00
      0.038  0.9477E-02  0.3590E-02  0.3590E-02  0.3590E-02  0.0000E+00  0.0000E+00  0.0000E+00  0.0000E+00  0.0000E+00
      0.178  0.1856E-01  0.8107E-02  0.8107E-02  0.8107E-02  0.0000E+00  0.0000E+00  0.0000E+00  0.0000E+00  0.0000E+00
      0.318  0.8095E-02  0.4932E-02  0.4932E-02  0.4932E-02  0.0000E+00  0.0000E+00  0.0000E+00  0.0000E+00  0.0000E+00
      0.458  0.6213E-02  0.3320E-02  0.3320E-02  0.3320E-02  0.0000E+00  0.0000E+00  0.0000E+00  0.0000E+00  0.0000E+00
      0.597  0.7326E-02  0.9941E-02  0.9941E-02  0.9941E-02  0.0000E+00  0.0000E+00  0.0000E+00  0.0000E+00  0.0000E+00
      0.737  0.2742E-02  0.1916E-02  0.1916E-02  0.1916E-02  0.0000E+00  0.0000E+00  0.0000E+00  0.0000E+00  0.0000E+00
      0.877  0.5079E-02  0.8641E-02  0.8641E-02  0.8641E-02  0.0000E+00  0.0000E+00  0.0000E+00  0.0000E+00  0.0000E+00
      1.017  0.1247E-01  0.1180E-01  0.1180E-01  0.1180E-01  0.0000E+00  0.0000E+00  0.0000E+00  0.0000E+00  0.0000E+00
      1.157  0.1028E-01  0.1724E-01  0.1724E-01  0.1724E-01  0.0000E+00  0.0000E+00  0.0000E+00  0.0000E+00  0.0000E+00
      1.296  0.1155E-01  0.8778E-02  0.8778E-02  0.8778E-02  0.0000E+00  0.0000E+00  0.0000E+00  0.0000E+00  0.0000E+00
      1.436  0.4414E-02  0.7289E-02  0.7289E-02  0.7289E-02  0.0000E+00  0.0000E+00  0.0000E+00  0.0000E+00  0.0000E+00
      1.576  0.1534E-01  0.1933E-01  0.1933E-01  0.1933E-01  0.0000E+00  0.0000E+00  0.0000E+00  0.0000E+00  0.0000E+00
      1.716  0.4796E-02  0.7882E-02  0.7882E-02  0.7882E-02  0.0000E+00  0.0000E+00  0.0000E+00  0.0000E+00  0.0000E+00
      1.855  0.9773E-02  0.1524E-01  0.1524E-01  0.1524E-01  0.0000E+00  0.0000E+00  0.0000E+00  0.0000E+00  0.0000E+00
      1.995  0.1039E-01  0.1175E-01  0.1175E-01  0.1175E-01  0.0000E+00  0.0000E+00  0.0000E+00  0.0000E+00  0.0000E+00
      2.135  0.1939E-02  0.5792E-02  0.5792E-02  0.5792E-02  0.0000E+00  0.0000E+00  0.0000E+00  0.0000E+00  0.0000E+00
      2.275  0.1427E-01  0.2382E-01  0.2382E-01  0.2382E-01  0.0000E+00  0.0000E+00  0.0000E+00  0.0000E+00  0.0000E+00
      2.414  0.1035E-01  0.1506E-01  0.1506E-01  0.1506E-01  0.0000E+00  0.0000E+00  0.0000E+00  0.0000E+00  0.0000E+00
      2.554  0.1133E-01  0.1227E-01  0.1227E-01  0.1227E-01  0.0000E+00  0.0000E+00  0.0000E+00  0.0000E+00  0.0000E+00
      2.694  0.1103E-01  0.1638E-01  0.1638E-01  0.1638E-01  0.0000E+00  0.0000E+00  0.0000E+00  0.0000E+00  0.0000E+00
      2.834  0.8943E-02  0.1985E-01  0.1985E-01  0.1985E-01  0.0000E+00  0.0000E+00  0.0000E+00  0.0000E+00  0.0000E+00
      2.974  0.4686E-02  0.1806E-01  0.1806E-01  0.1806E-01  0.0000E+00  0.0000E+00  0.0000E+00  0.0000E+00  0.0000E+00
      3.113  0.1396E-01  0.2474E-01  0.2474E-01  0.2474E-01  0.0000E+00  0.0000E+00  0.0000E+00  0.0000E+00  0.0000E+00
      3.253  0.1856E-02  0.6670E-02  0.6670E-02  0.6670E-02  0.0000E+00  0.0000E+00  0.0000E+00  0.0000E+00  0.0000E+00
      3.393  0.4400E-02  0.1879E-01  0.1879E-01  0.1879E-01  0.0000E+00  0.0000E+00  0.0000E+00  0.0000E+00  0.0000E+00
      3.533  0.9414E-02  0.2639E-01  0.2639E-01  0.2639E-01  0.0000E+00  0.0000E+00  0.0000E+00  0.0000E+00  0.0000E+00
      3.672  0.5572E-02  0.1763E-01  0.1763E-01  0.1763E-01  0.0000E+00  0.0000E+00  0.0000E+00  0.0000E+00  0.0000E+00
      3.812  0.1146E-01  0.3443E-01  0.3443E-01  0.3443E-01  0.0000E+00  0.0000E+00  0.0000E+00  0.0000E+00  0.0000E+00
      3.952  0.5573E-02  0.2373E-01  0.2373E-01  0.2373E-01  0.0000E+00  0.0000E+00  0.0000E+00  0.0000E+00  0.0000E+00
      4.092  0.5244E-02  0.2517E-01  0.2517E-01  0.2517E-01  0.0000E+00  0.0000E+00  0.0000E+00  0.0000E+00  0.0000E+00
      4.231  0.3815E-02  0.2220E-01  0.2220E-01  0.2220E-01  0.0000E+00  0.0000E+00  0.0000E+00  0.0000E+00  0.0000E+00
      4.371  0.5190E-02  0.3296E-01  0.3296E-01  0.3296E-01  0.0000E+00  0.0000E+00  0.0000E+00  0.0000E+00  0.0000E+00
      4.511  0.8680E-02  0.2084E-01  0.2084E-01  0.2084E-01  0.0000E+00  0.0000E+00  0.0000E+00  0.0000E+00  0.0000E+00
      4.651  0.6316E-02  0.1963E-01  0.1963E-01  0.1963E-01  0.0000E+00  0.0000E+00  0.0000E+00  0.0000E+00  0.0000E+00
      4.791  0.4814E-02  0.2735E-01  0.2735E-01  0.2735E-01  0.0000E+00  0.0000E+00  0.0000E+00  0.0000E+00  0.0000E+00
      4.930  0.2515E-02  0.2297E-01  0.2297E-01  0.2297E-01  0.0000E+00  0.0000E+00  0.0000E+00  0.0000E+00  0.0000E+00
      5.070  0.5004E-02  0.3157E-01  0.3157E-01  0.3157E-01  0.0000E+00  0.0000E+00  0.0000E+00  0.0000E+00  0.0000E+00
      5.210  0.4654E-02  0.2116E-01  0.2116E-01  0.2116E-01  0.0000E+00  0.0000E+00  0.0000E+00  0.0000E+00  0.0000E+00
      5.350  0.4678E-02  0.2462E-01  0.2462E-01  0.2462E-01  0.0000E+00  0.0000E+00  0.0000E+00  0.0000E+00  0.0000E+00
      5.489  0.1698E-02  0.1339E-01  0.1339E-01  0.1339E-01  0.0000E+00  0.0000E+00  0.0000E+00  0.0000E+00  0.0000E+00
      5.629  0.2381E-02  0.2042E-01  0.2042E-01  0.2042E-01  0.0000E+00  0.0000E+00  0.0000E+00  0.0000E+00  0.0000E+00
      5.769  0.2090E-02  0.1359E-01  0.1359E-01  0.1359E-01  0.0000E+00  0.0000E+00  0.0000E+00  0.0000E+00  0.0000E+00
      5.909  0.3205E-02  0.2077E-01  0.2077E-01  0.2077E-01  0.0000E+00  0.0000E+00  0.0000E+00  0.0000E+00  0.0000E+00
      6.048  0.3533E-02  0.1588E-01  0.1588E-01  0.1588E-01  0.0000E+00  0.0000E+00  0.0000E+00  0.0000E+00  0.0000E+00
      6.188  0.1147E-02  0.1285E-01  0.1285E-01  0.1285E-01  0.0000E+00  0.0000E+00  0.0000E+00  0.0000E+00  0.0000E+00
      6.328  0.2164E-02  0.3145E-01  0.3145E-01  0.3145E-01  0.0000E+00  0.0000E+00  0.0000E+00  0.0000E+00  0.0000E+00
      6.468  0.1183E-02  0.9812E-02  0.9812E-02  0.9812E-02  0.0000E+00  0.0000E+00  0.0000E+00  0.0000E+00  0.0000E+00
      6.608  0.2575E-02  0.2871E-01  0.2871E-01  0.2871E-01  0.0000E+00  0.0000E+00  0.0000E+00  0.0000E+00  0.0000E+00
      6.747  0.1369E-02  0.2067E-01  0.2067E-01  0.2067E-01  0.0000E+00  0.0000E+00  0.0000E+00  0.0000E+00  0.0000E+00
      6.887  0.1767E-02  0.1879E-01  0.1879E-01  0.1879E-01  0.0000E+00  0.0000E+00  0.0000E+00  0.0000E+00  0.0000E+00
      7.027  0.1246E-02  0.1917E-01  0.1917E-01  0.1917E-01  0.0000E+00  0.0000E+00  0.0000E+00  0.0000E+00  0.0000E+00
      7.167  0.7511E-03  0.1010E-01  0.1010E-01  0.1010E-01  0.0000E+00  0.0000E+00  0.0000E+00  0.0000E+00  0.0000E+00
      7.306  0.6781E-03  0.1356E-01  0.1356E-01  0.1356E-01  0.0000E+00  0.0000E+00  0.0000E+00  0.0000E+00  0.0000E+00
      7.446  0.1093E-02  0.1313E-01  0.1313E-01  0.1313E-01  0.0000E+00  0.0000E+00  0.0000E+00  0.0000E+00  0.0000E+00
      7.586  0.1346E-02  0.1880E-01  0.1880E-01  0.1880E-01  0.0000E+00  0.0000E+00  0.0000E+00  0.0000E+00  0.0000E+00
      7.726  0.8279E-03  0.8983E-02  0.8983E-02  0.8983E-02  0.0000E+00  0.0000E+00  0.0000E+00  0.0000E+00  0.0000E+00
      7.865  0.1503E-02  0.1237E-01  0.1237E-01  0.1237E-01  0.0000E+00  0.0000E+00  0.0000E+00  0.0000E+00  0.0000E+00
      8.005  0.9154E-03  0.9261E-02  0.9261E-02  0.9261E-02  0.0000E+00  0.0000E+00  0.0000E+00  0.0000E+00  0.0000E+00
      8.145  0.6213E-03  0.7515E-02  0.7515E-02  0.7515E-02  0.0000E+00  0.0000E+00  0.0000E+00  0.0000E+00  0.0000E+00
      8.285  0.4717E-03  0.8021E-02  0.8021E-02  0.8021E-02  0.0000E+00  0.0000E+00  0.0000E+00  0.0000E+00  0.0000E+00
      8.424  0.2089E-03  0.1016E-01  0.1016E-01  0.1016E-01  0.0000E+00  0.0000E+00  0.0000E+00  0.0000E+00  0.0000E+00
      8.564  0.3018E-03  0.6815E-02  0.6815E-02  0.6815E-02  0.0000E+00  0.0000E+00  0.0000E+00  0.0000E+00  0.0000E+00
      8.704  0.3597E-03  0.6308E-02  0.6308E-02  0.6308E-02  0.0000E+00  0.0000E+00  0.0000E+00  0.0000E+00  0.0000E+00
      8.844  0.2761E-03  0.5177E-02  0.5177E-02  0.5177E-02  0.0000E+00  0.0000E+00  0.0000E+00  0.0000E+00  0.0000E+00
      8.984  0.1021E-12  0.1590E-02  0.1590E-02  0.1590E-02  0.0000E+00  0.0000E+00  0.0000E+00  0.0000E+00  0.0000E+00
      9.123  0.9023E-04  0.3137E-02  0.3137E-02  0.3137E-02  0.0000E+00  0.0000E+00  0.0000E+00  0.0000E+00  0.0000E+00
      9.263  0.5208E-04  0.3986E-03  0.3986E-03  0.3986E-03  0.0000E+00  0.0000E+00  0.0000E+00  0.0000E+00  0.0000E+00
      9.403  0.7169E-12  0.2437E-10  0.2437E-10  0.2437E-10  0.0000E+00  0.0000E+00  0.0000E+00  0.0000E+00  0.0000E+00
      9.543  0.4497E-05  0.1281E-03  0.1281E-03  0.1281E-03  0.0000E+00  0.0000E+00  0.0000E+00  0.0000E+00  0.0000E+00
      9.682  0.2412E-14  0.1993E-03  0.1993E-03  0.1993E-03  0.0000E+00  0.0000E+00  0.0000E+00  0.0000E+00  0.0000E+00
      9.822  0.0000E+00  0.0000E+00  0.0000E+00  0.0000E+00  0.0000E+00  0.0000E+00  0.0000E+00  0.0000E+00  0.0000E+00
      9.962  0.0000E+00  0.0000E+00  0.0000E+00  0.0000E+00  0.0000E+00  0.0000E+00  0.0000E+00  0.0000E+00  0.0000E+00
     10.102  0.0000E+00  0.0000E+00  0.0000E+00  0.0000E+00  0.0000E+00  0.0000E+00  0.0000E+00  0.0000E+00  0.0000E+00
     10.241  0.0000E+00  0.0000E+00  0.0000E+00  0.0000E+00  0.0000E+00  0.0000E+00  0.0000E+00  0.0000E+00  0.0000E+00
     10.381  0.0000E+00  0.0000E+00  0.0000E+00  0.0000E+00  0.0000E+00  0.0000E+00  0.0000E+00  0.0000E+00  0.0000E+00
     10.521  0.0000E+00  0.0000E+00  0.0000E+00  0.0000E+00  0.0000E+00  0.0000E+00  0.0000E+00  0.0000E+00  0.0000E+00
     10.661  0.0000E+00  0.0000E+00  0.0000E+00  0.0000E+00  0.0000E+00  0.0000E+00  0.0000E+00  0.0000E+00  0.0000E+00
     10.801  0.0000E+00  0.0000E+00  0.0000E+00  0.0000E+00  0.0000E+00  0.0000E+00  0.0000E+00  0.0000E+00  0.0000E+00
     10.940  0.0000E+00  0.0000E+00  0.0000E+00  0.0000E+00  0.0000E+00  0.0000E+00  0.0000E+00  0.0000E+00  0.0000E+00
     11.080  0.0000E+00  0.0000E+00  0.0000E+00  0.0000E+00  0.0000E+00  0.0000E+00  0.0000E+00  0.0000E+00  0.0000E+00
     11.220  0.0000E+00  0.0000E+00  0.0000E+00  0.0000E+00  0.0000E+00  0.0000E+00  0.0000E+00  0.0000E+00  0.0000E+00
     11.360  0.0000E+00  0.0000E+00  0.0000E+00  0.0000E+00  0.0000E+00  0.0000E+00  0.0000E+00  0.0000E+00  0.0000E+00
     11.499  0.0000E+00  0.0000E+00  0.0000E+00  0.0000E+00  0.0000E+00  0.0000E+00  0.0000E+00  0.0000E+00  0.0000E+00
     11.639  0.0000E+00  0.0000E+00  0.0000E+00  0.0000E+00  0.0000E+00  0.0000E+00  0.0000E+00  0.0000E+00  0.0000E+00
     11.779  0.0000E+00  0.0000E+00  0.0000E+00  0.0000E+00  0.0000E+00  0.0000E+00  0.0000E+00  0.0000E+00  0.0000E+00
     11.919  0.0000E+00  0.0000E+00  0.0000E+00  0.0000E+00  0.0000E+00  0.0000E+00  0.0000E+00  0.0000E+00  0.0000E+00
     12.058  0.0000E+00  0.0000E+00  0.0000E+00  0.0000E+00  0.0000E+00  0.0000E+00  0.0000E+00  0.0000E+00  0.0000E+00
     12.198  0.0000E+00  0.0000E+00  0.0000E+00  0.0000E+00  0.0000E+00  0.0000E+00  0.0000E+00  0.0000E+00  0.0000E+00
     12.338  0.0000E+00  0.0000E+00  0.0000E+00  0.0000E+00  0.0000E+00  0.0000E+00  0.0000E+00  0.0000E+00  0.0000E+00
     12.478  0.0000E+00  0.0000E+00  0.0000E+00  0.0000E+00  0.0000E+00  0.0000E+00  0.0000E+00  0.0000E+00  0.0000E+00
     12.618  0.0000E+00  0.0000E+00  0.0000E+00  0.0000E+00  0.0000E+00  0.0000E+00  0.0000E+00  0.0000E+00  0.0000E+00
     12.757  0.0000E+00  0.0000E+00  0.0000E+00  0.0000E+00  0.0000E+00  0.0000E+00  0.0000E+00  0.0000E+00  0.0000E+00
     12.897  0.0000E+00  0.0000E+00  0.0000E+00  0.0000E+00  0.0000E+00  0.0000E+00  0.0000E+00  0.0000E+00  0.0000E+00
     13.037  0.0000E+00  0.0000E+00  0.0000E+00  0.0000E+00  0.0000E+00  0.0000E+00  0.0000E+00  0.0000E+00  0.0000E+00
     13.177  0.0000E+00  0.0000E+00  0.0000E+00  0.0000E+00  0.0000E+00  0.0000E+00  0.0000E+00  0.0000E+00  0.0000E+00
     13.316  0.0000E+00  0.0000E+00  0.0000E+00  0.0000E+00  0.0000E+00  0.0000E+00  0.0000E+00  0.0000E+00  0.0000E+00
     13.456  0.0000E+00  0.0000E+00  0.0000E+00  0.0000E+00  0.0000E+00  0.0000E+00  0.0000E+00  0.0000E+00  0.0000E+00
     13.596  0.0000E+00  0.0000E+00  0.0000E+00  0.0000E+00  0.0000E+00  0.0000E+00  0.0000E+00  0.0000E+00  0.0000E+00
     13.736  0.4095E-16  0.1207E-16  0.1207E-16  0.1207E-16  0.0000E+00  0.0000E+00  0.0000E+00  0.0000E+00  0.0000E+00
     13.875  0.3047E-02  0.9894E-03  0.9894E-03  0.9894E-03  0.0000E+00  0.0000E+00  0.0000E+00  0.0000E+00  0.0000E+00
     14.015  0.2295E-02  0.8712E-03  0.8712E-03  0.8712E-03  0.0000E+00  0.0000E+00  0.0000E+00  0.0000E+00  0.0000E+00
     14.155  0.1255E-02  0.5349E-03  0.5349E-03  0.5349E-03  0.0000E+00  0.0000E+00  0.0000E+00  0.0000E+00  0.0000E+00
     14.295  0.4277E-02  0.1032E-02  0.1032E-02  0.1032E-02  0.0000E+00  0.0000E+00  0.0000E+00  0.0000E+00  0.0000E+00
     14.434  0.2617E-02  0.8801E-03  0.8801E-03  0.8801E-03  0.0000E+00  0.0000E+00  0.0000E+00  0.0000E+00  0.0000E+00
     14.574  0.1120E-01  0.4391E-02  0.4391E-02  0.4391E-02  0.0000E+00  0.0000E+00  0.0000E+00  0.0000E+00  0.0000E+00
     14.714  0.5869E-02  0.3979E-02  0.3979E-02  0.3979E-02  0.0000E+00  0.0000E+00  0.0000E+00  0.0000E+00  0.0000E+00
     14.854  0.1054E-01  0.4814E-02  0.4814E-02  0.4814E-02  0.0000E+00  0.0000E+00  0.0000E+00  0.0000E+00  0.0000E+00
     14.994  0.1359E-01  0.7071E-02  0.7071E-02  0.7071E-02  0.0000E+00  0.0000E+00  0.0000E+00  0.0000E+00  0.0000E+00
     15.133  0.8834E-02  0.7936E-02  0.7936E-02  0.7936E-02  0.0000E+00  0.0000E+00  0.0000E+00  0.0000E+00  0.0000E+00
     15.273  0.1130E-01  0.7930E-02  0.7930E-02  0.7930E-02  0.0000E+00  0.0000E+00  0.0000E+00  0.0000E+00  0.0000E+00
     15.413  0.1025E-01  0.4150E-02  0.4150E-02  0.4150E-02  0.0000E+00  0.0000E+00  0.0000E+00  0.0000E+00  0.0000E+00
     15.553  0.7329E-02  0.6691E-02  0.6691E-02  0.6691E-02  0.0000E+00  0.0000E+00  0.0000E+00  0.0000E+00  0.0000E+00
     15.692  0.7804E-02  0.1048E-01  0.1048E-01  0.1048E-01  0.0000E+00  0.0000E+00  0.0000E+00  0.0000E+00  0.0000E+00
     15.832  0.1091E-01  0.8809E-02  0.8809E-02  0.8809E-02  0.0000E+00  0.0000E+00  0.0000E+00  0.0000E+00  0.0000E+00
     15.972  0.1296E-01  0.8499E-02  0.8499E-02  0.8499E-02  0.0000E+00  0.0000E+00  0.0000E+00  0.0000E+00  0.0000E+00
     16.112  0.9196E-02  0.6952E-02  0.6952E-02  0.6952E-02  0.0000E+00  0.0000E+00  0.0000E+00  0.0000E+00  0.0000E+00
     16.251  0.1288E-01  0.1087E-01  0.1087E-01  0.1087E-01  0.0000E+00  0.0000E+00  0.0000E+00  0.0000E+00  0.0000E+00
     16.391  0.1024E-01  0.1449E-01  0.1449E-01  0.1449E-01  0.0000E+00  0.0000E+00  0.0000E+00  0.0000E+00  0.0000E+00
     16.531  0.4503E-02  0.6211E-02  0.6211E-02  0.6211E-02  0.0000E+00  0.0000E+00  0.0000E+00  0.0000E+00  0.0000E+00
     16.671  0.6588E-02  0.8546E-02  0.8546E-02  0.8546E-02  0.0000E+00  0.0000E+00  0.0000E+00  0.0000E+00  0.0000E+00
     16.811  0.8057E-02  0.1246E-01  0.1246E-01  0.1246E-01  0.0000E+00  0.0000E+00  0.0000E+00  0.0000E+00  0.0000E+00
     16.950  0.8219E-02  0.8261E-02  0.8261E-02  0.8261E-02  0.0000E+00  0.0000E+00  0.0000E+00  0.0000E+00  0.0000E+00
     17.090  0.1470E-01  0.1752E-01  0.1752E-01  0.1752E-01  0.0000E+00  0.0000E+00  0.0000E+00  0.0000E+00  0.0000E+00
     17.230  0.5845E-02  0.1295E-01  0.1295E-01  0.1295E-01  0.0000E+00  0.0000E+00  0.0000E+00  0.0000E+00  0.0000E+00
     17.370  0.1220E-01  0.1982E-01  0.1982E-01  0.1982E-01  0.0000E+00  0.0000E+00  0.0000E+00  0.0000E+00  0.0000E+00
     17.509  0.9501E-02  0.1113E-01  0.1113E-01  0.1113E-01  0.0000E+00  0.0000E+00  0.0000E+00  0.0000E+00  0.0000E+00
     17.649  0.1820E-01  0.3373E-01  0.3373E-01  0.3373E-01  0.0000E+00  0.0000E+00  0.0000E+00  0.0000E+00  0.0000E+00
     17.789  0.9538E-02  0.1526E-01  0.1526E-01  0.1526E-01  0.0000E+00  0.0000E+00  0.0000E+00  0.0000E+00  0.0000E+00
     17.929  0.1750E-01  0.3323E-01  0.3323E-01  0.3323E-01  0.0000E+00  0.0000E+00  0.0000E+00  0.0000E+00  0.0000E+00
     18.068  0.8660E-02  0.1483E-01  0.1483E-01  0.1483E-01  0.0000E+00  0.0000E+00  0.0000E+00  0.0000E+00  0.0000E+00
     18.208  0.1272E-01  0.1716E-01  0.1716E-01  0.1716E-01  0.0000E+00  0.0000E+00  0.0000E+00  0.0000E+00  0.0000E+00
     18.348  0.2794E-01  0.2636E-01  0.2636E-01  0.2636E-01  0.0000E+00  0.0000E+00  0.0000E+00  0.0000E+00  0.0000E+00
     18.488  0.2037E-01  0.1673E-01  0.1673E-01  0.1673E-01  0.0000E+00  0.0000E+00  0.0000E+00  0.0000E+00  0.0000E+00
     18.628  0.2122E-01  0.1860E-01  0.1860E-01  0.1860E-01  0.0000E+00  0.0000E+00  0.0000E+00  0.0000E+00  0.0000E+00
     18.767  0.2550E-01  0.1520E-01  0.1520E-01  0.1520E-01  0.0000E+00  0.0000E+00  0.0000E+00  0.0000E+00  0.0000E+00
     18.907  0.1206E-01  0.1636E-01  0.1636E-01  0.1636E-01  0.0000E+00  0.0000E+00  0.0000E+00  0.0000E+00  0.0000E+00
     19.047  0.1942E-01  0.1704E-01  0.1704E-01  0.1704E-01  0.0000E+00  0.0000E+00  0.0000E+00  0.0000E+00  0.0000E+00
     19.187  0.2274E-01  0.1720E-01  0.1720E-01  0.1720E-01  0.0000E+00  0.0000E+00  0.0000E+00  0.0000E+00  0.0000E+00
     19.326  0.1160E-01  0.1116E-01  0.1116E-01  0.1116E-01  0.0000E+00  0.0000E+00  0.0000E+00  0.0000E+00  0.0000E+00
     19.466  0.8005E-02  0.1327E-01  0.1327E-01  0.1327E-01  0.0000E+00  0.0000E+00  0.0000E+00  0.0000E+00  0.0000E+00
     19.606  0.1478E-01  0.2180E-01  0.2180E-01  0.2180E-01  0.0000E+00  0.0000E+00  0.0000E+00  0.0000E+00  0.0000E+00
     19.746  0.1482E-01  0.2099E-01  0.2099E-01  0.2099E-01  0.0000E+00  0.0000E+00  0.0000E+00  0.0000E+00  0.0000E+00
     19.885  0.1571E-01  0.2051E-01  0.2051E-01  0.2051E-01  0.0000E+00  0.0000E+00  0.0000E+00  0.0000E+00  0.0000E+00
     20.025  0.9175E-02  0.8080E-02  0.8080E-02  0.8080E-02  0.0000E+00  0.0000E+00  0.0000E+00  0.0000E+00  0.0000E+00
     20.165  0.1153E-01  0.2241E-01  0.2241E-01  0.2241E-01  0.0000E+00  0.0000E+00  0.0000E+00  0.0000E+00  0.0000E+00
     20.305  0.8780E-04  0.1636E-03  0.1636E-03  0.1636E-03  0.0000E+00  0.0000E+00  0.0000E+00  0.0000E+00  0.0000E+00
     20.445  0.3904E-02  0.1236E-01  0.1236E-01  0.1236E-01  0.0000E+00  0.0000E+00  0.0000E+00  0.0000E+00  0.0000E+00
     20.584  0.7887E-02  0.1223E-01  0.1223E-01  0.1223E-01  0.0000E+00  0.0000E+00  0.0000E+00  0.0000E+00  0.0000E+00
     20.724  0.1378E-01  0.1805E-01  0.1805E-01  0.1805E-01  0.0000E+00  0.0000E+00  0.0000E+00  0.0000E+00  0.0000E+00
     20.864  0.8405E-02  0.6030E-02  0.6030E-02  0.6030E-02  0.0000E+00  0.0000E+00  0.0000E+00  0.0000E+00  0.0000E+00
     21.004  0.9653E-02  0.1151E-01  0.1151E-01  0.1151E-01  0.0000E+00  0.0000E+00  0.0000E+00  0.0000E+00  0.0000E+00
     21.143  0.1108E-01  0.2072E-01  0.2072E-01  0.2072E-01  0.0000E+00  0.0000E+00  0.0000E+00  0.0000E+00  0.0000E+00
     21.283  0.6814E-02  0.9074E-02  0.9074E-02  0.9074E-02  0.0000E+00  0.0000E+00  0.0000E+00  0.0000E+00  0.0000E+00
     21.423  0.2802E-01  0.2358E-01  0.2358E-01  0.2358E-01  0.0000E+00  0.0000E+00  0.0000E+00  0.0000E+00  0.0000E+00
     21.563  0.1029E-01  0.1977E-01  0.1977E-01  0.1977E-01  0.0000E+00  0.0000E+00  0.0000E+00  0.0000E+00  0.0000E+00
     21.702  0.8985E-02  0.1041E-01  0.1041E-01  0.1041E-01  0.0000E+00  0.0000E+00  0.0000E+00  0.0000E+00  0.0000E+00
     21.842  0.2632E-01  0.1994E-01  0.1994E-01  0.1994E-01  0.0000E+00  0.0000E+00  0.0000E+00  0.0000E+00  0.0000E+00
     21.982  0.1696E-01  0.1390E-01  0.1390E-01  0.1390E-01  0.0000E+00  0.0000E+00  0.0000E+00  0.0000E+00  0.0000E+00
     22.122  0.2248E-01  0.1811E-01  0.1811E-01  0.1811E-01  0.0000E+00  0.0000E+00  0.0000E+00  0.0000E+00  0.0000E+00
     22.261  0.2759E-01  0.2689E-01  0.2689E-01  0.2689E-01  0.0000E+00  0.0000E+00  0.0000E+00  0.0000E+00  0.0000E+00
     22.401  0.9502E-02  0.1108E-01  0.1108E-01  0.1108E-01  0.0000E+00  0.0000E+00  0.0000E+00  0.0000E+00  0.0000E+00
     22.541  0.1147E-01  0.1665E-01  0.1665E-01  0.1665E-01  0.0000E+00  0.0000E+00  0.0000E+00  0.0000E+00  0.0000E+00
     22.681  0.2459E-01  0.2047E-01  0.2047E-01  0.2047E-01  0.0000E+00  0.0000E+00  0.0000E+00  0.0000E+00  0.0000E+00
     22.821  0.2155E-01  0.2503E-01  0.2503E-01  0.2503E-01  0.0000E+00  0.0000E+00  0.0000E+00  0.0000E+00  0.0000E+00
     22.960  0.3420E-01  0.1745E-01  0.1745E-01  0.1745E-01  0.0000E+00  0.0000E+00  0.0000E+00  0.0000E+00  0.0000E+00
     23.100  0.3067E-01  0.1485E-01  0.1485E-01  0.1485E-01  0.0000E+00  0.0000E+00  0.0000E+00  0.0000E+00  0.0000E+00
     23.240  0.4531E-01  0.2844E-01  0.2844E-01  0.2844E-01  0.0000E+00  0.0000E+00  0.0000E+00  0.0000E+00  0.0000E+00
     23.380  0.2003E-01  0.8452E-02  0.8452E-02  0.8452E-02  0.0000E+00  0.0000E+00  0.0000E+00  0.0000E+00  0.0000E+00
     23.519  0.9327E-02  0.1408E-01  0.1408E-01  0.1408E-01  0.0000E+00  0.0000E+00  0.0000E+00  0.0000E+00  0.0000E+00
     23.659  0.8567E-02  0.1644E-01  0.1644E-01  0.1644E-01  0.0000E+00  0.0000E+00  0.0000E+00  0.0000E+00  0.0000E+00
     23.799  0.1661E-01  0.2142E-01  0.2142E-01  0.2142E-01  0.0000E+00  0.0000E+00  0.0000E+00  0.0000E+00  0.0000E+00
     23.939  0.1910E-01  0.3070E-01  0.3070E-01  0.3070E-01  0.0000E+00  0.0000E+00  0.0000E+00  0.0000E+00  0.0000E+00
     24.078  0.1666E-01  0.2998E-01  0.2998E-01  0.2998E-01  0.0000E+00  0.0000E+00  0.0000E+00  0.0000E+00  0.0000E+00
     24.218  0.7704E-02  0.1561E-01  0.1561E-01  0.1561E-01  0.0000E+00  0.0000E+00  0.0000E+00  0.0000E+00  0.0000E+00
     24.358  0.1196E-01  0.3021E-01  0.3021E-01  0.3021E-01  0.0000E+00  0.0000E+00  0.0000E+00  0.0000E+00  0.0000E+00
     24.498  0.1508E-01  0.3847E-01  0.3847E-01  0.3847E-01  0.0000E+00  0.0000E+00  0.0000E+00  0.0000E+00  0.0000E+00
     24.638  0.8913E-02  0.2226E-01  0.2226E-01  0.2226E-01  0.0000E+00  0.0000E+00  0.0000E+00  0.0000E+00  0.0000E+00
     24.777  0.1652E-02  0.4153E-02  0.4153E-02  0.4153E-02  0.0000E+00  0.0000E+00  0.0000E+00  0.0000E+00  0.0000E+00
     24.917  0.6754E-02  0.1961E-01  0.1961E-01  0.1961E-01  0.0000E+00  0.0000E+00  0.0000E+00  0.0000E+00  0.0000E+00
     25.057  0.4882E-02  0.2052E-01  0.2052E-01  0.2052E-01  0.0000E+00  0.0000E+00  0.0000E+00  0.0000E+00  0.0000E+00
     25.197  0.2898E-02  0.2168E-01  0.2168E-01  0.2168E-01  0.0000E+00  0.0000E+00  0.0000E+00  0.0000E+00  0.0000E+00
     25.336  0.1625E-02  0.8050E-02  0.8050E-02  0.8050E-02  0.0000E+00  0.0000E+00  0.0000E+00  0.0000E+00  0.0000E+00
     25.476  0.4943E-03  0.6715E-02  0.6715E-02  0.6715E-02  0.0000E+00  0.0000E+00  0.0000E+00  0.0000E+00  0.0000E+00
     25.616  0.2310E-03  0.2569E-02  0.2569E-02  0.2569E-02  0.0000E+00  0.0000E+00  0.0000E+00  0.0000E+00  0.0000E+00
     25.756  0.1158E-02  0.7182E-02  0.7182E-02  0.7182E-02  0.0000E+00  0.0000E+00  0.0000E+00  0.0000E+00  0.0000E+00
     25.895  0.7008E-03  0.6669E-02  0.6669E-02  0.6669E-02  0.0000E+00  0.0000E+00  0.0000E+00  0.0000E+00  0.0000E+00
     26.035  0.1094E-04  0.3876E-02  0.3876E-02  0.3876E-02  0.0000E+00  0.0000E+00  0.0000E+00  0.0000E+00  0.0000E+00
     26.175  0.4561E-06  0.8875E-03  0.8875E-03  0.8875E-03  0.0000E+00  0.0000E+00  0.0000E+00  0.0000E+00  0.0000E+00
     26.315  0.4965E-04  0.5290E-02  0.5290E-02  0.5290E-02  0.0000E+00  0.0000E+00  0.0000E+00  0.0000E+00  0.0000E+00
     26.455  0.0000E+00  0.0000E+00  0.0000E+00  0.0000E+00  0.0000E+00  0.0000E+00  0.0000E+00  0.0000E+00  0.0000E+00
     26.594  0.0000E+00  0.0000E+00  0.0000E+00  0.0000E+00  0.0000E+00  0.0000E+00  0.0000E+00  0.0000E+00  0.0000E+00
     26.734  0.0000E+00  0.0000E+00  0.0000E+00  0.0000E+00  0.0000E+00  0.0000E+00  0.0000E+00  0.0000E+00  0.0000E+00
     26.874  0.0000E+00  0.0000E+00  0.0000E+00  0.0000E+00  0.0000E+00  0.0000E+00  0.0000E+00  0.0000E+00  0.0000E+00
     27.014  0.0000E+00  0.0000E+00  0.0000E+00  0.0000E+00  0.0000E+00  0.0000E+00  0.0000E+00  0.0000E+00  0.0000E+00
     27.153  0.0000E+00  0.0000E+00  0.0000E+00  0.0000E+00  0.0000E+00  0.0000E+00  0.0000E+00  0.0000E+00  0.0000E+00
     27.293  0.0000E+00  0.0000E+00  0.0000E+00  0.0000E+00  0.0000E+00  0.0000E+00  0.0000E+00  0.0000E+00  0.0000E+00
     27.433  0.0000E+00  0.0000E+00  0.0000E+00  0.0000E+00  0.0000E+00  0.0000E+00  0.0000E+00  0.0000E+00  0.0000E+00
     27.573  0.0000E+00  0.0000E+00  0.0000E+00  0.0000E+00  0.0000E+00  0.0000E+00  0.0000E+00  0.0000E+00  0.0000E+00
     27.712  0.0000E+00  0.0000E+00  0.0000E+00  0.0000E+00  0.0000E+00  0.0000E+00  0.0000E+00  0.0000E+00  0.0000E+00
     27.852  0.0000E+00  0.0000E+00  0.0000E+00  0.0000E+00  0.0000E+00  0.0000E+00  0.0000E+00  0.0000E+00  0.0000E+00
     27.992  0.0000E+00  0.0000E+00  0.0000E+00  0.0000E+00  0.0000E+00  0.0000E+00  0.0000E+00  0.0000E+00  0.0000E+00
     28.132  0.0000E+00  0.0000E+00  0.0000E+00  0.0000E+00  0.0000E+00  0.0000E+00  0.0000E+00  0.0000E+00  0.0000E+00
     28.272  0.0000E+00  0.0000E+00  0.0000E+00  0.0000E+00  0.0000E+00  0.0000E+00  0.0000E+00  0.0000E+00  0.0000E+00
