 vasp.6.5.1 10Mar25 (build Feb 13 2026 23:13:13) complex                        
  
 executed on             LinuxIFC date 2026.09.03  02:28:31
 running   28 mpi-ranks, with    1 threads/rank, on    1 nodes
 distrk:  each k-point on   28 cores,    1 groups
 distr:  one band on NCORE=   7 cores,    4 groups


--------------------------------------------------------------------------------------------------------


 INCAR:
   ALGO = Normal
   EDIFF = 1E-06
   NELM = 100
   NELMIN = 4
   PREC = Normal
   ENCUT = 500
   LREAL = .FALSE.
   ISMEAR = 0
   SIGMA = 0.005
   IBRION = -1
   NSW = 0
   ISPIN = 1
   LWAVE = .TRUE.
   LCHARG = .TRUE.
   LORBIT = 11
   NPAR = 4
   NCORE = 7

 POTCAR:    PAW_PBE C 08Apr2002                   
 POTCAR:    PAW_PBE C 08Apr2002                   
   SHA256 =  253f7b50bb8d59471dbedb8285d89021f4a42ed1a2c5d38a03a736e69125dd95 C/POTCAR              
   COPYR  = (c) Copyright 08Apr2002 Georg Kresse                                                    
   COPYR  = This file is part of the software VASP. Any use, copying, and all other rights are regul
   COPYR  = If you do not have a valid VASP license, you may not use, copy or distribute this file. 
   VRHFIN =C: s2p2                                                                                  
   LEXCH  = PE                                                                                      
   EATOM  =   147.1560 eV,   10.8157 Ry                                                             
                                                                                                    
   TITEL  = PAW_PBE C 08Apr2002                                                                     
   LULTRA =        F    use ultrasoft PP ?                                                          
   IUNSCR =        1    unscreen: 0-lin 1-nonlin 2-no                                               
   RPACOR =    1.200    partial core radius                                                         
   POMASS =   12.011; ZVAL   =    4.000    mass and valenz                                          
   RCORE  =    1.500    outmost cutoff radius                                                       
   RWIGS  =    1.630; RWIGS  =    0.863    wigner-seitz radius (au A)                               
   ENMAX  =  400.000; ENMIN  =  300.000 eV                                                          
   ICORE  =        2    local potential                                                             
   LCOR   =        T    correct aug charges                                                         
   LPAW   =        T    paw PP                                                                      
   EAUG   =  644.873                                                                                
   DEXC   =    0.000                                                                                
   RMAX   =    1.529    core radius for proj-oper                                                   
   RAUG   =    1.300    factor for augmentation sphere                                              
   RDEP   =    1.501    radius for radial grids                                                     
   RDEPT  =    1.300    core radius for aug-charge                                                  
                                                                                                    
   Atomic configuration                                                                             
    4 entries                                                                                       
     n  l   j            E        occ.                                                              
     1  0  0.50      -273.3789   2.0000                                                             
     2  0  0.50       -13.7508   2.0000                                                             
     2  1  0.50        -5.2854   2.0000                                                             
     3  2  1.50        -5.4423   0.0000                                                             
   Description                                                                                      
     l       E           TYP  RCUT    TYP  RCUT                                                     
     0    -13.7508458     23  1.200                                                                 
     0     -8.2022199     23  1.200                                                                 
     1     -5.2854383     23  1.500                                                                 
     1     34.0145650     23  1.500                                                                 
     2     -5.4423304      7  1.500                                                                 
  local pseudopotential read in
  partial core-charges read in
  partial kinetic energy density read in
  atomic valenz-charges read in
  non local Contribution for L=           0  read in
    real space projection operators read in
  non local Contribution for L=           0  read in
    real space projection operators read in
  non local Contribution for L=           1  read in
    real space projection operators read in
  non local Contribution for L=           1  read in
    real space projection operators read in
    PAW grid and wavefunctions read in
 
   number of l-projection  operators is LMAX  =           4
   number of lm-projection operators is LMMAX =           8
 
  PAW_PBE C 08Apr2002                   :
 energy of atom  1       EATOM= -147.1560
 kinetic energy error for atom=    0.0076 (will be added to EATOM!!)
 
 
 POSCAR: C8
  positions in direct lattice
  velocities in cartesian coordinates


 exchange-correlation table for PE
   RHO(1)=    0.500       N(1)  =     2000
   RHO(2)=  100.500       N(2)  =     4000
 


--------------------------------------------------------------------------------------------------------


 ion  position               nearest neighbor table
   1  0.250  0.250  0.250-   2 1.55   2 1.55   2 1.55   2 1.55
   2  0.000  0.000  0.000-   1 1.55   1 1.55   1 1.55   1 1.55
 
  LATTYP: Found a face centered cubic cell.
 ALAT       =     3.5737117542
  
  Lattice vectors:
  
 A1 = (   2.5269958153,   0.0000000000,   0.0000000000)
 A2 = (   1.2634979077,   2.1884425714,  -0.0000000000)
 A3 = (   1.2634979077,   0.7294808571,   2.0632834432)


Analysis of symmetry for initial positions (statically):
=====================================================================
 Subroutine PRICEL returns:
 Original cell was already a primitive cell.
 

 Routine SETGRP: Setting up the symmetry group for a 
 face centered cubic supercell.


 Subroutine GETGRP returns: Found 48 space group operations
 (whereof 24 operations were pure point group operations)
 out of a pool of 48 trial point group operations.


The static configuration has the point symmetry T_d .
 The point group associated with its full space group is O_h .


Analysis of symmetry for dynamics (positions and initial velocities):
=====================================================================
 Subroutine PRICEL returns:
 Original cell was already a primitive cell.
 

 Routine SETGRP: Setting up the symmetry group for a 
 face centered cubic supercell.


 Subroutine GETGRP returns: Found 48 space group operations
 (whereof 24 operations were pure point group operations)
 out of a pool of 48 trial point group operations.


The dynamic configuration has the point symmetry T_d .
 The point group associated with its full space group is O_h .


 Subroutine INISYM returns: Found 48 space group operations
 (whereof 24 operations are pure point group operations),
 and found     1 'primitive' translations


----------------------------------------------------------------------------------------

                                     Primitive cell                                     

  volume of cell :      11.4103

  direct lattice vectors                    reciprocal lattice vectors
     2.526995815  0.000000000  0.000000000     0.395726813 -0.228472982 -0.161554795
     1.263497908  2.188442571 -0.000000000    -0.000000000  0.456945964 -0.161554795
     1.263497908  0.729480857  2.063283443    -0.000000000  0.000000000  0.484664384

  length of vectors
     2.526995815  2.526995815  2.526995815     0.484664384  0.484664384  0.484664384

  position of ions in fractional coordinates (direct lattice)
     0.250000000  0.250000000  0.250000000
     0.000000000  0.000000000  0.000000000

  ion indices of the primitive-cell ions
   primitive index   ion index
                 1           1
                 2           2

----------------------------------------------------------------------------------------

 
 
 KPOINTS: k-density: 4.0                          

Automatic generation of k-mesh.
 Grid dimensions read from file:
 generate k-points for:   30   30   30

 Generating k-lattice:

  Cartesian coordinates                     Fractional coordinates (reciprocal lattice)
     0.013190894 -0.007615766 -0.005385160     0.033333333 -0.000000000 -0.000000000
    -0.000000000  0.015231532 -0.005385160    -0.000000000  0.033333333 -0.000000000
    -0.000000000  0.000000000  0.016155479    -0.000000000 -0.000000000  0.033333333

  Length of vectors
     0.016155479  0.016155479  0.016155479

  Shift w.r.t. Gamma in fractional coordinates (k-lattice)
     0.000000000  0.000000000  0.000000000

 
 Subroutine IBZKPT returns following result:
 ===========================================
 
 Found    752 irreducible k-points:
 
 Following reciprocal coordinates:
            Coordinates               Weight
  0.000000  0.000000  0.000000      1.000000
  0.033333  0.000000  0.000000      8.000000
  0.066667  0.000000  0.000000      8.000000
  0.100000  0.000000  0.000000      8.000000
  0.133333 -0.000000  0.000000      8.000000
  0.166667  0.000000  0.000000      8.000000
  0.200000  0.000000  0.000000      8.000000
  0.233333  0.000000  0.000000      8.000000
  0.266667  0.000000  0.000000      8.000000
  0.300000  0.000000  0.000000      8.000000
  0.333333  0.000000  0.000000      8.000000
  0.366667 -0.000000  0.000000      8.000000
  0.400000  0.000000  0.000000      8.000000
  0.433333  0.000000  0.000000      8.000000
  0.466667  0.000000  0.000000      8.000000
  0.500000  0.000000  0.000000      4.000000
  0.033333  0.033333  0.000000      6.000000
  0.066667  0.033333  0.000000     24.000000
  0.100000  0.033333  0.000000     24.000000
  0.133333  0.033333  0.000000     24.000000
  0.166667  0.033333  0.000000     24.000000
  0.200000  0.033333  0.000000     24.000000
  0.233333  0.033333  0.000000     24.000000
  0.266667  0.033333  0.000000     24.000000
  0.300000  0.033333  0.000000     24.000000
  0.333333  0.033333  0.000000     24.000000
  0.366667  0.033333  0.000000     24.000000
  0.400000  0.033333  0.000000     24.000000
  0.433333  0.033333  0.000000     24.000000
  0.466667  0.033333  0.000000     24.000000
  0.500000  0.033333  0.000000     24.000000
 -0.466667  0.033333  0.000000     24.000000
 -0.433333  0.033333  0.000000     24.000000
 -0.400000  0.033333  0.000000     24.000000
 -0.366667  0.033333  0.000000     24.000000
 -0.333333  0.033333  0.000000     24.000000
 -0.300000  0.033333  0.000000     24.000000
 -0.266667  0.033333  0.000000     24.000000
 -0.233333  0.033333  0.000000     24.000000
 -0.200000  0.033333  0.000000     24.000000
 -0.166667  0.033333  0.000000     24.000000
 -0.133333  0.033333  0.000000     24.000000
 -0.100000  0.033333  0.000000     24.000000
 -0.066667  0.033333  0.000000     24.000000
 -0.033333  0.033333  0.000000     12.000000
  0.066667  0.066667  0.000000      6.000000
  0.100000  0.066667  0.000000     24.000000
  0.133333  0.066667  0.000000     24.000000
  0.166667  0.066667  0.000000     24.000000
  0.200000  0.066667  0.000000     24.000000
  0.233333  0.066667  0.000000     24.000000
  0.266667  0.066667  0.000000     24.000000
  0.300000  0.066667  0.000000     24.000000
  0.333333  0.066667  0.000000     24.000000
  0.366667  0.066667  0.000000     24.000000
  0.400000  0.066667  0.000000     24.000000
  0.433333  0.066667  0.000000     24.000000
  0.466667  0.066667  0.000000     24.000000
  0.500000  0.066667  0.000000     24.000000
 -0.466667  0.066667  0.000000     24.000000
 -0.433333  0.066667  0.000000     24.000000
 -0.400000  0.066667  0.000000     24.000000
 -0.366667  0.066667  0.000000     24.000000
 -0.333333  0.066667  0.000000     24.000000
 -0.300000  0.066667  0.000000     24.000000
 -0.266667  0.066667  0.000000     24.000000
 -0.233333  0.066667  0.000000     24.000000
 -0.200000  0.066667  0.000000     24.000000
 -0.166667  0.066667  0.000000     24.000000
 -0.133333  0.066667  0.000000     24.000000
 -0.100000  0.066667  0.000000     24.000000
 -0.066667  0.066667  0.000000     12.000000
  0.100000  0.100000  0.000000      6.000000
  0.133333  0.100000  0.000000     24.000000
  0.166667  0.100000  0.000000     24.000000
  0.200000  0.100000  0.000000     24.000000
  0.233333  0.100000  0.000000     24.000000
  0.266667  0.100000  0.000000     24.000000
  0.300000  0.100000  0.000000     24.000000
  0.333333  0.100000  0.000000     24.000000
  0.366667  0.100000  0.000000     24.000000
  0.400000  0.100000  0.000000     24.000000
  0.433333  0.100000  0.000000     24.000000
  0.466667  0.100000  0.000000     24.000000
  0.500000  0.100000  0.000000     24.000000
 -0.466667  0.100000  0.000000     24.000000
 -0.433333  0.100000  0.000000     24.000000
 -0.400000  0.100000  0.000000     24.000000
 -0.366667  0.100000  0.000000     24.000000
 -0.333333  0.100000  0.000000     24.000000
 -0.300000  0.100000  0.000000     24.000000
 -0.266667  0.100000  0.000000     24.000000
 -0.233333  0.100000  0.000000     24.000000
 -0.200000  0.100000  0.000000     24.000000
 -0.166667  0.100000  0.000000     24.000000
 -0.133333  0.100000  0.000000     24.000000
 -0.100000  0.100000  0.000000     12.000000
  0.133333  0.133333  0.000000      6.000000
  0.166667  0.133333  0.000000     24.000000
  0.200000  0.133333  0.000000     24.000000
  0.233333  0.133333  0.000000     24.000000
  0.266667  0.133333  0.000000     24.000000
  0.300000  0.133333  0.000000     24.000000
  0.333333  0.133333  0.000000     24.000000
  0.366667  0.133333  0.000000     24.000000
  0.400000  0.133333  0.000000     24.000000
  0.433333  0.133333  0.000000     24.000000
  0.466667  0.133333  0.000000     24.000000
  0.500000  0.133333  0.000000     24.000000
 -0.466667  0.133333  0.000000     24.000000
 -0.433333  0.133333  0.000000     24.000000
 -0.400000  0.133333  0.000000     24.000000
 -0.366667  0.133333  0.000000     24.000000
 -0.333333  0.133333  0.000000     24.000000
 -0.300000  0.133333  0.000000     24.000000
 -0.266667  0.133333  0.000000     24.000000
 -0.233333  0.133333  0.000000     24.000000
 -0.200000  0.133333  0.000000     24.000000
 -0.166667  0.133333  0.000000     24.000000
 -0.133333  0.133333  0.000000     12.000000
  0.166667  0.166667  0.000000      6.000000
  0.200000  0.166667  0.000000     24.000000
  0.233333  0.166667  0.000000     24.000000
  0.266667  0.166667  0.000000     24.000000
  0.300000  0.166667  0.000000     24.000000
  0.333333  0.166667  0.000000     24.000000
  0.366667  0.166667  0.000000     24.000000
  0.400000  0.166667  0.000000     24.000000
  0.433333  0.166667  0.000000     24.000000
  0.466667  0.166667  0.000000     24.000000
  0.500000  0.166667  0.000000     24.000000
 -0.466667  0.166667  0.000000     24.000000
 -0.433333  0.166667  0.000000     24.000000
 -0.400000  0.166667  0.000000     24.000000
 -0.366667  0.166667  0.000000     24.000000
 -0.333333  0.166667  0.000000     24.000000
 -0.300000  0.166667  0.000000     24.000000
 -0.266667  0.166667  0.000000     24.000000
 -0.233333  0.166667  0.000000     24.000000
 -0.200000  0.166667  0.000000     24.000000
 -0.166667  0.166667  0.000000     12.000000
  0.200000  0.200000  0.000000      6.000000
  0.233333  0.200000  0.000000     24.000000
  0.266667  0.200000  0.000000     24.000000
  0.300000  0.200000  0.000000     24.000000
  0.333333  0.200000  0.000000     24.000000
  0.366667  0.200000  0.000000     24.000000
  0.400000  0.200000  0.000000     24.000000
  0.433333  0.200000  0.000000     24.000000
  0.466667  0.200000  0.000000     24.000000
  0.500000  0.200000  0.000000     24.000000
 -0.466667  0.200000  0.000000     24.000000
 -0.433333  0.200000  0.000000     24.000000
 -0.400000  0.200000  0.000000     24.000000
 -0.366667  0.200000  0.000000     24.000000
 -0.333333  0.200000  0.000000     24.000000
 -0.300000  0.200000  0.000000     24.000000
 -0.266667  0.200000  0.000000     24.000000
 -0.233333  0.200000  0.000000     24.000000
 -0.200000  0.200000  0.000000     12.000000
  0.233333  0.233333  0.000000      6.000000
  0.266667  0.233333  0.000000     24.000000
  0.300000  0.233333  0.000000     24.000000
  0.333333  0.233333  0.000000     24.000000
  0.366667  0.233333  0.000000     24.000000
  0.400000  0.233333  0.000000     24.000000
  0.433333  0.233333  0.000000     24.000000
  0.466667  0.233333  0.000000     24.000000
  0.500000  0.233333  0.000000     24.000000
 -0.466667  0.233333  0.000000     24.000000
 -0.433333  0.233333  0.000000     24.000000
 -0.400000  0.233333  0.000000     24.000000
 -0.366667  0.233333  0.000000     24.000000
 -0.333333  0.233333  0.000000     24.000000
 -0.300000  0.233333  0.000000     24.000000
 -0.266667  0.233333  0.000000     24.000000
 -0.233333  0.233333  0.000000     12.000000
  0.266667  0.266667  0.000000      6.000000
  0.300000  0.266667  0.000000     24.000000
  0.333333  0.266667  0.000000     24.000000
  0.366667  0.266667  0.000000     24.000000
  0.400000  0.266667  0.000000     24.000000
  0.433333  0.266667  0.000000     24.000000
  0.466667  0.266667  0.000000     24.000000
  0.500000  0.266667  0.000000     24.000000
 -0.466667  0.266667  0.000000     24.000000
 -0.433333  0.266667  0.000000     24.000000
 -0.400000  0.266667  0.000000     24.000000
 -0.366667  0.266667  0.000000     24.000000
 -0.333333  0.266667  0.000000     24.000000
 -0.300000  0.266667  0.000000     24.000000
 -0.266667  0.266667  0.000000     12.000000
  0.300000  0.300000  0.000000      6.000000
  0.333333  0.300000  0.000000     24.000000
  0.366667  0.300000  0.000000     24.000000
  0.400000  0.300000  0.000000     24.000000
  0.433333  0.300000  0.000000     24.000000
  0.466667  0.300000  0.000000     24.000000
  0.500000  0.300000  0.000000     24.000000
 -0.466667  0.300000  0.000000     24.000000
 -0.433333  0.300000  0.000000     24.000000
 -0.400000  0.300000  0.000000     24.000000
 -0.366667  0.300000  0.000000     24.000000
 -0.333333  0.300000  0.000000     24.000000
 -0.300000  0.300000  0.000000     12.000000
  0.333333  0.333333  0.000000      6.000000
  0.366667  0.333333  0.000000     24.000000
  0.400000  0.333333  0.000000     24.000000
  0.433333  0.333333  0.000000     24.000000
  0.466667  0.333333  0.000000     24.000000
  0.500000  0.333333  0.000000     24.000000
 -0.466667  0.333333  0.000000     24.000000
 -0.433333  0.333333  0.000000     24.000000
 -0.400000  0.333333  0.000000     24.000000
 -0.366667  0.333333  0.000000     24.000000
 -0.333333  0.333333  0.000000     12.000000
  0.366667  0.366667  0.000000      6.000000
  0.400000  0.366667  0.000000     24.000000
  0.433333  0.366667  0.000000     24.000000
  0.466667  0.366667  0.000000     24.000000
  0.500000  0.366667  0.000000     24.000000
 -0.466667  0.366667  0.000000     24.000000
 -0.433333  0.366667  0.000000     24.000000
 -0.400000  0.366667  0.000000     24.000000
 -0.366667  0.366667  0.000000     12.000000
  0.400000  0.400000  0.000000      6.000000
  0.433333  0.400000  0.000000     24.000000
  0.466667  0.400000  0.000000     24.000000
  0.500000  0.400000  0.000000     24.000000
 -0.466667  0.400000  0.000000     24.000000
 -0.433333  0.400000  0.000000     24.000000
 -0.400000  0.400000  0.000000     12.000000
  0.433333  0.433333  0.000000      6.000000
  0.466667  0.433333  0.000000     24.000000
  0.500000  0.433333  0.000000     24.000000
 -0.466667  0.433333  0.000000     24.000000
 -0.433333  0.433333  0.000000     12.000000
  0.466667  0.466667  0.000000      6.000000
  0.500000  0.466667  0.000000     24.000000
 -0.466667  0.466667  0.000000     12.000000
  0.500000  0.500000  0.000000      3.000000
  0.100000  0.066667  0.033333     24.000000
  0.133333  0.066667  0.033333     48.000000
  0.166667  0.066667  0.033333     48.000000
  0.200000  0.066667  0.033333     48.000000
  0.233333  0.066667  0.033333     48.000000
  0.266667  0.066667  0.033333     48.000000
  0.300000  0.066667  0.033333     48.000000
  0.333333  0.066667  0.033333     48.000000
  0.366667  0.066667  0.033333     48.000000
  0.400000  0.066667  0.033333     48.000000
  0.433333  0.066667  0.033333     48.000000
  0.466667  0.066667  0.033333     48.000000
  0.500000  0.066667  0.033333     48.000000
 -0.466667  0.066667  0.033333     24.000000
  0.133333  0.100000  0.033333     24.000000
  0.166667  0.100000  0.033333     48.000000
  0.200000  0.100000  0.033333     48.000000
  0.233333  0.100000  0.033333     48.000000
  0.266667  0.100000  0.033333     48.000000
  0.300000  0.100000  0.033333     48.000000
  0.333333  0.100000  0.033333     48.000000
  0.366667  0.100000  0.033333     48.000000
  0.400000  0.100000  0.033333     48.000000
  0.433333  0.100000  0.033333     48.000000
  0.466667  0.100000  0.033333     48.000000
  0.500000  0.100000  0.033333     48.000000
 -0.466667  0.100000  0.033333     48.000000
 -0.433333  0.100000  0.033333     48.000000
 -0.400000  0.100000  0.033333     48.000000
 -0.366667  0.100000  0.033333     48.000000
 -0.333333  0.100000  0.033333     48.000000
 -0.300000  0.100000  0.033333     48.000000
 -0.266667  0.100000  0.033333     48.000000
 -0.233333  0.100000  0.033333     48.000000
 -0.200000  0.100000  0.033333     48.000000
 -0.166667  0.100000  0.033333     48.000000
 -0.133333  0.100000  0.033333     48.000000
 -0.100000  0.100000  0.033333     48.000000
 -0.066667  0.100000  0.033333     24.000000
  0.166667  0.133333  0.033333     24.000000
  0.200000  0.133333  0.033333     48.000000
  0.233333  0.133333  0.033333     48.000000
  0.266667  0.133333  0.033333     48.000000
  0.300000  0.133333  0.033333     48.000000
  0.333333  0.133333  0.033333     48.000000
  0.366667  0.133333  0.033333     48.000000
  0.400000  0.133333  0.033333     48.000000
  0.433333  0.133333  0.033333     48.000000
  0.466667  0.133333  0.033333     48.000000
  0.500000  0.133333  0.033333     48.000000
 -0.466667  0.133333  0.033333     48.000000
 -0.433333  0.133333  0.033333     48.000000
 -0.400000  0.133333  0.033333     48.000000
 -0.366667  0.133333  0.033333     48.000000
 -0.333333  0.133333  0.033333     48.000000
 -0.300000  0.133333  0.033333     48.000000
 -0.266667  0.133333  0.033333     48.000000
 -0.233333  0.133333  0.033333     48.000000
 -0.200000  0.133333  0.033333     48.000000
 -0.166667  0.133333  0.033333     48.000000
 -0.133333  0.133333  0.033333     48.000000
 -0.100000  0.133333  0.033333     24.000000
  0.200000  0.166667  0.033333     24.000000
  0.233333  0.166667  0.033333     48.000000
  0.266667  0.166667  0.033333     48.000000
  0.300000  0.166667  0.033333     48.000000
  0.333333  0.166667  0.033333     48.000000
  0.366667  0.166667  0.033333     48.000000
  0.400000  0.166667  0.033333     48.000000
  0.433333  0.166667  0.033333     48.000000
  0.466667  0.166667  0.033333     48.000000
  0.500000  0.166667  0.033333     48.000000
 -0.466667  0.166667  0.033333     48.000000
 -0.433333  0.166667  0.033333     48.000000
 -0.400000  0.166667  0.033333     48.000000
 -0.366667  0.166667  0.033333     48.000000
 -0.333333  0.166667  0.033333     48.000000
 -0.300000  0.166667  0.033333     48.000000
 -0.266667  0.166667  0.033333     48.000000
 -0.233333  0.166667  0.033333     48.000000
 -0.200000  0.166667  0.033333     48.000000
 -0.166667  0.166667  0.033333     48.000000
 -0.133333  0.166667  0.033333     24.000000
  0.233333  0.200000  0.033333     24.000000
  0.266667  0.200000  0.033333     48.000000
  0.300000  0.200000  0.033333     48.000000
  0.333333  0.200000  0.033333     48.000000
  0.366667  0.200000  0.033333     48.000000
  0.400000  0.200000  0.033333     48.000000
  0.433333  0.200000  0.033333     48.000000
  0.466667  0.200000  0.033333     48.000000
  0.500000  0.200000  0.033333     48.000000
 -0.466667  0.200000  0.033333     48.000000
 -0.433333  0.200000  0.033333     48.000000
 -0.400000  0.200000  0.033333     48.000000
 -0.366667  0.200000  0.033333     48.000000
 -0.333333  0.200000  0.033333     48.000000
 -0.300000  0.200000  0.033333     48.000000
 -0.266667  0.200000  0.033333     48.000000
 -0.233333  0.200000  0.033333     48.000000
 -0.200000  0.200000  0.033333     48.000000
 -0.166667  0.200000  0.033333     24.000000
  0.266667  0.233333  0.033333     24.000000
  0.300000  0.233333  0.033333     48.000000
  0.333333  0.233333  0.033333     48.000000
  0.366667  0.233333  0.033333     48.000000
  0.400000  0.233333  0.033333     48.000000
  0.433333  0.233333  0.033333     48.000000
  0.466667  0.233333  0.033333     48.000000
  0.500000  0.233333  0.033333     48.000000
 -0.466667  0.233333  0.033333     48.000000
 -0.433333  0.233333  0.033333     48.000000
 -0.400000  0.233333  0.033333     48.000000
 -0.366667  0.233333  0.033333     48.000000
 -0.333333  0.233333  0.033333     48.000000
 -0.300000  0.233333  0.033333     48.000000
 -0.266667  0.233333  0.033333     48.000000
 -0.233333  0.233333  0.033333     48.000000
 -0.200000  0.233333  0.033333     24.000000
  0.300000  0.266667  0.033333     24.000000
  0.333333  0.266667  0.033333     48.000000
  0.366667  0.266667  0.033333     48.000000
  0.400000  0.266667  0.033333     48.000000
  0.433333  0.266667  0.033333     48.000000
  0.466667  0.266667  0.033333     48.000000
  0.500000  0.266667  0.033333     48.000000
 -0.466667  0.266667  0.033333     48.000000
 -0.433333  0.266667  0.033333     48.000000
 -0.400000  0.266667  0.033333     48.000000
 -0.366667  0.266667  0.033333     48.000000
 -0.333333  0.266667  0.033333     48.000000
 -0.300000  0.266667  0.033333     48.000000
 -0.266667  0.266667  0.033333     48.000000
 -0.233333  0.266667  0.033333     24.000000
  0.333333  0.300000  0.033333     24.000000
  0.366667  0.300000  0.033333     48.000000
  0.400000  0.300000  0.033333     48.000000
  0.433333  0.300000  0.033333     48.000000
  0.466667  0.300000  0.033333     48.000000
  0.500000  0.300000  0.033333     48.000000
 -0.466667  0.300000  0.033333     48.000000
 -0.433333  0.300000  0.033333     48.000000
 -0.400000  0.300000  0.033333     48.000000
 -0.366667  0.300000  0.033333     48.000000
 -0.333333  0.300000  0.033333     48.000000
 -0.300000  0.300000  0.033333     48.000000
 -0.266667  0.300000  0.033333     24.000000
  0.366667  0.333333  0.033333     24.000000
  0.400000  0.333333  0.033333     48.000000
  0.433333  0.333333  0.033333     48.000000
  0.466667  0.333333  0.033333     48.000000
  0.500000  0.333333  0.033333     48.000000
 -0.466667  0.333333  0.033333     48.000000
 -0.433333  0.333333  0.033333     48.000000
 -0.400000  0.333333  0.033333     48.000000
 -0.366667  0.333333  0.033333     48.000000
 -0.333333  0.333333  0.033333     48.000000
 -0.300000  0.333333  0.033333     24.000000
  0.400000  0.366667  0.033333     24.000000
  0.433333  0.366667  0.033333     48.000000
  0.466667  0.366667  0.033333     48.000000
  0.500000  0.366667  0.033333     48.000000
 -0.466667  0.366667  0.033333     48.000000
 -0.433333  0.366667  0.033333     48.000000
 -0.400000  0.366667  0.033333     48.000000
 -0.366667  0.366667  0.033333     48.000000
 -0.333333  0.366667  0.033333     24.000000
  0.433333  0.400000  0.033333     24.000000
  0.466667  0.400000  0.033333     48.000000
  0.500000  0.400000  0.033333     48.000000
 -0.466667  0.400000  0.033333     48.000000
 -0.433333  0.400000  0.033333     48.000000
 -0.400000  0.400000  0.033333     48.000000
 -0.366667  0.400000  0.033333     24.000000
  0.466667  0.433333  0.033333     24.000000
  0.500000  0.433333  0.033333     48.000000
 -0.466667  0.433333  0.033333     48.000000
 -0.433333  0.433333  0.033333     48.000000
 -0.400000  0.433333  0.033333     24.000000
  0.500000  0.466667  0.033333     24.000000
 -0.466667  0.466667  0.033333     48.000000
 -0.433333  0.466667  0.033333     24.000000
 -0.466667  0.500000  0.033333     12.000000
  0.200000  0.133333  0.066667     24.000000
  0.233333  0.133333  0.066667     48.000000
  0.266667  0.133333  0.066667     48.000000
  0.300000  0.133333  0.066667     48.000000
  0.333333  0.133333  0.066667     48.000000
  0.366667  0.133333  0.066667     48.000000
  0.400000  0.133333  0.066667     48.000000
  0.433333  0.133333  0.066667     48.000000
  0.466667  0.133333  0.066667     48.000000
  0.500000  0.133333  0.066667     48.000000
 -0.466667  0.133333  0.066667     48.000000
 -0.433333  0.133333  0.066667     24.000000
  0.233333  0.166667  0.066667     24.000000
  0.266667  0.166667  0.066667     48.000000
  0.300000  0.166667  0.066667     48.000000
  0.333333  0.166667  0.066667     48.000000
  0.366667  0.166667  0.066667     48.000000
  0.400000  0.166667  0.066667     48.000000
  0.433333  0.166667  0.066667     48.000000
  0.466667  0.166667  0.066667     48.000000
  0.500000  0.166667  0.066667     48.000000
 -0.466667  0.166667  0.066667     48.000000
 -0.433333  0.166667  0.066667     48.000000
 -0.400000  0.166667  0.066667     48.000000
 -0.366667  0.166667  0.066667     48.000000
 -0.333333  0.166667  0.066667     48.000000
 -0.300000  0.166667  0.066667     48.000000
 -0.266667  0.166667  0.066667     48.000000
 -0.233333  0.166667  0.066667     48.000000
 -0.200000  0.166667  0.066667     48.000000
 -0.166667  0.166667  0.066667     48.000000
 -0.133333  0.166667  0.066667     48.000000
 -0.100000  0.166667  0.066667     24.000000
  0.266667  0.200000  0.066667     24.000000
  0.300000  0.200000  0.066667     48.000000
  0.333333  0.200000  0.066667     48.000000
  0.366667  0.200000  0.066667     48.000000
  0.400000  0.200000  0.066667     48.000000
  0.433333  0.200000  0.066667     48.000000
  0.466667  0.200000  0.066667     48.000000
  0.500000  0.200000  0.066667     48.000000
 -0.466667  0.200000  0.066667     48.000000
 -0.433333  0.200000  0.066667     48.000000
 -0.400000  0.200000  0.066667     48.000000
 -0.366667  0.200000  0.066667     48.000000
 -0.333333  0.200000  0.066667     48.000000
 -0.300000  0.200000  0.066667     48.000000
 -0.266667  0.200000  0.066667     48.000000
 -0.233333  0.200000  0.066667     48.000000
 -0.200000  0.200000  0.066667     48.000000
 -0.166667  0.200000  0.066667     48.000000
 -0.133333  0.200000  0.066667     24.000000
  0.300000  0.233333  0.066667     24.000000
  0.333333  0.233333  0.066667     48.000000
  0.366667  0.233333  0.066667     48.000000
  0.400000  0.233333  0.066667     48.000000
  0.433333  0.233333  0.066667     48.000000
  0.466667  0.233333  0.066667     48.000000
  0.500000  0.233333  0.066667     48.000000
 -0.466667  0.233333  0.066667     48.000000
 -0.433333  0.233333  0.066667     48.000000
 -0.400000  0.233333  0.066667     48.000000
 -0.366667  0.233333  0.066667     48.000000
 -0.333333  0.233333  0.066667     48.000000
 -0.300000  0.233333  0.066667     48.000000
 -0.266667  0.233333  0.066667     48.000000
 -0.233333  0.233333  0.066667     48.000000
 -0.200000  0.233333  0.066667     48.000000
 -0.166667  0.233333  0.066667     24.000000
  0.333333  0.266667  0.066667     24.000000
  0.366667  0.266667  0.066667     48.000000
  0.400000  0.266667  0.066667     48.000000
  0.433333  0.266667  0.066667     48.000000
  0.466667  0.266667  0.066667     48.000000
  0.500000  0.266667  0.066667     48.000000
 -0.466667  0.266667  0.066667     48.000000
 -0.433333  0.266667  0.066667     48.000000
 -0.400000  0.266667  0.066667     48.000000
 -0.366667  0.266667  0.066667     48.000000
 -0.333333  0.266667  0.066667     48.000000
 -0.300000  0.266667  0.066667     48.000000
 -0.266667  0.266667  0.066667     48.000000
 -0.233333  0.266667  0.066667     48.000000
 -0.200000  0.266667  0.066667     24.000000
  0.366667  0.300000  0.066667     24.000000
  0.400000  0.300000  0.066667     48.000000
  0.433333  0.300000  0.066667     48.000000
  0.466667  0.300000  0.066667     48.000000
  0.500000  0.300000  0.066667     48.000000
 -0.466667  0.300000  0.066667     48.000000
 -0.433333  0.300000  0.066667     48.000000
 -0.400000  0.300000  0.066667     48.000000
 -0.366667  0.300000  0.066667     48.000000
 -0.333333  0.300000  0.066667     48.000000
 -0.300000  0.300000  0.066667     48.000000
 -0.266667  0.300000  0.066667     48.000000
 -0.233333  0.300000  0.066667     24.000000
  0.400000  0.333333  0.066667     24.000000
  0.433333  0.333333  0.066667     48.000000
  0.466667  0.333333  0.066667     48.000000
  0.500000  0.333333  0.066667     48.000000
 -0.466667  0.333333  0.066667     48.000000
 -0.433333  0.333333  0.066667     48.000000
 -0.400000  0.333333  0.066667     48.000000
 -0.366667  0.333333  0.066667     48.000000
 -0.333333  0.333333  0.066667     48.000000
 -0.300000  0.333333  0.066667     48.000000
 -0.266667  0.333333  0.066667     24.000000
  0.433333  0.366667  0.066667     24.000000
  0.466667  0.366667  0.066667     48.000000
  0.500000  0.366667  0.066667     48.000000
 -0.466667  0.366667  0.066667     48.000000
 -0.433333  0.366667  0.066667     48.000000
 -0.400000  0.366667  0.066667     48.000000
 -0.366667  0.366667  0.066667     48.000000
 -0.333333  0.366667  0.066667     48.000000
 -0.300000  0.366667  0.066667     24.000000
  0.466667  0.400000  0.066667     24.000000
  0.500000  0.400000  0.066667     48.000000
 -0.466667  0.400000  0.066667     48.000000
 -0.433333  0.400000  0.066667     48.000000
 -0.400000  0.400000  0.066667     48.000000
 -0.366667  0.400000  0.066667     48.000000
 -0.333333  0.400000  0.066667     24.000000
  0.500000  0.433333  0.066667     24.000000
 -0.466667  0.433333  0.066667     48.000000
 -0.433333  0.433333  0.066667     48.000000
 -0.400000  0.433333  0.066667     48.000000
 -0.366667  0.433333  0.066667     24.000000
 -0.466667  0.466667  0.066667     24.000000
 -0.433333  0.466667  0.066667     48.000000
 -0.400000  0.466667  0.066667     24.000000
 -0.433333  0.500000  0.066667     12.000000
  0.300000  0.200000  0.100000     24.000000
  0.333333  0.200000  0.100000     48.000000
  0.366667  0.200000  0.100000     48.000000
  0.400000  0.200000  0.100000     48.000000
  0.433333  0.200000  0.100000     48.000000
  0.466667  0.200000  0.100000     48.000000
  0.500000  0.200000  0.100000     48.000000
 -0.466667  0.200000  0.100000     48.000000
 -0.433333  0.200000  0.100000     48.000000
 -0.400000  0.200000  0.100000     24.000000
  0.333333  0.233333  0.100000     24.000000
  0.366667  0.233333  0.100000     48.000000
  0.400000  0.233333  0.100000     48.000000
  0.433333  0.233333  0.100000     48.000000
  0.466667  0.233333  0.100000     48.000000
  0.500000  0.233333  0.100000     48.000000
 -0.466667  0.233333  0.100000     48.000000
 -0.433333  0.233333  0.100000     48.000000
 -0.400000  0.233333  0.100000     48.000000
 -0.366667  0.233333  0.100000     48.000000
 -0.333333  0.233333  0.100000     48.000000
 -0.300000  0.233333  0.100000     48.000000
 -0.266667  0.233333  0.100000     48.000000
 -0.233333  0.233333  0.100000     48.000000
 -0.200000  0.233333  0.100000     48.000000
 -0.166667  0.233333  0.100000     48.000000
 -0.133333  0.233333  0.100000     24.000000
  0.366667  0.266667  0.100000     24.000000
  0.400000  0.266667  0.100000     48.000000
  0.433333  0.266667  0.100000     48.000000
  0.466667  0.266667  0.100000     48.000000
  0.500000  0.266667  0.100000     48.000000
 -0.466667  0.266667  0.100000     48.000000
 -0.433333  0.266667  0.100000     48.000000
 -0.400000  0.266667  0.100000     48.000000
 -0.366667  0.266667  0.100000     48.000000
 -0.333333  0.266667  0.100000     48.000000
 -0.300000  0.266667  0.100000     48.000000
 -0.266667  0.266667  0.100000     48.000000
 -0.233333  0.266667  0.100000     48.000000
 -0.200000  0.266667  0.100000     48.000000
 -0.166667  0.266667  0.100000     24.000000
  0.400000  0.300000  0.100000     24.000000
  0.433333  0.300000  0.100000     48.000000
  0.466667  0.300000  0.100000     48.000000
  0.500000  0.300000  0.100000     48.000000
 -0.466667  0.300000  0.100000     48.000000
 -0.433333  0.300000  0.100000     48.000000
 -0.400000  0.300000  0.100000     48.000000
 -0.366667  0.300000  0.100000     48.000000
 -0.333333  0.300000  0.100000     48.000000
 -0.300000  0.300000  0.100000     48.000000
 -0.266667  0.300000  0.100000     48.000000
 -0.233333  0.300000  0.100000     48.000000
 -0.200000  0.300000  0.100000     24.000000
  0.433333  0.333333  0.100000     24.000000
  0.466667  0.333333  0.100000     48.000000
  0.500000  0.333333  0.100000     48.000000
 -0.466667  0.333333  0.100000     48.000000
 -0.433333  0.333333  0.100000     48.000000
 -0.400000  0.333333  0.100000     48.000000
 -0.366667  0.333333  0.100000     48.000000
 -0.333333  0.333333  0.100000     48.000000
 -0.300000  0.333333  0.100000     48.000000
 -0.266667  0.333333  0.100000     48.000000
 -0.233333  0.333333  0.100000     24.000000
  0.466667  0.366667  0.100000     24.000000
  0.500000  0.366667  0.100000     48.000000
 -0.466667  0.366667  0.100000     48.000000
 -0.433333  0.366667  0.100000     48.000000
 -0.400000  0.366667  0.100000     48.000000
 -0.366667  0.366667  0.100000     48.000000
 -0.333333  0.366667  0.100000     48.000000
 -0.300000  0.366667  0.100000     48.000000
 -0.266667  0.366667  0.100000     24.000000
  0.500000  0.400000  0.100000     24.000000
 -0.466667  0.400000  0.100000     48.000000
 -0.433333  0.400000  0.100000     48.000000
 -0.400000  0.400000  0.100000     48.000000
 -0.366667  0.400000  0.100000     48.000000
 -0.333333  0.400000  0.100000     48.000000
 -0.300000  0.400000  0.100000     24.000000
 -0.466667  0.433333  0.100000     24.000000
 -0.433333  0.433333  0.100000     48.000000
 -0.400000  0.433333  0.100000     48.000000
 -0.366667  0.433333  0.100000     48.000000
 -0.333333  0.433333  0.100000     24.000000
 -0.433333  0.466667  0.100000     24.000000
 -0.400000  0.466667  0.100000     48.000000
 -0.366667  0.466667  0.100000     24.000000
 -0.400000  0.500000  0.100000     12.000000
  0.400000  0.266667  0.133333     24.000000
  0.433333  0.266667  0.133333     48.000000
  0.466667  0.266667  0.133333     48.000000
  0.500000  0.266667  0.133333     48.000000
 -0.466667  0.266667  0.133333     48.000000
 -0.433333  0.266667  0.133333     48.000000
 -0.400000  0.266667  0.133333     48.000000
 -0.366667  0.266667  0.133333     24.000000
  0.433333  0.300000  0.133333     24.000000
  0.466667  0.300000  0.133333     48.000000
  0.500000  0.300000  0.133333     48.000000
 -0.466667  0.300000  0.133333     48.000000
 -0.433333  0.300000  0.133333     48.000000
 -0.400000  0.300000  0.133333     48.000000
 -0.366667  0.300000  0.133333     48.000000
 -0.333333  0.300000  0.133333     48.000000
 -0.300000  0.300000  0.133333     48.000000
 -0.266667  0.300000  0.133333     48.000000
 -0.233333  0.300000  0.133333     48.000000
 -0.200000  0.300000  0.133333     48.000000
 -0.166667  0.300000  0.133333     24.000000
  0.466667  0.333333  0.133333     24.000000
  0.500000  0.333333  0.133333     48.000000
 -0.466667  0.333333  0.133333     48.000000
 -0.433333  0.333333  0.133333     48.000000
 -0.400000  0.333333  0.133333     48.000000
 -0.366667  0.333333  0.133333     48.000000
 -0.333333  0.333333  0.133333     48.000000
 -0.300000  0.333333  0.133333     48.000000
 -0.266667  0.333333  0.133333     48.000000
 -0.233333  0.333333  0.133333     48.000000
 -0.200000  0.333333  0.133333     24.000000
  0.500000  0.366667  0.133333     24.000000
 -0.466667  0.366667  0.133333     48.000000
 -0.433333  0.366667  0.133333     48.000000
 -0.400000  0.366667  0.133333     48.000000
 -0.366667  0.366667  0.133333     48.000000
 -0.333333  0.366667  0.133333     48.000000
 -0.300000  0.366667  0.133333     48.000000
 -0.266667  0.366667  0.133333     48.000000
 -0.233333  0.366667  0.133333     24.000000
 -0.466667  0.400000  0.133333     24.000000
 -0.433333  0.400000  0.133333     48.000000
 -0.400000  0.400000  0.133333     48.000000
 -0.366667  0.400000  0.133333     48.000000
 -0.333333  0.400000  0.133333     48.000000
 -0.300000  0.400000  0.133333     48.000000
 -0.266667  0.400000  0.133333     24.000000
 -0.433333  0.433333  0.133333     24.000000
 -0.400000  0.433333  0.133333     48.000000
 -0.366667  0.433333  0.133333     48.000000
 -0.333333  0.433333  0.133333     48.000000
 -0.300000  0.433333  0.133333     24.000000
 -0.400000  0.466667  0.133333     24.000000
 -0.366667  0.466667  0.133333     48.000000
 -0.333333  0.466667  0.133333     24.000000
 -0.366667  0.500000  0.133333     12.000000
  0.500000  0.333333  0.166667     24.000000
 -0.466667  0.333333  0.166667     48.000000
 -0.433333  0.333333  0.166667     48.000000
 -0.400000  0.333333  0.166667     48.000000
 -0.366667  0.333333  0.166667     48.000000
 -0.333333  0.333333  0.166667     24.000000
 -0.466667  0.366667  0.166667     24.000000
 -0.433333  0.366667  0.166667     48.000000
 -0.400000  0.366667  0.166667     48.000000
 -0.366667  0.366667  0.166667     48.000000
 -0.333333  0.366667  0.166667     48.000000
 -0.300000  0.366667  0.166667     48.000000
 -0.266667  0.366667  0.166667     48.000000
 -0.233333  0.366667  0.166667     48.000000
 -0.200000  0.366667  0.166667     24.000000
 -0.433333  0.400000  0.166667     24.000000
 -0.400000  0.400000  0.166667     48.000000
 -0.366667  0.400000  0.166667     48.000000
 -0.333333  0.400000  0.166667     48.000000
 -0.300000  0.400000  0.166667     48.000000
 -0.266667  0.400000  0.166667     48.000000
 -0.233333  0.400000  0.166667     24.000000
 -0.400000  0.433333  0.166667     24.000000
 -0.366667  0.433333  0.166667     48.000000
 -0.333333  0.433333  0.166667     48.000000
 -0.300000  0.433333  0.166667     48.000000
 -0.266667  0.433333  0.166667     24.000000
 -0.366667  0.466667  0.166667     24.000000
 -0.333333  0.466667  0.166667     48.000000
 -0.300000  0.466667  0.166667     24.000000
 -0.333333  0.500000  0.166667     12.000000
 -0.400000  0.400000  0.200000     24.000000
 -0.366667  0.400000  0.200000     48.000000
 -0.333333  0.400000  0.200000     48.000000
 -0.300000  0.400000  0.200000     24.000000
 -0.366667  0.433333  0.200000     24.000000
 -0.333333  0.433333  0.200000     48.000000
 -0.300000  0.433333  0.200000     48.000000
 -0.266667  0.433333  0.200000     48.000000
 -0.233333  0.433333  0.200000     24.000000
 -0.333333  0.466667  0.200000     24.000000
 -0.300000  0.466667  0.200000     48.000000
 -0.266667  0.466667  0.200000     24.000000
 -0.300000  0.500000  0.200000     12.000000
 -0.300000  0.466667  0.233333     24.000000
 -0.266667  0.466667  0.233333     24.000000
 -0.266667  0.500000  0.233333     12.000000
 
 Following cartesian coordinates:
            Coordinates               Weight
  0.000000  0.000000  0.000000      1.000000
  0.013191 -0.007616 -0.005385      8.000000
  0.026382 -0.015232 -0.010770      8.000000
  0.039573 -0.022847 -0.016155      8.000000
  0.052764 -0.030463 -0.021541      8.000000
  0.065954 -0.038079 -0.026926      8.000000
  0.079145 -0.045695 -0.032311      8.000000
  0.092336 -0.053310 -0.037696      8.000000
  0.105527 -0.060926 -0.043081      8.000000
  0.118718 -0.068542 -0.048466      8.000000
  0.131909 -0.076158 -0.053852      8.000000
  0.145100 -0.083773 -0.059237      8.000000
  0.158291 -0.091389 -0.064622      8.000000
  0.171482 -0.099005 -0.070007      8.000000
  0.184673 -0.106621 -0.075392      8.000000
  0.197863 -0.114236 -0.080777      4.000000
  0.013191  0.007616 -0.010770      6.000000
  0.026382 -0.000000 -0.016155     24.000000
  0.039573 -0.007616 -0.021541     24.000000
  0.052764 -0.015232 -0.026926     24.000000
  0.065954 -0.022847 -0.032311     24.000000
  0.079145 -0.030463 -0.037696     24.000000
  0.092336 -0.038079 -0.043081     24.000000
  0.105527 -0.045695 -0.048466     24.000000
  0.118718 -0.053310 -0.053852     24.000000
  0.131909 -0.060926 -0.059237     24.000000
  0.145100 -0.068542 -0.064622     24.000000
  0.158291 -0.076158 -0.070007     24.000000
  0.171482 -0.083773 -0.075392     24.000000
  0.184673 -0.091389 -0.080777     24.000000
  0.197863 -0.099005 -0.086163     24.000000
 -0.184673  0.121852  0.070007     24.000000
 -0.171482  0.114236  0.064622     24.000000
 -0.158291  0.106621  0.059237     24.000000
 -0.145100  0.099005  0.053852     24.000000
 -0.131909  0.091389  0.048466     24.000000
 -0.118718  0.083773  0.043081     24.000000
 -0.105527  0.076158  0.037696     24.000000
 -0.092336  0.068542  0.032311     24.000000
 -0.079145  0.060926  0.026926     24.000000
 -0.065954  0.053310  0.021541     24.000000
 -0.052764  0.045695  0.016155     24.000000
 -0.039573  0.038079  0.010770     24.000000
 -0.026382  0.030463  0.005385     24.000000
 -0.013191  0.022847  0.000000     12.000000
  0.026382  0.015232 -0.021541      6.000000
  0.039573  0.007616 -0.026926     24.000000
  0.052764 -0.000000 -0.032311     24.000000
  0.065954 -0.007616 -0.037696     24.000000
  0.079145 -0.015232 -0.043081     24.000000
  0.092336 -0.022847 -0.048466     24.000000
  0.105527 -0.030463 -0.053852     24.000000
  0.118718 -0.038079 -0.059237     24.000000
  0.131909 -0.045695 -0.064622     24.000000
  0.145100 -0.053310 -0.070007     24.000000
  0.158291 -0.060926 -0.075392     24.000000
  0.171482 -0.068542 -0.080777     24.000000
  0.184673 -0.076158 -0.086163     24.000000
  0.197863 -0.083773 -0.091548     24.000000
 -0.184673  0.137084  0.064622     24.000000
 -0.171482  0.129468  0.059237     24.000000
 -0.158291  0.121852  0.053852     24.000000
 -0.145100  0.114236  0.048466     24.000000
 -0.131909  0.106621  0.043081     24.000000
 -0.118718  0.099005  0.037696     24.000000
 -0.105527  0.091389  0.032311     24.000000
 -0.092336  0.083773  0.026926     24.000000
 -0.079145  0.076158  0.021541     24.000000
 -0.065954  0.068542  0.016155     24.000000
 -0.052764  0.060926  0.010770     24.000000
 -0.039573  0.053310  0.005385     24.000000
 -0.026382  0.045695  0.000000     12.000000
  0.039573  0.022847 -0.032311      6.000000
  0.052764  0.015232 -0.037696     24.000000
  0.065954  0.007616 -0.043081     24.000000
  0.079145 -0.000000 -0.048466     24.000000
  0.092336 -0.007616 -0.053852     24.000000
  0.105527 -0.015232 -0.059237     24.000000
  0.118718 -0.022847 -0.064622     24.000000
  0.131909 -0.030463 -0.070007     24.000000
  0.145100 -0.038079 -0.075392     24.000000
  0.158291 -0.045695 -0.080777     24.000000
  0.171482 -0.053310 -0.086163     24.000000
  0.184673 -0.060926 -0.091548     24.000000
  0.197863 -0.068542 -0.096933     24.000000
 -0.184673  0.152315  0.059237     24.000000
 -0.171482  0.144700  0.053852     24.000000
 -0.158291  0.137084  0.048466     24.000000
 -0.145100  0.129468  0.043081     24.000000
 -0.131909  0.121852  0.037696     24.000000
 -0.118718  0.114236  0.032311     24.000000
 -0.105527  0.106621  0.026926     24.000000
 -0.092336  0.099005  0.021541     24.000000
 -0.079145  0.091389  0.016155     24.000000
 -0.065954  0.083773  0.010770     24.000000
 -0.052764  0.076158  0.005385     24.000000
 -0.039573  0.068542  0.000000     12.000000
  0.052764  0.030463 -0.043081      6.000000
  0.065954  0.022847 -0.048466     24.000000
  0.079145  0.015232 -0.053852     24.000000
  0.092336  0.007616 -0.059237     24.000000
  0.105527 -0.000000 -0.064622     24.000000
  0.118718 -0.007616 -0.070007     24.000000
  0.131909 -0.015232 -0.075392     24.000000
  0.145100 -0.022847 -0.080777     24.000000
  0.158291 -0.030463 -0.086163     24.000000
  0.171482 -0.038079 -0.091548     24.000000
  0.184673 -0.045695 -0.096933     24.000000
  0.197863 -0.053310 -0.102318     24.000000
 -0.184673  0.167547  0.053852     24.000000
 -0.171482  0.159931  0.048466     24.000000
 -0.158291  0.152315  0.043081     24.000000
 -0.145100  0.144700  0.037696     24.000000
 -0.131909  0.137084  0.032311     24.000000
 -0.118718  0.129468  0.026926     24.000000
 -0.105527  0.121852  0.021541     24.000000
 -0.092336  0.114236  0.016155     24.000000
 -0.079145  0.106621  0.010770     24.000000
 -0.065954  0.099005  0.005385     24.000000
 -0.052764  0.091389  0.000000     12.000000
  0.065954  0.038079 -0.053852      6.000000
  0.079145  0.030463 -0.059237     24.000000
  0.092336  0.022847 -0.064622     24.000000
  0.105527  0.015232 -0.070007     24.000000
  0.118718  0.007616 -0.075392     24.000000
  0.131909 -0.000000 -0.080777     24.000000
  0.145100 -0.007616 -0.086163     24.000000
  0.158291 -0.015232 -0.091548     24.000000
  0.171482 -0.022847 -0.096933     24.000000
  0.184673 -0.030463 -0.102318     24.000000
  0.197863 -0.038079 -0.107703     24.000000
 -0.184673  0.182778  0.048466     24.000000
 -0.171482  0.175163  0.043081     24.000000
 -0.158291  0.167547  0.037696     24.000000
 -0.145100  0.159931  0.032311     24.000000
 -0.131909  0.152315  0.026926     24.000000
 -0.118718  0.144700  0.021541     24.000000
 -0.105527  0.137084  0.016155     24.000000
 -0.092336  0.129468  0.010770     24.000000
 -0.079145  0.121852  0.005385     24.000000
 -0.065954  0.114236  0.000000     12.000000
  0.079145  0.045695 -0.064622      6.000000
  0.092336  0.038079 -0.070007     24.000000
  0.105527  0.030463 -0.075392     24.000000
  0.118718  0.022847 -0.080777     24.000000
  0.131909  0.015232 -0.086163     24.000000
  0.145100  0.007616 -0.091548     24.000000
  0.158291 -0.000000 -0.096933     24.000000
  0.171482 -0.007616 -0.102318     24.000000
  0.184673 -0.015232 -0.107703     24.000000
  0.197863 -0.022847 -0.113088     24.000000
 -0.184673  0.198010  0.043081     24.000000
 -0.171482  0.190394  0.037696     24.000000
 -0.158291  0.182778  0.032311     24.000000
 -0.145100  0.175163  0.026926     24.000000
 -0.131909  0.167547  0.021541     24.000000
 -0.118718  0.159931  0.016155     24.000000
 -0.105527  0.152315  0.010770     24.000000
 -0.092336  0.144700  0.005385     24.000000
 -0.079145  0.137084  0.000000     12.000000
  0.092336  0.053310 -0.075392      6.000000
  0.105527  0.045695 -0.080777     24.000000
  0.118718  0.038079 -0.086163     24.000000
  0.131909  0.030463 -0.091548     24.000000
  0.145100  0.022847 -0.096933     24.000000
  0.158291  0.015232 -0.102318     24.000000
  0.171482  0.007616 -0.107703     24.000000
  0.184673 -0.000000 -0.113088     24.000000
  0.197863 -0.007616 -0.118474     24.000000
 -0.184673  0.213241  0.037696     24.000000
 -0.171482  0.205626  0.032311     24.000000
 -0.158291  0.198010  0.026926     24.000000
 -0.145100  0.190394  0.021541     24.000000
 -0.131909  0.182778  0.016155     24.000000
 -0.118718  0.175163  0.010770     24.000000
 -0.105527  0.167547  0.005385     24.000000
 -0.092336  0.159931  0.000000     12.000000
  0.105527  0.060926 -0.086163      6.000000
  0.118718  0.053310 -0.091548     24.000000
  0.131909  0.045695 -0.096933     24.000000
  0.145100  0.038079 -0.102318     24.000000
  0.158291  0.030463 -0.107703     24.000000
  0.171482  0.022847 -0.113088     24.000000
  0.184673  0.015232 -0.118474     24.000000
  0.197863  0.007616 -0.123859     24.000000
 -0.184673  0.228473  0.032311     24.000000
 -0.171482  0.220857  0.026926     24.000000
 -0.158291  0.213241  0.021541     24.000000
 -0.145100  0.205626  0.016155     24.000000
 -0.131909  0.198010  0.010770     24.000000
 -0.118718  0.190394  0.005385     24.000000
 -0.105527  0.182778  0.000000     12.000000
  0.118718  0.068542 -0.096933      6.000000
  0.131909  0.060926 -0.102318     24.000000
  0.145100  0.053310 -0.107703     24.000000
  0.158291  0.045695 -0.113088     24.000000
  0.171482  0.038079 -0.118474     24.000000
  0.184673  0.030463 -0.123859     24.000000
  0.197863  0.022847 -0.129244     24.000000
 -0.184673  0.243705  0.026926     24.000000
 -0.171482  0.236089  0.021541     24.000000
 -0.158291  0.228473  0.016155     24.000000
 -0.145100  0.220857  0.010770     24.000000
 -0.131909  0.213241  0.005385     24.000000
 -0.118718  0.205626  0.000000     12.000000
  0.131909  0.076158 -0.107703      6.000000
  0.145100  0.068542 -0.113088     24.000000
  0.158291  0.060926 -0.118474     24.000000
  0.171482  0.053310 -0.123859     24.000000
  0.184673  0.045695 -0.129244     24.000000
  0.197863  0.038079 -0.134629     24.000000
 -0.184673  0.258936  0.021541     24.000000
 -0.171482  0.251320  0.016155     24.000000
 -0.158291  0.243705  0.010770     24.000000
 -0.145100  0.236089  0.005385     24.000000
 -0.131909  0.228473  0.000000     12.000000
  0.145100  0.083773 -0.118474      6.000000
  0.158291  0.076158 -0.123859     24.000000
  0.171482  0.068542 -0.129244     24.000000
  0.184673  0.060926 -0.134629     24.000000
  0.197863  0.053310 -0.140014     24.000000
 -0.184673  0.274168  0.016155     24.000000
 -0.171482  0.266552  0.010770     24.000000
 -0.158291  0.258936  0.005385     24.000000
 -0.145100  0.251320  0.000000     12.000000
  0.158291  0.091389 -0.129244      6.000000
  0.171482  0.083773 -0.134629     24.000000
  0.184673  0.076158 -0.140014     24.000000
  0.197863  0.068542 -0.145399     24.000000
 -0.184673  0.289399  0.010770     24.000000
 -0.171482  0.281783  0.005385     24.000000
 -0.158291  0.274168  0.000000     12.000000
  0.171482  0.099005 -0.140014      6.000000
  0.184673  0.091389 -0.145399     24.000000
  0.197863  0.083773 -0.150784     24.000000
 -0.184673  0.304631  0.005385     24.000000
 -0.171482  0.297015  0.000000     12.000000
  0.184673  0.106621 -0.150784      6.000000
  0.197863  0.099005 -0.156170     24.000000
 -0.184673  0.319862  0.000000     12.000000
  0.197863  0.114236 -0.161555      3.000000
  0.039573  0.007616 -0.010770     24.000000
  0.052764 -0.000000 -0.016155     48.000000
  0.065954 -0.007616 -0.021541     48.000000
  0.079145 -0.015232 -0.026926     48.000000
  0.092336 -0.022847 -0.032311     48.000000
  0.105527 -0.030463 -0.037696     48.000000
  0.118718 -0.038079 -0.043081     48.000000
  0.131909 -0.045695 -0.048466     48.000000
  0.145100 -0.053310 -0.053852     48.000000
  0.158291 -0.060926 -0.059237     48.000000
  0.171482 -0.068542 -0.064622     48.000000
  0.184673 -0.076158 -0.070007     48.000000
  0.197863 -0.083773 -0.075392     48.000000
 -0.184673  0.137084  0.080777     24.000000
  0.052764  0.015232 -0.021541     24.000000
  0.065954  0.007616 -0.026926     48.000000
  0.079145 -0.000000 -0.032311     48.000000
  0.092336 -0.007616 -0.037696     48.000000
  0.105527 -0.015232 -0.043081     48.000000
  0.118718 -0.022847 -0.048466     48.000000
  0.131909 -0.030463 -0.053852     48.000000
  0.145100 -0.038079 -0.059237     48.000000
  0.158291 -0.045695 -0.064622     48.000000
  0.171482 -0.053310 -0.070007     48.000000
  0.184673 -0.060926 -0.075392     48.000000
  0.197863 -0.068542 -0.080777     48.000000
 -0.184673  0.152315  0.075392     48.000000
 -0.171482  0.144700  0.070007     48.000000
 -0.158291  0.137084  0.064622     48.000000
 -0.145100  0.129468  0.059237     48.000000
 -0.131909  0.121852  0.053852     48.000000
 -0.118718  0.114236  0.048466     48.000000
 -0.105527  0.106621  0.043081     48.000000
 -0.092336  0.099005  0.037696     48.000000
 -0.079145  0.091389  0.032311     48.000000
 -0.065954  0.083773  0.026926     48.000000
 -0.052764  0.076158  0.021541     48.000000
 -0.039573  0.068542  0.016155     48.000000
 -0.026382  0.060926  0.010770     24.000000
  0.065954  0.022847 -0.032311     24.000000
  0.079145  0.015232 -0.037696     48.000000
  0.092336  0.007616 -0.043081     48.000000
  0.105527 -0.000000 -0.048466     48.000000
  0.118718 -0.007616 -0.053852     48.000000
  0.131909 -0.015232 -0.059237     48.000000
  0.145100 -0.022847 -0.064622     48.000000
  0.158291 -0.030463 -0.070007     48.000000
  0.171482 -0.038079 -0.075392     48.000000
  0.184673 -0.045695 -0.080777     48.000000
  0.197863 -0.053310 -0.086163     48.000000
 -0.184673  0.167547  0.070007     48.000000
 -0.171482  0.159931  0.064622     48.000000
 -0.158291  0.152315  0.059237     48.000000
 -0.145100  0.144700  0.053852     48.000000
 -0.131909  0.137084  0.048466     48.000000
 -0.118718  0.129468  0.043081     48.000000
 -0.105527  0.121852  0.037696     48.000000
 -0.092336  0.114236  0.032311     48.000000
 -0.079145  0.106621  0.026926     48.000000
 -0.065954  0.099005  0.021541     48.000000
 -0.052764  0.091389  0.016155     48.000000
 -0.039573  0.083773  0.010770     24.000000
  0.079145  0.030463 -0.043081     24.000000
  0.092336  0.022847 -0.048466     48.000000
  0.105527  0.015232 -0.053852     48.000000
  0.118718  0.007616 -0.059237     48.000000
  0.131909 -0.000000 -0.064622     48.000000
  0.145100 -0.007616 -0.070007     48.000000
  0.158291 -0.015232 -0.075392     48.000000
  0.171482 -0.022847 -0.080777     48.000000
  0.184673 -0.030463 -0.086163     48.000000
  0.197863 -0.038079 -0.091548     48.000000
 -0.184673  0.182778  0.064622     48.000000
 -0.171482  0.175163  0.059237     48.000000
 -0.158291  0.167547  0.053852     48.000000
 -0.145100  0.159931  0.048466     48.000000
 -0.131909  0.152315  0.043081     48.000000
 -0.118718  0.144700  0.037696     48.000000
 -0.105527  0.137084  0.032311     48.000000
 -0.092336  0.129468  0.026926     48.000000
 -0.079145  0.121852  0.021541     48.000000
 -0.065954  0.114236  0.016155     48.000000
 -0.052764  0.106621  0.010770     24.000000
  0.092336  0.038079 -0.053852     24.000000
  0.105527  0.030463 -0.059237     48.000000
  0.118718  0.022847 -0.064622     48.000000
  0.131909  0.015232 -0.070007     48.000000
  0.145100  0.007616 -0.075392     48.000000
  0.158291 -0.000000 -0.080777     48.000000
  0.171482 -0.007616 -0.086163     48.000000
  0.184673 -0.015232 -0.091548     48.000000
  0.197863 -0.022847 -0.096933     48.000000
 -0.184673  0.198010  0.059237     48.000000
 -0.171482  0.190394  0.053852     48.000000
 -0.158291  0.182778  0.048466     48.000000
 -0.145100  0.175163  0.043081     48.000000
 -0.131909  0.167547  0.037696     48.000000
 -0.118718  0.159931  0.032311     48.000000
 -0.105527  0.152315  0.026926     48.000000
 -0.092336  0.144700  0.021541     48.000000
 -0.079145  0.137084  0.016155     48.000000
 -0.065954  0.129468  0.010770     24.000000
  0.105527  0.045695 -0.064622     24.000000
  0.118718  0.038079 -0.070007     48.000000
  0.131909  0.030463 -0.075392     48.000000
  0.145100  0.022847 -0.080777     48.000000
  0.158291  0.015232 -0.086163     48.000000
  0.171482  0.007616 -0.091548     48.000000
  0.184673 -0.000000 -0.096933     48.000000
  0.197863 -0.007616 -0.102318     48.000000
 -0.184673  0.213241  0.053852     48.000000
 -0.171482  0.205626  0.048466     48.000000
 -0.158291  0.198010  0.043081     48.000000
 -0.145100  0.190394  0.037696     48.000000
 -0.131909  0.182778  0.032311     48.000000
 -0.118718  0.175163  0.026926     48.000000
 -0.105527  0.167547  0.021541     48.000000
 -0.092336  0.159931  0.016155     48.000000
 -0.079145  0.152315  0.010770     24.000000
  0.118718  0.053310 -0.075392     24.000000
  0.131909  0.045695 -0.080777     48.000000
  0.145100  0.038079 -0.086163     48.000000
  0.158291  0.030463 -0.091548     48.000000
  0.171482  0.022847 -0.096933     48.000000
  0.184673  0.015232 -0.102318     48.000000
  0.197863  0.007616 -0.107703     48.000000
 -0.184673  0.228473  0.048466     48.000000
 -0.171482  0.220857  0.043081     48.000000
 -0.158291  0.213241  0.037696     48.000000
 -0.145100  0.205626  0.032311     48.000000
 -0.131909  0.198010  0.026926     48.000000
 -0.118718  0.190394  0.021541     48.000000
 -0.105527  0.182778  0.016155     48.000000
 -0.092336  0.175163  0.010770     24.000000
  0.131909  0.060926 -0.086163     24.000000
  0.145100  0.053310 -0.091548     48.000000
  0.158291  0.045695 -0.096933     48.000000
  0.171482  0.038079 -0.102318     48.000000
  0.184673  0.030463 -0.107703     48.000000
  0.197863  0.022847 -0.113088     48.000000
 -0.184673  0.243705  0.043081     48.000000
 -0.171482  0.236089  0.037696     48.000000
 -0.158291  0.228473  0.032311     48.000000
 -0.145100  0.220857  0.026926     48.000000
 -0.131909  0.213241  0.021541     48.000000
 -0.118718  0.205626  0.016155     48.000000
 -0.105527  0.198010  0.010770     24.000000
  0.145100  0.068542 -0.096933     24.000000
  0.158291  0.060926 -0.102318     48.000000
  0.171482  0.053310 -0.107703     48.000000
  0.184673  0.045695 -0.113088     48.000000
  0.197863  0.038079 -0.118474     48.000000
 -0.184673  0.258936  0.037696     48.000000
 -0.171482  0.251320  0.032311     48.000000
 -0.158291  0.243705  0.026926     48.000000
 -0.145100  0.236089  0.021541     48.000000
 -0.131909  0.228473  0.016155     48.000000
 -0.118718  0.220857  0.010770     24.000000
  0.158291  0.076158 -0.107703     24.000000
  0.171482  0.068542 -0.113088     48.000000
  0.184673  0.060926 -0.118474     48.000000
  0.197863  0.053310 -0.123859     48.000000
 -0.184673  0.274168  0.032311     48.000000
 -0.171482  0.266552  0.026926     48.000000
 -0.158291  0.258936  0.021541     48.000000
 -0.145100  0.251320  0.016155     48.000000
 -0.131909  0.243705  0.010770     24.000000
  0.171482  0.083773 -0.118474     24.000000
  0.184673  0.076158 -0.123859     48.000000
  0.197863  0.068542 -0.129244     48.000000
 -0.184673  0.289399  0.026926     48.000000
 -0.171482  0.281783  0.021541     48.000000
 -0.158291  0.274168  0.016155     48.000000
 -0.145100  0.266552  0.010770     24.000000
  0.184673  0.091389 -0.129244     24.000000
  0.197863  0.083773 -0.134629     48.000000
 -0.184673  0.304631  0.021541     48.000000
 -0.171482  0.297015  0.016155     48.000000
 -0.158291  0.289399  0.010770     24.000000
  0.197863  0.099005 -0.140014     24.000000
 -0.184673  0.319862  0.016155     48.000000
 -0.171482  0.312246  0.010770     24.000000
 -0.184673  0.335094  0.010770     12.000000
  0.079145  0.015232 -0.021541     24.000000
  0.092336  0.007616 -0.026926     48.000000
  0.105527 -0.000000 -0.032311     48.000000
  0.118718 -0.007616 -0.037696     48.000000
  0.131909 -0.015232 -0.043081     48.000000
  0.145100 -0.022847 -0.048466     48.000000
  0.158291 -0.030463 -0.053852     48.000000
  0.171482 -0.038079 -0.059237     48.000000
  0.184673 -0.045695 -0.064622     48.000000
  0.197863 -0.053310 -0.070007     48.000000
 -0.184673  0.167547  0.086163     48.000000
 -0.171482  0.159931  0.080777     24.000000
  0.092336  0.022847 -0.032311     24.000000
  0.105527  0.015232 -0.037696     48.000000
  0.118718  0.007616 -0.043081     48.000000
  0.131909 -0.000000 -0.048466     48.000000
  0.145100 -0.007616 -0.053852     48.000000
  0.158291 -0.015232 -0.059237     48.000000
  0.171482 -0.022847 -0.064622     48.000000
  0.184673 -0.030463 -0.070007     48.000000
  0.197863 -0.038079 -0.075392     48.000000
 -0.184673  0.182778  0.080777     48.000000
 -0.171482  0.175163  0.075392     48.000000
 -0.158291  0.167547  0.070007     48.000000
 -0.145100  0.159931  0.064622     48.000000
 -0.131909  0.152315  0.059237     48.000000
 -0.118718  0.144700  0.053852     48.000000
 -0.105527  0.137084  0.048466     48.000000
 -0.092336  0.129468  0.043081     48.000000
 -0.079145  0.121852  0.037696     48.000000
 -0.065954  0.114236  0.032311     48.000000
 -0.052764  0.106621  0.026926     48.000000
 -0.039573  0.099005  0.021541     24.000000
  0.105527  0.030463 -0.043081     24.000000
  0.118718  0.022847 -0.048466     48.000000
  0.131909  0.015232 -0.053852     48.000000
  0.145100  0.007616 -0.059237     48.000000
  0.158291 -0.000000 -0.064622     48.000000
  0.171482 -0.007616 -0.070007     48.000000
  0.184673 -0.015232 -0.075392     48.000000
  0.197863 -0.022847 -0.080777     48.000000
 -0.184673  0.198010  0.075392     48.000000
 -0.171482  0.190394  0.070007     48.000000
 -0.158291  0.182778  0.064622     48.000000
 -0.145100  0.175163  0.059237     48.000000
 -0.131909  0.167547  0.053852     48.000000
 -0.118718  0.159931  0.048466     48.000000
 -0.105527  0.152315  0.043081     48.000000
 -0.092336  0.144700  0.037696     48.000000
 -0.079145  0.137084  0.032311     48.000000
 -0.065954  0.129468  0.026926     48.000000
 -0.052764  0.121852  0.021541     24.000000
  0.118718  0.038079 -0.053852     24.000000
  0.131909  0.030463 -0.059237     48.000000
  0.145100  0.022847 -0.064622     48.000000
  0.158291  0.015232 -0.070007     48.000000
  0.171482  0.007616 -0.075392     48.000000
  0.184673 -0.000000 -0.080777     48.000000
  0.197863 -0.007616 -0.086163     48.000000
 -0.184673  0.213241  0.070007     48.000000
 -0.171482  0.205626  0.064622     48.000000
 -0.158291  0.198010  0.059237     48.000000
 -0.145100  0.190394  0.053852     48.000000
 -0.131909  0.182778  0.048466     48.000000
 -0.118718  0.175163  0.043081     48.000000
 -0.105527  0.167547  0.037696     48.000000
 -0.092336  0.159931  0.032311     48.000000
 -0.079145  0.152315  0.026926     48.000000
 -0.065954  0.144700  0.021541     24.000000
  0.131909  0.045695 -0.064622     24.000000
  0.145100  0.038079 -0.070007     48.000000
  0.158291  0.030463 -0.075392     48.000000
  0.171482  0.022847 -0.080777     48.000000
  0.184673  0.015232 -0.086163     48.000000
  0.197863  0.007616 -0.091548     48.000000
 -0.184673  0.228473  0.064622     48.000000
 -0.171482  0.220857  0.059237     48.000000
 -0.158291  0.213241  0.053852     48.000000
 -0.145100  0.205626  0.048466     48.000000
 -0.131909  0.198010  0.043081     48.000000
 -0.118718  0.190394  0.037696     48.000000
 -0.105527  0.182778  0.032311     48.000000
 -0.092336  0.175163  0.026926     48.000000
 -0.079145  0.167547  0.021541     24.000000
  0.145100  0.053310 -0.075392     24.000000
  0.158291  0.045695 -0.080777     48.000000
  0.171482  0.038079 -0.086163     48.000000
  0.184673  0.030463 -0.091548     48.000000
  0.197863  0.022847 -0.096933     48.000000
 -0.184673  0.243705  0.059237     48.000000
 -0.171482  0.236089  0.053852     48.000000
 -0.158291  0.228473  0.048466     48.000000
 -0.145100  0.220857  0.043081     48.000000
 -0.131909  0.213241  0.037696     48.000000
 -0.118718  0.205626  0.032311     48.000000
 -0.105527  0.198010  0.026926     48.000000
 -0.092336  0.190394  0.021541     24.000000
  0.158291  0.060926 -0.086163     24.000000
  0.171482  0.053310 -0.091548     48.000000
  0.184673  0.045695 -0.096933     48.000000
  0.197863  0.038079 -0.102318     48.000000
 -0.184673  0.258936  0.053852     48.000000
 -0.171482  0.251320  0.048466     48.000000
 -0.158291  0.243705  0.043081     48.000000
 -0.145100  0.236089  0.037696     48.000000
 -0.131909  0.228473  0.032311     48.000000
 -0.118718  0.220857  0.026926     48.000000
 -0.105527  0.213241  0.021541     24.000000
  0.171482  0.068542 -0.096933     24.000000
  0.184673  0.060926 -0.102318     48.000000
  0.197863  0.053310 -0.107703     48.000000
 -0.184673  0.274168  0.048466     48.000000
 -0.171482  0.266552  0.043081     48.000000
 -0.158291  0.258936  0.037696     48.000000
 -0.145100  0.251320  0.032311     48.000000
 -0.131909  0.243705  0.026926     48.000000
 -0.118718  0.236089  0.021541     24.000000
  0.184673  0.076158 -0.107703     24.000000
  0.197863  0.068542 -0.113088     48.000000
 -0.184673  0.289399  0.043081     48.000000
 -0.171482  0.281783  0.037696     48.000000
 -0.158291  0.274168  0.032311     48.000000
 -0.145100  0.266552  0.026926     48.000000
 -0.131909  0.258936  0.021541     24.000000
  0.197863  0.083773 -0.118474     24.000000
 -0.184673  0.304631  0.037696     48.000000
 -0.171482  0.297015  0.032311     48.000000
 -0.158291  0.289399  0.026926     48.000000
 -0.145100  0.281783  0.021541     24.000000
 -0.184673  0.319862  0.032311     24.000000
 -0.171482  0.312246  0.026926     48.000000
 -0.158291  0.304631  0.021541     24.000000
 -0.171482  0.327478  0.021541     12.000000
  0.118718  0.022847 -0.032311     24.000000
  0.131909  0.015232 -0.037696     48.000000
  0.145100  0.007616 -0.043081     48.000000
  0.158291 -0.000000 -0.048466     48.000000
  0.171482 -0.007616 -0.053852     48.000000
  0.184673 -0.015232 -0.059237     48.000000
  0.197863 -0.022847 -0.064622     48.000000
 -0.184673  0.198010  0.091548     48.000000
 -0.171482  0.190394  0.086163     48.000000
 -0.158291  0.182778  0.080777     24.000000
  0.131909  0.030463 -0.043081     24.000000
  0.145100  0.022847 -0.048466     48.000000
  0.158291  0.015232 -0.053852     48.000000
  0.171482  0.007616 -0.059237     48.000000
  0.184673 -0.000000 -0.064622     48.000000
  0.197863 -0.007616 -0.070007     48.000000
 -0.184673  0.213241  0.086163     48.000000
 -0.171482  0.205626  0.080777     48.000000
 -0.158291  0.198010  0.075392     48.000000
 -0.145100  0.190394  0.070007     48.000000
 -0.131909  0.182778  0.064622     48.000000
 -0.118718  0.175163  0.059237     48.000000
 -0.105527  0.167547  0.053852     48.000000
 -0.092336  0.159931  0.048466     48.000000
 -0.079145  0.152315  0.043081     48.000000
 -0.065954  0.144700  0.037696     48.000000
 -0.052764  0.137084  0.032311     24.000000
  0.145100  0.038079 -0.053852     24.000000
  0.158291  0.030463 -0.059237     48.000000
  0.171482  0.022847 -0.064622     48.000000
  0.184673  0.015232 -0.070007     48.000000
  0.197863  0.007616 -0.075392     48.000000
 -0.184673  0.228473  0.080777     48.000000
 -0.171482  0.220857  0.075392     48.000000
 -0.158291  0.213241  0.070007     48.000000
 -0.145100  0.205626  0.064622     48.000000
 -0.131909  0.198010  0.059237     48.000000
 -0.118718  0.190394  0.053852     48.000000
 -0.105527  0.182778  0.048466     48.000000
 -0.092336  0.175163  0.043081     48.000000
 -0.079145  0.167547  0.037696     48.000000
 -0.065954  0.159931  0.032311     24.000000
  0.158291  0.045695 -0.064622     24.000000
  0.171482  0.038079 -0.070007     48.000000
  0.184673  0.030463 -0.075392     48.000000
  0.197863  0.022847 -0.080777     48.000000
 -0.184673  0.243705  0.075392     48.000000
 -0.171482  0.236089  0.070007     48.000000
 -0.158291  0.228473  0.064622     48.000000
 -0.145100  0.220857  0.059237     48.000000
 -0.131909  0.213241  0.053852     48.000000
 -0.118718  0.205626  0.048466     48.000000
 -0.105527  0.198010  0.043081     48.000000
 -0.092336  0.190394  0.037696     48.000000
 -0.079145  0.182778  0.032311     24.000000
  0.171482  0.053310 -0.075392     24.000000
  0.184673  0.045695 -0.080777     48.000000
  0.197863  0.038079 -0.086163     48.000000
 -0.184673  0.258936  0.070007     48.000000
 -0.171482  0.251320  0.064622     48.000000
 -0.158291  0.243705  0.059237     48.000000
 -0.145100  0.236089  0.053852     48.000000
 -0.131909  0.228473  0.048466     48.000000
 -0.118718  0.220857  0.043081     48.000000
 -0.105527  0.213241  0.037696     48.000000
 -0.092336  0.205626  0.032311     24.000000
  0.184673  0.060926 -0.086163     24.000000
  0.197863  0.053310 -0.091548     48.000000
 -0.184673  0.274168  0.064622     48.000000
 -0.171482  0.266552  0.059237     48.000000
 -0.158291  0.258936  0.053852     48.000000
 -0.145100  0.251320  0.048466     48.000000
 -0.131909  0.243705  0.043081     48.000000
 -0.118718  0.236089  0.037696     48.000000
 -0.105527  0.228473  0.032311     24.000000
  0.197863  0.068542 -0.096933     24.000000
 -0.184673  0.289399  0.059237     48.000000
 -0.171482  0.281783  0.053852     48.000000
 -0.158291  0.274168  0.048466     48.000000
 -0.145100  0.266552  0.043081     48.000000
 -0.131909  0.258936  0.037696     48.000000
 -0.118718  0.251320  0.032311     24.000000
 -0.184673  0.304631  0.053852     24.000000
 -0.171482  0.297015  0.048466     48.000000
 -0.158291  0.289399  0.043081     48.000000
 -0.145100  0.281783  0.037696     48.000000
 -0.131909  0.274168  0.032311     24.000000
 -0.171482  0.312246  0.043081     24.000000
 -0.158291  0.304631  0.037696     48.000000
 -0.145100  0.297015  0.032311     24.000000
 -0.158291  0.319862  0.032311     12.000000
  0.158291  0.030463 -0.043081     24.000000
  0.171482  0.022847 -0.048466     48.000000
  0.184673  0.015232 -0.053852     48.000000
  0.197863  0.007616 -0.059237     48.000000
 -0.184673  0.228473  0.096933     48.000000
 -0.171482  0.220857  0.091548     48.000000
 -0.158291  0.213241  0.086163     48.000000
 -0.145100  0.205626  0.080777     24.000000
  0.171482  0.038079 -0.053852     24.000000
  0.184673  0.030463 -0.059237     48.000000
  0.197863  0.022847 -0.064622     48.000000
 -0.184673  0.243705  0.091548     48.000000
 -0.171482  0.236089  0.086163     48.000000
 -0.158291  0.228473  0.080777     48.000000
 -0.145100  0.220857  0.075392     48.000000
 -0.131909  0.213241  0.070007     48.000000
 -0.118718  0.205626  0.064622     48.000000
 -0.105527  0.198010  0.059237     48.000000
 -0.092336  0.190394  0.053852     48.000000
 -0.079145  0.182778  0.048466     48.000000
 -0.065954  0.175163  0.043081     24.000000
  0.184673  0.045695 -0.064622     24.000000
  0.197863  0.038079 -0.070007     48.000000
 -0.184673  0.258936  0.086163     48.000000
 -0.171482  0.251320  0.080777     48.000000
 -0.158291  0.243705  0.075392     48.000000
 -0.145100  0.236089  0.070007     48.000000
 -0.131909  0.228473  0.064622     48.000000
 -0.118718  0.220857  0.059237     48.000000
 -0.105527  0.213241  0.053852     48.000000
 -0.092336  0.205626  0.048466     48.000000
 -0.079145  0.198010  0.043081     24.000000
  0.197863  0.053310 -0.075392     24.000000
 -0.184673  0.274168  0.080777     48.000000
 -0.171482  0.266552  0.075392     48.000000
 -0.158291  0.258936  0.070007     48.000000
 -0.145100  0.251320  0.064622     48.000000
 -0.131909  0.243705  0.059237     48.000000
 -0.118718  0.236089  0.053852     48.000000
 -0.105527  0.228473  0.048466     48.000000
 -0.092336  0.220857  0.043081     24.000000
 -0.184673  0.289399  0.075392     24.000000
 -0.171482  0.281783  0.070007     48.000000
 -0.158291  0.274168  0.064622     48.000000
 -0.145100  0.266552  0.059237     48.000000
 -0.131909  0.258936  0.053852     48.000000
 -0.118718  0.251320  0.048466     48.000000
 -0.105527  0.243705  0.043081     24.000000
 -0.171482  0.297015  0.064622     24.000000
 -0.158291  0.289399  0.059237     48.000000
 -0.145100  0.281783  0.053852     48.000000
 -0.131909  0.274168  0.048466     48.000000
 -0.118718  0.266552  0.043081     24.000000
 -0.158291  0.304631  0.053852     24.000000
 -0.145100  0.297015  0.048466     48.000000
 -0.131909  0.289399  0.043081     24.000000
 -0.145100  0.312246  0.043081     12.000000
  0.197863  0.038079 -0.053852     24.000000
 -0.184673  0.258936  0.102318     48.000000
 -0.171482  0.251320  0.096933     48.000000
 -0.158291  0.243705  0.091548     48.000000
 -0.145100  0.236089  0.086163     48.000000
 -0.131909  0.228473  0.080777     24.000000
 -0.184673  0.274168  0.096933     24.000000
 -0.171482  0.266552  0.091548     48.000000
 -0.158291  0.258936  0.086163     48.000000
 -0.145100  0.251320  0.080777     48.000000
 -0.131909  0.243705  0.075392     48.000000
 -0.118718  0.236089  0.070007     48.000000
 -0.105527  0.228473  0.064622     48.000000
 -0.092336  0.220857  0.059237     48.000000
 -0.079145  0.213241  0.053852     24.000000
 -0.171482  0.281783  0.086163     24.000000
 -0.158291  0.274168  0.080777     48.000000
 -0.145100  0.266552  0.075392     48.000000
 -0.131909  0.258936  0.070007     48.000000
 -0.118718  0.251320  0.064622     48.000000
 -0.105527  0.243705  0.059237     48.000000
 -0.092336  0.236089  0.053852     24.000000
 -0.158291  0.289399  0.075392     24.000000
 -0.145100  0.281783  0.070007     48.000000
 -0.131909  0.274168  0.064622     48.000000
 -0.118718  0.266552  0.059237     48.000000
 -0.105527  0.258936  0.053852     24.000000
 -0.145100  0.297015  0.064622     24.000000
 -0.131909  0.289399  0.059237     48.000000
 -0.118718  0.281783  0.053852     24.000000
 -0.131909  0.304631  0.053852     12.000000
 -0.158291  0.274168  0.096933     24.000000
 -0.145100  0.266552  0.091548     48.000000
 -0.131909  0.258936  0.086163     48.000000
 -0.118718  0.251320  0.080777     24.000000
 -0.145100  0.281783  0.086163     24.000000
 -0.131909  0.274168  0.080777     48.000000
 -0.118718  0.266552  0.075392     48.000000
 -0.105527  0.258936  0.070007     48.000000
 -0.092336  0.251320  0.064622     24.000000
 -0.131909  0.289399  0.075392     24.000000
 -0.118718  0.281783  0.070007     48.000000
 -0.105527  0.274168  0.064622     24.000000
 -0.118718  0.297015  0.064622     12.000000
 -0.118718  0.281783  0.086163     24.000000
 -0.105527  0.274168  0.080777     24.000000
 -0.105527  0.289399  0.075392     12.000000
 


--------------------------------------------------------------------------------------------------------




 Dimension of arrays:
   k-points           NKPTS =    752   k-points in BZ     NKDIM =    752   number of bands    NBANDS=      8
   number of dos      NEDOS =    301   number of ions     NIONS =      2
   non local maximal  LDIM  =      4   non local SUM 2l+1 LMDIM =      8
   total plane-waves  NPLWV =   2744
   max r-space proj   IRMAX =      1   max aug-charges    IRDMAX=   3037
   dimension x,y,z NGX =    14 NGY =   14 NGZ =   14
   dimension x,y,z NGXF=    28 NGYF=   28 NGZF=   28
   support grid    NGXF=    28 NGYF=   28 NGZF=   28
   ions per type =               2
   NGX,Y,Z   is equivalent  to a cutoff of   9.21,  9.21,  9.21 a.u.
   NGXF,Y,Z  is equivalent  to a cutoff of  18.42, 18.42, 18.42 a.u.

 SYSTEM =  unknown system                          
 POSCAR =  C8                                      

 Startparameter for this run:
   NWRITE =      2    write-flag & timer
   PREC   = normal    normal or accurate (medium, high low for compatibility)
   ISTART =      0    job   : 0-new  1-cont  2-samecut
   ICHARG =      2    charge: 1-file 2-atom 10-const
   ISPIN  =      1    spin polarized calculation?
   LNONCOLLINEAR =      F non collinear calculations
   LSORBIT =      F    spin-orbit coupling
   INIWAV =      1    electr: 0-lowe 1-rand  2-diag
   LASPH  =      F    aspherical Exc in radial PAW
 Electronic Relaxation 1
   ENCUT  =  500.0 eV  36.75 Ry    6.06 a.u.   4.61  4.61  4.61*2*pi/ulx,y,z
   ENINI  =  500.0     initial cutoff
   ENAUG  =  644.9 eV  augmentation charge cutoff
   NELM   =    100;   NELMIN=  4; NELMDL= -5     # of ELM steps 
   EDIFF  = 0.1E-05   stopping-criterion for ELM
   LREAL  =      F    real-space projection
   NLSPLINE    = F    spline interpolate recip. space projectors
   LCOMPAT=      F    compatible to vasp.4.4
   GGA_COMPAT  = T    GGA compatible to vasp.4.4-vasp.4.6
   LMAXPAW     = -100 max onsite density
   LMAXMIX     =    2 max onsite mixed and CHGCAR
   VOSKOWN=      0    Vosko Wilk Nusair interpolation
   ROPT   =    0.00000
 Ionic relaxation
   EDIFFG = 0.1E-04   stopping-criterion for IOM
   NSW    =      0    number of steps for IOM
   NBLOCK =      1;   KBLOCK =      1    inner block; outer block 
   IBRION =     -1    ionic relax: 0-MD 1-quasi-New 2-CG
   NFREE  =      0    steps in history (QN), initial steepest desc. (CG)
   ISIF   =      2    stress and relaxation
   IWAVPR =     10    prediction:  0-non 1-charg 2-wave 3-comb
   ISYM   =      2    0-nonsym 1-usesym 2-fastsym
   LCORR  =      T    Harris-Foulkes like correction to forces

   POTIM  = 0.5000    time-step for ionic-motion
   TEIN   =    0.0    initial temperature
   TEBEG  =    0.0;   TEEND  =   0.0 temperature during run
   SMASS  =  -3.00    Nose mass-parameter (am)
   estimated Nose-frequenzy (Omega)   =  0.10E-29 period in steps = 0.13E+47 mass=  -0.146E-27a.u.
   SCALEE = 1.0000    scale energy and forces
   NPACO  =    256;   APACO  = 10.0  distance and # of slots for P.C.
   PSTRESS=    0.0 pullay stress

  Mass of Ions in am
   POMASS =  12.01
  Ionic Valenz
   ZVAL   =   4.00
  Atomic Wigner-Seitz radii
   RWIGS  =  -1.00
  virtual crystal weights 
   VCA    =   1.00
   NELECT =       8.0000    total number of electrons
   NUPDOWN=      -1.0000    fix difference up-down

 DOS related values:
   EMIN   =  10.00;   EMAX   =-10.00  energy-range for DOS
   EFERMI =   0.00;   METHOD = LEGACY      
   ISMEAR =     0;   SIGMA  =   0.01  broadening in eV -4-tet -1-fermi 0-gaus
   EFERMI_NEDOS =   21; number of points for ismear=-14 and -15

 Electronic relaxation 2 (details)
   IALGO  =     38    algorithm
   LDIAG  =      T    sub-space diagonalisation (order eigenvalues)
   LSUBROT=      F    optimize rotation matrix (better conditioning)
   LROBUST=      F    robust break criterion during scf (extrapolated energy error)
   ISEARCH=      0    line search for conjugate gradient (0, 1=use gradient)
   TURBO    =      0    0=normal 1=particle mesh
   IRESTART =      0    0=no restart 2=restart with 2 vectors
   NREBOOT  =      0    no. of reboots
   NMIN     =      0    reboot dimension
   EREF     =   0.00    reference energy to select bands
   IMIX   =      4    mixing-type and parameters
     AMIX     =   0.40;   BMIX     =  1.00
     AMIX_MAG =   1.60;   BMIX_MAG =  1.00
     AMIN     =   0.10
     WC   =   100.;   INIMIX=   1;  MIXPRE=   1;  MAXMIX= -45

 Intra band minimization:
   WEIMIN = 0.0000     energy-eigenvalue tresh-hold
   EBREAK =  0.31E-07  absolut break condition
   DEPER  =   0.30     relativ break condition  

   TIME   =   0.40     timestep for ELM

  volume/ion in A,a.u.               =       5.71        38.50
  Fermi-wavevector in a.u.,A,eV,Ry     =   1.454360  2.748342 28.778546  2.115163
  Thomas-Fermi vector in A             =   2.571520
 
 Write flags
   LWAVE        =      T    write WAVECAR
   LDOWNSAMPLE  =      F    k-point downsampling of WAVECAR
   LCHARG       =      T    write CHGCAR
   LVTOT        =      F    write LOCPOT, total local potential
   LVHAR        =      F    write LOCPOT, Hartree potential only
   WRT_POTENTIAL= false  ! write potential to hdf5 file
   LELF         =      F    write electronic localiz. function (ELF)
   LORBIT       =     11    0 simple, 1 ext, 2 COOP (PROOUT), +10 PAW based schemes


 Python interface
   PLUGINS active      =      F    recompile with -DPLUGINS to activate
 
 Dipole corrections
   LMONO      =      F    monopole corrections only (constant potential shift)
   LDIPOL     =      F    correct potential (dipole corrections)
   IDIPOL     =      0    1-x, 2-y, 3-z, 4-all directions 
   EPSILON    =  1.0000000 bulk dielectric constant
   LVACPOTAV  =      F  vacuum potentials using an averaging scheme for the charge density
   VACPOTFLAT =  0.1000000 required flatness to determine vacuum potential
 
Coulomb truncation method
  LTRUNCATE          =      F  Coulomb kernel truncation to be used

 
 Exchange correlation treatment:
   GGA     = PE    functional components
   XC_C    = 1    coefficients multiplying the functional components
   LIBXC   =     F    Libxc                    
   VOSKOWN =     0    Vosko Wilk Nusair interpolation
   LHFCALC =     F    Hartree Fock is set to
   LHFONE  =     F    Hartree Fock one center treatment
   AEXX    =    0.0000 exact exchange contribution

 Parameters of functionals:
   PE:
     No parameter
 
 Van der Waals corrections
   IVDW    =     0    specifies the selected vdW correction

 Linear response parameters
   LEPSILON=     F    determine dielectric tensor
   LRPA    =     F    only Hartree local field effects (RPA)
   LNABLA  =     F    use nabla operator in PAW spheres
   LVEL    =     F    velocity operator in full k-point grid
   CSHIFT  =0.1000    complex shift for real part using Kramers Kronig
   OMEGAMAX=  -1.0    maximum frequency
   DEG_THRESHOLD= 0.2000000E-02 threshold for treating states as degnerate
   RTIME   =   -0.100 relaxation time in fs
  (WPLASMAI=    0.000 imaginary part of plasma frequency in eV, 0.658/RTIME)
   DFIELD  = 0.0000000 0.0000000 0.0000000 field for delta impulse in time
 
  Optional k-point grid parameters
   LKPOINTS_OPT  =     F    use optional k-point grid
   KPOINTS_OPT_MODE=     1    mode for optional k-point grid
 
 Orbital magnetization related:
   ORBITALMAG=     F  switch on orbital magnetization
   LCHIMAG   =     F  perturbation theory with respect to B field
   DQ        =  0.001000  dq finite difference perturbation B field
   LLRAUG    =     F  two centre corrections for induced B field
   LBONE     =     F  B-component reconstruction in AE one-centre
   LVGVCALC  =     T  calculate vGv susceptibility
   LVGVAPPL  =     F  apply vGv susceptibility instead of pGv for G=0

 Random number generation:
   RANDOM_GENERATOR = DEFAULT
   PCG_SEED         = not used


--------------------------------------------------------------------------------------------------------


 Static calculation
 charge density and potential will be updated during run
 non-spin polarized calculation
 Variant of blocked Davidson
 Davidson routine will perform the subspace rotation
 perform sub-space diagonalisation
    after iterative eigenvector-optimisation
 modified Broyden-mixing scheme, WC =      100.0
 initial mixing is a Kerker type mixing with AMIX =  0.4000 and BMIX =      1.0000
 Hartree-type preconditioning will be used
 using additional bands            4
 reciprocal scheme for non local part
 use partial core corrections
 calculate Harris-corrections to forces 
   (improved forces if not selfconsistent)
 use gradient corrections 
 use of overlap-Matrix (Vanderbilt PP)
 Gauss-broadening in eV      SIGMA  =   0.01


--------------------------------------------------------------------------------------------------------


  energy-cutoff  :      500.00
  volume of cell :       11.41
      direct lattice vectors                 reciprocal lattice vectors
     2.526995815  0.000000000  0.000000000     0.395726813 -0.228472982 -0.161554795
     1.263497908  2.188442571 -0.000000000    -0.000000000  0.456945964 -0.161554795
     1.263497908  0.729480857  2.063283443    -0.000000000  0.000000000  0.484664384

  length of vectors
     2.526995815  2.526995815  2.526995815     0.484664384  0.484664384  0.484664384


 
 k-points in units of 2pi/SCALE and weight: k-density: 4.0                          
   0.00000000  0.00000000  0.00000000       0.000
   0.01319089 -0.00761577 -0.00538516       0.000
   0.02638179 -0.01523153 -0.01077032       0.000
   0.03957268 -0.02284730 -0.01615548       0.000
   0.05276358 -0.03046306 -0.02154064       0.000
   0.06595447 -0.03807883 -0.02692580       0.000
   0.07914536 -0.04569460 -0.03231096       0.000
   0.09233626 -0.05331036 -0.03769612       0.000
   0.10552715 -0.06092613 -0.04308128       0.000
   0.11871804 -0.06854189 -0.04846644       0.000
   0.13190894 -0.07615766 -0.05385160       0.000
   0.14509983 -0.08377343 -0.05923676       0.000
   0.15829073 -0.09138919 -0.06462192       0.000
   0.17148162 -0.09900496 -0.07000708       0.000
   0.18467251 -0.10662072 -0.07539224       0.000
   0.19786341 -0.11423649 -0.08077740       0.000
   0.01319089  0.00761577 -0.01077032       0.000
   0.02638179 -0.00000000 -0.01615548       0.001
   0.03957268 -0.00761577 -0.02154064       0.001
   0.05276358 -0.01523153 -0.02692580       0.001
   0.06595447 -0.02284730 -0.03231096       0.001
   0.07914536 -0.03046306 -0.03769612       0.001
   0.09233626 -0.03807883 -0.04308128       0.001
   0.10552715 -0.04569460 -0.04846644       0.001
   0.11871804 -0.05331036 -0.05385160       0.001
   0.13190894 -0.06092613 -0.05923676       0.001
   0.14509983 -0.06854189 -0.06462192       0.001
   0.15829073 -0.07615766 -0.07000708       0.001
   0.17148162 -0.08377343 -0.07539224       0.001
   0.18467251 -0.09138919 -0.08077740       0.001
   0.19786341 -0.09900496 -0.08616256       0.001
  -0.18467251  0.12185226  0.07000708       0.001
  -0.17148162  0.11423649  0.06462192       0.001
  -0.15829073  0.10662072  0.05923676       0.001
  -0.14509983  0.09900496  0.05385160       0.001
  -0.13190894  0.09138919  0.04846644       0.001
  -0.11871804  0.08377343  0.04308128       0.001
  -0.10552715  0.07615766  0.03769612       0.001
  -0.09233626  0.06854189  0.03231096       0.001
  -0.07914536  0.06092613  0.02692580       0.001
  -0.06595447  0.05331036  0.02154064       0.001
  -0.05276358  0.04569460  0.01615548       0.001
  -0.03957268  0.03807883  0.01077032       0.001
  -0.02638179  0.03046306  0.00538516       0.001
  -0.01319089  0.02284730  0.00000000       0.000
   0.02638179  0.01523153 -0.02154064       0.000
   0.03957268  0.00761577 -0.02692580       0.001
   0.05276358 -0.00000000 -0.03231096       0.001
   0.06595447 -0.00761577 -0.03769612       0.001
   0.07914536 -0.01523153 -0.04308128       0.001
   0.09233626 -0.02284730 -0.04846644       0.001
   0.10552715 -0.03046306 -0.05385160       0.001
   0.11871804 -0.03807883 -0.05923676       0.001
   0.13190894 -0.04569460 -0.06462192       0.001
   0.14509983 -0.05331036 -0.07000708       0.001
   0.15829073 -0.06092613 -0.07539224       0.001
   0.17148162 -0.06854189 -0.08077740       0.001
   0.18467251 -0.07615766 -0.08616256       0.001
   0.19786341 -0.08377343 -0.09154772       0.001
  -0.18467251  0.13708379  0.06462192       0.001
  -0.17148162  0.12946802  0.05923676       0.001
  -0.15829073  0.12185226  0.05385160       0.001
  -0.14509983  0.11423649  0.04846644       0.001
  -0.13190894  0.10662072  0.04308128       0.001
  -0.11871804  0.09900496  0.03769612       0.001
  -0.10552715  0.09138919  0.03231096       0.001
  -0.09233626  0.08377343  0.02692580       0.001
  -0.07914536  0.07615766  0.02154064       0.001
  -0.06595447  0.06854189  0.01615548       0.001
  -0.05276358  0.06092613  0.01077032       0.001
  -0.03957268  0.05331036  0.00538516       0.001
  -0.02638179  0.04569460  0.00000000       0.000
   0.03957268  0.02284730 -0.03231096       0.000
   0.05276358  0.01523153 -0.03769612       0.001
   0.06595447  0.00761577 -0.04308128       0.001
   0.07914536 -0.00000000 -0.04846644       0.001
   0.09233626 -0.00761577 -0.05385160       0.001
   0.10552715 -0.01523153 -0.05923676       0.001
   0.11871804 -0.02284730 -0.06462192       0.001
   0.13190894 -0.03046306 -0.07000708       0.001
   0.14509983 -0.03807883 -0.07539224       0.001
   0.15829073 -0.04569460 -0.08077740       0.001
   0.17148162 -0.05331036 -0.08616256       0.001
   0.18467251 -0.06092613 -0.09154772       0.001
   0.19786341 -0.06854189 -0.09693288       0.001
  -0.18467251  0.15231532  0.05923676       0.001
  -0.17148162  0.14469956  0.05385160       0.001
  -0.15829073  0.13708379  0.04846644       0.001
  -0.14509983  0.12946802  0.04308128       0.001
  -0.13190894  0.12185226  0.03769612       0.001
  -0.11871804  0.11423649  0.03231096       0.001
  -0.10552715  0.10662072  0.02692580       0.001
  -0.09233626  0.09900496  0.02154064       0.001
  -0.07914536  0.09138919  0.01615548       0.001
  -0.06595447  0.08377343  0.01077032       0.001
  -0.05276358  0.07615766  0.00538516       0.001
  -0.03957268  0.06854189  0.00000000       0.000
   0.05276358  0.03046306 -0.04308128       0.000
   0.06595447  0.02284730 -0.04846644       0.001
   0.07914536  0.01523153 -0.05385160       0.001
   0.09233626  0.00761577 -0.05923676       0.001
   0.10552715 -0.00000000 -0.06462192       0.001
   0.11871804 -0.00761577 -0.07000708       0.001
   0.13190894 -0.01523153 -0.07539224       0.001
   0.14509983 -0.02284730 -0.08077740       0.001
   0.15829073 -0.03046306 -0.08616256       0.001
   0.17148162 -0.03807883 -0.09154772       0.001
   0.18467251 -0.04569460 -0.09693288       0.001
   0.19786341 -0.05331036 -0.10231804       0.001
  -0.18467251  0.16754685  0.05385160       0.001
  -0.17148162  0.15993109  0.04846644       0.001
  -0.15829073  0.15231532  0.04308128       0.001
  -0.14509983  0.14469956  0.03769612       0.001
  -0.13190894  0.13708379  0.03231096       0.001
  -0.11871804  0.12946802  0.02692580       0.001
  -0.10552715  0.12185226  0.02154064       0.001
  -0.09233626  0.11423649  0.01615548       0.001
  -0.07914536  0.10662072  0.01077032       0.001
  -0.06595447  0.09900496  0.00538516       0.001
  -0.05276358  0.09138919  0.00000000       0.000
   0.06595447  0.03807883 -0.05385160       0.000
   0.07914536  0.03046306 -0.05923676       0.001
   0.09233626  0.02284730 -0.06462192       0.001
   0.10552715  0.01523153 -0.07000708       0.001
   0.11871804  0.00761577 -0.07539224       0.001
   0.13190894 -0.00000000 -0.08077740       0.001
   0.14509983 -0.00761577 -0.08616256       0.001
   0.15829073 -0.01523153 -0.09154772       0.001
   0.17148162 -0.02284730 -0.09693288       0.001
   0.18467251 -0.03046306 -0.10231804       0.001
   0.19786341 -0.03807883 -0.10770320       0.001
  -0.18467251  0.18277839  0.04846644       0.001
  -0.17148162  0.17516262  0.04308128       0.001
  -0.15829073  0.16754685  0.03769612       0.001
  -0.14509983  0.15993109  0.03231096       0.001
  -0.13190894  0.15231532  0.02692580       0.001
  -0.11871804  0.14469956  0.02154064       0.001
  -0.10552715  0.13708379  0.01615548       0.001
  -0.09233626  0.12946802  0.01077032       0.001
  -0.07914536  0.12185226  0.00538516       0.001
  -0.06595447  0.11423649  0.00000000       0.000
   0.07914536  0.04569460 -0.06462192       0.000
   0.09233626  0.03807883 -0.07000708       0.001
   0.10552715  0.03046306 -0.07539224       0.001
   0.11871804  0.02284730 -0.08077740       0.001
   0.13190894  0.01523153 -0.08616256       0.001
   0.14509983  0.00761577 -0.09154772       0.001
   0.15829073 -0.00000000 -0.09693288       0.001
   0.17148162 -0.00761577 -0.10231804       0.001
   0.18467251 -0.01523153 -0.10770320       0.001
   0.19786341 -0.02284730 -0.11308836       0.001
  -0.18467251  0.19800992  0.04308128       0.001
  -0.17148162  0.19039415  0.03769612       0.001
  -0.15829073  0.18277839  0.03231096       0.001
  -0.14509983  0.17516262  0.02692580       0.001
  -0.13190894  0.16754685  0.02154064       0.001
  -0.11871804  0.15993109  0.01615548       0.001
  -0.10552715  0.15231532  0.01077032       0.001
  -0.09233626  0.14469956  0.00538516       0.001
  -0.07914536  0.13708379  0.00000000       0.000
   0.09233626  0.05331036 -0.07539224       0.000
   0.10552715  0.04569460 -0.08077740       0.001
   0.11871804  0.03807883 -0.08616256       0.001
   0.13190894  0.03046306 -0.09154772       0.001
   0.14509983  0.02284730 -0.09693288       0.001
   0.15829073  0.01523153 -0.10231804       0.001
   0.17148162  0.00761577 -0.10770320       0.001
   0.18467251 -0.00000000 -0.11308836       0.001
   0.19786341 -0.00761577 -0.11847352       0.001
  -0.18467251  0.21324145  0.03769612       0.001
  -0.17148162  0.20562568  0.03231096       0.001
  -0.15829073  0.19800992  0.02692580       0.001
  -0.14509983  0.19039415  0.02154064       0.001
  -0.13190894  0.18277839  0.01615548       0.001
  -0.11871804  0.17516262  0.01077032       0.001
  -0.10552715  0.16754685  0.00538516       0.001
  -0.09233626  0.15993109  0.00000000       0.000
   0.10552715  0.06092613 -0.08616256       0.000
   0.11871804  0.05331036 -0.09154772       0.001
   0.13190894  0.04569460 -0.09693288       0.001
   0.14509983  0.03807883 -0.10231804       0.001
   0.15829073  0.03046306 -0.10770320       0.001
   0.17148162  0.02284730 -0.11308836       0.001
   0.18467251  0.01523153 -0.11847352       0.001
   0.19786341  0.00761577 -0.12385868       0.001
  -0.18467251  0.22847298  0.03231096       0.001
  -0.17148162  0.22085722  0.02692580       0.001
  -0.15829073  0.21324145  0.02154064       0.001
  -0.14509983  0.20562568  0.01615548       0.001
  -0.13190894  0.19800992  0.01077032       0.001
  -0.11871804  0.19039415  0.00538516       0.001
  -0.10552715  0.18277839  0.00000000       0.000
   0.11871804  0.06854189 -0.09693288       0.000
   0.13190894  0.06092613 -0.10231804       0.001
   0.14509983  0.05331036 -0.10770320       0.001
   0.15829073  0.04569460 -0.11308836       0.001
   0.17148162  0.03807883 -0.11847352       0.001
   0.18467251  0.03046306 -0.12385868       0.001
   0.19786341  0.02284730 -0.12924384       0.001
  -0.18467251  0.24370451  0.02692580       0.001
  -0.17148162  0.23608875  0.02154064       0.001
  -0.15829073  0.22847298  0.01615548       0.001
  -0.14509983  0.22085722  0.01077032       0.001
  -0.13190894  0.21324145  0.00538516       0.001
  -0.11871804  0.20562568  0.00000000       0.000
   0.13190894  0.07615766 -0.10770320       0.000
   0.14509983  0.06854189 -0.11308836       0.001
   0.15829073  0.06092613 -0.11847352       0.001
   0.17148162  0.05331036 -0.12385868       0.001
   0.18467251  0.04569460 -0.12924384       0.001
   0.19786341  0.03807883 -0.13462900       0.001
  -0.18467251  0.25893605  0.02154064       0.001
  -0.17148162  0.25132028  0.01615548       0.001
  -0.15829073  0.24370451  0.01077032       0.001
  -0.14509983  0.23608875  0.00538516       0.001
  -0.13190894  0.22847298  0.00000000       0.000
   0.14509983  0.08377343 -0.11847352       0.000
   0.15829073  0.07615766 -0.12385868       0.001
   0.17148162  0.06854189 -0.12924384       0.001
   0.18467251  0.06092613 -0.13462900       0.001
   0.19786341  0.05331036 -0.14001416       0.001
  -0.18467251  0.27416758  0.01615548       0.001
  -0.17148162  0.26655181  0.01077032       0.001
  -0.15829073  0.25893605  0.00538516       0.001
  -0.14509983  0.25132028  0.00000000       0.000
   0.15829073  0.09138919 -0.12924384       0.000
   0.17148162  0.08377343 -0.13462900       0.001
   0.18467251  0.07615766 -0.14001416       0.001
   0.19786341  0.06854189 -0.14539932       0.001
  -0.18467251  0.28939911  0.01077032       0.001
  -0.17148162  0.28178334  0.00538516       0.001
  -0.15829073  0.27416758  0.00000000       0.000
   0.17148162  0.09900496 -0.14001416       0.000
   0.18467251  0.09138919 -0.14539932       0.001
   0.19786341  0.08377343 -0.15078448       0.001
  -0.18467251  0.30463064  0.00538516       0.001
  -0.17148162  0.29701488  0.00000000       0.000
   0.18467251  0.10662072 -0.15078448       0.000
   0.19786341  0.09900496 -0.15616963       0.001
  -0.18467251  0.31986217  0.00000000       0.000
   0.19786341  0.11423649 -0.16155479       0.000
   0.03957268  0.00761577 -0.01077032       0.001
   0.05276358 -0.00000000 -0.01615548       0.002
   0.06595447 -0.00761577 -0.02154064       0.002
   0.07914536 -0.01523153 -0.02692580       0.002
   0.09233626 -0.02284730 -0.03231096       0.002
   0.10552715 -0.03046306 -0.03769612       0.002
   0.11871804 -0.03807883 -0.04308128       0.002
   0.13190894 -0.04569460 -0.04846644       0.002
   0.14509983 -0.05331036 -0.05385160       0.002
   0.15829073 -0.06092613 -0.05923676       0.002
   0.17148162 -0.06854189 -0.06462192       0.002
   0.18467251 -0.07615766 -0.07000708       0.002
   0.19786341 -0.08377343 -0.07539224       0.002
  -0.18467251  0.13708379  0.08077740       0.001
   0.05276358  0.01523153 -0.02154064       0.001
   0.06595447  0.00761577 -0.02692580       0.002
   0.07914536 -0.00000000 -0.03231096       0.002
   0.09233626 -0.00761577 -0.03769612       0.002
   0.10552715 -0.01523153 -0.04308128       0.002
   0.11871804 -0.02284730 -0.04846644       0.002
   0.13190894 -0.03046306 -0.05385160       0.002
   0.14509983 -0.03807883 -0.05923676       0.002
   0.15829073 -0.04569460 -0.06462192       0.002
   0.17148162 -0.05331036 -0.07000708       0.002
   0.18467251 -0.06092613 -0.07539224       0.002
   0.19786341 -0.06854189 -0.08077740       0.002
  -0.18467251  0.15231532  0.07539224       0.002
  -0.17148162  0.14469956  0.07000708       0.002
  -0.15829073  0.13708379  0.06462192       0.002
  -0.14509983  0.12946802  0.05923676       0.002
  -0.13190894  0.12185226  0.05385160       0.002
  -0.11871804  0.11423649  0.04846644       0.002
  -0.10552715  0.10662072  0.04308128       0.002
  -0.09233626  0.09900496  0.03769612       0.002
  -0.07914536  0.09138919  0.03231096       0.002
  -0.06595447  0.08377343  0.02692580       0.002
  -0.05276358  0.07615766  0.02154064       0.002
  -0.03957268  0.06854189  0.01615548       0.002
  -0.02638179  0.06092613  0.01077032       0.001
   0.06595447  0.02284730 -0.03231096       0.001
   0.07914536  0.01523153 -0.03769612       0.002
   0.09233626  0.00761577 -0.04308128       0.002
   0.10552715 -0.00000000 -0.04846644       0.002
   0.11871804 -0.00761577 -0.05385160       0.002
   0.13190894 -0.01523153 -0.05923676       0.002
   0.14509983 -0.02284730 -0.06462192       0.002
   0.15829073 -0.03046306 -0.07000708       0.002
   0.17148162 -0.03807883 -0.07539224       0.002
   0.18467251 -0.04569460 -0.08077740       0.002
   0.19786341 -0.05331036 -0.08616256       0.002
  -0.18467251  0.16754685  0.07000708       0.002
  -0.17148162  0.15993109  0.06462192       0.002
  -0.15829073  0.15231532  0.05923676       0.002
  -0.14509983  0.14469956  0.05385160       0.002
  -0.13190894  0.13708379  0.04846644       0.002
  -0.11871804  0.12946802  0.04308128       0.002
  -0.10552715  0.12185226  0.03769612       0.002
  -0.09233626  0.11423649  0.03231096       0.002
  -0.07914536  0.10662072  0.02692580       0.002
  -0.06595447  0.09900496  0.02154064       0.002
  -0.05276358  0.09138919  0.01615548       0.002
  -0.03957268  0.08377343  0.01077032       0.001
   0.07914536  0.03046306 -0.04308128       0.001
   0.09233626  0.02284730 -0.04846644       0.002
   0.10552715  0.01523153 -0.05385160       0.002
   0.11871804  0.00761577 -0.05923676       0.002
   0.13190894 -0.00000000 -0.06462192       0.002
   0.14509983 -0.00761577 -0.07000708       0.002
   0.15829073 -0.01523153 -0.07539224       0.002
   0.17148162 -0.02284730 -0.08077740       0.002
   0.18467251 -0.03046306 -0.08616256       0.002
   0.19786341 -0.03807883 -0.09154772       0.002
  -0.18467251  0.18277839  0.06462192       0.002
  -0.17148162  0.17516262  0.05923676       0.002
  -0.15829073  0.16754685  0.05385160       0.002
  -0.14509983  0.15993109  0.04846644       0.002
  -0.13190894  0.15231532  0.04308128       0.002
  -0.11871804  0.14469956  0.03769612       0.002
  -0.10552715  0.13708379  0.03231096       0.002
  -0.09233626  0.12946802  0.02692580       0.002
  -0.07914536  0.12185226  0.02154064       0.002
  -0.06595447  0.11423649  0.01615548       0.002
  -0.05276358  0.10662072  0.01077032       0.001
   0.09233626  0.03807883 -0.05385160       0.001
   0.10552715  0.03046306 -0.05923676       0.002
   0.11871804  0.02284730 -0.06462192       0.002
   0.13190894  0.01523153 -0.07000708       0.002
   0.14509983  0.00761577 -0.07539224       0.002
   0.15829073 -0.00000000 -0.08077740       0.002
   0.17148162 -0.00761577 -0.08616256       0.002
   0.18467251 -0.01523153 -0.09154772       0.002
   0.19786341 -0.02284730 -0.09693288       0.002
  -0.18467251  0.19800992  0.05923676       0.002
  -0.17148162  0.19039415  0.05385160       0.002
  -0.15829073  0.18277839  0.04846644       0.002
  -0.14509983  0.17516262  0.04308128       0.002
  -0.13190894  0.16754685  0.03769612       0.002
  -0.11871804  0.15993109  0.03231096       0.002
  -0.10552715  0.15231532  0.02692580       0.002
  -0.09233626  0.14469956  0.02154064       0.002
  -0.07914536  0.13708379  0.01615548       0.002
  -0.06595447  0.12946802  0.01077032       0.001
   0.10552715  0.04569460 -0.06462192       0.001
   0.11871804  0.03807883 -0.07000708       0.002
   0.13190894  0.03046306 -0.07539224       0.002
   0.14509983  0.02284730 -0.08077740       0.002
   0.15829073  0.01523153 -0.08616256       0.002
   0.17148162  0.00761577 -0.09154772       0.002
   0.18467251 -0.00000000 -0.09693288       0.002
   0.19786341 -0.00761577 -0.10231804       0.002
  -0.18467251  0.21324145  0.05385160       0.002
  -0.17148162  0.20562568  0.04846644       0.002
  -0.15829073  0.19800992  0.04308128       0.002
  -0.14509983  0.19039415  0.03769612       0.002
  -0.13190894  0.18277839  0.03231096       0.002
  -0.11871804  0.17516262  0.02692580       0.002
  -0.10552715  0.16754685  0.02154064       0.002
  -0.09233626  0.15993109  0.01615548       0.002
  -0.07914536  0.15231532  0.01077032       0.001
   0.11871804  0.05331036 -0.07539224       0.001
   0.13190894  0.04569460 -0.08077740       0.002
   0.14509983  0.03807883 -0.08616256       0.002
   0.15829073  0.03046306 -0.09154772       0.002
   0.17148162  0.02284730 -0.09693288       0.002
   0.18467251  0.01523153 -0.10231804       0.002
   0.19786341  0.00761577 -0.10770320       0.002
  -0.18467251  0.22847298  0.04846644       0.002
  -0.17148162  0.22085722  0.04308128       0.002
  -0.15829073  0.21324145  0.03769612       0.002
  -0.14509983  0.20562568  0.03231096       0.002
  -0.13190894  0.19800992  0.02692580       0.002
  -0.11871804  0.19039415  0.02154064       0.002
  -0.10552715  0.18277839  0.01615548       0.002
  -0.09233626  0.17516262  0.01077032       0.001
   0.13190894  0.06092613 -0.08616256       0.001
   0.14509983  0.05331036 -0.09154772       0.002
   0.15829073  0.04569460 -0.09693288       0.002
   0.17148162  0.03807883 -0.10231804       0.002
   0.18467251  0.03046306 -0.10770320       0.002
   0.19786341  0.02284730 -0.11308836       0.002
  -0.18467251  0.24370451  0.04308128       0.002
  -0.17148162  0.23608875  0.03769612       0.002
  -0.15829073  0.22847298  0.03231096       0.002
  -0.14509983  0.22085722  0.02692580       0.002
  -0.13190894  0.21324145  0.02154064       0.002
  -0.11871804  0.20562568  0.01615548       0.002
  -0.10552715  0.19800992  0.01077032       0.001
   0.14509983  0.06854189 -0.09693288       0.001
   0.15829073  0.06092613 -0.10231804       0.002
   0.17148162  0.05331036 -0.10770320       0.002
   0.18467251  0.04569460 -0.11308836       0.002
   0.19786341  0.03807883 -0.11847352       0.002
  -0.18467251  0.25893605  0.03769612       0.002
  -0.17148162  0.25132028  0.03231096       0.002
  -0.15829073  0.24370451  0.02692580       0.002
  -0.14509983  0.23608875  0.02154064       0.002
  -0.13190894  0.22847298  0.01615548       0.002
  -0.11871804  0.22085722  0.01077032       0.001
   0.15829073  0.07615766 -0.10770320       0.001
   0.17148162  0.06854189 -0.11308836       0.002
   0.18467251  0.06092613 -0.11847352       0.002
   0.19786341  0.05331036 -0.12385868       0.002
  -0.18467251  0.27416758  0.03231096       0.002
  -0.17148162  0.26655181  0.02692580       0.002
  -0.15829073  0.25893605  0.02154064       0.002
  -0.14509983  0.25132028  0.01615548       0.002
  -0.13190894  0.24370451  0.01077032       0.001
   0.17148162  0.08377343 -0.11847352       0.001
   0.18467251  0.07615766 -0.12385868       0.002
   0.19786341  0.06854189 -0.12924384       0.002
  -0.18467251  0.28939911  0.02692580       0.002
  -0.17148162  0.28178334  0.02154064       0.002
  -0.15829073  0.27416758  0.01615548       0.002
  -0.14509983  0.26655181  0.01077032       0.001
   0.18467251  0.09138919 -0.12924384       0.001
   0.19786341  0.08377343 -0.13462900       0.002
  -0.18467251  0.30463064  0.02154064       0.002
  -0.17148162  0.29701488  0.01615548       0.002
  -0.15829073  0.28939911  0.01077032       0.001
   0.19786341  0.09900496 -0.14001416       0.001
  -0.18467251  0.31986217  0.01615548       0.002
  -0.17148162  0.31224641  0.01077032       0.001
  -0.18467251  0.33509371  0.01077032       0.000
   0.07914536  0.01523153 -0.02154064       0.001
   0.09233626  0.00761577 -0.02692580       0.002
   0.10552715 -0.00000000 -0.03231096       0.002
   0.11871804 -0.00761577 -0.03769612       0.002
   0.13190894 -0.01523153 -0.04308128       0.002
   0.14509983 -0.02284730 -0.04846644       0.002
   0.15829073 -0.03046306 -0.05385160       0.002
   0.17148162 -0.03807883 -0.05923676       0.002
   0.18467251 -0.04569460 -0.06462192       0.002
   0.19786341 -0.05331036 -0.07000708       0.002
  -0.18467251  0.16754685  0.08616256       0.002
  -0.17148162  0.15993109  0.08077740       0.001
   0.09233626  0.02284730 -0.03231096       0.001
   0.10552715  0.01523153 -0.03769612       0.002
   0.11871804  0.00761577 -0.04308128       0.002
   0.13190894 -0.00000000 -0.04846644       0.002
   0.14509983 -0.00761577 -0.05385160       0.002
   0.15829073 -0.01523153 -0.05923676       0.002
   0.17148162 -0.02284730 -0.06462192       0.002
   0.18467251 -0.03046306 -0.07000708       0.002
   0.19786341 -0.03807883 -0.07539224       0.002
  -0.18467251  0.18277839  0.08077740       0.002
  -0.17148162  0.17516262  0.07539224       0.002
  -0.15829073  0.16754685  0.07000708       0.002
  -0.14509983  0.15993109  0.06462192       0.002
  -0.13190894  0.15231532  0.05923676       0.002
  -0.11871804  0.14469956  0.05385160       0.002
  -0.10552715  0.13708379  0.04846644       0.002
  -0.09233626  0.12946802  0.04308128       0.002
  -0.07914536  0.12185226  0.03769612       0.002
  -0.06595447  0.11423649  0.03231096       0.002
  -0.05276358  0.10662072  0.02692580       0.002
  -0.03957268  0.09900496  0.02154064       0.001
   0.10552715  0.03046306 -0.04308128       0.001
   0.11871804  0.02284730 -0.04846644       0.002
   0.13190894  0.01523153 -0.05385160       0.002
   0.14509983  0.00761577 -0.05923676       0.002
   0.15829073 -0.00000000 -0.06462192       0.002
   0.17148162 -0.00761577 -0.07000708       0.002
   0.18467251 -0.01523153 -0.07539224       0.002
   0.19786341 -0.02284730 -0.08077740       0.002
  -0.18467251  0.19800992  0.07539224       0.002
  -0.17148162  0.19039415  0.07000708       0.002
  -0.15829073  0.18277839  0.06462192       0.002
  -0.14509983  0.17516262  0.05923676       0.002
  -0.13190894  0.16754685  0.05385160       0.002
  -0.11871804  0.15993109  0.04846644       0.002
  -0.10552715  0.15231532  0.04308128       0.002
  -0.09233626  0.14469956  0.03769612       0.002
  -0.07914536  0.13708379  0.03231096       0.002
  -0.06595447  0.12946802  0.02692580       0.002
  -0.05276358  0.12185226  0.02154064       0.001
   0.11871804  0.03807883 -0.05385160       0.001
   0.13190894  0.03046306 -0.05923676       0.002
   0.14509983  0.02284730 -0.06462192       0.002
   0.15829073  0.01523153 -0.07000708       0.002
   0.17148162  0.00761577 -0.07539224       0.002
   0.18467251 -0.00000000 -0.08077740       0.002
   0.19786341 -0.00761577 -0.08616256       0.002
  -0.18467251  0.21324145  0.07000708       0.002
  -0.17148162  0.20562568  0.06462192       0.002
  -0.15829073  0.19800992  0.05923676       0.002
  -0.14509983  0.19039415  0.05385160       0.002
  -0.13190894  0.18277839  0.04846644       0.002
  -0.11871804  0.17516262  0.04308128       0.002
  -0.10552715  0.16754685  0.03769612       0.002
  -0.09233626  0.15993109  0.03231096       0.002
  -0.07914536  0.15231532  0.02692580       0.002
  -0.06595447  0.14469956  0.02154064       0.001
   0.13190894  0.04569460 -0.06462192       0.001
   0.14509983  0.03807883 -0.07000708       0.002
   0.15829073  0.03046306 -0.07539224       0.002
   0.17148162  0.02284730 -0.08077740       0.002
   0.18467251  0.01523153 -0.08616256       0.002
   0.19786341  0.00761577 -0.09154772       0.002
  -0.18467251  0.22847298  0.06462192       0.002
  -0.17148162  0.22085722  0.05923676       0.002
  -0.15829073  0.21324145  0.05385160       0.002
  -0.14509983  0.20562568  0.04846644       0.002
  -0.13190894  0.19800992  0.04308128       0.002
  -0.11871804  0.19039415  0.03769612       0.002
  -0.10552715  0.18277839  0.03231096       0.002
  -0.09233626  0.17516262  0.02692580       0.002
  -0.07914536  0.16754685  0.02154064       0.001
   0.14509983  0.05331036 -0.07539224       0.001
   0.15829073  0.04569460 -0.08077740       0.002
   0.17148162  0.03807883 -0.08616256       0.002
   0.18467251  0.03046306 -0.09154772       0.002
   0.19786341  0.02284730 -0.09693288       0.002
  -0.18467251  0.24370451  0.05923676       0.002
  -0.17148162  0.23608875  0.05385160       0.002
  -0.15829073  0.22847298  0.04846644       0.002
  -0.14509983  0.22085722  0.04308128       0.002
  -0.13190894  0.21324145  0.03769612       0.002
  -0.11871804  0.20562568  0.03231096       0.002
  -0.10552715  0.19800992  0.02692580       0.002
  -0.09233626  0.19039415  0.02154064       0.001
   0.15829073  0.06092613 -0.08616256       0.001
   0.17148162  0.05331036 -0.09154772       0.002
   0.18467251  0.04569460 -0.09693288       0.002
   0.19786341  0.03807883 -0.10231804       0.002
  -0.18467251  0.25893605  0.05385160       0.002
  -0.17148162  0.25132028  0.04846644       0.002
  -0.15829073  0.24370451  0.04308128       0.002
  -0.14509983  0.23608875  0.03769612       0.002
  -0.13190894  0.22847298  0.03231096       0.002
  -0.11871804  0.22085722  0.02692580       0.002
  -0.10552715  0.21324145  0.02154064       0.001
   0.17148162  0.06854189 -0.09693288       0.001
   0.18467251  0.06092613 -0.10231804       0.002
   0.19786341  0.05331036 -0.10770320       0.002
  -0.18467251  0.27416758  0.04846644       0.002
  -0.17148162  0.26655181  0.04308128       0.002
  -0.15829073  0.25893605  0.03769612       0.002
  -0.14509983  0.25132028  0.03231096       0.002
  -0.13190894  0.24370451  0.02692580       0.002
  -0.11871804  0.23608875  0.02154064       0.001
   0.18467251  0.07615766 -0.10770320       0.001
   0.19786341  0.06854189 -0.11308836       0.002
  -0.18467251  0.28939911  0.04308128       0.002
  -0.17148162  0.28178334  0.03769612       0.002
  -0.15829073  0.27416758  0.03231096       0.002
  -0.14509983  0.26655181  0.02692580       0.002
  -0.13190894  0.25893605  0.02154064       0.001
   0.19786341  0.08377343 -0.11847352       0.001
  -0.18467251  0.30463064  0.03769612       0.002
  -0.17148162  0.29701488  0.03231096       0.002
  -0.15829073  0.28939911  0.02692580       0.002
  -0.14509983  0.28178334  0.02154064       0.001
  -0.18467251  0.31986217  0.03231096       0.001
  -0.17148162  0.31224641  0.02692580       0.002
  -0.15829073  0.30463064  0.02154064       0.001
  -0.17148162  0.32747794  0.02154064       0.000
   0.11871804  0.02284730 -0.03231096       0.001
   0.13190894  0.01523153 -0.03769612       0.002
   0.14509983  0.00761577 -0.04308128       0.002
   0.15829073 -0.00000000 -0.04846644       0.002
   0.17148162 -0.00761577 -0.05385160       0.002
   0.18467251 -0.01523153 -0.05923676       0.002
   0.19786341 -0.02284730 -0.06462192       0.002
  -0.18467251  0.19800992  0.09154772       0.002
  -0.17148162  0.19039415  0.08616256       0.002
  -0.15829073  0.18277839  0.08077740       0.001
   0.13190894  0.03046306 -0.04308128       0.001
   0.14509983  0.02284730 -0.04846644       0.002
   0.15829073  0.01523153 -0.05385160       0.002
   0.17148162  0.00761577 -0.05923676       0.002
   0.18467251 -0.00000000 -0.06462192       0.002
   0.19786341 -0.00761577 -0.07000708       0.002
  -0.18467251  0.21324145  0.08616256       0.002
  -0.17148162  0.20562568  0.08077740       0.002
  -0.15829073  0.19800992  0.07539224       0.002
  -0.14509983  0.19039415  0.07000708       0.002
  -0.13190894  0.18277839  0.06462192       0.002
  -0.11871804  0.17516262  0.05923676       0.002
  -0.10552715  0.16754685  0.05385160       0.002
  -0.09233626  0.15993109  0.04846644       0.002
  -0.07914536  0.15231532  0.04308128       0.002
  -0.06595447  0.14469956  0.03769612       0.002
  -0.05276358  0.13708379  0.03231096       0.001
   0.14509983  0.03807883 -0.05385160       0.001
   0.15829073  0.03046306 -0.05923676       0.002
   0.17148162  0.02284730 -0.06462192       0.002
   0.18467251  0.01523153 -0.07000708       0.002
   0.19786341  0.00761577 -0.07539224       0.002
  -0.18467251  0.22847298  0.08077740       0.002
  -0.17148162  0.22085722  0.07539224       0.002
  -0.15829073  0.21324145  0.07000708       0.002
  -0.14509983  0.20562568  0.06462192       0.002
  -0.13190894  0.19800992  0.05923676       0.002
  -0.11871804  0.19039415  0.05385160       0.002
  -0.10552715  0.18277839  0.04846644       0.002
  -0.09233626  0.17516262  0.04308128       0.002
  -0.07914536  0.16754685  0.03769612       0.002
  -0.06595447  0.15993109  0.03231096       0.001
   0.15829073  0.04569460 -0.06462192       0.001
   0.17148162  0.03807883 -0.07000708       0.002
   0.18467251  0.03046306 -0.07539224       0.002
   0.19786341  0.02284730 -0.08077740       0.002
  -0.18467251  0.24370451  0.07539224       0.002
  -0.17148162  0.23608875  0.07000708       0.002
  -0.15829073  0.22847298  0.06462192       0.002
  -0.14509983  0.22085722  0.05923676       0.002
  -0.13190894  0.21324145  0.05385160       0.002
  -0.11871804  0.20562568  0.04846644       0.002
  -0.10552715  0.19800992  0.04308128       0.002
  -0.09233626  0.19039415  0.03769612       0.002
  -0.07914536  0.18277839  0.03231096       0.001
   0.17148162  0.05331036 -0.07539224       0.001
   0.18467251  0.04569460 -0.08077740       0.002
   0.19786341  0.03807883 -0.08616256       0.002
  -0.18467251  0.25893605  0.07000708       0.002
  -0.17148162  0.25132028  0.06462192       0.002
  -0.15829073  0.24370451  0.05923676       0.002
  -0.14509983  0.23608875  0.05385160       0.002
  -0.13190894  0.22847298  0.04846644       0.002
  -0.11871804  0.22085722  0.04308128       0.002
  -0.10552715  0.21324145  0.03769612       0.002
  -0.09233626  0.20562568  0.03231096       0.001
   0.18467251  0.06092613 -0.08616256       0.001
   0.19786341  0.05331036 -0.09154772       0.002
  -0.18467251  0.27416758  0.06462192       0.002
  -0.17148162  0.26655181  0.05923676       0.002
  -0.15829073  0.25893605  0.05385160       0.002
  -0.14509983  0.25132028  0.04846644       0.002
  -0.13190894  0.24370451  0.04308128       0.002
  -0.11871804  0.23608875  0.03769612       0.002
  -0.10552715  0.22847298  0.03231096       0.001
   0.19786341  0.06854189 -0.09693288       0.001
  -0.18467251  0.28939911  0.05923676       0.002
  -0.17148162  0.28178334  0.05385160       0.002
  -0.15829073  0.27416758  0.04846644       0.002
  -0.14509983  0.26655181  0.04308128       0.002
  -0.13190894  0.25893605  0.03769612       0.002
  -0.11871804  0.25132028  0.03231096       0.001
  -0.18467251  0.30463064  0.05385160       0.001
  -0.17148162  0.29701488  0.04846644       0.002
  -0.15829073  0.28939911  0.04308128       0.002
  -0.14509983  0.28178334  0.03769612       0.002
  -0.13190894  0.27416758  0.03231096       0.001
  -0.17148162  0.31224641  0.04308128       0.001
  -0.15829073  0.30463064  0.03769612       0.002
  -0.14509983  0.29701488  0.03231096       0.001
  -0.15829073  0.31986217  0.03231096       0.000
   0.15829073  0.03046306 -0.04308128       0.001
   0.17148162  0.02284730 -0.04846644       0.002
   0.18467251  0.01523153 -0.05385160       0.002
   0.19786341  0.00761577 -0.05923676       0.002
  -0.18467251  0.22847298  0.09693288       0.002
  -0.17148162  0.22085722  0.09154772       0.002
  -0.15829073  0.21324145  0.08616256       0.002
  -0.14509983  0.20562568  0.08077740       0.001
   0.17148162  0.03807883 -0.05385160       0.001
   0.18467251  0.03046306 -0.05923676       0.002
   0.19786341  0.02284730 -0.06462192       0.002
  -0.18467251  0.24370451  0.09154772       0.002
  -0.17148162  0.23608875  0.08616256       0.002
  -0.15829073  0.22847298  0.08077740       0.002
  -0.14509983  0.22085722  0.07539224       0.002
  -0.13190894  0.21324145  0.07000708       0.002
  -0.11871804  0.20562568  0.06462192       0.002
  -0.10552715  0.19800992  0.05923676       0.002
  -0.09233626  0.19039415  0.05385160       0.002
  -0.07914536  0.18277839  0.04846644       0.002
  -0.06595447  0.17516262  0.04308128       0.001
   0.18467251  0.04569460 -0.06462192       0.001
   0.19786341  0.03807883 -0.07000708       0.002
  -0.18467251  0.25893605  0.08616256       0.002
  -0.17148162  0.25132028  0.08077740       0.002
  -0.15829073  0.24370451  0.07539224       0.002
  -0.14509983  0.23608875  0.07000708       0.002
  -0.13190894  0.22847298  0.06462192       0.002
  -0.11871804  0.22085722  0.05923676       0.002
  -0.10552715  0.21324145  0.05385160       0.002
  -0.09233626  0.20562568  0.04846644       0.002
  -0.07914536  0.19800992  0.04308128       0.001
   0.19786341  0.05331036 -0.07539224       0.001
  -0.18467251  0.27416758  0.08077740       0.002
  -0.17148162  0.26655181  0.07539224       0.002
  -0.15829073  0.25893605  0.07000708       0.002
  -0.14509983  0.25132028  0.06462192       0.002
  -0.13190894  0.24370451  0.05923676       0.002
  -0.11871804  0.23608875  0.05385160       0.002
  -0.10552715  0.22847298  0.04846644       0.002
  -0.09233626  0.22085722  0.04308128       0.001
  -0.18467251  0.28939911  0.07539224       0.001
  -0.17148162  0.28178334  0.07000708       0.002
  -0.15829073  0.27416758  0.06462192       0.002
  -0.14509983  0.26655181  0.05923676       0.002
  -0.13190894  0.25893605  0.05385160       0.002
  -0.11871804  0.25132028  0.04846644       0.002
  -0.10552715  0.24370451  0.04308128       0.001
  -0.17148162  0.29701488  0.06462192       0.001
  -0.15829073  0.28939911  0.05923676       0.002
  -0.14509983  0.28178334  0.05385160       0.002
  -0.13190894  0.27416758  0.04846644       0.002
  -0.11871804  0.26655181  0.04308128       0.001
  -0.15829073  0.30463064  0.05385160       0.001
  -0.14509983  0.29701488  0.04846644       0.002
  -0.13190894  0.28939911  0.04308128       0.001
  -0.14509983  0.31224641  0.04308128       0.000
   0.19786341  0.03807883 -0.05385160       0.001
  -0.18467251  0.25893605  0.10231804       0.002
  -0.17148162  0.25132028  0.09693288       0.002
  -0.15829073  0.24370451  0.09154772       0.002
  -0.14509983  0.23608875  0.08616256       0.002
  -0.13190894  0.22847298  0.08077740       0.001
  -0.18467251  0.27416758  0.09693288       0.001
  -0.17148162  0.26655181  0.09154772       0.002
  -0.15829073  0.25893605  0.08616256       0.002
  -0.14509983  0.25132028  0.08077740       0.002
  -0.13190894  0.24370451  0.07539224       0.002
  -0.11871804  0.23608875  0.07000708       0.002
  -0.10552715  0.22847298  0.06462192       0.002
  -0.09233626  0.22085722  0.05923676       0.002
  -0.07914536  0.21324145  0.05385160       0.001
  -0.17148162  0.28178334  0.08616256       0.001
  -0.15829073  0.27416758  0.08077740       0.002
  -0.14509983  0.26655181  0.07539224       0.002
  -0.13190894  0.25893605  0.07000708       0.002
  -0.11871804  0.25132028  0.06462192       0.002
  -0.10552715  0.24370451  0.05923676       0.002
  -0.09233626  0.23608875  0.05385160       0.001
  -0.15829073  0.28939911  0.07539224       0.001
  -0.14509983  0.28178334  0.07000708       0.002
  -0.13190894  0.27416758  0.06462192       0.002
  -0.11871804  0.26655181  0.05923676       0.002
  -0.10552715  0.25893605  0.05385160       0.001
  -0.14509983  0.29701488  0.06462192       0.001
  -0.13190894  0.28939911  0.05923676       0.002
  -0.11871804  0.28178334  0.05385160       0.001
  -0.13190894  0.30463064  0.05385160       0.000
  -0.15829073  0.27416758  0.09693288       0.001
  -0.14509983  0.26655181  0.09154772       0.002
  -0.13190894  0.25893605  0.08616256       0.002
  -0.11871804  0.25132028  0.08077740       0.001
  -0.14509983  0.28178334  0.08616256       0.001
  -0.13190894  0.27416758  0.08077740       0.002
  -0.11871804  0.26655181  0.07539224       0.002
  -0.10552715  0.25893605  0.07000708       0.002
  -0.09233626  0.25132028  0.06462192       0.001
  -0.13190894  0.28939911  0.07539224       0.001
  -0.11871804  0.28178334  0.07000708       0.002
  -0.10552715  0.27416758  0.06462192       0.001
  -0.11871804  0.29701488  0.06462192       0.000
  -0.11871804  0.28178334  0.08616256       0.001
  -0.10552715  0.27416758  0.08077740       0.001
  -0.10552715  0.28939911  0.07539224       0.000
 
 k-points in reciprocal lattice and weights: k-density: 4.0                          
   0.00000000  0.00000000  0.00000000       0.000
   0.03333333  0.00000000  0.00000000       0.000
   0.06666667  0.00000000  0.00000000       0.000
   0.10000000  0.00000000  0.00000000       0.000
   0.13333333 -0.00000000  0.00000000       0.000
   0.16666667  0.00000000  0.00000000       0.000
   0.20000000  0.00000000  0.00000000       0.000
   0.23333333  0.00000000  0.00000000       0.000
   0.26666667  0.00000000  0.00000000       0.000
   0.30000000  0.00000000  0.00000000       0.000
   0.33333333  0.00000000  0.00000000       0.000
   0.36666667 -0.00000000  0.00000000       0.000
   0.40000000  0.00000000  0.00000000       0.000
   0.43333333  0.00000000  0.00000000       0.000
   0.46666667  0.00000000  0.00000000       0.000
   0.50000000  0.00000000  0.00000000       0.000
   0.03333333  0.03333333  0.00000000       0.000
   0.06666667  0.03333333  0.00000000       0.001
   0.10000000  0.03333333  0.00000000       0.001
   0.13333333  0.03333333  0.00000000       0.001
   0.16666667  0.03333333  0.00000000       0.001
   0.20000000  0.03333333  0.00000000       0.001
   0.23333333  0.03333333  0.00000000       0.001
   0.26666667  0.03333333  0.00000000       0.001
   0.30000000  0.03333333  0.00000000       0.001
   0.33333333  0.03333333  0.00000000       0.001
   0.36666667  0.03333333  0.00000000       0.001
   0.40000000  0.03333333  0.00000000       0.001
   0.43333333  0.03333333  0.00000000       0.001
   0.46666667  0.03333333  0.00000000       0.001
   0.50000000  0.03333333  0.00000000       0.001
  -0.46666667  0.03333333  0.00000000       0.001
  -0.43333333  0.03333333  0.00000000       0.001
  -0.40000000  0.03333333  0.00000000       0.001
  -0.36666667  0.03333333  0.00000000       0.001
  -0.33333333  0.03333333  0.00000000       0.001
  -0.30000000  0.03333333  0.00000000       0.001
  -0.26666667  0.03333333  0.00000000       0.001
  -0.23333333  0.03333333  0.00000000       0.001
  -0.20000000  0.03333333  0.00000000       0.001
  -0.16666667  0.03333333  0.00000000       0.001
  -0.13333333  0.03333333  0.00000000       0.001
  -0.10000000  0.03333333  0.00000000       0.001
  -0.06666667  0.03333333  0.00000000       0.001
  -0.03333333  0.03333333  0.00000000       0.000
   0.06666667  0.06666667  0.00000000       0.000
   0.10000000  0.06666667  0.00000000       0.001
   0.13333333  0.06666667  0.00000000       0.001
   0.16666667  0.06666667  0.00000000       0.001
   0.20000000  0.06666667  0.00000000       0.001
   0.23333333  0.06666667  0.00000000       0.001
   0.26666667  0.06666667  0.00000000       0.001
   0.30000000  0.06666667  0.00000000       0.001
   0.33333333  0.06666667  0.00000000       0.001
   0.36666667  0.06666667  0.00000000       0.001
   0.40000000  0.06666667  0.00000000       0.001
   0.43333333  0.06666667  0.00000000       0.001
   0.46666667  0.06666667  0.00000000       0.001
   0.50000000  0.06666667  0.00000000       0.001
  -0.46666667  0.06666667  0.00000000       0.001
  -0.43333333  0.06666667  0.00000000       0.001
  -0.40000000  0.06666667  0.00000000       0.001
  -0.36666667  0.06666667  0.00000000       0.001
  -0.33333333  0.06666667  0.00000000       0.001
  -0.30000000  0.06666667  0.00000000       0.001
  -0.26666667  0.06666667  0.00000000       0.001
  -0.23333333  0.06666667  0.00000000       0.001
  -0.20000000  0.06666667  0.00000000       0.001
  -0.16666667  0.06666667  0.00000000       0.001
  -0.13333333  0.06666667  0.00000000       0.001
  -0.10000000  0.06666667  0.00000000       0.001
  -0.06666667  0.06666667  0.00000000       0.000
   0.10000000  0.10000000  0.00000000       0.000
   0.13333333  0.10000000  0.00000000       0.001
   0.16666667  0.10000000  0.00000000       0.001
   0.20000000  0.10000000  0.00000000       0.001
   0.23333333  0.10000000  0.00000000       0.001
   0.26666667  0.10000000  0.00000000       0.001
   0.30000000  0.10000000  0.00000000       0.001
   0.33333333  0.10000000  0.00000000       0.001
   0.36666667  0.10000000  0.00000000       0.001
   0.40000000  0.10000000  0.00000000       0.001
   0.43333333  0.10000000  0.00000000       0.001
   0.46666667  0.10000000  0.00000000       0.001
   0.50000000  0.10000000  0.00000000       0.001
  -0.46666667  0.10000000  0.00000000       0.001
  -0.43333333  0.10000000  0.00000000       0.001
  -0.40000000  0.10000000  0.00000000       0.001
  -0.36666667  0.10000000  0.00000000       0.001
  -0.33333333  0.10000000  0.00000000       0.001
  -0.30000000  0.10000000  0.00000000       0.001
  -0.26666667  0.10000000  0.00000000       0.001
  -0.23333333  0.10000000  0.00000000       0.001
  -0.20000000  0.10000000  0.00000000       0.001
  -0.16666667  0.10000000  0.00000000       0.001
  -0.13333333  0.10000000  0.00000000       0.001
  -0.10000000  0.10000000  0.00000000       0.000
   0.13333333  0.13333333  0.00000000       0.000
   0.16666667  0.13333333  0.00000000       0.001
   0.20000000  0.13333333  0.00000000       0.001
   0.23333333  0.13333333  0.00000000       0.001
   0.26666667  0.13333333  0.00000000       0.001
   0.30000000  0.13333333  0.00000000       0.001
   0.33333333  0.13333333  0.00000000       0.001
   0.36666667  0.13333333  0.00000000       0.001
   0.40000000  0.13333333  0.00000000       0.001
   0.43333333  0.13333333  0.00000000       0.001
   0.46666667  0.13333333  0.00000000       0.001
   0.50000000  0.13333333  0.00000000       0.001
  -0.46666667  0.13333333  0.00000000       0.001
  -0.43333333  0.13333333  0.00000000       0.001
  -0.40000000  0.13333333  0.00000000       0.001
  -0.36666667  0.13333333  0.00000000       0.001
  -0.33333333  0.13333333  0.00000000       0.001
  -0.30000000  0.13333333  0.00000000       0.001
  -0.26666667  0.13333333  0.00000000       0.001
  -0.23333333  0.13333333  0.00000000       0.001
  -0.20000000  0.13333333  0.00000000       0.001
  -0.16666667  0.13333333  0.00000000       0.001
  -0.13333333  0.13333333  0.00000000       0.000
   0.16666667  0.16666667  0.00000000       0.000
   0.20000000  0.16666667  0.00000000       0.001
   0.23333333  0.16666667  0.00000000       0.001
   0.26666667  0.16666667  0.00000000       0.001
   0.30000000  0.16666667  0.00000000       0.001
   0.33333333  0.16666667  0.00000000       0.001
   0.36666667  0.16666667  0.00000000       0.001
   0.40000000  0.16666667  0.00000000       0.001
   0.43333333  0.16666667  0.00000000       0.001
   0.46666667  0.16666667  0.00000000       0.001
   0.50000000  0.16666667  0.00000000       0.001
  -0.46666667  0.16666667  0.00000000       0.001
  -0.43333333  0.16666667  0.00000000       0.001
  -0.40000000  0.16666667  0.00000000       0.001
  -0.36666667  0.16666667  0.00000000       0.001
  -0.33333333  0.16666667  0.00000000       0.001
  -0.30000000  0.16666667  0.00000000       0.001
  -0.26666667  0.16666667  0.00000000       0.001
  -0.23333333  0.16666667  0.00000000       0.001
  -0.20000000  0.16666667  0.00000000       0.001
  -0.16666667  0.16666667  0.00000000       0.000
   0.20000000  0.20000000  0.00000000       0.000
   0.23333333  0.20000000  0.00000000       0.001
   0.26666667  0.20000000  0.00000000       0.001
   0.30000000  0.20000000  0.00000000       0.001
   0.33333333  0.20000000  0.00000000       0.001
   0.36666667  0.20000000  0.00000000       0.001
   0.40000000  0.20000000  0.00000000       0.001
   0.43333333  0.20000000  0.00000000       0.001
   0.46666667  0.20000000  0.00000000       0.001
   0.50000000  0.20000000  0.00000000       0.001
  -0.46666667  0.20000000  0.00000000       0.001
  -0.43333333  0.20000000  0.00000000       0.001
  -0.40000000  0.20000000  0.00000000       0.001
  -0.36666667  0.20000000  0.00000000       0.001
  -0.33333333  0.20000000  0.00000000       0.001
  -0.30000000  0.20000000  0.00000000       0.001
  -0.26666667  0.20000000  0.00000000       0.001
  -0.23333333  0.20000000  0.00000000       0.001
  -0.20000000  0.20000000  0.00000000       0.000
   0.23333333  0.23333333  0.00000000       0.000
   0.26666667  0.23333333  0.00000000       0.001
   0.30000000  0.23333333  0.00000000       0.001
   0.33333333  0.23333333  0.00000000       0.001
   0.36666667  0.23333333  0.00000000       0.001
   0.40000000  0.23333333  0.00000000       0.001
   0.43333333  0.23333333  0.00000000       0.001
   0.46666667  0.23333333  0.00000000       0.001
   0.50000000  0.23333333  0.00000000       0.001
  -0.46666667  0.23333333  0.00000000       0.001
  -0.43333333  0.23333333  0.00000000       0.001
  -0.40000000  0.23333333  0.00000000       0.001
  -0.36666667  0.23333333  0.00000000       0.001
  -0.33333333  0.23333333  0.00000000       0.001
  -0.30000000  0.23333333  0.00000000       0.001
  -0.26666667  0.23333333  0.00000000       0.001
  -0.23333333  0.23333333  0.00000000       0.000
   0.26666667  0.26666667  0.00000000       0.000
   0.30000000  0.26666667  0.00000000       0.001
   0.33333333  0.26666667  0.00000000       0.001
   0.36666667  0.26666667  0.00000000       0.001
   0.40000000  0.26666667  0.00000000       0.001
   0.43333333  0.26666667  0.00000000       0.001
   0.46666667  0.26666667  0.00000000       0.001
   0.50000000  0.26666667  0.00000000       0.001
  -0.46666667  0.26666667  0.00000000       0.001
  -0.43333333  0.26666667  0.00000000       0.001
  -0.40000000  0.26666667  0.00000000       0.001
  -0.36666667  0.26666667  0.00000000       0.001
  -0.33333333  0.26666667  0.00000000       0.001
  -0.30000000  0.26666667  0.00000000       0.001
  -0.26666667  0.26666667  0.00000000       0.000
   0.30000000  0.30000000  0.00000000       0.000
   0.33333333  0.30000000  0.00000000       0.001
   0.36666667  0.30000000  0.00000000       0.001
   0.40000000  0.30000000  0.00000000       0.001
   0.43333333  0.30000000  0.00000000       0.001
   0.46666667  0.30000000  0.00000000       0.001
   0.50000000  0.30000000  0.00000000       0.001
  -0.46666667  0.30000000  0.00000000       0.001
  -0.43333333  0.30000000  0.00000000       0.001
  -0.40000000  0.30000000  0.00000000       0.001
  -0.36666667  0.30000000  0.00000000       0.001
  -0.33333333  0.30000000  0.00000000       0.001
  -0.30000000  0.30000000  0.00000000       0.000
   0.33333333  0.33333333  0.00000000       0.000
   0.36666667  0.33333333  0.00000000       0.001
   0.40000000  0.33333333  0.00000000       0.001
   0.43333333  0.33333333  0.00000000       0.001
   0.46666667  0.33333333  0.00000000       0.001
   0.50000000  0.33333333  0.00000000       0.001
  -0.46666667  0.33333333  0.00000000       0.001
  -0.43333333  0.33333333  0.00000000       0.001
  -0.40000000  0.33333333  0.00000000       0.001
  -0.36666667  0.33333333  0.00000000       0.001
  -0.33333333  0.33333333  0.00000000       0.000
   0.36666667  0.36666667  0.00000000       0.000
   0.40000000  0.36666667  0.00000000       0.001
   0.43333333  0.36666667  0.00000000       0.001
   0.46666667  0.36666667  0.00000000       0.001
   0.50000000  0.36666667  0.00000000       0.001
  -0.46666667  0.36666667  0.00000000       0.001
  -0.43333333  0.36666667  0.00000000       0.001
  -0.40000000  0.36666667  0.00000000       0.001
  -0.36666667  0.36666667  0.00000000       0.000
   0.40000000  0.40000000  0.00000000       0.000
   0.43333333  0.40000000  0.00000000       0.001
   0.46666667  0.40000000  0.00000000       0.001
   0.50000000  0.40000000  0.00000000       0.001
  -0.46666667  0.40000000  0.00000000       0.001
  -0.43333333  0.40000000  0.00000000       0.001
  -0.40000000  0.40000000  0.00000000       0.000
   0.43333333  0.43333333  0.00000000       0.000
   0.46666667  0.43333333  0.00000000       0.001
   0.50000000  0.43333333  0.00000000       0.001
  -0.46666667  0.43333333  0.00000000       0.001
  -0.43333333  0.43333333  0.00000000       0.000
   0.46666667  0.46666667  0.00000000       0.000
   0.50000000  0.46666667  0.00000000       0.001
  -0.46666667  0.46666667  0.00000000       0.000
   0.50000000  0.50000000  0.00000000       0.000
   0.10000000  0.06666667  0.03333333       0.001
   0.13333333  0.06666667  0.03333333       0.002
   0.16666667  0.06666667  0.03333333       0.002
   0.20000000  0.06666667  0.03333333       0.002
   0.23333333  0.06666667  0.03333333       0.002
   0.26666667  0.06666667  0.03333333       0.002
   0.30000000  0.06666667  0.03333333       0.002
   0.33333333  0.06666667  0.03333333       0.002
   0.36666667  0.06666667  0.03333333       0.002
   0.40000000  0.06666667  0.03333333       0.002
   0.43333333  0.06666667  0.03333333       0.002
   0.46666667  0.06666667  0.03333333       0.002
   0.50000000  0.06666667  0.03333333       0.002
  -0.46666667  0.06666667  0.03333333       0.001
   0.13333333  0.10000000  0.03333333       0.001
   0.16666667  0.10000000  0.03333333       0.002
   0.20000000  0.10000000  0.03333333       0.002
   0.23333333  0.10000000  0.03333333       0.002
   0.26666667  0.10000000  0.03333333       0.002
   0.30000000  0.10000000  0.03333333       0.002
   0.33333333  0.10000000  0.03333333       0.002
   0.36666667  0.10000000  0.03333333       0.002
   0.40000000  0.10000000  0.03333333       0.002
   0.43333333  0.10000000  0.03333333       0.002
   0.46666667  0.10000000  0.03333333       0.002
   0.50000000  0.10000000  0.03333333       0.002
  -0.46666667  0.10000000  0.03333333       0.002
  -0.43333333  0.10000000  0.03333333       0.002
  -0.40000000  0.10000000  0.03333333       0.002
  -0.36666667  0.10000000  0.03333333       0.002
  -0.33333333  0.10000000  0.03333333       0.002
  -0.30000000  0.10000000  0.03333333       0.002
  -0.26666667  0.10000000  0.03333333       0.002
  -0.23333333  0.10000000  0.03333333       0.002
  -0.20000000  0.10000000  0.03333333       0.002
  -0.16666667  0.10000000  0.03333333       0.002
  -0.13333333  0.10000000  0.03333333       0.002
  -0.10000000  0.10000000  0.03333333       0.002
  -0.06666667  0.10000000  0.03333333       0.001
   0.16666667  0.13333333  0.03333333       0.001
   0.20000000  0.13333333  0.03333333       0.002
   0.23333333  0.13333333  0.03333333       0.002
   0.26666667  0.13333333  0.03333333       0.002
   0.30000000  0.13333333  0.03333333       0.002
   0.33333333  0.13333333  0.03333333       0.002
   0.36666667  0.13333333  0.03333333       0.002
   0.40000000  0.13333333  0.03333333       0.002
   0.43333333  0.13333333  0.03333333       0.002
   0.46666667  0.13333333  0.03333333       0.002
   0.50000000  0.13333333  0.03333333       0.002
  -0.46666667  0.13333333  0.03333333       0.002
  -0.43333333  0.13333333  0.03333333       0.002
  -0.40000000  0.13333333  0.03333333       0.002
  -0.36666667  0.13333333  0.03333333       0.002
  -0.33333333  0.13333333  0.03333333       0.002
  -0.30000000  0.13333333  0.03333333       0.002
  -0.26666667  0.13333333  0.03333333       0.002
  -0.23333333  0.13333333  0.03333333       0.002
  -0.20000000  0.13333333  0.03333333       0.002
  -0.16666667  0.13333333  0.03333333       0.002
  -0.13333333  0.13333333  0.03333333       0.002
  -0.10000000  0.13333333  0.03333333       0.001
   0.20000000  0.16666667  0.03333333       0.001
   0.23333333  0.16666667  0.03333333       0.002
   0.26666667  0.16666667  0.03333333       0.002
   0.30000000  0.16666667  0.03333333       0.002
   0.33333333  0.16666667  0.03333333       0.002
   0.36666667  0.16666667  0.03333333       0.002
   0.40000000  0.16666667  0.03333333       0.002
   0.43333333  0.16666667  0.03333333       0.002
   0.46666667  0.16666667  0.03333333       0.002
   0.50000000  0.16666667  0.03333333       0.002
  -0.46666667  0.16666667  0.03333333       0.002
  -0.43333333  0.16666667  0.03333333       0.002
  -0.40000000  0.16666667  0.03333333       0.002
  -0.36666667  0.16666667  0.03333333       0.002
  -0.33333333  0.16666667  0.03333333       0.002
  -0.30000000  0.16666667  0.03333333       0.002
  -0.26666667  0.16666667  0.03333333       0.002
  -0.23333333  0.16666667  0.03333333       0.002
  -0.20000000  0.16666667  0.03333333       0.002
  -0.16666667  0.16666667  0.03333333       0.002
  -0.13333333  0.16666667  0.03333333       0.001
   0.23333333  0.20000000  0.03333333       0.001
   0.26666667  0.20000000  0.03333333       0.002
   0.30000000  0.20000000  0.03333333       0.002
   0.33333333  0.20000000  0.03333333       0.002
   0.36666667  0.20000000  0.03333333       0.002
   0.40000000  0.20000000  0.03333333       0.002
   0.43333333  0.20000000  0.03333333       0.002
   0.46666667  0.20000000  0.03333333       0.002
   0.50000000  0.20000000  0.03333333       0.002
  -0.46666667  0.20000000  0.03333333       0.002
  -0.43333333  0.20000000  0.03333333       0.002
  -0.40000000  0.20000000  0.03333333       0.002
  -0.36666667  0.20000000  0.03333333       0.002
  -0.33333333  0.20000000  0.03333333       0.002
  -0.30000000  0.20000000  0.03333333       0.002
  -0.26666667  0.20000000  0.03333333       0.002
  -0.23333333  0.20000000  0.03333333       0.002
  -0.20000000  0.20000000  0.03333333       0.002
  -0.16666667  0.20000000  0.03333333       0.001
   0.26666667  0.23333333  0.03333333       0.001
   0.30000000  0.23333333  0.03333333       0.002
   0.33333333  0.23333333  0.03333333       0.002
   0.36666667  0.23333333  0.03333333       0.002
   0.40000000  0.23333333  0.03333333       0.002
   0.43333333  0.23333333  0.03333333       0.002
   0.46666667  0.23333333  0.03333333       0.002
   0.50000000  0.23333333  0.03333333       0.002
  -0.46666667  0.23333333  0.03333333       0.002
  -0.43333333  0.23333333  0.03333333       0.002
  -0.40000000  0.23333333  0.03333333       0.002
  -0.36666667  0.23333333  0.03333333       0.002
  -0.33333333  0.23333333  0.03333333       0.002
  -0.30000000  0.23333333  0.03333333       0.002
  -0.26666667  0.23333333  0.03333333       0.002
  -0.23333333  0.23333333  0.03333333       0.002
  -0.20000000  0.23333333  0.03333333       0.001
   0.30000000  0.26666667  0.03333333       0.001
   0.33333333  0.26666667  0.03333333       0.002
   0.36666667  0.26666667  0.03333333       0.002
   0.40000000  0.26666667  0.03333333       0.002
   0.43333333  0.26666667  0.03333333       0.002
   0.46666667  0.26666667  0.03333333       0.002
   0.50000000  0.26666667  0.03333333       0.002
  -0.46666667  0.26666667  0.03333333       0.002
  -0.43333333  0.26666667  0.03333333       0.002
  -0.40000000  0.26666667  0.03333333       0.002
  -0.36666667  0.26666667  0.03333333       0.002
  -0.33333333  0.26666667  0.03333333       0.002
  -0.30000000  0.26666667  0.03333333       0.002
  -0.26666667  0.26666667  0.03333333       0.002
  -0.23333333  0.26666667  0.03333333       0.001
   0.33333333  0.30000000  0.03333333       0.001
   0.36666667  0.30000000  0.03333333       0.002
   0.40000000  0.30000000  0.03333333       0.002
   0.43333333  0.30000000  0.03333333       0.002
   0.46666667  0.30000000  0.03333333       0.002
   0.50000000  0.30000000  0.03333333       0.002
  -0.46666667  0.30000000  0.03333333       0.002
  -0.43333333  0.30000000  0.03333333       0.002
  -0.40000000  0.30000000  0.03333333       0.002
  -0.36666667  0.30000000  0.03333333       0.002
  -0.33333333  0.30000000  0.03333333       0.002
  -0.30000000  0.30000000  0.03333333       0.002
  -0.26666667  0.30000000  0.03333333       0.001
   0.36666667  0.33333333  0.03333333       0.001
   0.40000000  0.33333333  0.03333333       0.002
   0.43333333  0.33333333  0.03333333       0.002
   0.46666667  0.33333333  0.03333333       0.002
   0.50000000  0.33333333  0.03333333       0.002
  -0.46666667  0.33333333  0.03333333       0.002
  -0.43333333  0.33333333  0.03333333       0.002
  -0.40000000  0.33333333  0.03333333       0.002
  -0.36666667  0.33333333  0.03333333       0.002
  -0.33333333  0.33333333  0.03333333       0.002
  -0.30000000  0.33333333  0.03333333       0.001
   0.40000000  0.36666667  0.03333333       0.001
   0.43333333  0.36666667  0.03333333       0.002
   0.46666667  0.36666667  0.03333333       0.002
   0.50000000  0.36666667  0.03333333       0.002
  -0.46666667  0.36666667  0.03333333       0.002
  -0.43333333  0.36666667  0.03333333       0.002
  -0.40000000  0.36666667  0.03333333       0.002
  -0.36666667  0.36666667  0.03333333       0.002
  -0.33333333  0.36666667  0.03333333       0.001
   0.43333333  0.40000000  0.03333333       0.001
   0.46666667  0.40000000  0.03333333       0.002
   0.50000000  0.40000000  0.03333333       0.002
  -0.46666667  0.40000000  0.03333333       0.002
  -0.43333333  0.40000000  0.03333333       0.002
  -0.40000000  0.40000000  0.03333333       0.002
  -0.36666667  0.40000000  0.03333333       0.001
   0.46666667  0.43333333  0.03333333       0.001
   0.50000000  0.43333333  0.03333333       0.002
  -0.46666667  0.43333333  0.03333333       0.002
  -0.43333333  0.43333333  0.03333333       0.002
  -0.40000000  0.43333333  0.03333333       0.001
   0.50000000  0.46666667  0.03333333       0.001
  -0.46666667  0.46666667  0.03333333       0.002
  -0.43333333  0.46666667  0.03333333       0.001
  -0.46666667  0.50000000  0.03333333       0.000
   0.20000000  0.13333333  0.06666667       0.001
   0.23333333  0.13333333  0.06666667       0.002
   0.26666667  0.13333333  0.06666667       0.002
   0.30000000  0.13333333  0.06666667       0.002
   0.33333333  0.13333333  0.06666667       0.002
   0.36666667  0.13333333  0.06666667       0.002
   0.40000000  0.13333333  0.06666667       0.002
   0.43333333  0.13333333  0.06666667       0.002
   0.46666667  0.13333333  0.06666667       0.002
   0.50000000  0.13333333  0.06666667       0.002
  -0.46666667  0.13333333  0.06666667       0.002
  -0.43333333  0.13333333  0.06666667       0.001
   0.23333333  0.16666667  0.06666667       0.001
   0.26666667  0.16666667  0.06666667       0.002
   0.30000000  0.16666667  0.06666667       0.002
   0.33333333  0.16666667  0.06666667       0.002
   0.36666667  0.16666667  0.06666667       0.002
   0.40000000  0.16666667  0.06666667       0.002
   0.43333333  0.16666667  0.06666667       0.002
   0.46666667  0.16666667  0.06666667       0.002
   0.50000000  0.16666667  0.06666667       0.002
  -0.46666667  0.16666667  0.06666667       0.002
  -0.43333333  0.16666667  0.06666667       0.002
  -0.40000000  0.16666667  0.06666667       0.002
  -0.36666667  0.16666667  0.06666667       0.002
  -0.33333333  0.16666667  0.06666667       0.002
  -0.30000000  0.16666667  0.06666667       0.002
  -0.26666667  0.16666667  0.06666667       0.002
  -0.23333333  0.16666667  0.06666667       0.002
  -0.20000000  0.16666667  0.06666667       0.002
  -0.16666667  0.16666667  0.06666667       0.002
  -0.13333333  0.16666667  0.06666667       0.002
  -0.10000000  0.16666667  0.06666667       0.001
   0.26666667  0.20000000  0.06666667       0.001
   0.30000000  0.20000000  0.06666667       0.002
   0.33333333  0.20000000  0.06666667       0.002
   0.36666667  0.20000000  0.06666667       0.002
   0.40000000  0.20000000  0.06666667       0.002
   0.43333333  0.20000000  0.06666667       0.002
   0.46666667  0.20000000  0.06666667       0.002
   0.50000000  0.20000000  0.06666667       0.002
  -0.46666667  0.20000000  0.06666667       0.002
  -0.43333333  0.20000000  0.06666667       0.002
  -0.40000000  0.20000000  0.06666667       0.002
  -0.36666667  0.20000000  0.06666667       0.002
  -0.33333333  0.20000000  0.06666667       0.002
  -0.30000000  0.20000000  0.06666667       0.002
  -0.26666667  0.20000000  0.06666667       0.002
  -0.23333333  0.20000000  0.06666667       0.002
  -0.20000000  0.20000000  0.06666667       0.002
  -0.16666667  0.20000000  0.06666667       0.002
  -0.13333333  0.20000000  0.06666667       0.001
   0.30000000  0.23333333  0.06666667       0.001
   0.33333333  0.23333333  0.06666667       0.002
   0.36666667  0.23333333  0.06666667       0.002
   0.40000000  0.23333333  0.06666667       0.002
   0.43333333  0.23333333  0.06666667       0.002
   0.46666667  0.23333333  0.06666667       0.002
   0.50000000  0.23333333  0.06666667       0.002
  -0.46666667  0.23333333  0.06666667       0.002
  -0.43333333  0.23333333  0.06666667       0.002
  -0.40000000  0.23333333  0.06666667       0.002
  -0.36666667  0.23333333  0.06666667       0.002
  -0.33333333  0.23333333  0.06666667       0.002
  -0.30000000  0.23333333  0.06666667       0.002
  -0.26666667  0.23333333  0.06666667       0.002
  -0.23333333  0.23333333  0.06666667       0.002
  -0.20000000  0.23333333  0.06666667       0.002
  -0.16666667  0.23333333  0.06666667       0.001
   0.33333333  0.26666667  0.06666667       0.001
   0.36666667  0.26666667  0.06666667       0.002
   0.40000000  0.26666667  0.06666667       0.002
   0.43333333  0.26666667  0.06666667       0.002
   0.46666667  0.26666667  0.06666667       0.002
   0.50000000  0.26666667  0.06666667       0.002
  -0.46666667  0.26666667  0.06666667       0.002
  -0.43333333  0.26666667  0.06666667       0.002
  -0.40000000  0.26666667  0.06666667       0.002
  -0.36666667  0.26666667  0.06666667       0.002
  -0.33333333  0.26666667  0.06666667       0.002
  -0.30000000  0.26666667  0.06666667       0.002
  -0.26666667  0.26666667  0.06666667       0.002
  -0.23333333  0.26666667  0.06666667       0.002
  -0.20000000  0.26666667  0.06666667       0.001
   0.36666667  0.30000000  0.06666667       0.001
   0.40000000  0.30000000  0.06666667       0.002
   0.43333333  0.30000000  0.06666667       0.002
   0.46666667  0.30000000  0.06666667       0.002
   0.50000000  0.30000000  0.06666667       0.002
  -0.46666667  0.30000000  0.06666667       0.002
  -0.43333333  0.30000000  0.06666667       0.002
  -0.40000000  0.30000000  0.06666667       0.002
  -0.36666667  0.30000000  0.06666667       0.002
  -0.33333333  0.30000000  0.06666667       0.002
  -0.30000000  0.30000000  0.06666667       0.002
  -0.26666667  0.30000000  0.06666667       0.002
  -0.23333333  0.30000000  0.06666667       0.001
   0.40000000  0.33333333  0.06666667       0.001
   0.43333333  0.33333333  0.06666667       0.002
   0.46666667  0.33333333  0.06666667       0.002
   0.50000000  0.33333333  0.06666667       0.002
  -0.46666667  0.33333333  0.06666667       0.002
  -0.43333333  0.33333333  0.06666667       0.002
  -0.40000000  0.33333333  0.06666667       0.002
  -0.36666667  0.33333333  0.06666667       0.002
  -0.33333333  0.33333333  0.06666667       0.002
  -0.30000000  0.33333333  0.06666667       0.002
  -0.26666667  0.33333333  0.06666667       0.001
   0.43333333  0.36666667  0.06666667       0.001
   0.46666667  0.36666667  0.06666667       0.002
   0.50000000  0.36666667  0.06666667       0.002
  -0.46666667  0.36666667  0.06666667       0.002
  -0.43333333  0.36666667  0.06666667       0.002
  -0.40000000  0.36666667  0.06666667       0.002
  -0.36666667  0.36666667  0.06666667       0.002
  -0.33333333  0.36666667  0.06666667       0.002
  -0.30000000  0.36666667  0.06666667       0.001
   0.46666667  0.40000000  0.06666667       0.001
   0.50000000  0.40000000  0.06666667       0.002
  -0.46666667  0.40000000  0.06666667       0.002
  -0.43333333  0.40000000  0.06666667       0.002
  -0.40000000  0.40000000  0.06666667       0.002
  -0.36666667  0.40000000  0.06666667       0.002
  -0.33333333  0.40000000  0.06666667       0.001
   0.50000000  0.43333333  0.06666667       0.001
  -0.46666667  0.43333333  0.06666667       0.002
  -0.43333333  0.43333333  0.06666667       0.002
  -0.40000000  0.43333333  0.06666667       0.002
  -0.36666667  0.43333333  0.06666667       0.001
  -0.46666667  0.46666667  0.06666667       0.001
  -0.43333333  0.46666667  0.06666667       0.002
  -0.40000000  0.46666667  0.06666667       0.001
  -0.43333333  0.50000000  0.06666667       0.000
   0.30000000  0.20000000  0.10000000       0.001
   0.33333333  0.20000000  0.10000000       0.002
   0.36666667  0.20000000  0.10000000       0.002
   0.40000000  0.20000000  0.10000000       0.002
   0.43333333  0.20000000  0.10000000       0.002
   0.46666667  0.20000000  0.10000000       0.002
   0.50000000  0.20000000  0.10000000       0.002
  -0.46666667  0.20000000  0.10000000       0.002
  -0.43333333  0.20000000  0.10000000       0.002
  -0.40000000  0.20000000  0.10000000       0.001
   0.33333333  0.23333333  0.10000000       0.001
   0.36666667  0.23333333  0.10000000       0.002
   0.40000000  0.23333333  0.10000000       0.002
   0.43333333  0.23333333  0.10000000       0.002
   0.46666667  0.23333333  0.10000000       0.002
   0.50000000  0.23333333  0.10000000       0.002
  -0.46666667  0.23333333  0.10000000       0.002
  -0.43333333  0.23333333  0.10000000       0.002
  -0.40000000  0.23333333  0.10000000       0.002
  -0.36666667  0.23333333  0.10000000       0.002
  -0.33333333  0.23333333  0.10000000       0.002
  -0.30000000  0.23333333  0.10000000       0.002
  -0.26666667  0.23333333  0.10000000       0.002
  -0.23333333  0.23333333  0.10000000       0.002
  -0.20000000  0.23333333  0.10000000       0.002
  -0.16666667  0.23333333  0.10000000       0.002
  -0.13333333  0.23333333  0.10000000       0.001
   0.36666667  0.26666667  0.10000000       0.001
   0.40000000  0.26666667  0.10000000       0.002
   0.43333333  0.26666667  0.10000000       0.002
   0.46666667  0.26666667  0.10000000       0.002
   0.50000000  0.26666667  0.10000000       0.002
  -0.46666667  0.26666667  0.10000000       0.002
  -0.43333333  0.26666667  0.10000000       0.002
  -0.40000000  0.26666667  0.10000000       0.002
  -0.36666667  0.26666667  0.10000000       0.002
  -0.33333333  0.26666667  0.10000000       0.002
  -0.30000000  0.26666667  0.10000000       0.002
  -0.26666667  0.26666667  0.10000000       0.002
  -0.23333333  0.26666667  0.10000000       0.002
  -0.20000000  0.26666667  0.10000000       0.002
  -0.16666667  0.26666667  0.10000000       0.001
   0.40000000  0.30000000  0.10000000       0.001
   0.43333333  0.30000000  0.10000000       0.002
   0.46666667  0.30000000  0.10000000       0.002
   0.50000000  0.30000000  0.10000000       0.002
  -0.46666667  0.30000000  0.10000000       0.002
  -0.43333333  0.30000000  0.10000000       0.002
  -0.40000000  0.30000000  0.10000000       0.002
  -0.36666667  0.30000000  0.10000000       0.002
  -0.33333333  0.30000000  0.10000000       0.002
  -0.30000000  0.30000000  0.10000000       0.002
  -0.26666667  0.30000000  0.10000000       0.002
  -0.23333333  0.30000000  0.10000000       0.002
  -0.20000000  0.30000000  0.10000000       0.001
   0.43333333  0.33333333  0.10000000       0.001
   0.46666667  0.33333333  0.10000000       0.002
   0.50000000  0.33333333  0.10000000       0.002
  -0.46666667  0.33333333  0.10000000       0.002
  -0.43333333  0.33333333  0.10000000       0.002
  -0.40000000  0.33333333  0.10000000       0.002
  -0.36666667  0.33333333  0.10000000       0.002
  -0.33333333  0.33333333  0.10000000       0.002
  -0.30000000  0.33333333  0.10000000       0.002
  -0.26666667  0.33333333  0.10000000       0.002
  -0.23333333  0.33333333  0.10000000       0.001
   0.46666667  0.36666667  0.10000000       0.001
   0.50000000  0.36666667  0.10000000       0.002
  -0.46666667  0.36666667  0.10000000       0.002
  -0.43333333  0.36666667  0.10000000       0.002
  -0.40000000  0.36666667  0.10000000       0.002
  -0.36666667  0.36666667  0.10000000       0.002
  -0.33333333  0.36666667  0.10000000       0.002
  -0.30000000  0.36666667  0.10000000       0.002
  -0.26666667  0.36666667  0.10000000       0.001
   0.50000000  0.40000000  0.10000000       0.001
  -0.46666667  0.40000000  0.10000000       0.002
  -0.43333333  0.40000000  0.10000000       0.002
  -0.40000000  0.40000000  0.10000000       0.002
  -0.36666667  0.40000000  0.10000000       0.002
  -0.33333333  0.40000000  0.10000000       0.002
  -0.30000000  0.40000000  0.10000000       0.001
  -0.46666667  0.43333333  0.10000000       0.001
  -0.43333333  0.43333333  0.10000000       0.002
  -0.40000000  0.43333333  0.10000000       0.002
  -0.36666667  0.43333333  0.10000000       0.002
  -0.33333333  0.43333333  0.10000000       0.001
  -0.43333333  0.46666667  0.10000000       0.001
  -0.40000000  0.46666667  0.10000000       0.002
  -0.36666667  0.46666667  0.10000000       0.001
  -0.40000000  0.50000000  0.10000000       0.000
   0.40000000  0.26666667  0.13333333       0.001
   0.43333333  0.26666667  0.13333333       0.002
   0.46666667  0.26666667  0.13333333       0.002
   0.50000000  0.26666667  0.13333333       0.002
  -0.46666667  0.26666667  0.13333333       0.002
  -0.43333333  0.26666667  0.13333333       0.002
  -0.40000000  0.26666667  0.13333333       0.002
  -0.36666667  0.26666667  0.13333333       0.001
   0.43333333  0.30000000  0.13333333       0.001
   0.46666667  0.30000000  0.13333333       0.002
   0.50000000  0.30000000  0.13333333       0.002
  -0.46666667  0.30000000  0.13333333       0.002
  -0.43333333  0.30000000  0.13333333       0.002
  -0.40000000  0.30000000  0.13333333       0.002
  -0.36666667  0.30000000  0.13333333       0.002
  -0.33333333  0.30000000  0.13333333       0.002
  -0.30000000  0.30000000  0.13333333       0.002
  -0.26666667  0.30000000  0.13333333       0.002
  -0.23333333  0.30000000  0.13333333       0.002
  -0.20000000  0.30000000  0.13333333       0.002
  -0.16666667  0.30000000  0.13333333       0.001
   0.46666667  0.33333333  0.13333333       0.001
   0.50000000  0.33333333  0.13333333       0.002
  -0.46666667  0.33333333  0.13333333       0.002
  -0.43333333  0.33333333  0.13333333       0.002
  -0.40000000  0.33333333  0.13333333       0.002
  -0.36666667  0.33333333  0.13333333       0.002
  -0.33333333  0.33333333  0.13333333       0.002
  -0.30000000  0.33333333  0.13333333       0.002
  -0.26666667  0.33333333  0.13333333       0.002
  -0.23333333  0.33333333  0.13333333       0.002
  -0.20000000  0.33333333  0.13333333       0.001
   0.50000000  0.36666667  0.13333333       0.001
  -0.46666667  0.36666667  0.13333333       0.002
  -0.43333333  0.36666667  0.13333333       0.002
  -0.40000000  0.36666667  0.13333333       0.002
  -0.36666667  0.36666667  0.13333333       0.002
  -0.33333333  0.36666667  0.13333333       0.002
  -0.30000000  0.36666667  0.13333333       0.002
  -0.26666667  0.36666667  0.13333333       0.002
  -0.23333333  0.36666667  0.13333333       0.001
  -0.46666667  0.40000000  0.13333333       0.001
  -0.43333333  0.40000000  0.13333333       0.002
  -0.40000000  0.40000000  0.13333333       0.002
  -0.36666667  0.40000000  0.13333333       0.002
  -0.33333333  0.40000000  0.13333333       0.002
  -0.30000000  0.40000000  0.13333333       0.002
  -0.26666667  0.40000000  0.13333333       0.001
  -0.43333333  0.43333333  0.13333333       0.001
  -0.40000000  0.43333333  0.13333333       0.002
  -0.36666667  0.43333333  0.13333333       0.002
  -0.33333333  0.43333333  0.13333333       0.002
  -0.30000000  0.43333333  0.13333333       0.001
  -0.40000000  0.46666667  0.13333333       0.001
  -0.36666667  0.46666667  0.13333333       0.002
  -0.33333333  0.46666667  0.13333333       0.001
  -0.36666667  0.50000000  0.13333333       0.000
   0.50000000  0.33333333  0.16666667       0.001
  -0.46666667  0.33333333  0.16666667       0.002
  -0.43333333  0.33333333  0.16666667       0.002
  -0.40000000  0.33333333  0.16666667       0.002
  -0.36666667  0.33333333  0.16666667       0.002
  -0.33333333  0.33333333  0.16666667       0.001
  -0.46666667  0.36666667  0.16666667       0.001
  -0.43333333  0.36666667  0.16666667       0.002
  -0.40000000  0.36666667  0.16666667       0.002
  -0.36666667  0.36666667  0.16666667       0.002
  -0.33333333  0.36666667  0.16666667       0.002
  -0.30000000  0.36666667  0.16666667       0.002
  -0.26666667  0.36666667  0.16666667       0.002
  -0.23333333  0.36666667  0.16666667       0.002
  -0.20000000  0.36666667  0.16666667       0.001
  -0.43333333  0.40000000  0.16666667       0.001
  -0.40000000  0.40000000  0.16666667       0.002
  -0.36666667  0.40000000  0.16666667       0.002
  -0.33333333  0.40000000  0.16666667       0.002
  -0.30000000  0.40000000  0.16666667       0.002
  -0.26666667  0.40000000  0.16666667       0.002
  -0.23333333  0.40000000  0.16666667       0.001
  -0.40000000  0.43333333  0.16666667       0.001
  -0.36666667  0.43333333  0.16666667       0.002
  -0.33333333  0.43333333  0.16666667       0.002
  -0.30000000  0.43333333  0.16666667       0.002
  -0.26666667  0.43333333  0.16666667       0.001
  -0.36666667  0.46666667  0.16666667       0.001
  -0.33333333  0.46666667  0.16666667       0.002
  -0.30000000  0.46666667  0.16666667       0.001
  -0.33333333  0.50000000  0.16666667       0.000
  -0.40000000  0.40000000  0.20000000       0.001
  -0.36666667  0.40000000  0.20000000       0.002
  -0.33333333  0.40000000  0.20000000       0.002
  -0.30000000  0.40000000  0.20000000       0.001
  -0.36666667  0.43333333  0.20000000       0.001
  -0.33333333  0.43333333  0.20000000       0.002
  -0.30000000  0.43333333  0.20000000       0.002
  -0.26666667  0.43333333  0.20000000       0.002
  -0.23333333  0.43333333  0.20000000       0.001
  -0.33333333  0.46666667  0.20000000       0.001
  -0.30000000  0.46666667  0.20000000       0.002
  -0.26666667  0.46666667  0.20000000       0.001
  -0.30000000  0.50000000  0.20000000       0.000
  -0.30000000  0.46666667  0.23333333       0.001
  -0.26666667  0.46666667  0.23333333       0.001
  -0.26666667  0.50000000  0.23333333       0.000
 
 position of ions in fractional coordinates (direct lattice) 
   0.25000000  0.25000000  0.25000000
   0.00000000  0.00000000  0.00000000
 
 position of ions in cartesian coordinates  (Angst):
   1.26349791  0.72948086  0.51582086
   0.00000000  0.00000000  0.00000000
 


--------------------------------------------------------------------------------------------------------


 k-point     1 :   0.0000 0.0000 0.0000  plane waves:     283
 k-point     2 :   0.0333 0.0000 0.0000  plane waves:     286
 k-point     3 :   0.0667 0.0000 0.0000  plane waves:     292
 k-point     4 :   0.1000 0.0000 0.0000  plane waves:     295
 k-point     5 :   0.1333-0.0000 0.0000  plane waves:     301
 k-point     6 :   0.1667 0.0000 0.0000  plane waves:     295
 k-point     7 :   0.2000 0.0000 0.0000  plane waves:     295
 k-point     8 :   0.2333 0.0000 0.0000  plane waves:     295
 k-point     9 :   0.2667 0.0000 0.0000  plane waves:     296
 k-point    10 :   0.3000 0.0000 0.0000  plane waves:     290
 k-point    11 :   0.3333 0.0000 0.0000  plane waves:     287
 k-point    12 :   0.3667-0.0000 0.0000  plane waves:     287
 k-point    13 :   0.4000 0.0000 0.0000  plane waves:     281
 k-point    14 :   0.4333 0.0000 0.0000  plane waves:     284
 k-point    15 :   0.4667 0.0000 0.0000  plane waves:     284
 k-point    16 :   0.5000 0.0000 0.0000  plane waves:     272
 k-point    17 :   0.0333 0.0333 0.0000  plane waves:     287
 k-point    18 :   0.0667 0.0333 0.0000  plane waves:     291
 k-point    19 :   0.1000 0.0333 0.0000  plane waves:     295
 k-point    20 :   0.1333 0.0333 0.0000  plane waves:     299
 k-point    21 :   0.1667 0.0333 0.0000  plane waves:     297
 k-point    22 :   0.2000 0.0333 0.0000  plane waves:     297
 k-point    23 :   0.2333 0.0333 0.0000  plane waves:     295
 k-point    24 :   0.2667 0.0333 0.0000  plane waves:     296
 k-point    25 :   0.3000 0.0333 0.0000  plane waves:     297
 k-point    26 :   0.3333 0.0333 0.0000  plane waves:     292
 k-point    27 :   0.3667 0.0333 0.0000  plane waves:     290
 k-point    28 :   0.4000 0.0333 0.0000  plane waves:     286
 k-point    29 :   0.4333 0.0333 0.0000  plane waves:     286
 k-point    30 :   0.4667 0.0333 0.0000  plane waves:     286
 k-point    31 :   0.5000 0.0333 0.0000  plane waves:     281
 k-point    32 :  -0.4667 0.0333 0.0000  plane waves:     282
 k-point    33 :  -0.4333 0.0333 0.0000  plane waves:     284
 k-point    34 :  -0.4000 0.0333 0.0000  plane waves:     283
 k-point    35 :  -0.3667 0.0333 0.0000  plane waves:     286
 k-point    36 :  -0.3333 0.0333 0.0000  plane waves:     288
 k-point    37 :  -0.3000 0.0333 0.0000  plane waves:     292
 k-point    38 :  -0.2667 0.0333 0.0000  plane waves:     293
 k-point    39 :  -0.2333 0.0333 0.0000  plane waves:     295
 k-point    40 :  -0.2000 0.0333 0.0000  plane waves:     296
 k-point    41 :  -0.1667 0.0333 0.0000  plane waves:     294
 k-point    42 :  -0.1333 0.0333 0.0000  plane waves:     296
 k-point    43 :  -0.1000 0.0333 0.0000  plane waves:     298
 k-point    44 :  -0.0667 0.0333 0.0000  plane waves:     293
 k-point    45 :  -0.0333 0.0333 0.0000  plane waves:     289
 k-point    46 :   0.0667 0.0667 0.0000  plane waves:     299
 k-point    47 :   0.1000 0.0667 0.0000  plane waves:     297
 k-point    48 :   0.1333 0.0667 0.0000  plane waves:     297
 k-point    49 :   0.1667 0.0667 0.0000  plane waves:     297
 k-point    50 :   0.2000 0.0667 0.0000  plane waves:     295
 k-point    51 :   0.2333 0.0667 0.0000  plane waves:     295
 k-point    52 :   0.2667 0.0667 0.0000  plane waves:     298
 k-point    53 :   0.3000 0.0667 0.0000  plane waves:     298
 k-point    54 :   0.3333 0.0667 0.0000  plane waves:     295
 k-point    55 :   0.3667 0.0667 0.0000  plane waves:     292
 k-point    56 :   0.4000 0.0667 0.0000  plane waves:     288
 k-point    57 :   0.4333 0.0667 0.0000  plane waves:     287
 k-point    58 :   0.4667 0.0667 0.0000  plane waves:     281
 k-point    59 :   0.5000 0.0667 0.0000  plane waves:     283
 k-point    60 :  -0.4667 0.0667 0.0000  plane waves:     287
 k-point    61 :  -0.4333 0.0667 0.0000  plane waves:     283
 k-point    62 :  -0.4000 0.0667 0.0000  plane waves:     284
 k-point    63 :  -0.3667 0.0667 0.0000  plane waves:     289
 k-point    64 :  -0.3333 0.0667 0.0000  plane waves:     292
 k-point    65 :  -0.3000 0.0667 0.0000  plane waves:     292
 k-point    66 :  -0.2667 0.0667 0.0000  plane waves:     295
 k-point    67 :  -0.2333 0.0667 0.0000  plane waves:     293
 k-point    68 :  -0.2000 0.0667 0.0000  plane waves:     292
 k-point    69 :  -0.1667 0.0667 0.0000  plane waves:     294
 k-point    70 :  -0.1333 0.0667 0.0000  plane waves:     296
 k-point    71 :  -0.1000 0.0667 0.0000  plane waves:     294
 k-point    72 :  -0.0667 0.0667 0.0000  plane waves:     293
 k-point    73 :   0.1000 0.1000 0.0000  plane waves:     299
 k-point    74 :   0.1333 0.1000 0.0000  plane waves:     295
 k-point    75 :   0.1667 0.1000 0.0000  plane waves:     295
 k-point    76 :   0.2000 0.1000 0.0000  plane waves:     295
 k-point    77 :   0.2333 0.1000 0.0000  plane waves:     295
 k-point    78 :   0.2667 0.1000 0.0000  plane waves:     293
 k-point    79 :   0.3000 0.1000 0.0000  plane waves:     296
 k-point    80 :   0.3333 0.1000 0.0000  plane waves:     296
 k-point    81 :   0.3667 0.1000 0.0000  plane waves:     293
 k-point    82 :   0.4000 0.1000 0.0000  plane waves:     291
 k-point    83 :   0.4333 0.1000 0.0000  plane waves:     290
 k-point    84 :   0.4667 0.1000 0.0000  plane waves:     283
 k-point    85 :   0.5000 0.1000 0.0000  plane waves:     282
 k-point    86 :  -0.4667 0.1000 0.0000  plane waves:     285
 k-point    87 :  -0.4333 0.1000 0.0000  plane waves:     285
 k-point    88 :  -0.4000 0.1000 0.0000  plane waves:     283
 k-point    89 :  -0.3667 0.1000 0.0000  plane waves:     288
 k-point    90 :  -0.3333 0.1000 0.0000  plane waves:     291
 k-point    91 :  -0.3000 0.1000 0.0000  plane waves:     292
 k-point    92 :  -0.2667 0.1000 0.0000  plane waves:     294
 k-point    93 :  -0.2333 0.1000 0.0000  plane waves:     293
 k-point    94 :  -0.2000 0.1000 0.0000  plane waves:     292
 k-point    95 :  -0.1667 0.1000 0.0000  plane waves:     294
 k-point    96 :  -0.1333 0.1000 0.0000  plane waves:     296
 k-point    97 :  -0.1000 0.1000 0.0000  plane waves:     291
 k-point    98 :   0.1333 0.1333 0.0000  plane waves:     295
 k-point    99 :   0.1667 0.1333 0.0000  plane waves:     297
 k-point   100 :   0.2000 0.1333 0.0000  plane waves:     299
 k-point   101 :   0.2333 0.1333 0.0000  plane waves:     295
 k-point   102 :   0.2667 0.1333 0.0000  plane waves:     295
 k-point   103 :   0.3000 0.1333 0.0000  plane waves:     294
 k-point   104 :   0.3333 0.1333 0.0000  plane waves:     294
 k-point   105 :   0.3667 0.1333 0.0000  plane waves:     292
 k-point   106 :   0.4000 0.1333 0.0000  plane waves:     290
 k-point   107 :   0.4333 0.1333 0.0000  plane waves:     291
 k-point   108 :   0.4667 0.1333 0.0000  plane waves:     287
 k-point   109 :   0.5000 0.1333 0.0000  plane waves:     287
 k-point   110 :  -0.4667 0.1333 0.0000  plane waves:     288
 k-point   111 :  -0.4333 0.1333 0.0000  plane waves:     290
 k-point   112 :  -0.4000 0.1333 0.0000  plane waves:     286
 k-point   113 :  -0.3667 0.1333 0.0000  plane waves:     286
 k-point   114 :  -0.3333 0.1333 0.0000  plane waves:     288
 k-point   115 :  -0.3000 0.1333 0.0000  plane waves:     290
 k-point   116 :  -0.2667 0.1333 0.0000  plane waves:     292
 k-point   117 :  -0.2333 0.1333 0.0000  plane waves:     294
 k-point   118 :  -0.2000 0.1333 0.0000  plane waves:     296
 k-point   119 :  -0.1667 0.1333 0.0000  plane waves:     295
 k-point   120 :  -0.1333 0.1333 0.0000  plane waves:     297
 k-point   121 :   0.1667 0.1667 0.0000  plane waves:     295
 k-point   122 :   0.2000 0.1667 0.0000  plane waves:     299
 k-point   123 :   0.2333 0.1667 0.0000  plane waves:     297
 k-point   124 :   0.2667 0.1667 0.0000  plane waves:     297
 k-point   125 :   0.3000 0.1667 0.0000  plane waves:     296
 k-point   126 :   0.3333 0.1667 0.0000  plane waves:     294
 k-point   127 :   0.3667 0.1667 0.0000  plane waves:     291
 k-point   128 :   0.4000 0.1667 0.0000  plane waves:     289
 k-point   129 :   0.4333 0.1667 0.0000  plane waves:     287
 k-point   130 :   0.4667 0.1667 0.0000  plane waves:     285
 k-point   131 :   0.5000 0.1667 0.0000  plane waves:     293
 k-point   132 :  -0.4667 0.1667 0.0000  plane waves:     289
 k-point   133 :  -0.4333 0.1667 0.0000  plane waves:     290
 k-point   134 :  -0.4000 0.1667 0.0000  plane waves:     288
 k-point   135 :  -0.3667 0.1667 0.0000  plane waves:     288
 k-point   136 :  -0.3333 0.1667 0.0000  plane waves:     284
 k-point   137 :  -0.3000 0.1667 0.0000  plane waves:     291
 k-point   138 :  -0.2667 0.1667 0.0000  plane waves:     293
 k-point   139 :  -0.2333 0.1667 0.0000  plane waves:     292
 k-point   140 :  -0.2000 0.1667 0.0000  plane waves:     296
 k-point   141 :  -0.1667 0.1667 0.0000  plane waves:     295
 k-point   142 :   0.2000 0.2000 0.0000  plane waves:     295
 k-point   143 :   0.2333 0.2000 0.0000  plane waves:     299
 k-point   144 :   0.2667 0.2000 0.0000  plane waves:     297
 k-point   145 :   0.3000 0.2000 0.0000  plane waves:     297
 k-point   146 :   0.3333 0.2000 0.0000  plane waves:     297
 k-point   147 :   0.3667 0.2000 0.0000  plane waves:     291
 k-point   148 :   0.4000 0.2000 0.0000  plane waves:     290
 k-point   149 :   0.4333 0.2000 0.0000  plane waves:     287
 k-point   150 :   0.4667 0.2000 0.0000  plane waves:     287
 k-point   151 :   0.5000 0.2000 0.0000  plane waves:     289
 k-point   152 :  -0.4667 0.2000 0.0000  plane waves:     287
 k-point   153 :  -0.4333 0.2000 0.0000  plane waves:     289
 k-point   154 :  -0.4000 0.2000 0.0000  plane waves:     289
 k-point   155 :  -0.3667 0.2000 0.0000  plane waves:     291
 k-point   156 :  -0.3333 0.2000 0.0000  plane waves:     289
 k-point   157 :  -0.3000 0.2000 0.0000  plane waves:     287
 k-point   158 :  -0.2667 0.2000 0.0000  plane waves:     289
 k-point   159 :  -0.2333 0.2000 0.0000  plane waves:     293
 k-point   160 :  -0.2000 0.2000 0.0000  plane waves:     295
 k-point   161 :   0.2333 0.2333 0.0000  plane waves:     303
 k-point   162 :   0.2667 0.2333 0.0000  plane waves:     297
 k-point   163 :   0.3000 0.2333 0.0000  plane waves:     296
 k-point   164 :   0.3333 0.2333 0.0000  plane waves:     297
 k-point   165 :   0.3667 0.2333 0.0000  plane waves:     291
 k-point   166 :   0.4000 0.2333 0.0000  plane waves:     290
 k-point   167 :   0.4333 0.2333 0.0000  plane waves:     288
 k-point   168 :   0.4667 0.2333 0.0000  plane waves:     287
 k-point   169 :   0.5000 0.2333 0.0000  plane waves:     289
 k-point   170 :  -0.4667 0.2333 0.0000  plane waves:     288
 k-point   171 :  -0.4333 0.2333 0.0000  plane waves:     284
 k-point   172 :  -0.4000 0.2333 0.0000  plane waves:     288
 k-point   173 :  -0.3667 0.2333 0.0000  plane waves:     291
 k-point   174 :  -0.3333 0.2333 0.0000  plane waves:     287
 k-point   175 :  -0.3000 0.2333 0.0000  plane waves:     289
 k-point   176 :  -0.2667 0.2333 0.0000  plane waves:     287
 k-point   177 :  -0.2333 0.2333 0.0000  plane waves:     293
 k-point   178 :   0.2667 0.2667 0.0000  plane waves:     302
 k-point   179 :   0.3000 0.2667 0.0000  plane waves:     298
 k-point   180 :   0.3333 0.2667 0.0000  plane waves:     296
 k-point   181 :   0.3667 0.2667 0.0000  plane waves:     294
 k-point   182 :   0.4000 0.2667 0.0000  plane waves:     292
 k-point   183 :   0.4333 0.2667 0.0000  plane waves:     291
 k-point   184 :   0.4667 0.2667 0.0000  plane waves:     294
 k-point   185 :   0.5000 0.2667 0.0000  plane waves:     290
 k-point   186 :  -0.4667 0.2667 0.0000  plane waves:     288
 k-point   187 :  -0.4333 0.2667 0.0000  plane waves:     288
 k-point   188 :  -0.4000 0.2667 0.0000  plane waves:     284
 k-point   189 :  -0.3667 0.2667 0.0000  plane waves:     286
 k-point   190 :  -0.3333 0.2667 0.0000  plane waves:     287
 k-point   191 :  -0.3000 0.2667 0.0000  plane waves:     283
 k-point   192 :  -0.2667 0.2667 0.0000  plane waves:     285
 k-point   193 :   0.3000 0.3000 0.0000  plane waves:     298
 k-point   194 :   0.3333 0.3000 0.0000  plane waves:     299
 k-point   195 :   0.3667 0.3000 0.0000  plane waves:     299
 k-point   196 :   0.4000 0.3000 0.0000  plane waves:     293
 k-point   197 :   0.4333 0.3000 0.0000  plane waves:     291
 k-point   198 :   0.4667 0.3000 0.0000  plane waves:     293
 k-point   199 :   0.5000 0.3000 0.0000  plane waves:     294
 k-point   200 :  -0.4667 0.3000 0.0000  plane waves:     286
 k-point   201 :  -0.4333 0.3000 0.0000  plane waves:     286
 k-point   202 :  -0.4000 0.3000 0.0000  plane waves:     282
 k-point   203 :  -0.3667 0.3000 0.0000  plane waves:     284
 k-point   204 :  -0.3333 0.3000 0.0000  plane waves:     284
 k-point   205 :  -0.3000 0.3000 0.0000  plane waves:     285
 k-point   206 :   0.3333 0.3333 0.0000  plane waves:     302
 k-point   207 :   0.3667 0.3333 0.0000  plane waves:     297
 k-point   208 :   0.4000 0.3333 0.0000  plane waves:     291
 k-point   209 :   0.4333 0.3333 0.0000  plane waves:     289
 k-point   210 :   0.4667 0.3333 0.0000  plane waves:     291
 k-point   211 :   0.5000 0.3333 0.0000  plane waves:     290
 k-point   212 :  -0.4667 0.3333 0.0000  plane waves:     288
 k-point   213 :  -0.4333 0.3333 0.0000  plane waves:     286
 k-point   214 :  -0.4000 0.3333 0.0000  plane waves:     284
 k-point   215 :  -0.3667 0.3333 0.0000  plane waves:     284
 k-point   216 :  -0.3333 0.3333 0.0000  plane waves:     284
 k-point   217 :   0.3667 0.3667 0.0000  plane waves:     294
 k-point   218 :   0.4000 0.3667 0.0000  plane waves:     289
 k-point   219 :   0.4333 0.3667 0.0000  plane waves:     289
 k-point   220 :   0.4667 0.3667 0.0000  plane waves:     293
 k-point   221 :   0.5000 0.3667 0.0000  plane waves:     291
 k-point   222 :  -0.4667 0.3667 0.0000  plane waves:     286
 k-point   223 :  -0.4333 0.3667 0.0000  plane waves:     286
 k-point   224 :  -0.4000 0.3667 0.0000  plane waves:     284
 k-point   225 :  -0.3667 0.3667 0.0000  plane waves:     288
 k-point   226 :   0.4000 0.4000 0.0000  plane waves:     290
 k-point   227 :   0.4333 0.4000 0.0000  plane waves:     291
 k-point   228 :   0.4667 0.4000 0.0000  plane waves:     293
 k-point   229 :   0.5000 0.4000 0.0000  plane waves:     293
 k-point   230 :  -0.4667 0.4000 0.0000  plane waves:     286
 k-point   231 :  -0.4333 0.4000 0.0000  plane waves:     284
 k-point   232 :  -0.4000 0.4000 0.0000  plane waves:     280
 k-point   233 :   0.4333 0.4333 0.0000  plane waves:     294
 k-point   234 :   0.4667 0.4333 0.0000  plane waves:     296
 k-point   235 :   0.5000 0.4333 0.0000  plane waves:     297
 k-point   236 :  -0.4667 0.4333 0.0000  plane waves:     289
 k-point   237 :  -0.4333 0.4333 0.0000  plane waves:     288
 k-point   238 :   0.4667 0.4667 0.0000  plane waves:     294
 k-point   239 :   0.5000 0.4667 0.0000  plane waves:     298
 k-point   240 :  -0.4667 0.4667 0.0000  plane waves:     294
 k-point   241 :   0.5000 0.5000 0.0000  plane waves:     302
 k-point   242 :   0.1000 0.0667 0.0333  plane waves:     293
 k-point   243 :   0.1333 0.0667 0.0333  plane waves:     297
 k-point   244 :   0.1667 0.0667 0.0333  plane waves:     295
 k-point   245 :   0.2000 0.0667 0.0333  plane waves:     295
 k-point   246 :   0.2333 0.0667 0.0333  plane waves:     294
 k-point   247 :   0.2667 0.0667 0.0333  plane waves:     295
 k-point   248 :   0.3000 0.0667 0.0333  plane waves:     295
 k-point   249 :   0.3333 0.0667 0.0333  plane waves:     294
 k-point   250 :   0.3667 0.0667 0.0333  plane waves:     291
 k-point   251 :   0.4000 0.0667 0.0333  plane waves:     289
 k-point   252 :   0.4333 0.0667 0.0333  plane waves:     287
 k-point   253 :   0.4667 0.0667 0.0333  plane waves:     283
 k-point   254 :   0.5000 0.0667 0.0333  plane waves:     281
 k-point   255 :  -0.4667 0.0667 0.0333  plane waves:     282
 k-point   256 :   0.1333 0.1000 0.0333  plane waves:     298
 k-point   257 :   0.1667 0.1000 0.0333  plane waves:     295
 k-point   258 :   0.2000 0.1000 0.0333  plane waves:     295
 k-point   259 :   0.2333 0.1000 0.0333  plane waves:     294
 k-point   260 :   0.2667 0.1000 0.0333  plane waves:     294
 k-point   261 :   0.3000 0.1000 0.0333  plane waves:     297
 k-point   262 :   0.3333 0.1000 0.0333  plane waves:     297
 k-point   263 :   0.3667 0.1000 0.0333  plane waves:     295
 k-point   264 :   0.4000 0.1000 0.0333  plane waves:     292
 k-point   265 :   0.4333 0.1000 0.0333  plane waves:     288
 k-point   266 :   0.4667 0.1000 0.0333  plane waves:     285
 k-point   267 :   0.5000 0.1000 0.0333  plane waves:     284
 k-point   268 :  -0.4667 0.1000 0.0333  plane waves:     286
 k-point   269 :  -0.4333 0.1000 0.0333  plane waves:     285
 k-point   270 :  -0.4000 0.1000 0.0333  plane waves:     282
 k-point   271 :  -0.3667 0.1000 0.0333  plane waves:     285
 k-point   272 :  -0.3333 0.1000 0.0333  plane waves:     289
 k-point   273 :  -0.3000 0.1000 0.0333  plane waves:     291
 k-point   274 :  -0.2667 0.1000 0.0333  plane waves:     293
 k-point   275 :  -0.2333 0.1000 0.0333  plane waves:     295
 k-point   276 :  -0.2000 0.1000 0.0333  plane waves:     295
 k-point   277 :  -0.1667 0.1000 0.0333  plane waves:     293
 k-point   278 :  -0.1333 0.1000 0.0333  plane waves:     294
 k-point   279 :  -0.1000 0.1000 0.0333  plane waves:     295
 k-point   280 :  -0.0667 0.1000 0.0333  plane waves:     293
 k-point   281 :   0.1667 0.1333 0.0333  plane waves:     297
 k-point   282 :   0.2000 0.1333 0.0333  plane waves:     296
 k-point   283 :   0.2333 0.1333 0.0333  plane waves:     295
 k-point   284 :   0.2667 0.1333 0.0333  plane waves:     294
 k-point   285 :   0.3000 0.1333 0.0333  plane waves:     294
 k-point   286 :   0.3333 0.1333 0.0333  plane waves:     294
 k-point   287 :   0.3667 0.1333 0.0333  plane waves:     293
 k-point   288 :   0.4000 0.1333 0.0333  plane waves:     293
 k-point   289 :   0.4333 0.1333 0.0333  plane waves:     291
 k-point   290 :   0.4667 0.1333 0.0333  plane waves:     288
 k-point   291 :   0.5000 0.1333 0.0333  plane waves:     285
 k-point   292 :  -0.4667 0.1333 0.0333  plane waves:     285
 k-point   293 :  -0.4333 0.1333 0.0333  plane waves:     288
 k-point   294 :  -0.4000 0.1333 0.0333  plane waves:     287
 k-point   295 :  -0.3667 0.1333 0.0333  plane waves:     287
 k-point   296 :  -0.3333 0.1333 0.0333  plane waves:     287
 k-point   297 :  -0.3000 0.1333 0.0333  plane waves:     291
 k-point   298 :  -0.2667 0.1333 0.0333  plane waves:     293
 k-point   299 :  -0.2333 0.1333 0.0333  plane waves:     294
 k-point   300 :  -0.2000 0.1333 0.0333  plane waves:     293
 k-point   301 :  -0.1667 0.1333 0.0333  plane waves:     294
 k-point   302 :  -0.1333 0.1333 0.0333  plane waves:     295
 k-point   303 :  -0.1000 0.1333 0.0333  plane waves:     292
 k-point   304 :   0.2000 0.1667 0.0333  plane waves:     297
 k-point   305 :   0.2333 0.1667 0.0333  plane waves:     297
 k-point   306 :   0.2667 0.1667 0.0333  plane waves:     296
 k-point   307 :   0.3000 0.1667 0.0333  plane waves:     294
 k-point   308 :   0.3333 0.1667 0.0333  plane waves:     294
 k-point   309 :   0.3667 0.1667 0.0333  plane waves:     291
 k-point   310 :   0.4000 0.1667 0.0333  plane waves:     288
 k-point   311 :   0.4333 0.1667 0.0333  plane waves:     287
 k-point   312 :   0.4667 0.1667 0.0333  plane waves:     288
 k-point   313 :   0.5000 0.1667 0.0333  plane waves:     287
 k-point   314 :  -0.4667 0.1667 0.0333  plane waves:     287
 k-point   315 :  -0.4333 0.1667 0.0333  plane waves:     290
 k-point   316 :  -0.4000 0.1667 0.0333  plane waves:     288
 k-point   317 :  -0.3667 0.1667 0.0333  plane waves:     290
 k-point   318 :  -0.3333 0.1667 0.0333  plane waves:     289
 k-point   319 :  -0.3000 0.1667 0.0333  plane waves:     288
 k-point   320 :  -0.2667 0.1667 0.0333  plane waves:     287
 k-point   321 :  -0.2333 0.1667 0.0333  plane waves:     293
 k-point   322 :  -0.2000 0.1667 0.0333  plane waves:     295
 k-point   323 :  -0.1667 0.1667 0.0333  plane waves:     295
 k-point   324 :  -0.1333 0.1667 0.0333  plane waves:     294
 k-point   325 :   0.2333 0.2000 0.0333  plane waves:     298
 k-point   326 :   0.2667 0.2000 0.0333  plane waves:     297
 k-point   327 :   0.3000 0.2000 0.0333  plane waves:     297
 k-point   328 :   0.3333 0.2000 0.0333  plane waves:     296
 k-point   329 :   0.3667 0.2000 0.0333  plane waves:     291
 k-point   330 :   0.4000 0.2000 0.0333  plane waves:     288
 k-point   331 :   0.4333 0.2000 0.0333  plane waves:     287
 k-point   332 :   0.4667 0.2000 0.0333  plane waves:     286
 k-point   333 :   0.5000 0.2000 0.0333  plane waves:     288
 k-point   334 :  -0.4667 0.2000 0.0333  plane waves:     290
 k-point   335 :  -0.4333 0.2000 0.0333  plane waves:     289
 k-point   336 :  -0.4000 0.2000 0.0333  plane waves:     291
 k-point   337 :  -0.3667 0.2000 0.0333  plane waves:     289
 k-point   338 :  -0.3333 0.2000 0.0333  plane waves:     290
 k-point   339 :  -0.3000 0.2000 0.0333  plane waves:     288
 k-point   340 :  -0.2667 0.2000 0.0333  plane waves:     289
 k-point   341 :  -0.2333 0.2000 0.0333  plane waves:     292
 k-point   342 :  -0.2000 0.2000 0.0333  plane waves:     293
 k-point   343 :  -0.1667 0.2000 0.0333  plane waves:     297
 k-point   344 :   0.2667 0.2333 0.0333  plane waves:     298
 k-point   345 :   0.3000 0.2333 0.0333  plane waves:     298
 k-point   346 :   0.3333 0.2333 0.0333  plane waves:     298
 k-point   347 :   0.3667 0.2333 0.0333  plane waves:     295
 k-point   348 :   0.4000 0.2333 0.0333  plane waves:     291
 k-point   349 :   0.4333 0.2333 0.0333  plane waves:     287
 k-point   350 :   0.4667 0.2333 0.0333  plane waves:     289
 k-point   351 :   0.5000 0.2333 0.0333  plane waves:     289
 k-point   352 :  -0.4667 0.2333 0.0333  plane waves:     289
 k-point   353 :  -0.4333 0.2333 0.0333  plane waves:     289
 k-point   354 :  -0.4000 0.2333 0.0333  plane waves:     286
 k-point   355 :  -0.3667 0.2333 0.0333  plane waves:     288
 k-point   356 :  -0.3333 0.2333 0.0333  plane waves:     287
 k-point   357 :  -0.3000 0.2333 0.0333  plane waves:     289
 k-point   358 :  -0.2667 0.2333 0.0333  plane waves:     290
 k-point   359 :  -0.2333 0.2333 0.0333  plane waves:     291
 k-point   360 :  -0.2000 0.2333 0.0333  plane waves:     295
 k-point   361 :   0.3000 0.2667 0.0333  plane waves:     299
 k-point   362 :   0.3333 0.2667 0.0333  plane waves:     297
 k-point   363 :   0.3667 0.2667 0.0333  plane waves:     297
 k-point   364 :   0.4000 0.2667 0.0333  plane waves:     294
 k-point   365 :   0.4333 0.2667 0.0333  plane waves:     291
 k-point   366 :   0.4667 0.2667 0.0333  plane waves:     291
 k-point   367 :   0.5000 0.2667 0.0333  plane waves:     291
 k-point   368 :  -0.4667 0.2667 0.0333  plane waves:     290
 k-point   369 :  -0.4333 0.2667 0.0333  plane waves:     289
 k-point   370 :  -0.4000 0.2667 0.0333  plane waves:     284
 k-point   371 :  -0.3667 0.2667 0.0333  plane waves:     287
 k-point   372 :  -0.3333 0.2667 0.0333  plane waves:     287
 k-point   373 :  -0.3000 0.2667 0.0333  plane waves:     287
 k-point   374 :  -0.2667 0.2667 0.0333  plane waves:     287
 k-point   375 :  -0.2333 0.2667 0.0333  plane waves:     289
 k-point   376 :   0.3333 0.3000 0.0333  plane waves:     297
 k-point   377 :   0.3667 0.3000 0.0333  plane waves:     299
 k-point   378 :   0.4000 0.3000 0.0333  plane waves:     295
 k-point   379 :   0.4333 0.3000 0.0333  plane waves:     295
 k-point   380 :   0.4667 0.3000 0.0333  plane waves:     292
 k-point   381 :   0.5000 0.3000 0.0333  plane waves:     293
 k-point   382 :  -0.4667 0.3000 0.0333  plane waves:     288
 k-point   383 :  -0.4333 0.3000 0.0333  plane waves:     287
 k-point   384 :  -0.4000 0.3000 0.0333  plane waves:     285
 k-point   385 :  -0.3667 0.3000 0.0333  plane waves:     285
 k-point   386 :  -0.3333 0.3000 0.0333  plane waves:     285
 k-point   387 :  -0.3000 0.3000 0.0333  plane waves:     283
 k-point   388 :  -0.2667 0.3000 0.0333  plane waves:     285
 k-point   389 :   0.3667 0.3333 0.0333  plane waves:     299
 k-point   390 :   0.4000 0.3333 0.0333  plane waves:     294
 k-point   391 :   0.4333 0.3333 0.0333  plane waves:     294
 k-point   392 :   0.4667 0.3333 0.0333  plane waves:     291
 k-point   393 :   0.5000 0.3333 0.0333  plane waves:     291
 k-point   394 :  -0.4667 0.3333 0.0333  plane waves:     289
 k-point   395 :  -0.4333 0.3333 0.0333  plane waves:     285
 k-point   396 :  -0.4000 0.3333 0.0333  plane waves:     284
 k-point   397 :  -0.3667 0.3333 0.0333  plane waves:     284
 k-point   398 :  -0.3333 0.3333 0.0333  plane waves:     284
 k-point   399 :  -0.3000 0.3333 0.0333  plane waves:     284
 k-point   400 :   0.4000 0.3667 0.0333  plane waves:     292
 k-point   401 :   0.4333 0.3667 0.0333  plane waves:     289
 k-point   402 :   0.4667 0.3667 0.0333  plane waves:     290
 k-point   403 :   0.5000 0.3667 0.0333  plane waves:     290
 k-point   404 :  -0.4667 0.3667 0.0333  plane waves:     288
 k-point   405 :  -0.4333 0.3667 0.0333  plane waves:     287
 k-point   406 :  -0.4000 0.3667 0.0333  plane waves:     287
 k-point   407 :  -0.3667 0.3667 0.0333  plane waves:     286
 k-point   408 :  -0.3333 0.3667 0.0333  plane waves:     284
 k-point   409 :   0.4333 0.4000 0.0333  plane waves:     288
 k-point   410 :   0.4667 0.4000 0.0333  plane waves:     292
 k-point   411 :   0.5000 0.4000 0.0333  plane waves:     291
 k-point   412 :  -0.4667 0.4000 0.0333  plane waves:     288
 k-point   413 :  -0.4333 0.4000 0.0333  plane waves:     286
 k-point   414 :  -0.4000 0.4000 0.0333  plane waves:     285
 k-point   415 :  -0.3667 0.4000 0.0333  plane waves:     288
 k-point   416 :   0.4667 0.4333 0.0333  plane waves:     295
 k-point   417 :   0.5000 0.4333 0.0333  plane waves:     294
 k-point   418 :  -0.4667 0.4333 0.0333  plane waves:     290
 k-point   419 :  -0.4333 0.4333 0.0333  plane waves:     286
 k-point   420 :  -0.4000 0.4333 0.0333  plane waves:     284
 k-point   421 :   0.5000 0.4667 0.0333  plane waves:     298
 k-point   422 :  -0.4667 0.4667 0.0333  plane waves:     297
 k-point   423 :  -0.4333 0.4667 0.0333  plane waves:     292
 k-point   424 :  -0.4667 0.5000 0.0333  plane waves:     298
 k-point   425 :   0.2000 0.1333 0.0667  plane waves:     294
 k-point   426 :   0.2333 0.1333 0.0667  plane waves:     294
 k-point   427 :   0.2667 0.1333 0.0667  plane waves:     293
 k-point   428 :   0.3000 0.1333 0.0667  plane waves:     291
 k-point   429 :   0.3333 0.1333 0.0667  plane waves:     294
 k-point   430 :   0.3667 0.1333 0.0667  plane waves:     294
 k-point   431 :   0.4000 0.1333 0.0667  plane waves:     291
 k-point   432 :   0.4333 0.1333 0.0667  plane waves:     290
 k-point   433 :   0.4667 0.1333 0.0667  plane waves:     287
 k-point   434 :   0.5000 0.1333 0.0667  plane waves:     287
 k-point   435 :  -0.4667 0.1333 0.0667  plane waves:     285
 k-point   436 :  -0.4333 0.1333 0.0667  plane waves:     284
 k-point   437 :   0.2333 0.1667 0.0667  plane waves:     296
 k-point   438 :   0.2667 0.1667 0.0667  plane waves:     297
 k-point   439 :   0.3000 0.1667 0.0667  plane waves:     293
 k-point   440 :   0.3333 0.1667 0.0667  plane waves:     294
 k-point   441 :   0.3667 0.1667 0.0667  plane waves:     293
 k-point   442 :   0.4000 0.1667 0.0667  plane waves:     292
 k-point   443 :   0.4333 0.1667 0.0667  plane waves:     289
 k-point   444 :   0.4667 0.1667 0.0667  plane waves:     288
 k-point   445 :   0.5000 0.1667 0.0667  plane waves:     290
 k-point   446 :  -0.4667 0.1667 0.0667  plane waves:     287
 k-point   447 :  -0.4333 0.1667 0.0667  plane waves:     290
 k-point   448 :  -0.4000 0.1667 0.0667  plane waves:     287
 k-point   449 :  -0.3667 0.1667 0.0667  plane waves:     290
 k-point   450 :  -0.3333 0.1667 0.0667  plane waves:     290
 k-point   451 :  -0.3000 0.1667 0.0667  plane waves:     286
 k-point   452 :  -0.2667 0.1667 0.0667  plane waves:     289
 k-point   453 :  -0.2333 0.1667 0.0667  plane waves:     291
 k-point   454 :  -0.2000 0.1667 0.0667  plane waves:     292
 k-point   455 :  -0.1667 0.1667 0.0667  plane waves:     294
 k-point   456 :  -0.1333 0.1667 0.0667  plane waves:     293
 k-point   457 :  -0.1000 0.1667 0.0667  plane waves:     294
 k-point   458 :   0.2667 0.2000 0.0667  plane waves:     298
 k-point   459 :   0.3000 0.2000 0.0667  plane waves:     297
 k-point   460 :   0.3333 0.2000 0.0667  plane waves:     297
 k-point   461 :   0.3667 0.2000 0.0667  plane waves:     293
 k-point   462 :   0.4000 0.2000 0.0667  plane waves:     289
 k-point   463 :   0.4333 0.2000 0.0667  plane waves:     288
 k-point   464 :   0.4667 0.2000 0.0667  plane waves:     287
 k-point   465 :   0.5000 0.2000 0.0667  plane waves:     287
 k-point   466 :  -0.4667 0.2000 0.0667  plane waves:     287
 k-point   467 :  -0.4333 0.2000 0.0667  plane waves:     290
 k-point   468 :  -0.4000 0.2000 0.0667  plane waves:     289
 k-point   469 :  -0.3667 0.2000 0.0667  plane waves:     291
 k-point   470 :  -0.3333 0.2000 0.0667  plane waves:     290
 k-point   471 :  -0.3000 0.2000 0.0667  plane waves:     289
 k-point   472 :  -0.2667 0.2000 0.0667  plane waves:     290
 k-point   473 :  -0.2333 0.2000 0.0667  plane waves:     291
 k-point   474 :  -0.2000 0.2000 0.0667  plane waves:     291
 k-point   475 :  -0.1667 0.2000 0.0667  plane waves:     295
 k-point   476 :  -0.1333 0.2000 0.0667  plane waves:     294
 k-point   477 :   0.3000 0.2333 0.0667  plane waves:     298
 k-point   478 :   0.3333 0.2333 0.0667  plane waves:     297
 k-point   479 :   0.3667 0.2333 0.0667  plane waves:     294
 k-point   480 :   0.4000 0.2333 0.0667  plane waves:     291
 k-point   481 :   0.4333 0.2333 0.0667  plane waves:     287
 k-point   482 :   0.4667 0.2333 0.0667  plane waves:     288
 k-point   483 :   0.5000 0.2333 0.0667  plane waves:     289
 k-point   484 :  -0.4667 0.2333 0.0667  plane waves:     290
 k-point   485 :  -0.4333 0.2333 0.0667  plane waves:     289
 k-point   486 :  -0.4000 0.2333 0.0667  plane waves:     286
 k-point   487 :  -0.3667 0.2333 0.0667  plane waves:     288
 k-point   488 :  -0.3333 0.2333 0.0667  plane waves:     290
 k-point   489 :  -0.3000 0.2333 0.0667  plane waves:     290
 k-point   490 :  -0.2667 0.2333 0.0667  plane waves:     288
 k-point   491 :  -0.2333 0.2333 0.0667  plane waves:     289
 k-point   492 :  -0.2000 0.2333 0.0667  plane waves:     291
 k-point   493 :  -0.1667 0.2333 0.0667  plane waves:     293
 k-point   494 :   0.3333 0.2667 0.0667  plane waves:     297
 k-point   495 :   0.3667 0.2667 0.0667  plane waves:     297
 k-point   496 :   0.4000 0.2667 0.0667  plane waves:     291
 k-point   497 :   0.4333 0.2667 0.0667  plane waves:     291
 k-point   498 :   0.4667 0.2667 0.0667  plane waves:     290
 k-point   499 :   0.5000 0.2667 0.0667  plane waves:     290
 k-point   500 :  -0.4667 0.2667 0.0667  plane waves:     288
 k-point   501 :  -0.4333 0.2667 0.0667  plane waves:     289
 k-point   502 :  -0.4000 0.2667 0.0667  plane waves:     285
 k-point   503 :  -0.3667 0.2667 0.0667  plane waves:     286
 k-point   504 :  -0.3333 0.2667 0.0667  plane waves:     286
 k-point   505 :  -0.3000 0.2667 0.0667  plane waves:     288
 k-point   506 :  -0.2667 0.2667 0.0667  plane waves:     290
 k-point   507 :  -0.2333 0.2667 0.0667  plane waves:     288
 k-point   508 :  -0.2000 0.2667 0.0667  plane waves:     288
 k-point   509 :   0.3667 0.3000 0.0667  plane waves:     295
 k-point   510 :   0.4000 0.3000 0.0667  plane waves:     295
 k-point   511 :   0.4333 0.3000 0.0667  plane waves:     294
 k-point   512 :   0.4667 0.3000 0.0667  plane waves:     296
 k-point   513 :   0.5000 0.3000 0.0667  plane waves:     291
 k-point   514 :  -0.4667 0.3000 0.0667  plane waves:     289
 k-point   515 :  -0.4333 0.3000 0.0667  plane waves:     289
 k-point   516 :  -0.4000 0.3000 0.0667  plane waves:     286
 k-point   517 :  -0.3667 0.3000 0.0667  plane waves:     285
 k-point   518 :  -0.3333 0.3000 0.0667  plane waves:     286
 k-point   519 :  -0.3000 0.3000 0.0667  plane waves:     285
 k-point   520 :  -0.2667 0.3000 0.0667  plane waves:     285
 k-point   521 :  -0.2333 0.3000 0.0667  plane waves:     286
 k-point   522 :   0.4000 0.3333 0.0667  plane waves:     299
 k-point   523 :   0.4333 0.3333 0.0667  plane waves:     293
 k-point   524 :   0.4667 0.3333 0.0667  plane waves:     294
 k-point   525 :   0.5000 0.3333 0.0667  plane waves:     291
 k-point   526 :  -0.4667 0.3333 0.0667  plane waves:     292
 k-point   527 :  -0.4333 0.3333 0.0667  plane waves:     289
 k-point   528 :  -0.4000 0.3333 0.0667  plane waves:     287
 k-point   529 :  -0.3667 0.3333 0.0667  plane waves:     286
 k-point   530 :  -0.3333 0.3333 0.0667  plane waves:     284
 k-point   531 :  -0.3000 0.3333 0.0667  plane waves:     282
 k-point   532 :  -0.2667 0.3333 0.0667  plane waves:     285
 k-point   533 :   0.4333 0.3667 0.0667  plane waves:     293
 k-point   534 :   0.4667 0.3667 0.0667  plane waves:     293
 k-point   535 :   0.5000 0.3667 0.0667  plane waves:     290
 k-point   536 :  -0.4667 0.3667 0.0667  plane waves:     288
 k-point   537 :  -0.4333 0.3667 0.0667  plane waves:     288
 k-point   538 :  -0.4000 0.3667 0.0667  plane waves:     287
 k-point   539 :  -0.3667 0.3667 0.0667  plane waves:     287
 k-point   540 :  -0.3333 0.3667 0.0667  plane waves:     282
 k-point   541 :  -0.3000 0.3667 0.0667  plane waves:     284
 k-point   542 :   0.4667 0.4000 0.0667  plane waves:     292
 k-point   543 :   0.5000 0.4000 0.0667  plane waves:     288
 k-point   544 :  -0.4667 0.4000 0.0667  plane waves:     290
 k-point   545 :  -0.4333 0.4000 0.0667  plane waves:     287
 k-point   546 :  -0.4000 0.4000 0.0667  plane waves:     287
 k-point   547 :  -0.3667 0.4000 0.0667  plane waves:     288
 k-point   548 :  -0.3333 0.4000 0.0667  plane waves:     286
 k-point   549 :   0.5000 0.4333 0.0667  plane waves:     291
 k-point   550 :  -0.4667 0.4333 0.0667  plane waves:     289
 k-point   551 :  -0.4333 0.4333 0.0667  plane waves:     286
 k-point   552 :  -0.4000 0.4333 0.0667  plane waves:     286
 k-point   553 :  -0.3667 0.4333 0.0667  plane waves:     288
 k-point   554 :  -0.4667 0.4667 0.0667  plane waves:     289
 k-point   555 :  -0.4333 0.4667 0.0667  plane waves:     291
 k-point   556 :  -0.4000 0.4667 0.0667  plane waves:     286
 k-point   557 :  -0.4333 0.5000 0.0667  plane waves:     294
 k-point   558 :   0.3000 0.2000 0.1000  plane waves:     294
 k-point   559 :   0.3333 0.2000 0.1000  plane waves:     294
 k-point   560 :   0.3667 0.2000 0.1000  plane waves:     293
 k-point   561 :   0.4000 0.2000 0.1000  plane waves:     293
 k-point   562 :   0.4333 0.2000 0.1000  plane waves:     287
 k-point   563 :   0.4667 0.2000 0.1000  plane waves:     286
 k-point   564 :   0.5000 0.2000 0.1000  plane waves:     288
 k-point   565 :  -0.4667 0.2000 0.1000  plane waves:     288
 k-point   566 :  -0.4333 0.2000 0.1000  plane waves:     289
 k-point   567 :  -0.4000 0.2000 0.1000  plane waves:     290
 k-point   568 :   0.3333 0.2333 0.1000  plane waves:     294
 k-point   569 :   0.3667 0.2333 0.1000  plane waves:     295
 k-point   570 :   0.4000 0.2333 0.1000  plane waves:     292
 k-point   571 :   0.4333 0.2333 0.1000  plane waves:     289
 k-point   572 :   0.4667 0.2333 0.1000  plane waves:     290
 k-point   573 :   0.5000 0.2333 0.1000  plane waves:     290
 k-point   574 :  -0.4667 0.2333 0.1000  plane waves:     290
 k-point   575 :  -0.4333 0.2333 0.1000  plane waves:     288
 k-point   576 :  -0.4000 0.2333 0.1000  plane waves:     287
 k-point   577 :  -0.3667 0.2333 0.1000  plane waves:     285
 k-point   578 :  -0.3333 0.2333 0.1000  plane waves:     288
 k-point   579 :  -0.3000 0.2333 0.1000  plane waves:     291
 k-point   580 :  -0.2667 0.2333 0.1000  plane waves:     289
 k-point   581 :  -0.2333 0.2333 0.1000  plane waves:     286
 k-point   582 :  -0.2000 0.2333 0.1000  plane waves:     288
 k-point   583 :  -0.1667 0.2333 0.1000  plane waves:     292
 k-point   584 :  -0.1333 0.2333 0.1000  plane waves:     296
 k-point   585 :   0.3667 0.2667 0.1000  plane waves:     293
 k-point   586 :   0.4000 0.2667 0.1000  plane waves:     292
 k-point   587 :   0.4333 0.2667 0.1000  plane waves:     292
 k-point   588 :   0.4667 0.2667 0.1000  plane waves:     291
 k-point   589 :   0.5000 0.2667 0.1000  plane waves:     290
 k-point   590 :  -0.4667 0.2667 0.1000  plane waves:     292
 k-point   591 :  -0.4333 0.2667 0.1000  plane waves:     288
 k-point   592 :  -0.4000 0.2667 0.1000  plane waves:     288
 k-point   593 :  -0.3667 0.2667 0.1000  plane waves:     285
 k-point   594 :  -0.3333 0.2667 0.1000  plane waves:     287
 k-point   595 :  -0.3000 0.2667 0.1000  plane waves:     289
 k-point   596 :  -0.2667 0.2667 0.1000  plane waves:     289
 k-point   597 :  -0.2333 0.2667 0.1000  plane waves:     288
 k-point   598 :  -0.2000 0.2667 0.1000  plane waves:     288
 k-point   599 :  -0.1667 0.2667 0.1000  plane waves:     289
 k-point   600 :   0.4000 0.3000 0.1000  plane waves:     291
 k-point   601 :   0.4333 0.3000 0.1000  plane waves:     291
 k-point   602 :   0.4667 0.3000 0.1000  plane waves:     295
 k-point   603 :   0.5000 0.3000 0.1000  plane waves:     289
 k-point   604 :  -0.4667 0.3000 0.1000  plane waves:     290
 k-point   605 :  -0.4333 0.3000 0.1000  plane waves:     290
 k-point   606 :  -0.4000 0.3000 0.1000  plane waves:     290
 k-point   607 :  -0.3667 0.3000 0.1000  plane waves:     287
 k-point   608 :  -0.3333 0.3000 0.1000  plane waves:     286
 k-point   609 :  -0.3000 0.3000 0.1000  plane waves:     286
 k-point   610 :  -0.2667 0.3000 0.1000  plane waves:     286
 k-point   611 :  -0.2333 0.3000 0.1000  plane waves:     287
 k-point   612 :  -0.2000 0.3000 0.1000  plane waves:     291
 k-point   613 :   0.4333 0.3333 0.1000  plane waves:     289
 k-point   614 :   0.4667 0.3333 0.1000  plane waves:     295
 k-point   615 :   0.5000 0.3333 0.1000  plane waves:     291
 k-point   616 :  -0.4667 0.3333 0.1000  plane waves:     290
 k-point   617 :  -0.4333 0.3333 0.1000  plane waves:     291
 k-point   618 :  -0.4000 0.3333 0.1000  plane waves:     288
 k-point   619 :  -0.3667 0.3333 0.1000  plane waves:     287
 k-point   620 :  -0.3333 0.3333 0.1000  plane waves:     284
 k-point   621 :  -0.3000 0.3333 0.1000  plane waves:     282
 k-point   622 :  -0.2667 0.3333 0.1000  plane waves:     285
 k-point   623 :  -0.2333 0.3333 0.1000  plane waves:     284
 k-point   624 :   0.4667 0.3667 0.1000  plane waves:     294
 k-point   625 :   0.5000 0.3667 0.1000  plane waves:     291
 k-point   626 :  -0.4667 0.3667 0.1000  plane waves:     288
 k-point   627 :  -0.4333 0.3667 0.1000  plane waves:     289
 k-point   628 :  -0.4000 0.3667 0.1000  plane waves:     287
 k-point   629 :  -0.3667 0.3667 0.1000  plane waves:     288
 k-point   630 :  -0.3333 0.3667 0.1000  plane waves:     286
 k-point   631 :  -0.3000 0.3667 0.1000  plane waves:     283
 k-point   632 :  -0.2667 0.3667 0.1000  plane waves:     280
 k-point   633 :   0.5000 0.4000 0.1000  plane waves:     290
 k-point   634 :  -0.4667 0.4000 0.1000  plane waves:     288
 k-point   635 :  -0.4333 0.4000 0.1000  plane waves:     288
 k-point   636 :  -0.4000 0.4000 0.1000  plane waves:     287
 k-point   637 :  -0.3667 0.4000 0.1000  plane waves:     287
 k-point   638 :  -0.3333 0.4000 0.1000  plane waves:     284
 k-point   639 :  -0.3000 0.4000 0.1000  plane waves:     282
 k-point   640 :  -0.4667 0.4333 0.1000  plane waves:     290
 k-point   641 :  -0.4333 0.4333 0.1000  plane waves:     289
 k-point   642 :  -0.4000 0.4333 0.1000  plane waves:     286
 k-point   643 :  -0.3667 0.4333 0.1000  plane waves:     286
 k-point   644 :  -0.3333 0.4333 0.1000  plane waves:     286
 k-point   645 :  -0.4333 0.4667 0.1000  plane waves:     290
 k-point   646 :  -0.4000 0.4667 0.1000  plane waves:     285
 k-point   647 :  -0.3667 0.4667 0.1000  plane waves:     286
 k-point   648 :  -0.4000 0.5000 0.1000  plane waves:     288
 k-point   649 :   0.4000 0.2667 0.1333  plane waves:     291
 k-point   650 :   0.4333 0.2667 0.1333  plane waves:     290
 k-point   651 :   0.4667 0.2667 0.1333  plane waves:     288
 k-point   652 :   0.5000 0.2667 0.1333  plane waves:     290
 k-point   653 :  -0.4667 0.2667 0.1333  plane waves:     288
 k-point   654 :  -0.4333 0.2667 0.1333  plane waves:     289
 k-point   655 :  -0.4000 0.2667 0.1333  plane waves:     289
 k-point   656 :  -0.3667 0.2667 0.1333  plane waves:     284
 k-point   657 :   0.4333 0.3000 0.1333  plane waves:     289
 k-point   658 :   0.4667 0.3000 0.1333  plane waves:     290
 k-point   659 :   0.5000 0.3000 0.1333  plane waves:     289
 k-point   660 :  -0.4667 0.3000 0.1333  plane waves:     287
 k-point   661 :  -0.4333 0.3000 0.1333  plane waves:     289
 k-point   662 :  -0.4000 0.3000 0.1333  plane waves:     288
 k-point   663 :  -0.3667 0.3000 0.1333  plane waves:     286
 k-point   664 :  -0.3333 0.3000 0.1333  plane waves:     285
 k-point   665 :  -0.3000 0.3000 0.1333  plane waves:     288
 k-point   666 :  -0.2667 0.3000 0.1333  plane waves:     288
 k-point   667 :  -0.2333 0.3000 0.1333  plane waves:     285
 k-point   668 :  -0.2000 0.3000 0.1333  plane waves:     289
 k-point   669 :  -0.1667 0.3000 0.1333  plane waves:     291
 k-point   670 :   0.4667 0.3333 0.1333  plane waves:     292
 k-point   671 :   0.5000 0.3333 0.1333  plane waves:     291
 k-point   672 :  -0.4667 0.3333 0.1333  plane waves:     289
 k-point   673 :  -0.4333 0.3333 0.1333  plane waves:     291
 k-point   674 :  -0.4000 0.3333 0.1333  plane waves:     290
 k-point   675 :  -0.3667 0.3333 0.1333  plane waves:     288
 k-point   676 :  -0.3333 0.3333 0.1333  plane waves:     286
 k-point   677 :  -0.3000 0.3333 0.1333  plane waves:     285
 k-point   678 :  -0.2667 0.3333 0.1333  plane waves:     286
 k-point   679 :  -0.2333 0.3333 0.1333  plane waves:     287
 k-point   680 :  -0.2000 0.3333 0.1333  plane waves:     285
 k-point   681 :   0.5000 0.3667 0.1333  plane waves:     292
 k-point   682 :  -0.4667 0.3667 0.1333  plane waves:     291
 k-point   683 :  -0.4333 0.3667 0.1333  plane waves:     290
 k-point   684 :  -0.4000 0.3667 0.1333  plane waves:     289
 k-point   685 :  -0.3667 0.3667 0.1333  plane waves:     284
 k-point   686 :  -0.3333 0.3667 0.1333  plane waves:     285
 k-point   687 :  -0.3000 0.3667 0.1333  plane waves:     282
 k-point   688 :  -0.2667 0.3667 0.1333  plane waves:     284
 k-point   689 :  -0.2333 0.3667 0.1333  plane waves:     288
 k-point   690 :  -0.4667 0.4000 0.1333  plane waves:     290
 k-point   691 :  -0.4333 0.4000 0.1333  plane waves:     289
 k-point   692 :  -0.4000 0.4000 0.1333  plane waves:     288
 k-point   693 :  -0.3667 0.4000 0.1333  plane waves:     285
 k-point   694 :  -0.3333 0.4000 0.1333  plane waves:     286
 k-point   695 :  -0.3000 0.4000 0.1333  plane waves:     283
 k-point   696 :  -0.2667 0.4000 0.1333  plane waves:     282
 k-point   697 :  -0.4333 0.4333 0.1333  plane waves:     290
 k-point   698 :  -0.4000 0.4333 0.1333  plane waves:     287
 k-point   699 :  -0.3667 0.4333 0.1333  plane waves:     286
 k-point   700 :  -0.3333 0.4333 0.1333  plane waves:     287
 k-point   701 :  -0.3000 0.4333 0.1333  plane waves:     284
 k-point   702 :  -0.4000 0.4667 0.1333  plane waves:     290
 k-point   703 :  -0.3667 0.4667 0.1333  plane waves:     286
 k-point   704 :  -0.3333 0.4667 0.1333  plane waves:     288
 k-point   705 :  -0.3667 0.5000 0.1333  plane waves:     286
 k-point   706 :   0.5000 0.3333 0.1667  plane waves:     288
 k-point   707 :  -0.4667 0.3333 0.1667  plane waves:     286
 k-point   708 :  -0.4333 0.3333 0.1667  plane waves:     287
 k-point   709 :  -0.4000 0.3333 0.1667  plane waves:     288
 k-point   710 :  -0.3667 0.3333 0.1667  plane waves:     284
 k-point   711 :  -0.3333 0.3333 0.1667  plane waves:     286
 k-point   712 :  -0.4667 0.3667 0.1667  plane waves:     290
 k-point   713 :  -0.4333 0.3667 0.1667  plane waves:     286
 k-point   714 :  -0.4000 0.3667 0.1667  plane waves:     288
 k-point   715 :  -0.3667 0.3667 0.1667  plane waves:     283
 k-point   716 :  -0.3333 0.3667 0.1667  plane waves:     284
 k-point   717 :  -0.3000 0.3667 0.1667  plane waves:     284
 k-point   718 :  -0.2667 0.3667 0.1667  plane waves:     283
 k-point   719 :  -0.2333 0.3667 0.1667  plane waves:     286
 k-point   720 :  -0.2000 0.3667 0.1667  plane waves:     288
 k-point   721 :  -0.4333 0.4000 0.1667  plane waves:     289
 k-point   722 :  -0.4000 0.4000 0.1667  plane waves:     288
 k-point   723 :  -0.3667 0.4000 0.1667  plane waves:     287
 k-point   724 :  -0.3333 0.4000 0.1667  plane waves:     285
 k-point   725 :  -0.3000 0.4000 0.1667  plane waves:     284
 k-point   726 :  -0.2667 0.4000 0.1667  plane waves:     284
 k-point   727 :  -0.2333 0.4000 0.1667  plane waves:     282
 k-point   728 :  -0.4000 0.4333 0.1667  plane waves:     284
 k-point   729 :  -0.3667 0.4333 0.1667  plane waves:     288
 k-point   730 :  -0.3333 0.4333 0.1667  plane waves:     287
 k-point   731 :  -0.3000 0.4333 0.1667  plane waves:     286
 k-point   732 :  -0.2667 0.4333 0.1667  plane waves:     286
 k-point   733 :  -0.3667 0.4667 0.1667  plane waves:     288
 k-point   734 :  -0.3333 0.4667 0.1667  plane waves:     288
 k-point   735 :  -0.3000 0.4667 0.1667  plane waves:     288
 k-point   736 :  -0.3333 0.5000 0.1667  plane waves:     290
 k-point   737 :  -0.4000 0.4000 0.2000  plane waves:     287
 k-point   738 :  -0.3667 0.4000 0.2000  plane waves:     285
 k-point   739 :  -0.3333 0.4000 0.2000  plane waves:     282
 k-point   740 :  -0.3000 0.4000 0.2000  plane waves:     284
 k-point   741 :  -0.3667 0.4333 0.2000  plane waves:     286
 k-point   742 :  -0.3333 0.4333 0.2000  plane waves:     283
 k-point   743 :  -0.3000 0.4333 0.2000  plane waves:     284
 k-point   744 :  -0.2667 0.4333 0.2000  plane waves:     283
 k-point   745 :  -0.2333 0.4333 0.2000  plane waves:     284
 k-point   746 :  -0.3333 0.4667 0.2000  plane waves:     286
 k-point   747 :  -0.3000 0.4667 0.2000  plane waves:     282
 k-point   748 :  -0.2667 0.4667 0.2000  plane waves:     282
 k-point   749 :  -0.3000 0.5000 0.2000  plane waves:     286
 k-point   750 :  -0.3000 0.4667 0.2333  plane waves:     280
 k-point   751 :  -0.2667 0.4667 0.2333  plane waves:     280
 k-point   752 :  -0.2667 0.5000 0.2333  plane waves:     280

 maximum and minimum number of plane-waves per node :        48       34

 maximum number of plane-waves:       303
 maximum index in each direction: 
   IXMAX=    5   IYMAX=    4   IZMAX=    4
   IXMIN=   -5   IYMIN=   -5   IZMIN=   -4


 parallel 3D FFT for wavefunctions:
    minimum data exchange during FFTs selected (reduces bandwidth)
 parallel 3D FFT for charge:
    minimum data exchange during FFTs selected (reduces bandwidth)


 total amount of memory used by VASP MPI-rank0    33467. kBytes
=======================================================================

   base                                    :      30000. kBytes
   nonl-proj                               :       2119. kBytes
   fftplans                                :         39. kBytes
   grid                                    :         55. kBytes
   one-center                              :          3. kBytes
   wavefun                                 :       1251. kBytes
 
     INWAV:  cpu time      0.0000: real time      0.0004
 Broyden mixing: mesh for mixing (old mesh)
   NGX =  9   NGY =  9   NGZ =  9
  (NGX  = 28   NGY  = 28   NGZ  = 28)
  gives a total of    729 points

 initial charge density was supplied:
 charge density of overlapping atoms calculated
 number of electron       8.0000000 magnetization 
 keeping initial charge density in first step


--------------------------------------------------------------------------------------------------------


 Maximum index for augmentation-charges          211 (set IRDMAX)


--------------------------------------------------------------------------------------------------------


 First call to EWALD:  gamma=   0.787
 Maximum number of real-space cells   3x   3x   3
 Maximum number of reciprocal cells   3x   3x   3

    FEWALD:  cpu time      0.0009: real time      0.0009


--------------------------------------- Ionic step        1  -------------------------------------------




--------------------------------------- Iteration      1(   1)  ---------------------------------------


    POTLOK:  cpu time      0.0030: real time      0.0032
    SETDIJ:  cpu time      0.0018: real time      0.0018
     EDDAV:  cpu time      0.7874: real time      0.7924
       DOS:  cpu time      0.0013: real time      0.0013
    --------------------------------------------
      LOOP:  cpu time      0.7935: real time      0.7988

 eigenvalue-minimisations  : 12584
 total energy-change (2. order) :-0.5567357E+00  (-0.4997525E+03)
 number of electron       8.0000000 magnetization 
 augmentation part        8.0000000 magnetization 

 Free energy of the ion-electron system (eV)
  ---------------------------------------------------
  alpha Z        PSCENC =        28.79729048
  Ewald energy   TEWEN  =      -347.28596645
  -Hartree energ DENC   =       -17.74214055
  -exchange      EXHF   =         0.00000000
  -V(xc)+E(xc)   XCENC  =        27.36858595
  PAW double counting   =       217.04409276     -218.18290438
  entropy T*S    EENTRO =        -0.00000062
  eigenvalues    EBANDS =        15.14746377
  atomic energy  EATOM  =       294.29684335
  Solvation  Ediel_sol  =         0.00000000
  ---------------------------------------------------
  free energy    TOTEN  =        -0.55673569 eV

  energy without entropy =       -0.55673507  energy(sigma->0) =       -0.55673538


--------------------------------------------------------------------------------------------------------




--------------------------------------- Iteration      1(   2)  ---------------------------------------


     EDDAV:  cpu time      1.2031: real time      1.2109
       DOS:  cpu time      0.0006: real time      0.0006
    --------------------------------------------
      LOOP:  cpu time      1.2037: real time      1.2115

 eigenvalue-minimisations  : 19008
 total energy-change (2. order) :-0.1814050E+02  (-0.1728610E+02)
 number of electron       8.0000000 magnetization 
 augmentation part        8.0000000 magnetization 

 Free energy of the ion-electron system (eV)
  ---------------------------------------------------
  alpha Z        PSCENC =        28.79729048
  Ewald energy   TEWEN  =      -347.28596645
  -Hartree energ DENC   =       -17.74214055
  -exchange      EXHF   =         0.00000000
  -V(xc)+E(xc)   XCENC  =        27.36858595
  PAW double counting   =       217.04409276     -218.18290438
  entropy T*S    EENTRO =        -0.00000000
  eigenvalues    EBANDS =        -2.99303311
  atomic energy  EATOM  =       294.29684335
  Solvation  Ediel_sol  =         0.00000000
  ---------------------------------------------------
  free energy    TOTEN  =       -18.69723195 eV

  energy without entropy =      -18.69723195  energy(sigma->0) =      -18.69723195


--------------------------------------------------------------------------------------------------------




--------------------------------------- Iteration      1(   3)  ---------------------------------------


     EDDAV:  cpu time      0.7911: real time      0.7961
       DOS:  cpu time      0.0006: real time      0.0006
    --------------------------------------------
      LOOP:  cpu time      0.7917: real time      0.7967

 eigenvalue-minimisations  : 12736
 total energy-change (2. order) :-0.1162890E+00  (-0.1162890E+00)
 number of electron       8.0000000 magnetization 
 augmentation part        8.0000000 magnetization 

 Free energy of the ion-electron system (eV)
  ---------------------------------------------------
  alpha Z        PSCENC =        28.79729048
  Ewald energy   TEWEN  =      -347.28596645
  -Hartree energ DENC   =       -17.74214055
  -exchange      EXHF   =         0.00000000
  -V(xc)+E(xc)   XCENC  =        27.36858595
  PAW double counting   =       217.04409276     -218.18290438
  entropy T*S    EENTRO =        -0.00000000
  eigenvalues    EBANDS =        -3.10932206
  atomic energy  EATOM  =       294.29684335
  Solvation  Ediel_sol  =         0.00000000
  ---------------------------------------------------
  free energy    TOTEN  =       -18.81352090 eV

  energy without entropy =      -18.81352090  energy(sigma->0) =      -18.81352090


--------------------------------------------------------------------------------------------------------




--------------------------------------- Iteration      1(   4)  ---------------------------------------


     EDDAV:  cpu time      1.0828: real time      1.0895
       DOS:  cpu time      0.0006: real time      0.0006
    --------------------------------------------
      LOOP:  cpu time      1.0834: real time      1.0901

 eigenvalue-minimisations  : 17552
 total energy-change (2. order) :-0.1770370E-03  (-0.1770370E-03)
 number of electron       8.0000000 magnetization 
 augmentation part        8.0000000 magnetization 

 Free energy of the ion-electron system (eV)
  ---------------------------------------------------
  alpha Z        PSCENC =        28.79729048
  Ewald energy   TEWEN  =      -347.28596645
  -Hartree energ DENC   =       -17.74214055
  -exchange      EXHF   =         0.00000000
  -V(xc)+E(xc)   XCENC  =        27.36858595
  PAW double counting   =       217.04409276     -218.18290438
  entropy T*S    EENTRO =        -0.00000000
  eigenvalues    EBANDS =        -3.10949910
  atomic energy  EATOM  =       294.29684335
  Solvation  Ediel_sol  =         0.00000000
  ---------------------------------------------------
  free energy    TOTEN  =       -18.81369794 eV

  energy without entropy =      -18.81369794  energy(sigma->0) =      -18.81369794


--------------------------------------------------------------------------------------------------------




--------------------------------------- Iteration      1(   5)  ---------------------------------------


     EDDAV:  cpu time      0.7741: real time      0.7790
       DOS:  cpu time      0.0006: real time      0.0006
    CHARGE:  cpu time      0.0172: real time      0.0173
    MIXING:  cpu time      0.0006: real time      0.0006
    --------------------------------------------
      LOOP:  cpu time      0.7926: real time      0.7976

 eigenvalue-minimisations  : 12568
 total energy-change (2. order) :-0.8061988E-07  (-0.8061985E-07)
 number of electron       8.0000000 magnetization 
 augmentation part        0.1987842 magnetization 

 Broyden mixing:
  rms(total) = 0.55256E+00    rms(broyden)= 0.55250E+00
  rms(prec ) = 0.18410E+01
  weight for this iteration     100.00

 Free energy of the ion-electron system (eV)
  ---------------------------------------------------
  alpha Z        PSCENC =        28.79729048
  Ewald energy   TEWEN  =      -347.28596645
  -Hartree energ DENC   =       -17.74214055
  -exchange      EXHF   =         0.00000000
  -V(xc)+E(xc)   XCENC  =        27.36858595
  PAW double counting   =       217.04409276     -218.18290438
  entropy T*S    EENTRO =        -0.00000000
  eigenvalues    EBANDS =        -3.10949918
  atomic energy  EATOM  =       294.29684335
  Solvation  Ediel_sol  =         0.00000000
  ---------------------------------------------------
  free energy    TOTEN  =       -18.81369802 eV

  energy without entropy =      -18.81369802  energy(sigma->0) =      -18.81369802


--------------------------------------------------------------------------------------------------------




--------------------------------------- Iteration      1(   6)  ---------------------------------------


    POTLOK:  cpu time      0.0020: real time      0.0021
    SETDIJ:  cpu time      0.0011: real time      0.0011
     EDDAV:  cpu time      0.7696: real time      0.7743
       DOS:  cpu time      0.0007: real time      0.0007
    CHARGE:  cpu time      0.0170: real time      0.0171
    MIXING:  cpu time      0.0002: real time      0.0002
    --------------------------------------------
      LOOP:  cpu time      0.7906: real time      0.7955

 eigenvalue-minimisations  : 12440
 total energy-change (2. order) : 0.4705306E+00  (-0.3604744E-01)
 number of electron       8.0000000 magnetization 
 augmentation part        0.1939572 magnetization 

 Broyden mixing:
  rms(total) = 0.33216E+00    rms(broyden)= 0.33216E+00
  rms(prec ) = 0.10019E+01
  weight for this iteration     100.00

 eigenvalues of (default mixing * dielectric matrix)
  average eigenvalue GAMMA=   2.3380
  2.3380

 Free energy of the ion-electron system (eV)
  ---------------------------------------------------
  alpha Z        PSCENC =        28.79729048
  Ewald energy   TEWEN  =      -347.28596645
  -Hartree energ DENC   =       -21.53690019
  -exchange      EXHF   =         0.00000000
  -V(xc)+E(xc)   XCENC  =        27.70793541
  PAW double counting   =       376.65763430     -377.91465399
  entropy T*S    EENTRO =         0.00000000
  eigenvalues    EBANDS =         0.93464965
  atomic energy  EATOM  =       294.29684335
  Solvation  Ediel_sol  =         0.00000000
  ---------------------------------------------------
  free energy    TOTEN  =       -18.34316745 eV

  energy without entropy =      -18.34316745  energy(sigma->0) =      -18.34316745


--------------------------------------------------------------------------------------------------------




--------------------------------------- Iteration      1(   7)  ---------------------------------------


    POTLOK:  cpu time      0.0019: real time      0.0021
    SETDIJ:  cpu time      0.0010: real time      0.0010
     EDDAV:  cpu time      0.8825: real time      0.8879
       DOS:  cpu time      0.0006: real time      0.0006
    CHARGE:  cpu time      0.0169: real time      0.0170
    MIXING:  cpu time      0.0002: real time      0.0002
    --------------------------------------------
      LOOP:  cpu time      0.9031: real time      0.9088

 eigenvalue-minimisations  : 14344
 total energy-change (2. order) : 0.1583896E+00  (-0.3988130E-01)
 number of electron       8.0000000 magnetization 
 augmentation part        0.1888130 magnetization 

 Broyden mixing:
  rms(total) = 0.75924E-01    rms(broyden)= 0.75911E-01
  rms(prec ) = 0.11469E+00
  weight for this iteration     100.00

 eigenvalues of (default mixing * dielectric matrix)
  average eigenvalue GAMMA=   2.2210
  1.9390  2.5030

 Free energy of the ion-electron system (eV)
  ---------------------------------------------------
  alpha Z        PSCENC =        28.79729048
  Ewald energy   TEWEN  =      -347.28596645
  -Hartree energ DENC   =       -26.38824675
  -exchange      EXHF   =         0.00000000
  -V(xc)+E(xc)   XCENC  =        28.15271102
  PAW double counting   =       676.99073426     -678.35933991
  entropy T*S    EENTRO =        -0.00000000
  eigenvalues    EBANDS =         5.61119616
  atomic energy  EATOM  =       294.29684335
  Solvation  Ediel_sol  =         0.00000000
  ---------------------------------------------------
  free energy    TOTEN  =       -18.18477784 eV

  energy without entropy =      -18.18477784  energy(sigma->0) =      -18.18477784


--------------------------------------------------------------------------------------------------------




--------------------------------------- Iteration      1(   8)  ---------------------------------------


    POTLOK:  cpu time      0.0018: real time      0.0019
    SETDIJ:  cpu time      0.0010: real time      0.0010
     EDDAV:  cpu time      0.7754: real time      0.7801
       DOS:  cpu time      0.0006: real time      0.0006
    CHARGE:  cpu time      0.0170: real time      0.0171
    MIXING:  cpu time      0.0002: real time      0.0002
    --------------------------------------------
      LOOP:  cpu time      0.7960: real time      0.8010

 eigenvalue-minimisations  : 12608
 total energy-change (2. order) :-0.1272391E-02  (-0.1801247E-03)
 number of electron       8.0000000 magnetization 
 augmentation part        0.1889380 magnetization 

 Broyden mixing:
  rms(total) = 0.46429E-02    rms(broyden)= 0.46377E-02
  rms(prec ) = 0.13600E-01
  weight for this iteration     100.00

 eigenvalues of (default mixing * dielectric matrix)
  average eigenvalue GAMMA=   2.0195
  1.3754  2.4182  2.2649

 Free energy of the ion-electron system (eV)
  ---------------------------------------------------
  alpha Z        PSCENC =        28.79729048
  Ewald energy   TEWEN  =      -347.28596645
  -Hartree energ DENC   =       -26.52500364
  -exchange      EXHF   =         0.00000000
  -V(xc)+E(xc)   XCENC  =        28.17043920
  PAW double counting   =       763.49210701     -764.83316076
  entropy T*S    EENTRO =        -0.00000000
  eigenvalues    EBANDS =         5.70140058
  atomic energy  EATOM  =       294.29684335
  Solvation  Ediel_sol  =         0.00000000
  ---------------------------------------------------
  free energy    TOTEN  =       -18.18605024 eV

  energy without entropy =      -18.18605024  energy(sigma->0) =      -18.18605024


--------------------------------------------------------------------------------------------------------




--------------------------------------- Iteration      1(   9)  ---------------------------------------


    POTLOK:  cpu time      0.0017: real time      0.0018
    SETDIJ:  cpu time      0.0010: real time      0.0010
     EDDAV:  cpu time      1.0836: real time      1.0908
       DOS:  cpu time      0.0006: real time      0.0006
    CHARGE:  cpu time      0.0169: real time      0.0169
    MIXING:  cpu time      0.0002: real time      0.0002
    --------------------------------------------
      LOOP:  cpu time      1.1039: real time      1.1114

 eigenvalue-minimisations  : 17664
 total energy-change (2. order) :-0.1721178E-04  (-0.1308767E-04)
 number of electron       8.0000000 magnetization 
 augmentation part        0.1890193 magnetization 

 Broyden mixing:
  rms(total) = 0.27384E-02    rms(broyden)= 0.27383E-02
  rms(prec ) = 0.43805E-02
  weight for this iteration     100.00

 eigenvalues of (default mixing * dielectric matrix)
  average eigenvalue GAMMA=   2.1572
  1.0152  2.0807  2.8702  2.6628

 Free energy of the ion-electron system (eV)
  ---------------------------------------------------
  alpha Z        PSCENC =        28.79729048
  Ewald energy   TEWEN  =      -347.28596645
  -Hartree energ DENC   =       -26.47257243
  -exchange      EXHF   =         0.00000000
  -V(xc)+E(xc)   XCENC  =        28.16602534
  PAW double counting   =       764.23347294     -765.57059597
  entropy T*S    EENTRO =        -0.00000000
  eigenvalues    EBANDS =         5.64943530
  atomic energy  EATOM  =       294.29684335
  Solvation  Ediel_sol  =         0.00000000
  ---------------------------------------------------
  free energy    TOTEN  =       -18.18606745 eV

  energy without entropy =      -18.18606745  energy(sigma->0) =      -18.18606745


--------------------------------------------------------------------------------------------------------




--------------------------------------- Iteration      1(  10)  ---------------------------------------


    POTLOK:  cpu time      0.0017: real time      0.0019
    SETDIJ:  cpu time      0.0010: real time      0.0011
     EDDAV:  cpu time      0.7568: real time      0.7613
       DOS:  cpu time      0.0006: real time      0.0006
    CHARGE:  cpu time      0.0169: real time      0.0170
    MIXING:  cpu time      0.0002: real time      0.0002
    --------------------------------------------
      LOOP:  cpu time      0.7772: real time      0.7820

 eigenvalue-minimisations  : 12288
 total energy-change (2. order) :-0.1288844E-04  (-0.1384990E-05)
 number of electron       8.0000000 magnetization 
 augmentation part        0.1890153 magnetization 

 Broyden mixing:
  rms(total) = 0.61863E-03    rms(broyden)= 0.61861E-03
  rms(prec ) = 0.70234E-03
  weight for this iteration     100.00

 eigenvalues of (default mixing * dielectric matrix)
  average eigenvalue GAMMA=   1.8393
  2.8144  2.5344  2.0447  0.9808  0.8221

 Free energy of the ion-electron system (eV)
  ---------------------------------------------------
  alpha Z        PSCENC =        28.79729048
  Ewald energy   TEWEN  =      -347.28596645
  -Hartree energ DENC   =       -26.48732273
  -exchange      EXHF   =         0.00000000
  -V(xc)+E(xc)   XCENC  =        28.16732750
  PAW double counting   =       760.38181153     -761.71944467
  entropy T*S    EENTRO =        -0.00000000
  eigenvalues    EBANDS =         5.66338067
  atomic energy  EATOM  =       294.29684335
  Solvation  Ediel_sol  =         0.00000000
  ---------------------------------------------------
  free energy    TOTEN  =       -18.18608034 eV

  energy without entropy =      -18.18608034  energy(sigma->0) =      -18.18608034


--------------------------------------------------------------------------------------------------------




--------------------------------------- Iteration      1(  11)  ---------------------------------------


    POTLOK:  cpu time      0.0017: real time      0.0018
    SETDIJ:  cpu time      0.0010: real time      0.0010
     EDDAV:  cpu time      0.5833: real time      0.5868
       DOS:  cpu time      0.0006: real time      0.0006
    --------------------------------------------
      LOOP:  cpu time      0.5866: real time      0.5902

 eigenvalue-minimisations  :  8768
 total energy-change (2. order) : 0.1475663E-06  (-0.3847331E-08)
 number of electron       8.0000000 magnetization 
 augmentation part        0.1890153 magnetization 

 Free energy of the ion-electron system (eV)
  ---------------------------------------------------
  alpha Z        PSCENC =        28.79729048
  Ewald energy   TEWEN  =      -347.28596645
  -Hartree energ DENC   =       -26.48728840
  -exchange      EXHF   =         0.00000000
  -V(xc)+E(xc)   XCENC  =        28.16734833
  PAW double counting   =       760.96549123     -762.30298216
  entropy T*S    EENTRO =        -0.00000000
  eigenvalues    EBANDS =         5.66318344
  atomic energy  EATOM  =       294.29684335
  Solvation  Ediel_sol  =         0.00000000
  ---------------------------------------------------
  free energy    TOTEN  =       -18.18608019 eV

  energy without entropy =      -18.18608019  energy(sigma->0) =      -18.18608019


--------------------------------------------------------------------------------------------------------




 average (electrostatic) potential at core
  the test charge radii are     0.6991
  (the norm of the test charge is              1.0000)
       1 -45.4664       2 -45.4664
 
 
 
 E-fermi :   9.6999     XC(G=0): -13.2216     alpha+bet :-17.5671

 val. band max:        9.6459494181   @ k =   0.0000   0.0000   0.0000
 cond. band min:      13.7615661380   @ k =   0.3667   0.3667   0.0000
 fundamental gap:      4.1156167199
 Fermi energy:         9.6998641182

 k-point     1 :       0.0000    0.0000    0.0000
  band No.  band energies     occupation 
      1     -11.7529      2.00000
      2       9.6459      2.00000
      3       9.6459      2.00000
      4       9.6459      2.00000
      5      15.2204      0.00000
      6      15.2205      0.00000
      7      15.2205      0.00000
      8      22.8440      0.00000

 k-point     2 :       0.0333    0.0000    0.0000
  band No.  band energies     occupation 
      1     -11.7223      2.00000
      2       9.4239      2.00000
      3       9.5902      2.00000
      4       9.5902      2.00000
      5      15.2931      0.00000
      6      15.2932      0.00000
      7      15.3590      0.00000
      8      22.8712      0.00000

 k-point     3 :       0.0667    0.0000    0.0000
  band No.  band energies     occupation 
      1     -11.6304      2.00000
      2       8.8254      2.00000
      3       9.4336      2.00000
      4       9.4336      2.00000
      5      15.4978      0.00000
      6      15.4979      0.00000
      7      15.7105      0.00000
      8      22.9527      0.00000

 k-point     4 :       0.1000    0.0000    0.0000
  band No.  band energies     occupation 
      1     -11.4773      2.00000
      2       7.9778      2.00000
      3       9.2023      2.00000
      4       9.2023      2.00000
      5      15.8028      0.00000
      6      15.8029      0.00000
      7      16.1541      0.00000
      8      23.0875      0.00000

 k-point     5 :       0.1333   -0.0000    0.0000
  band No.  band energies     occupation 
      1     -11.2634      2.00000
      2       6.9830      2.00000
      3       8.9255      2.00000
      4       8.9255      2.00000
      5      16.1677      0.00000
      6      16.1678      0.00000
      7      16.5999      0.00000
      8      23.2724      0.00000

 k-point     6 :       0.1667    0.0000    0.0000
  band No.  band energies     occupation 
      1     -10.9891      2.00000
      2       5.9057      2.00000
      3       8.6288      2.00000
      4       8.6288      2.00000
      5      16.5542      0.00000
      6      16.5542      0.00000
      7      17.0022      0.00000
      8      23.5014      0.00000

 k-point     7 :       0.2000    0.0000    0.0000
  band No.  band energies     occupation 
      1     -10.6552      2.00000
      2       4.7858      2.00000
      3       8.3310      2.00000
      4       8.3310      2.00000
      5      16.9277      0.00000
      6      16.9277      0.00000
      7      17.3425      0.00000
      8      23.7637      0.00000

 k-point     8 :       0.2333    0.0000    0.0000
  band No.  band energies     occupation 
      1     -10.2625      2.00000
      2       3.6500      2.00000
      3       8.0453      2.00000
      4       8.0454      2.00000
      5      17.2616      0.00000
      6      17.2617      0.00000
      7      17.6199      0.00000
      8      24.0448      0.00000

 k-point     9 :       0.2667    0.0000    0.0000
  band No.  band energies     occupation 
      1      -9.8125      2.00000
      2       2.5170      2.00000
      3       7.7810      2.00000
      4       7.7810      2.00000
      5      17.5378      0.00000
      6      17.5379      0.00000
      7      17.8406      0.00000
      8      24.3273      0.00000

 k-point    10 :       0.3000    0.0000    0.0000
  band No.  band energies     occupation 
      1      -9.3070      2.00000
      2       1.4014      2.00000
      3       7.5443      2.00000
      4       7.5443      2.00000
      5      17.7490      0.00000
      6      17.7491      0.00000
      7      18.0138      0.00000
      8      24.5924      0.00000

 k-point    11 :       0.3333    0.0000    0.0000
  band No.  band energies     occupation 
      1      -8.7494      2.00000
      2       0.3153      2.00000
      3       7.3393      2.00000
      4       7.3393      2.00000
      5      17.8959      0.00000
      6      17.8960      0.00000
      7      18.1477      0.00000
      8      24.8251      0.00000

 k-point    12 :       0.3667   -0.0000    0.0000
  band No.  band energies     occupation 
      1      -8.1453      2.00000
      2      -0.7289      2.00000
      3       7.1689      2.00000
      4       7.1689      2.00000
      5      17.9889      0.00000
      6      17.9889      0.00000
      7      18.2493      0.00000
      8      25.0093      0.00000

 k-point    13 :       0.4000    0.0000    0.0000
  band No.  band energies     occupation 
      1      -7.5060      2.00000
      2      -1.7149      2.00000
      3       7.0348      2.00000
      4       7.0349      2.00000
      5      18.0416      0.00000
      6      18.0417      0.00000
      7      18.3239      0.00000
      8      25.1442      0.00000

 k-point    14 :       0.4333    0.0000    0.0000
  band No.  band energies     occupation 
      1      -6.8584      2.00000
      2      -2.6126      2.00000
      3       6.9384      2.00000
      4       6.9384      2.00000
      5      18.0673      0.00000
      6      18.0674      0.00000
      7      18.3749      0.00000
      8      25.2307      0.00000

 k-point    15 :       0.4667    0.0000    0.0000
  band No.  band energies     occupation 
      1      -6.2818      2.00000
      2      -3.3402      2.00000
      3       6.8803      2.00000
      4       6.8803      2.00000
      5      18.0780      0.00000
      6      18.0781      0.00000
      7      18.4047      0.00000
      8      25.2784      0.00000

 k-point    16 :       0.5000    0.0000    0.0000
  band No.  band energies     occupation 
      1      -6.0106      2.00000
      2      -3.6617      2.00000
      3       6.8609      2.00000
      4       6.8610      2.00000
      5      18.0809      0.00000
      6      18.0810      0.00000
      7      18.4146      0.00000
      8      25.2980      0.00000

 k-point    17 :       0.0333    0.0333    0.0000
  band No.  band energies     occupation 
      1     -11.7121      2.00000
      2       9.4756      2.00000
      3       9.4757      2.00000
      4       9.5442      2.00000
      5      15.1871      0.00000
      6      15.4258      0.00000
      7      15.4258      0.00000
      8      22.8778      0.00000

 k-point    18 :       0.0667    0.0333    0.0000
  band No.  band energies     occupation 
      1     -11.6406      2.00000
      2       9.0231      2.00000
      3       9.2711      2.00000
      4       9.4895      2.00000
      5      15.2325      0.00000
      6      15.6808      0.00000
      7      15.7239      0.00000
      8      22.9338      0.00000

 k-point    19 :       0.1000    0.0333    0.0000
  band No.  band energies     occupation 
      1     -11.5079      2.00000
      2       8.2590      2.00000
      3       9.0057      2.00000
      4       9.3537      2.00000
      5      15.4188      0.00000
      6      16.0235      0.00000
      7      16.1446      0.00000
      8      23.0381      0.00000

 k-point    20 :       0.1333    0.0333    0.0000
  band No.  band energies     occupation 
      1     -11.3143      2.00000
      2       7.3160      2.00000
      3       8.7076      2.00000
      4       9.1391      2.00000
      5      15.7094      0.00000
      6      16.4154      0.00000
      7      16.5909      0.00000
      8      23.1887      0.00000

 k-point    21 :       0.1667    0.0333    0.0000
  band No.  band energies     occupation 
      1     -11.0601      2.00000
      2       6.2695      2.00000
      3       8.4000      2.00000
      4       8.8741      2.00000
      5      16.0622      0.00000
      6      16.8205      0.00000
      7      17.0060      0.00000
      8      23.3805      0.00000

 k-point    22 :       0.2000    0.0333    0.0000
  band No.  band energies     occupation 
      1     -10.7461      2.00000
      2       5.1669      2.00000
      3       8.0994      2.00000
      4       8.5842      2.00000
      5      16.4355      0.00000
      6      17.2067      0.00000
      7      17.3640      0.00000
      8      23.6063      0.00000

 k-point    23 :       0.2333    0.0333    0.0000
  band No.  band energies     occupation 
      1     -10.3729      2.00000
      2       4.0389      2.00000
      3       7.8175      2.00000
      4       8.2889      2.00000
      5      16.7952      0.00000
      6      17.5482      0.00000
      7      17.6589      0.00000
      8      23.8565      0.00000

 k-point    24 :       0.2667    0.0333    0.0000
  band No.  band energies     occupation 
      1      -9.9420      2.00000
      2       2.9069      2.00000
      3       7.5624      2.00000
      4       8.0017      2.00000
      5      17.1143      0.00000
      6      17.8264      0.00000
      7      17.8947      0.00000
      8      24.1200      0.00000

 k-point    25 :       0.3000    0.0333    0.0000
  band No.  band energies     occupation 
      1      -9.4549      2.00000
      2       1.7869      2.00000
      3       7.3394      2.00000
      4       7.7324      2.00000
      5      17.3776      0.00000
      6      18.0326      0.00000
      7      18.0798      0.00000
      8      24.3842      0.00000

 k-point    26 :       0.3333    0.0333    0.0000
  band No.  band energies     occupation 
      1      -8.9145      2.00000
      2       0.6919      2.00000
      3       7.1520      2.00000
      4       7.4874      2.00000
      5      17.5811      0.00000
      6      18.1679      0.00000
      7      18.2227      0.00000
      8      24.6365      0.00000

 k-point    27 :       0.3667    0.0333    0.0000
  band No.  band energies     occupation 
      1      -8.3253      2.00000
      2      -0.3659      2.00000
      3       7.0026      2.00000
      4       7.2715      2.00000
      5      17.7304      0.00000
      6      18.2407      0.00000
      7      18.3308      0.00000
      8      24.8576      0.00000

 k-point    28 :       0.4000    0.0333    0.0000
  band No.  band energies     occupation 
      1      -7.6961      2.00000
      2      -1.3722      2.00000
      3       6.8925      2.00000
      4       7.0878      2.00000
      5      17.8368      0.00000
      6      18.2653      0.00000
      7      18.4103      0.00000
      8      25.0376      0.00000

 k-point    29 :       0.4333    0.0333    0.0000
  band No.  band energies     occupation 
      1      -7.0468      2.00000
      2      -2.3033      2.00000
      3       6.8223      2.00000
      4       6.9388      2.00000
      5      17.9140      0.00000
      6      18.2560      0.00000
      7      18.4656      0.00000
      8      25.1689      0.00000

 k-point    30 :       0.4667    0.0333    0.0000
  band No.  band energies     occupation 
      1      -6.4316      2.00000
      2      -3.1023      2.00000
      3       6.7923      2.00000
      4       6.8262      2.00000
      5      17.9741      0.00000
      6      18.2263      0.00000
      7      18.4992      0.00000
      8      25.2522      0.00000

 k-point    31 :       0.5000    0.0333    0.0000
  band No.  band energies     occupation 
      1      -6.0202      2.00000
      2      -3.5974      2.00000
      3       6.7512      2.00000
      4       6.8021      2.00000
      5      18.0263      0.00000
      6      18.1854      0.00000
      7      18.5130      0.00000
      8      25.2923      0.00000

 k-point    32 :      -0.4667    0.0333    0.0000
  band No.  band energies     occupation 
      1      -6.1152      2.00000
      2      -3.4856      2.00000
      3       6.7150      2.00000
      4       6.8514      2.00000
      5      18.0743      0.00000
      6      18.1376      0.00000
      7      18.5073      0.00000
      8      25.2885      0.00000

 k-point    33 :      -0.4333    0.0333    0.0000
  band No.  band energies     occupation 
      1      -6.6264      2.00000
      2      -2.8571      2.00000
      3       6.7182      2.00000
      4       6.9392      2.00000
      5      18.0827      0.00000
      6      18.1171      0.00000
      7      18.4819      0.00000
      8      25.2407      0.00000

 k-point    34 :      -0.4000    0.0333    0.0000
  band No.  band energies     occupation 
      1      -7.2634      2.00000
      2      -2.0034      2.00000
      3       6.7614      2.00000
      4       7.0644      2.00000
      5      18.0156      0.00000
      6      18.1485      0.00000
      7      18.4355      0.00000
      8      25.1486      0.00000

 k-point    35 :      -0.3667    0.0333    0.0000
  band No.  band energies     occupation 
      1      -7.9095      2.00000
      2      -1.0434      2.00000
      3       6.8445      2.00000
      4       7.2256      2.00000
      5      17.9262      0.00000
      6      18.1577      0.00000
      7      18.3660      0.00000
      8      25.0063      0.00000

 k-point    36 :      -0.3333    0.0333    0.0000
  band No.  band energies     occupation 
      1      -8.5267      2.00000
      2      -0.0179      2.00000
      3       6.9673      2.00000
      4       7.4209      2.00000
      5      17.8029      0.00000
      6      18.1298      0.00000
      7      18.2703      0.00000
      8      24.8159      0.00000

 k-point    37 :      -0.3000    0.0333    0.0000
  band No.  band energies     occupation 
      1      -9.1003      2.00000
      2       1.0538      2.00000
      3       7.1291      2.00000
      4       7.6475      2.00000
      5      17.6329      0.00000
      6      18.0455      0.00000
      7      18.1467      0.00000
      8      24.5840      0.00000

 k-point    38 :      -0.2667    0.0333    0.0000
  band No.  band energies     occupation 
      1      -9.6234      2.00000
      2       2.1586      2.00000
      3       7.3281      2.00000
      4       7.9018      2.00000
      5      17.4069      0.00000
      6      17.8860      0.00000
      7      17.9945      0.00000
      8      24.3258      0.00000

 k-point    39 :      -0.2333    0.0333    0.0000
  band No.  band energies     occupation 
      1     -10.0920      2.00000
      2       3.2842      2.00000
      3       7.5619      2.00000
      4       8.1786      2.00000
      5      17.1223      0.00000
      6      17.6477      0.00000
      7      17.8018      0.00000
      8      24.0575      0.00000

 k-point    40 :      -0.2000    0.0333    0.0000
  band No.  band energies     occupation 
      1     -10.5038      2.00000
      2       4.4168      2.00000
      3       7.8264      2.00000
      4       8.4702      2.00000
      5      16.7877      0.00000
      6      17.3385      0.00000
      7      17.5541      0.00000
      8      23.7933      0.00000

 k-point    41 :      -0.1667    0.0333    0.0000
  band No.  band energies     occupation 
      1     -10.8573      2.00000
      2       5.5389      2.00000
      3       8.1156      2.00000
      4       8.7659      2.00000
      5      16.4216      0.00000
      6      16.9724      0.00000
      7      17.2440      0.00000
      8      23.5461      0.00000

 k-point    42 :      -0.1333    0.0333    0.0000
  band No.  band energies     occupation 
      1     -11.1515      2.00000
      2       6.6264      2.00000
      3       8.4207      2.00000
      4       9.0502      2.00000
      5      16.0523      0.00000
      6      16.5703      0.00000
      7      16.8702      0.00000
      8      23.3269      0.00000

 k-point    43 :      -0.1000    0.0333    0.0000
  band No.  band energies     occupation 
      1     -11.3856      2.00000
      2       7.6432      2.00000
      3       8.7290      2.00000
      4       9.3016      2.00000
      5      15.7157      0.00000
      6      16.1610      0.00000
      7      16.4449      0.00000
      8      23.1446      0.00000

 k-point    44 :      -0.0667    0.0333    0.0000
  band No.  band energies     occupation 
      1     -11.5589      2.00000
      2       8.5316      2.00000
      3       9.0246      2.00000
      4       9.4929      2.00000
      5      15.4531      0.00000
      6      15.7817      0.00000
      7      16.0016      0.00000
      8      23.0058      0.00000

 k-point    45 :      -0.0333    0.0333    0.0000
  band No.  band energies     occupation 
      1     -11.6712      2.00000
      2       9.1767      2.00000
      3       9.3095      2.00000
      4       9.5957      2.00000
      5      15.3034      0.00000
      6      15.4790      0.00000
      7      15.6034      0.00000
      8      22.9140      0.00000

 k-point    46 :       0.0667    0.0667    0.0000
  band No.  band energies     occupation 
      1     -11.5896      2.00000
      2       9.0293      2.00000
      3       9.0293      2.00000
      4       9.2467      2.00000
      5      15.0915      0.00000
      6      15.9767      0.00000
      7      15.9767      0.00000
      8      22.9490      0.00000

 k-point    47 :       0.1000    0.0667    0.0000
  band No.  band energies     occupation 
      1     -11.4773      2.00000
      2       8.4540      2.00000
      3       8.7378      2.00000
      4       9.1599      2.00000
      5      15.1107      0.00000
      6      16.3511      0.00000
      7      16.3718      0.00000
      8      22.9976      0.00000

 k-point    48 :       0.1333    0.0667    0.0000
  band No.  band energies     occupation 
      1     -11.3040      2.00000
      2       7.6000      2.00000
      3       8.4232      2.00000
      4       9.0339      2.00000
      5      15.2773      0.00000
      6      16.7678      0.00000
      7      16.8139      0.00000
      8      23.0773      0.00000

 k-point    49 :       0.1667    0.0667    0.0000
  band No.  band energies     occupation 
      1     -11.0702      2.00000
      2       6.6105      2.00000
      3       8.1061      2.00000
      4       8.8292      2.00000
      5      15.5550      0.00000
      6      17.1931      0.00000
      7      17.2388      0.00000
      8      23.1850      0.00000

 k-point    50 :       0.2000    0.0667    0.0000
  band No.  band energies     occupation 
      1     -10.7762      2.00000
      2       5.5443      2.00000
      3       7.8019      2.00000
      4       8.5703      2.00000
      5      15.8979      0.00000
      6      17.5973      0.00000
      7      17.6136      0.00000
      8      23.3186      0.00000

 k-point    51 :       0.2333    0.0667    0.0000
  band No.  band energies     occupation 
      1     -10.4230      2.00000
      2       4.4385      2.00000
      3       7.5211      2.00000
      4       8.2821      2.00000
      5      16.2622      0.00000
      6      17.9262      0.00000
      7      17.9542      0.00000
      8      23.4789      0.00000

 k-point    52 :       0.2667    0.0667    0.0000
  band No.  band energies     occupation 
      1     -10.0116      2.00000
      2       3.3185      2.00000
      3       7.2711      2.00000
      4       7.9843      2.00000
      5      16.6111      0.00000
      6      18.1780      0.00000
      7      18.2445      0.00000
      8      23.6699      0.00000

 k-point    53 :       0.3000    0.0667    0.0000
  band No.  band energies     occupation 
      1      -9.5434      2.00000
      2       2.2027      2.00000
      3       7.0568      2.00000
      4       7.6912      2.00000
      5      16.9181      0.00000
      6      18.3762      0.00000
      7      18.4579      0.00000
      8      23.8960      0.00000

 k-point    54 :       0.3333    0.0667    0.0000
  band No.  band energies     occupation 
      1      -9.0210      2.00000
      2       1.1057      2.00000
      3       6.8815      2.00000
      4       7.4128      2.00000
      5      17.1703      0.00000
      6      18.5290      0.00000
      7      18.5932      0.00000
      8      24.1556      0.00000

 k-point    55 :       0.3667    0.0667    0.0000
  band No.  band energies     occupation 
      1      -8.4480      2.00000
      2       0.0402      2.00000
      3       6.7473      2.00000
      4       7.1564      2.00000
      5      17.3668      0.00000
      6      18.6441      0.00000
      7      18.6584      0.00000
      8      24.4334      0.00000

 k-point    56 :       0.4000    0.0667    0.0000
  band No.  band energies     occupation 
      1      -7.8317      2.00000
      2      -0.9804      2.00000
      3       6.6553      2.00000
      4       6.9271      2.00000
      5      17.5176      0.00000
      6      18.6662      0.00000
      7      18.7283      0.00000
      8      24.7058      0.00000

 k-point    57 :       0.4333    0.0667    0.0000
  band No.  band energies     occupation 
      1      -7.1869      2.00000
      2      -1.9363      2.00000
      3       6.6059      2.00000
      4       6.7289      2.00000
      5      17.6362      0.00000
      6      18.6317      0.00000
      7      18.7867      0.00000
      8      24.9462      0.00000

 k-point    58 :       0.4667    0.0667    0.0000
  band No.  band energies     occupation 
      1      -6.5513      2.00000
      2      -2.7864      2.00000
      3       6.5648      2.00000
      4       6.5990      2.00000
      5      17.7371      0.00000
      6      18.5696      0.00000
      7      18.8228      0.00000
      8      25.1328      0.00000

 k-point    59 :       0.5000    0.0667    0.0000
  band No.  band energies     occupation 
      1      -6.0420      2.00000
      2      -3.4119      2.00000
      3       6.4372      2.00000
      4       6.6338      2.00000
      5      17.8309      0.00000
      6      18.4903      0.00000
      7      18.8388      0.00000
      8      25.2476      0.00000

 k-point    60 :      -0.4667    0.0667    0.0000
  band No.  band energies     occupation 
      1      -5.9478      2.00000
      2      -3.5225      2.00000
      3       6.3480      2.00000
      4       6.7096      2.00000
      5      17.9236      0.00000
      6      18.4004      0.00000
      7      18.8360      0.00000
      8      25.2859      0.00000

 k-point    61 :      -0.4333    0.0667    0.0000
  band No.  band energies     occupation 
      1      -6.3577      2.00000
      2      -3.0292      2.00000
      3       6.2988      2.00000
      4       6.8247      2.00000
      5      18.0161      0.00000
      6      18.3018      0.00000
      7      18.8143      0.00000
      8      25.2500      0.00000

 k-point    62 :      -0.4000    0.0667    0.0000
  band No.  band energies     occupation 
      1      -6.9713      2.00000
      2      -2.2330      2.00000
      3       6.2908      2.00000
      4       6.9775      2.00000
      5      18.1033      0.00000
      6      18.1911      0.00000
      7      18.7724      0.00000
      8      25.1365      0.00000

 k-point    63 :      -0.3667    0.0667    0.0000
  band No.  band energies     occupation 
      1      -7.6192      2.00000
      2      -1.3053      2.00000
      3       6.3248      2.00000
      4       7.1657      2.00000
      5      18.0606      0.00000
      6      18.1749      0.00000
      7      18.7078      0.00000
      8      24.9555      0.00000

 k-point    64 :      -0.3333    0.0667    0.0000
  band No.  band energies     occupation 
      1      -8.2473      2.00000
      2      -0.3031      2.00000
      3       6.4012      2.00000
      4       7.3864      2.00000
      5      17.8998      0.00000
      6      18.2182      0.00000
      7      18.6153      0.00000
      8      24.7224      0.00000

 k-point    65 :      -0.3000    0.0667    0.0000
  band No.  band energies     occupation 
      1      -8.8356      2.00000
      2       0.7497      2.00000
      3       6.5200      2.00000
      4       7.6359      2.00000
      5      17.6981      0.00000
      6      18.2177      0.00000
      7      18.4863      0.00000
      8      24.4603      0.00000

 k-point    66 :      -0.2667    0.0667    0.0000
  band No.  band energies     occupation 
      1      -9.3753      2.00000
      2       1.8382      2.00000
      3       6.6806      2.00000
      4       7.9095      2.00000
      5      17.4472      0.00000
      6      18.1605      0.00000
      7      18.3084      0.00000
      8      24.1918      0.00000

 k-point    67 :      -0.2333    0.0667    0.0000
  band No.  band energies     occupation 
      1      -9.8619      2.00000
      2       2.9496      2.00000
      3       6.8815      2.00000
      4       8.2005      2.00000
      5      17.1460      0.00000
      6      18.0364      0.00000
      7      18.0712      0.00000
      8      23.9408      0.00000

 k-point    68 :      -0.2000    0.0667    0.0000
  band No.  band energies     occupation 
      1     -10.2924      2.00000
      2       4.0699      2.00000
      3       7.1205      2.00000
      4       8.4995      2.00000
      5      16.8026      0.00000
      6      17.7573      0.00000
      7      17.8525      0.00000
      8      23.7162      0.00000

 k-point    69 :      -0.1667    0.0667    0.0000
  band No.  band energies     occupation 
      1     -10.6651      2.00000
      2       5.1813      2.00000
      3       7.3944      2.00000
      4       8.7937      2.00000
      5      16.4381      0.00000
      6      17.3853      0.00000
      7      17.5921      0.00000
      8      23.5201      0.00000

 k-point    70 :      -0.1333    0.0667    0.0000
  band No.  band energies     occupation 
      1     -10.9789      2.00000
      2       6.2585      2.00000
      3       7.6996      2.00000
      4       9.0651      2.00000
      5      16.0821      0.00000
      6      16.9678      0.00000
      7      17.2622      0.00000
      8      23.3508      0.00000

 k-point    71 :      -0.1000    0.0667    0.0000
  band No.  band energies     occupation 
      1     -11.2328      2.00000
      2       7.2587      2.00000
      3       8.0370      2.00000
      4       9.2902      2.00000
      5      15.7727      0.00000
      6      16.5349      0.00000
      7      16.8690      0.00000
      8      23.2075      0.00000

 k-point    72 :      -0.0667    0.0667    0.0000
  band No.  band energies     occupation 
      1     -11.4263      2.00000
      2       8.0713      2.00000
      3       8.4549      2.00000
      4       9.4412      2.00000
      5      15.5513      0.00000
      6      16.1246      0.00000
      7      16.4329      0.00000
      8      23.0915      0.00000

 k-point    73 :       0.1000    0.1000    0.0000
  band No.  band energies     occupation 
      1     -11.3855      2.00000
      2       8.4276      2.00000
      3       8.4277      2.00000
      4       8.7743      2.00000
      5      14.9447      0.00000
      6      16.7520      0.00000
      7      16.7520      0.00000
      8      22.9653      0.00000

 k-point    74 :       0.1333    0.1000    0.0000
  band No.  band energies     occupation 
      1     -11.2327      2.00000
      2       7.7957      2.00000
      3       8.1002      2.00000
      4       8.6477      2.00000
      5      14.9447      0.00000
      6      17.1924      0.00000
      7      17.1967      0.00000
      8      22.9399      0.00000

 k-point    75 :       0.1667    0.1000    0.0000
  band No.  band energies     occupation 
      1     -11.0192      2.00000
      2       6.9005      2.00000
      3       7.7749      2.00000
      4       8.5185      2.00000
      5      15.0980      0.00000
      6      17.6375      0.00000
      7      17.6405      0.00000
      8      22.9219      0.00000

 k-point    76 :       0.2000    0.1000    0.0000
  band No.  band energies     occupation 
      1     -10.7456      2.00000
      2       5.8957      2.00000
      3       7.4659      2.00000
      4       8.3130      2.00000
      5      15.3672      0.00000
      6      18.0350      0.00000
      7      18.0672      0.00000
      8      22.9170      0.00000

 k-point    77 :       0.2333    0.1000    0.0000
  band No.  band energies     occupation 
      1     -10.4125      2.00000
      2       4.8310      2.00000
      3       7.1834      2.00000
      4       8.0511      2.00000
      5      15.7042      0.00000
      6      18.3719      0.00000
      7      18.4469      0.00000
      8      22.9395      0.00000

 k-point    78 :       0.2667    0.1000    0.0000
  band No.  band energies     occupation 
      1     -10.0209      2.00000
      2       3.7375      2.00000
      3       6.9344      2.00000
      4       7.7570      2.00000
      5      16.0615      0.00000
      6      18.6459      0.00000
      7      18.7593      0.00000
      8      23.0114      0.00000

 k-point    79 :       0.3000    0.1000    0.0000
  band No.  band energies     occupation 
      1      -9.5722      2.00000
      2       2.6374      2.00000
      3       6.7239      2.00000
      4       7.4506      2.00000
      5      16.3994      0.00000
      6      18.8610      0.00000
      7      18.9915      0.00000
      8      23.1552      0.00000

 k-point    80 :       0.3333    0.1000    0.0000
  band No.  band energies     occupation 
      1      -9.0684      2.00000
      2       1.5475      2.00000
      3       6.5549      2.00000
      4       7.1467      2.00000
      5      16.6916      0.00000
      6      19.0270      0.00000
      7      19.1396      0.00000
      8      23.3852      0.00000

 k-point    81 :       0.3667    0.1000    0.0000
  band No.  band energies     occupation 
      1      -8.5129      2.00000
      2       0.4817      2.00000
      3       6.4297      2.00000
      4       6.8560      2.00000
      5      16.9284      0.00000
      6      19.1518      0.00000
      7      19.2098      0.00000
      8      23.6959      0.00000

 k-point    82 :       0.4000    0.1000    0.0000
  band No.  band energies     occupation 
      1      -7.9113      2.00000
      2      -0.5461      2.00000
      3       6.3492      2.00000
      4       6.5864      2.00000
      5      17.1149      0.00000
      6      19.2131      0.00000
      7      19.2425      0.00000
      8      24.0625      0.00000

 k-point    83 :       0.4333    0.1000    0.0000
  band No.  band energies     occupation 
      1      -7.2753      2.00000
      2      -1.5188      2.00000
      3       6.3138      2.00000
      4       6.3438      2.00000
      5      17.2649      0.00000
      6      19.1649      0.00000
      7      19.3052      0.00000
      8      24.4451      0.00000

 k-point    84 :       0.4667    0.1000    0.0000
  band No.  band energies     occupation 
      1      -6.6319      2.00000
      2      -2.4051      2.00000
      3       6.1326      2.00000
      4       6.3232      2.00000
      5      17.3952      0.00000
      6      19.0805      0.00000
      7      19.3445      0.00000
      8      24.7965      0.00000

 k-point    85 :       0.5000    0.1000    0.0000
  band No.  band energies     occupation 
      1      -6.0606      2.00000
      2      -3.1227      2.00000
      3       5.9565      2.00000
      4       6.3767      2.00000
      5      17.5190      0.00000
      6      18.9712      0.00000
      7      19.3632      0.00000
      8      25.0679      0.00000

 k-point    86 :      -0.4667    0.1000    0.0000
  band No.  band energies     occupation 
      1      -5.7938      2.00000
      2      -3.4380      2.00000
      3       5.8185      2.00000
      4       6.4730      2.00000
      5      17.6449      0.00000
      6      18.8456      0.00000
      7      19.3630      0.00000
      8      25.2230      0.00000

 k-point    87 :      -0.4333    0.1000    0.0000
  band No.  band energies     occupation 
      1      -6.0622      2.00000
      2      -3.1195      2.00000
      3       5.7208      2.00000
      4       6.6102      2.00000
      5      17.7762      0.00000
      6      18.7070      0.00000
      7      19.3447      0.00000
      8      25.2452      0.00000

 k-point    88 :      -0.4000    0.1000    0.0000
  band No.  band energies     occupation 
      1      -6.6336      2.00000
      2      -2.3997      2.00000
      3       5.6655      2.00000
      4       6.7861      2.00000
      5      17.9099      0.00000
      6      18.5541      0.00000
      7      19.3071      0.00000
      8      25.1360      0.00000

 k-point    89 :      -0.3667    0.1000    0.0000
  band No.  band energies     occupation 
      1      -7.2768      2.00000
      2      -1.5117      2.00000
      3       5.6539      2.00000
      4       6.9976      2.00000
      5      18.0380      0.00000
      6      18.3810      0.00000
      7      19.2469      0.00000
      8      24.9144      0.00000

 k-point    90 :      -0.3333    0.1000    0.0000
  band No.  band energies     occupation 
      1      -7.9126      2.00000
      2      -0.5372      2.00000
      3       5.6871      2.00000
      4       7.2412      2.00000
      5      18.1474      0.00000
      6      18.1791      0.00000
      7      19.1579      0.00000
      8      24.6225      0.00000

 k-point    91 :      -0.3000    0.1000    0.0000
  band No.  band energies     occupation 
      1      -8.5139      2.00000
      2       0.4924      2.00000
      3       5.7657      2.00000
      4       7.5122      2.00000
      5      17.9396      0.00000
      6      18.2219      0.00000
      7      19.0297      0.00000
      8      24.3051      0.00000

 k-point    92 :      -0.2667    0.1000    0.0000
  band No.  band energies     occupation 
      1      -9.0692      2.00000
      2       1.5599      2.00000
      3       5.8900      2.00000
      4       7.8042      2.00000
      5      17.6561      0.00000
      6      18.2451      0.00000
      7      18.8471      0.00000
      8      24.0047      0.00000

 k-point    93 :      -0.2333    0.1000    0.0000
  band No.  band energies     occupation 
      1      -9.5728      2.00000
      2       2.6509      2.00000
      3       6.0600      2.00000
      4       8.1093      2.00000
      5      17.3292      0.00000
      6      18.2035      0.00000
      7      18.5957      0.00000
      8      23.7554      0.00000

 k-point    94 :      -0.2000    0.1000    0.0000
  band No.  band energies     occupation 
      1     -10.0214      2.00000
      2       3.7496      2.00000
      3       6.2757      2.00000
      4       8.4163      2.00000
      5      16.9697      0.00000
      6      18.0890      0.00000
      7      18.2672      0.00000
      8      23.5700      0.00000

 k-point    95 :      -0.1667    0.1000    0.0000
  band No.  band energies     occupation 
      1     -10.4129      2.00000
      2       4.8344      2.00000
      3       6.5392      2.00000
      4       8.7101      2.00000
      5      16.5991      0.00000
      6      17.8695      0.00000
      7      17.8966      0.00000
      8      23.4407      0.00000

 k-point    96 :      -0.1333    0.1000    0.0000
  band No.  band energies     occupation 
      1     -10.7459      2.00000
      2       5.8649      2.00000
      3       6.8646      2.00000
      4       8.9706      2.00000
      5      16.2499      0.00000
      6      17.4252      0.00000
      7      17.6247      0.00000
      8      23.3485      0.00000

 k-point    97 :      -0.1000    0.1000    0.0000
  band No.  band energies     occupation 
      1     -11.0194      2.00000
      2       6.7242      2.00000
      3       7.3309      2.00000
      4       9.1730      2.00000
      5      15.9612      0.00000
      6      16.9675      0.00000
      7      17.2774      0.00000
      8      23.2746      0.00000

 k-point    98 :       0.1333    0.1333    0.0000
  band No.  band energies     occupation 
      1     -11.1004      2.00000
      2       7.7628      2.00000
      3       7.7628      2.00000
      4       8.1527      2.00000
      5      14.7619      0.00000
      6      17.6568      0.00000
      7      17.6569      0.00000
      8      22.7797      0.00000

 k-point    99 :       0.1667    0.1333    0.0000
  band No.  band energies     occupation 
      1     -10.9075      2.00000
      2       7.1015      2.00000
      3       7.4298      2.00000
      4       7.9963      2.00000
      5      14.7503      0.00000
      6      18.1252      0.00000
      7      18.1304      0.00000
      8      22.6055      0.00000

 k-point   100 :       0.2000    0.1333    0.0000
  band No.  band energies     occupation 
      1     -10.6543      2.00000
      2       6.1917      2.00000
      3       7.1150      2.00000
      4       7.8568      2.00000
      5      14.8977      0.00000
      6      18.5567      0.00000
      7      18.5847      0.00000
      8      22.4354      0.00000

 k-point   101 :       0.2333    0.1333    0.0000
  band No.  band energies     occupation 
      1     -10.3415      2.00000
      2       5.1916      2.00000
      3       6.8285      2.00000
      4       7.6405      2.00000
      5      15.1650      0.00000
      6      18.9284      0.00000
      7      18.9945      0.00000
      8      22.2978      0.00000

 k-point   102 :       0.2667    0.1333    0.0000
  band No.  band energies     occupation 
      1      -9.9700      2.00000
      2       4.1435      2.00000
      3       6.5771      2.00000
      4       7.3659      2.00000
      5      15.4995      0.00000
      6      19.2332      0.00000
      7      19.3376      0.00000
      8      22.2276      0.00000

 k-point   103 :       0.3000    0.1333    0.0000
  band No.  band energies     occupation 
      1      -9.5411      2.00000
      2       3.0741      2.00000
      3       6.3660      2.00000
      4       7.0578      2.00000
      5      15.8496      0.00000
      6      19.4746      0.00000
      7      19.5990      0.00000
      8      22.2596      0.00000

 k-point   104 :       0.3333    0.1333    0.0000
  band No.  band energies     occupation 
      1      -9.0566      2.00000
      2       2.0035      2.00000
      3       6.1983      2.00000
      4       6.7367      2.00000
      5      16.1735      0.00000
      6      19.6602      0.00000
      7      19.7722      0.00000
      8      22.4200      0.00000

 k-point   105 :       0.3667    0.1333    0.0000
  band No.  band energies     occupation 
      1      -8.5192      2.00000
      2       0.9476      2.00000
      3       6.0763      2.00000
      4       6.4179      2.00000
      5      16.4467      0.00000
      6      19.7992      0.00000
      7      19.8595      0.00000
      8      22.7171      0.00000

 k-point   106 :       0.4000    0.1333    0.0000
  band No.  band energies     occupation 
      1      -7.9339      2.00000
      2      -0.0788      2.00000
      3       6.0011      2.00000
      4       6.1130      2.00000
      5      16.6652      0.00000
      6      19.8714      0.00000
      7      19.8987      0.00000
      8      23.1338      0.00000

 k-point   107 :       0.4333    0.1333    0.0000
  band No.  band energies     occupation 
      1      -7.3098      2.00000
      2      -1.0597      2.00000
      3       5.8302      2.00000
      4       5.9731      2.00000
      5      16.8410      0.00000
      6      19.8214      0.00000
      7      19.9676      0.00000
      8      23.6302      0.00000

 k-point   108 :       0.4667    0.1333    0.0000
  band No.  band energies     occupation 
      1      -6.6668      2.00000
      2      -1.9696      2.00000
      3       5.5761      2.00000
      4       5.9922      2.00000
      5      16.9925      0.00000
      6      19.7251      0.00000
      7      20.0107      0.00000
      8      24.1523      0.00000

 k-point   109 :       0.5000    0.1333    0.0000
  band No.  band energies     occupation 
      1      -6.0600      2.00000
      2      -2.7502      2.00000
      3       5.3556      2.00000
      4       6.0574      2.00000
      5      17.1366      0.00000
      6      19.5954      0.00000
      7      20.0322      0.00000
      8      24.6309      0.00000

 k-point   110 :      -0.4667    0.1333    0.0000
  band No.  band energies     occupation 
      1      -5.6579      2.00000
      2      -3.2305      2.00000
      3       5.1728      2.00000
      4       6.1673      2.00000
      5      17.2850      0.00000
      6      19.4414      0.00000
      7      20.0343      0.00000
      8      24.9921      0.00000

 k-point   111 :      -0.4333    0.1333    0.0000
  band No.  band energies     occupation 
      1      -5.7530      2.00000
      2      -3.1171      2.00000
      3       5.0307      2.00000
      4       6.3201      2.00000
      5      17.4443      0.00000
      6      19.2682      0.00000
      7      20.0182      0.00000
      8      25.1661      0.00000

 k-point   112 :      -0.4000    0.1333    0.0000
  band No.  band energies     occupation 
      1      -6.2561      2.00000
      2      -2.4992      2.00000
      3       4.9320      2.00000
      4       6.5129      2.00000
      5      17.6141      0.00000
      6      19.0764      0.00000
      7      19.9829      0.00000
      8      25.1254      0.00000

 k-point   113 :      -0.3667    0.1333    0.0000
  band No.  band energies     occupation 
      1      -6.8852      2.00000
      2      -1.6604      2.00000
      3       4.8786      2.00000
      4       6.7425      2.00000
      5      17.7887      0.00000
      6      18.8612      0.00000
      7      19.9247      0.00000
      8      24.8963      0.00000

 k-point   114 :      -0.3333    0.1333    0.0000
  band No.  band energies     occupation 
      1      -7.5247      2.00000
      2      -0.7186      2.00000
      3       4.8724      2.00000
      4       7.0044      2.00000
      5      17.9568      0.00000
      6      18.6162      0.00000
      7      19.8355      0.00000
      8      24.5512      0.00000

 k-point   115 :      -0.3000    0.1333    0.0000
  band No.  band energies     occupation 
      1      -8.1367      2.00000
      2       0.2838      2.00000
      3       4.9147      2.00000
      4       7.2931      2.00000
      5      18.1027      0.00000
      6      18.3343      0.00000
      7      19.7017      0.00000
      8      24.1700      0.00000

 k-point   116 :      -0.2667    0.1333    0.0000
  band No.  band energies     occupation 
      1      -8.7061      2.00000
      2       1.3252      2.00000
      3       5.0069      2.00000
      4       7.6012      2.00000
      5      18.0116      0.00000
      6      18.2076      0.00000
      7      19.5040      0.00000
      8      23.8222      0.00000

 k-point   117 :      -0.2333    0.1333    0.0000
  band No.  band energies     occupation 
      1      -9.2258      2.00000
      2       2.3883      2.00000
      3       5.1513      2.00000
      4       7.9193      2.00000
      5      17.6506      0.00000
      6      18.2532      0.00000
      7      19.2230      0.00000
      8      23.5601      0.00000

 k-point   118 :      -0.2000    0.1333    0.0000
  band No.  band energies     occupation 
      1      -9.6917      2.00000
      2       3.4517      2.00000
      3       5.3538      2.00000
      4       8.2345      2.00000
      5      17.2658      0.00000
      6      18.2246      0.00000
      7      18.8525      0.00000
      8      23.4037      0.00000

 k-point   119 :      -0.1667    0.1333    0.0000
  band No.  band energies     occupation 
      1     -10.1013      2.00000
      2       4.4735      2.00000
      3       5.6373      2.00000
      4       8.5299      2.00000
      5      16.8806      0.00000
      6      18.1125      0.00000
      7      18.4072      0.00000
      8      23.3407      0.00000

 k-point   120 :      -0.1333    0.1333    0.0000
  band No.  band energies     occupation 
      1     -10.4531      2.00000
      2       5.3283      2.00000
      3       6.1021      2.00000
      4       8.7838      2.00000
      5      16.5286      0.00000
      6      17.9121      0.00000
      7      17.9183      0.00000
      8      23.3353      0.00000

 k-point   121 :       0.1667    0.1667    0.0000
  band No.  band energies     occupation 
      1     -10.7351      2.00000
      2       7.0897      2.00000
      3       7.0897      2.00000
      4       7.4073      2.00000
      5      14.5592      0.00000
      6      18.6332      0.00000
      7      18.6333      0.00000
      8      22.2602      0.00000

 k-point   122 :       0.2000    0.1667    0.0000
  band No.  band energies     occupation 
      1     -10.5025      2.00000
      2       6.3975      2.00000
      3       6.7683      2.00000
      4       7.2468      2.00000
      5      14.5450      0.00000
      6      19.1111      0.00000
      7      19.1202      0.00000
      8      21.9193      0.00000

 k-point   123 :       0.2333    0.1667    0.0000
  band No.  band energies     occupation 
      1     -10.2102      2.00000
      2       5.4875      2.00000
      3       6.4758      2.00000
      4       7.0946      2.00000
      5      14.6941      0.00000
      6      19.5305      0.00000
      7      19.5664      0.00000
      8      21.6219      0.00000

 k-point   124 :       0.2667    0.1667    0.0000
  band No.  band energies     occupation 
      1      -9.8590      2.00000
      2       4.5066      2.00000
      3       6.2194      2.00000
      4       6.8586      2.00000
      5      14.9640      0.00000
      6      19.8780      0.00000
      7      19.9481      0.00000
      8      21.4082      0.00000

 k-point   125 :       0.3000    0.1667    0.0000
  band No.  band energies     occupation 
      1      -9.4502      2.00000
      2       3.4875      2.00000
      3       6.0041      2.00000
      4       6.5626      2.00000
      5      15.2981      0.00000
      6      20.1542      0.00000
      7      20.2484      0.00000
      8      21.3170      0.00000

 k-point   126 :       0.3333    0.1667    0.0000
  band No.  band energies     occupation 
      1      -8.9853      2.00000
      2       2.4527      2.00000
      3       5.8336      2.00000
      4       6.2331      2.00000
      5      15.6392      0.00000
      6      20.3677      0.00000
      7      20.4573      0.00000
      8      21.3805      0.00000

 k-point   127 :       0.3667    0.1667    0.0000
  band No.  band energies     occupation 
      1      -8.4668      2.00000
      2       1.4206      2.00000
      3       5.7102      2.00000
      4       5.8920      2.00000
      5      15.9446      0.00000
      6      20.5281      0.00000
      7      20.5740      0.00000
      8      21.6182      0.00000

 k-point   128 :       0.4000    0.1667    0.0000
  band No.  band energies     occupation 
      1      -7.8989      2.00000
      2       0.4072      2.00000
      3       5.5557      2.00000
      4       5.6351      2.00000
      5      16.1950      0.00000
      6      20.6059      0.00000
      7      20.6443      0.00000
      8      22.0264      0.00000

 k-point   129 :       0.4333    0.1667    0.0000
  band No.  band energies     occupation 
      1      -7.2890      2.00000
      2      -0.5713      2.00000
      3       5.2360      2.00000
      4       5.6090      2.00000
      5      16.3951      0.00000
      6      20.5659      0.00000
      7      20.7237      0.00000
      8      22.5757      0.00000

 k-point   130 :       0.4667    0.1667    0.0000
  band No.  band energies     occupation 
      1      -6.6522      2.00000
      2      -1.4926      2.00000
      3       4.9417      2.00000
      4       5.6316      2.00000
      5      16.5638      0.00000
      6      20.4686      0.00000
      7      20.7731      0.00000
      8      23.2147      0.00000

 k-point   131 :       0.5000    0.1667    0.0000
  band No.  band energies     occupation 
      1      -6.0274      2.00000
      2      -2.3136      2.00000
      3       4.6796      2.00000
      4       5.7023      2.00000
      5      16.7214      0.00000
      6      20.3270      0.00000
      7      20.7979      0.00000
      8      23.8764      0.00000

 k-point   132 :      -0.4667    0.1667    0.0000
  band No.  band energies     occupation 
      1      -5.5317      2.00000
      2      -2.9136      2.00000
      3       4.4549      2.00000
      4       5.8196      2.00000
      5      16.8843      0.00000
      6      20.1522      0.00000
      7      20.8031      0.00000
      8      24.4797      0.00000

 k-point   133 :      -0.4333    0.1667    0.0000
  band No.  band energies     occupation 
      1      -5.4448      2.00000
      2      -3.0115      2.00000
      3       4.2714      2.00000
      4       5.9814      2.00000
      5      17.0616      0.00000
      6      19.9502      0.00000
      7      20.7899      0.00000
      8      24.9080      0.00000

 k-point   134 :      -0.4000    0.1667    0.0000
  band No.  band energies     occupation 
      1      -5.8464      2.00000
      2      -2.5272      2.00000
      3       4.1325      2.00000
      4       6.1850      2.00000
      5      17.2559      0.00000
      6      19.7224      0.00000
      7      20.7572      0.00000
      8      25.0495      0.00000

 k-point   135 :      -0.3667    0.1667    0.0000
  band No.  band energies     occupation 
      1      -6.4483      2.00000
      2      -1.7499      2.00000
      3       4.0409      2.00000
      4       6.4267      2.00000
      5      17.4641      0.00000
      6      19.4662      0.00000
      7      20.7010      0.00000
      8      24.8814      0.00000

 k-point   136 :      -0.3333    0.1667    0.0000
  band No.  band energies     occupation 
      1      -7.0862      2.00000
      2      -0.8468      2.00000
      3       3.9989      2.00000
      4       6.7017      2.00000
      5      17.6780      0.00000
      6      19.1763      0.00000
      7      20.6116      0.00000
      8      24.5117      0.00000

 k-point   137 :      -0.3000    0.1667    0.0000
  band No.  band energies     occupation 
      1      -7.7061      2.00000
      2       0.1233      2.00000
      3       4.0092      2.00000
      4       7.0036      2.00000
      5      17.8832      0.00000
      6      18.8472      0.00000
      7      20.4683      0.00000
      8      24.0735      0.00000

 k-point   138 :      -0.2667    0.1667    0.0000
  band No.  band energies     occupation 
      1      -8.2878      2.00000
      2       1.1320      2.00000
      3       4.0754      2.00000
      4       7.3246      2.00000
      5      18.0620      0.00000
      6      18.4787      0.00000
      7      20.2445      0.00000
      8      23.6781      0.00000

 k-point   139 :      -0.2333    0.1667    0.0000
  band No.  band energies     occupation 
      1      -8.8221      2.00000
      2       2.1541      2.00000
      3       4.2062      2.00000
      4       7.6539      2.00000
      5      18.0766      0.00000
      6      18.1929      0.00000
      7      19.9142      0.00000
      8      23.4013      0.00000

 k-point   140 :      -0.2000    0.1667    0.0000
  band No.  band energies     occupation 
      1      -9.3043      2.00000
      2       3.1447      2.00000
      3       4.4305      2.00000
      4       7.9775      2.00000
      5      17.6566      0.00000
      6      18.2544      0.00000
      7      19.4752      0.00000
      8      23.2701      0.00000

 k-point   141 :      -0.1667    0.1667    0.0000
  band No.  band energies     occupation 
      1      -9.7313      2.00000
      2       3.9699      2.00000
      3       4.8636      2.00000
      4       8.2771      2.00000
      5      17.2462      0.00000
      6      18.2311      0.00000
      7      18.9579      0.00000
      8      23.2660      0.00000

 k-point   142 :       0.2000    0.2000    0.0000
  band No.  band energies     occupation 
      1     -10.2904      2.00000
      2       6.4399      2.00000
      3       6.4399      2.00000
      4       6.5602      2.00000
      5      14.3539      0.00000
      6      19.6459      0.00000
      7      19.6460      0.00000
      8      21.4164      0.00000

 k-point   143 :       0.2333    0.2000    0.0000
  band No.  band energies     occupation 
      1     -10.0187      2.00000
      2       5.6785      2.00000
      3       6.1401      2.00000
      4       6.4500      2.00000
      5      14.3447      0.00000
      6      20.1239      0.00000
      7      20.1338      0.00000
      8      20.9709      0.00000

 k-point   144 :       0.2667    0.2000    0.0000
  band No.  band energies     occupation 
      1      -9.6880      2.00000
      2       4.7833      2.00000
      3       5.8765      2.00000
      4       6.2787      2.00000
      5      14.5018      0.00000
      6      20.5077      0.00000
      7      20.5617      0.00000
      8      20.6421      0.00000

 k-point   145 :       0.3000    0.2000    0.0000
  band No.  band energies     occupation 
      1      -9.2995      2.00000
      2       3.8370      2.00000
      3       5.6547      2.00000
      4       6.0130      2.00000
      5      14.7786      0.00000
      6      20.3887      0.00000
      7      20.8690      0.00000
      8      20.9091      0.00000

 k-point   146 :       0.3333    0.2000    0.0000
  band No.  band energies     occupation 
      1      -8.8547      2.00000
      2       2.8602      2.00000
      3       5.4782      2.00000
      4       5.6860      2.00000
      5      15.1119      0.00000
      6      20.3381      0.00000
      7      21.1207      0.00000
      8      21.1635      0.00000

 k-point   147 :       0.3667    0.2000    0.0000
  band No.  band energies     occupation 
      1      -8.3557      2.00000
      2       1.8715      2.00000
      3       5.3279      2.00000
      4       5.3497      2.00000
      5      15.4407      0.00000
      6      20.4830      0.00000
      7      21.3107      0.00000
      8      21.3204      0.00000

 k-point   148 :       0.4000    0.2000    0.0000
  band No.  band energies     occupation 
      1      -7.8061      2.00000
      2       0.8881      2.00000
      3       4.9624      2.00000
      4       5.2707      2.00000
      5      15.7230      0.00000
      6      20.8337      0.00000
      7      21.3839      0.00000
      8      21.4491      0.00000

 k-point   149 :       0.4333    0.2000    0.0000
  band No.  band energies     occupation 
      1      -7.2120      2.00000
      2      -0.0732      2.00000
      3       4.6067      2.00000
      4       5.2419      2.00000
      5      15.9490      0.00000
      6      21.3535      0.00000
      7      21.3644      0.00000
      8      21.5665      0.00000

 k-point   150 :       0.4667    0.2000    0.0000
  band No.  band energies     occupation 
      1      -6.5854      2.00000
      2      -0.9918      2.00000
      3       4.2728      2.00000
      4       5.2633      2.00000
      5      16.1340      0.00000
      6      21.2762      0.00000
      7      21.5776      0.00000
      8      22.0906      0.00000

 k-point   151 :       0.5000    0.2000    0.0000
  band No.  band energies     occupation 
      1      -5.9544      2.00000
      2      -1.8333      2.00000
      3       3.9697      2.00000
      4       5.3343      2.00000
      5      16.3020      0.00000
      6      21.1317      0.00000
      7      21.6167      0.00000
      8      22.8593      0.00000

 k-point   152 :      -0.4667    0.2000    0.0000
  band No.  band energies     occupation 
      1      -5.3999      2.00000
      2      -2.5123      2.00000
      3       3.7040      2.00000
      4       5.4535      2.00000
      5      16.4731      0.00000
      6      20.9427      0.00000
      7      21.6282      0.00000
      8      23.6499      0.00000

 k-point   153 :      -0.4333    0.2000    0.0000
  band No.  band energies     occupation 
      1      -5.1494      2.00000
      2      -2.7988      2.00000
      3       3.4805      2.00000
      4       5.6189      2.00000
      5      16.6602      0.00000
      6      20.7161      0.00000
      7      21.6199      0.00000
      8      24.3537      0.00000

 k-point   154 :      -0.4000    0.2000    0.0000
  band No.  band energies     occupation 
      1      -5.4148      2.00000
      2      -2.4798      2.00000
      3       3.3033      2.00000
      4       5.8278      2.00000
      5      16.8691      0.00000
      6      20.4553      0.00000
      7      21.5914      0.00000
      8      24.8047      0.00000

 k-point   155 :      -0.3667    0.2000    0.0000
  band No.  band energies     occupation 
      1      -5.9719      2.00000
      2      -1.7806      2.00000
      3       3.1759      2.00000
      4       6.0761      2.00000
      5      17.0991      0.00000
      6      20.1572      0.00000
      7      21.5407      0.00000
      8      24.8289      0.00000

 k-point   156 :      -0.3333    0.2000    0.0000
  band No.  band energies     occupation 
      1      -6.6009      2.00000
      2      -0.9237      2.00000
      3       3.1018      2.00000
      4       6.3592      2.00000
      5      17.3448      0.00000
      6      19.8200      0.00000
      7      21.4530      0.00000
      8      24.4899      0.00000

 k-point   157 :      -0.3000    0.2000    0.0000
  band No.  band energies     occupation 
      1      -7.2248      2.00000
      2       0.0069      2.00000
      3       3.0859      2.00000
      4       6.6702      2.00000
      5      17.5952      0.00000
      6      19.4402      0.00000
      7      21.3013      0.00000
      8      24.0153      0.00000

 k-point   158 :      -0.2667    0.2000    0.0000
  band No.  band energies     occupation 
      1      -7.8164      2.00000
      2       0.9694      2.00000
      3       3.1385      2.00000
      4       7.0007      2.00000
      5      17.8335      0.00000
      6      19.0191      0.00000
      7      21.0388      0.00000
      8      23.5877      0.00000

 k-point   159 :      -0.2333    0.2000    0.0000
  band No.  band energies     occupation 
      1      -8.3638      2.00000
      2       1.9120      2.00000
      3       3.2929      2.00000
      4       7.3393      2.00000
      5      18.0387      0.00000
      6      18.5666      0.00000
      7      20.6284      0.00000
      8      23.3156      0.00000

 k-point   160 :      -0.2000    0.2000    0.0000
  band No.  band energies     occupation 
      1      -8.8610      2.00000
      2       2.6918      2.00000
      3       3.6751      2.00000
      4       7.6713      2.00000
      5      18.1025      0.00000
      6      18.1866      0.00000
      7      20.0872      0.00000
      8      23.2232      0.00000

 k-point   161 :       0.2333    0.2333    0.0000
  band No.  band energies     occupation 
      1      -9.7676      2.00000
      2       5.6293      2.00000
      3       5.8322      2.00000
      4       5.8322      2.00000
      5      14.1613      0.00000
      6      20.3895      0.00000
      7      20.6696      0.00000
      8      20.6697      0.00000

 k-point   162 :       0.2667    0.2333    0.0000
  band No.  band energies     occupation 
      1      -9.4575      2.00000
      2       4.8951      2.00000
      3       5.5603      2.00000
      4       5.6884      2.00000
      5      14.1638      0.00000
      6      19.9128      0.00000
      7      21.1441      0.00000
      8      21.1505      0.00000

 k-point   163 :       0.3000    0.2333    0.0000
  band No.  band energies     occupation 
      1      -9.0895      2.00000
      2       4.0501      2.00000
      3       5.3299      2.00000
      4       5.4700      2.00000
      5      14.3342      0.00000
      6      19.5706      0.00000
      7      21.5343      0.00000
      8      21.5526      0.00000

 k-point   164 :       0.3333    0.2333    0.0000
  band No.  band energies     occupation 
      1      -8.6650      2.00000
      2       3.1616      2.00000
      3       5.1452      2.00000
      4       5.1567      2.00000
      5      14.6203      0.00000
      6      19.3949      0.00000
      7      21.8407      0.00000
      8      21.8611      0.00000

 k-point   165 :       0.3667    0.2333    0.0000
  band No.  band energies     occupation 
      1      -8.1859      2.00000
      2       2.2460      2.00000
      3       4.7852      2.00000
      4       5.0090      2.00000
      5      14.9515      0.00000
      6      19.4212      0.00000
      7      22.0680      0.00000
      8      22.0723      0.00000

 k-point   166 :       0.4000    0.2333    0.0000
  band No.  band energies     occupation 
      1      -7.6554      2.00000
      2       1.3193      2.00000
      3       4.3891      2.00000
      4       4.9229      2.00000
      5      15.2621      0.00000
      6      19.6767      0.00000
      7      22.1731      0.00000
      8      22.2391      0.00000

 k-point   167 :       0.4333    0.2333    0.0000
  band No.  band energies     occupation 
      1      -7.0785      2.00000
      2       0.3983      2.00000
      3       3.9933      2.00000
      4       4.8880      2.00000
      5      15.5173      0.00000
      6      20.1622      0.00000
      7      22.1848      0.00000
      8      22.3547      0.00000

 k-point   168 :       0.4667    0.2333    0.0000
  band No.  band energies     occupation 
      1      -6.4648      2.00000
      2      -0.4969      2.00000
      3       3.6156      2.00000
      4       4.9045      2.00000
      5      15.7209      0.00000
      6      20.8404      0.00000
      7      22.1145      0.00000
      8      22.4320      0.00000

 k-point   169 :       0.5000    0.2333    0.0000
  band No.  band energies     occupation 
      1      -5.8355      2.00000
      2      -1.3373      2.00000
      3       3.2679      2.00000
      4       4.9717      2.00000
      5      15.8978      0.00000
      6      21.6481      0.00000
      7      21.9749      0.00000
      8      22.4871      0.00000

 k-point   170 :      -0.4667    0.2333    0.0000
  band No.  band energies     occupation 
      1      -5.2472      2.00000
      2      -2.0598      2.00000
      3       2.9585      2.00000
      4       5.0886      2.00000
      5      16.0731      0.00000
      6      21.7779      0.00000
      7      22.3664      0.00000
      8      22.6843      0.00000

 k-point   171 :      -0.4333    0.2333    0.0000
  band No.  band energies     occupation 
      1      -4.8690      2.00000
      2      -2.4912      2.00000
      3       2.6937      2.00000
      4       5.2531      2.00000
      5      16.2642      0.00000
      6      21.5311      0.00000
      7      22.4520      0.00000
      8      23.4987      0.00000

 k-point   172 :      -0.4000    0.2333    0.0000
  band No.  band energies     occupation 
      1      -4.9739      2.00000
      2      -2.3569      2.00000
      3       2.4781      2.00000
      4       5.4626      2.00000
      5      16.4797      0.00000
      6      21.2370      0.00000
      7      22.4414      0.00000
      8      24.2640      0.00000

 k-point   173 :      -0.3667    0.2333    0.0000
  band No.  band energies     occupation 
      1      -5.4635      2.00000
      2      -1.7558      2.00000
      3       2.3165      2.00000
      4       5.7132      2.00000
      5      16.7220      0.00000
      6      20.8972      0.00000
      7      22.4033      0.00000
      8      24.6506      0.00000

 k-point   174 :      -0.3333    0.2333    0.0000
  band No.  band energies     occupation 
      1      -6.0742      2.00000
      2      -0.9562      2.00000
      3       2.2147      2.00000
      4       6.0000      2.00000
      5      16.9879      0.00000
      6      20.5097      0.00000
      7      22.3280      0.00000
      8      24.4638      0.00000

 k-point   175 :      -0.3000    0.2333    0.0000
  band No.  band energies     occupation 
      1      -6.6971      2.00000
      2      -0.0799      2.00000
      3       2.1846      2.00000
      4       6.3162      2.00000
      5      17.2688      0.00000
      6      20.0730      0.00000
      7      22.1706      0.00000
      8      23.9862      0.00000

 k-point   176 :      -0.2667    0.2333    0.0000
  band No.  band energies     occupation 
      1      -7.2953      2.00000
      2       0.7963      2.00000
      3       2.2622      2.00000
      4       6.6532      2.00000
      5      17.5513      0.00000
      6      19.5927      0.00000
      7      21.8468      0.00000
      8      23.5611      0.00000

 k-point   177 :      -0.2333    0.2333    0.0000
  band No.  band energies     occupation 
      1      -7.8534      2.00000
      2       1.5182      2.00000
      3       2.5797      2.00000
      4       6.9993      2.00000
      5      17.8157      0.00000
      6      19.0827      0.00000
      7      21.3055      0.00000
      8      23.3460      0.00000

 k-point   178 :       0.2667    0.2667    0.0000
  band No.  band energies     occupation 
      1      -9.1682      2.00000
      2       4.6303      2.00000
      3       5.2790      2.00000
      4       5.2790      2.00000
      5      13.9949      0.00000
      6      19.3210      0.00000
      7      21.6871      0.00000
      8      21.6872      0.00000

 k-point   179 :       0.3000    0.2667    0.0000
  band No.  band energies     occupation 
      1      -8.8208      2.00000
      2       3.9896      2.00000
      3       5.0388      2.00000
      4       5.0449      2.00000
      5      14.0148      0.00000
      6      18.8647      0.00000
      7      22.1478      0.00000
      8      22.1508      0.00000

 k-point   180 :       0.3333    0.2667    0.0000
  band No.  band energies     occupation 
      1      -8.4168      2.00000
      2       3.2365      2.00000
      3       4.7453      2.00000
      4       4.8443      2.00000
      5      14.2027      0.00000
      6      18.5689      0.00000
      7      22.5170      0.00000
      8      22.5214      0.00000

 k-point   181 :       0.3667    0.2667    0.0000
  band No.  band energies     occupation 
      1      -7.9579      2.00000
      2       2.4369      2.00000
      3       4.3599      2.00000
      4       4.6984      2.00000
      5      14.4989      0.00000
      6      18.4659      0.00000
      7      22.7865      0.00000
      8      22.7993      0.00000

 k-point   182 :       0.4000    0.2667    0.0000
  band No.  band energies     occupation 
      1      -7.4470      2.00000
      2       1.6094      2.00000
      3       3.9241      2.00000
      4       4.6031      2.00000
      5      14.8234      0.00000
      6      18.5938      0.00000
      7      22.9426      0.00000
      8      23.0059      0.00000

 k-point   183 :       0.4333    0.2667    0.0000
  band No.  band energies     occupation 
      1      -6.8883      2.00000
      2       0.7684      2.00000
      3       3.4743      2.00000
      4       4.5596      2.00000
      5      15.1096      0.00000
      6      18.9775      0.00000
      7      22.9944      0.00000
      8      23.1493      0.00000

 k-point   184 :       0.4667    0.2667    0.0000
  band No.  band energies     occupation 
      1      -6.2897      2.00000
      2      -0.0686      2.00000
      3       3.0375      2.00000
      4       4.5682      2.00000
      5      15.3361      0.00000
      6      19.6005      0.00000
      7      22.9499      0.00000
      8      23.2445      0.00000

 k-point   185 :       0.5000    0.2667    0.0000
  band No.  band energies     occupation 
      1      -5.6675      2.00000
      2      -0.8758      2.00000
      3       2.6316      2.00000
      4       4.6286      2.00000
      5      15.5229      0.00000
      6      20.4095      0.00000
      7      22.8235      0.00000
      8      23.3043      0.00000

 k-point   186 :      -0.4667    0.2667    0.0000
  band No.  band energies     occupation 
      1      -5.0624      2.00000
      2      -1.6044      2.00000
      3       2.2680      2.00000
      4       4.7397      2.00000
      5      15.7000      0.00000
      6      21.3365      0.00000
      7      22.6228      0.00000
      8      23.3429      0.00000

 k-point   187 :      -0.4333    0.2667    0.0000
  band No.  band energies     occupation 
      1      -4.5954      2.00000
      2      -2.1272      2.00000
      3       1.9543      2.00000
      4       4.8999      2.00000
      5      15.8906      0.00000
      6      22.3013      0.00000
      7      22.3584      0.00000
      8      23.3848      0.00000

 k-point   188 :      -0.4000    0.2667    0.0000
  band No.  band energies     occupation 
      1      -4.5366      2.00000
      2      -2.1708      2.00000
      3       1.6964      2.00000
      4       5.1064      2.00000
      5      16.1071      0.00000
      6      22.0342      0.00000
      7      23.0533      0.00000
      8      23.6072      0.00000

 k-point   189 :      -0.3667    0.2667    0.0000
  band No.  band energies     occupation 
      1      -4.9338      2.00000
      2      -1.6892      2.00000
      3       1.5013      2.00000
      4       5.3556      2.00000
      5      16.3540      0.00000
      6      21.6503      0.00000
      7      23.1974      0.00000
      8      24.2256      0.00000

 k-point   190 :      -0.3333    0.2667    0.0000
  band No.  band energies     occupation 
      1      -5.5143      2.00000
      2      -0.9655      2.00000
      3       1.3819      2.00000
      4       5.6426      2.00000
      5      16.6304      0.00000
      6      21.2079      0.00000
      7      23.1708      0.00000
      8      24.3859      0.00000

 k-point   191 :      -0.3000    0.2667    0.0000
  band No.  band energies     occupation 
      1      -6.1296      2.00000
      2      -0.1860      2.00000
      3       1.3761      2.00000
      4       5.9608      2.00000
      5      16.9306      0.00000
      6      20.7102      0.00000
      7      23.0288      0.00000
      8      23.9832      0.00000

 k-point   192 :      -0.2667    0.2667    0.0000
  band No.  band energies     occupation 
      1      -6.7299      2.00000
      2       0.4636      2.00000
      3       1.6158      2.00000
      4       6.3015      2.00000
      5      17.2430      0.00000
      6      20.1655      0.00000
      7      22.5816      0.00000
      8      23.6457      0.00000

 k-point   193 :       0.3000    0.3000    0.0000
  band No.  band energies     occupation 
      1      -8.4942      2.00000
      2       3.5773      2.00000
      3       4.7882      2.00000
      4       4.7882      2.00000
      5      13.8663      0.00000
      6      18.2983      0.00000
      7      22.6795      0.00000
      8      22.6796      0.00000

 k-point   194 :       0.3333    0.3000    0.0000
  band No.  band energies     occupation 
      1      -8.1108      2.00000
      2       2.9773      2.00000
      3       4.5260      2.00000
      4       4.5827      2.00000
      5      13.9085      0.00000
      6      17.8882      0.00000
      7      23.1166      0.00000
      8      23.1172      0.00000

 k-point   195 :       0.3667    0.3000    0.0000
  band No.  band energies     occupation 
      1      -7.6725      2.00000
      2       2.3102      2.00000
      3       4.1588      2.00000
      4       4.4257      2.00000
      5      14.1169      0.00000
      6      17.6569      0.00000
      7      23.4466      0.00000
      8      23.4592      0.00000

 k-point   196 :       0.4000    0.3000    0.0000
  band No.  band energies     occupation 
      1      -7.1815      2.00000
      2       1.6123      2.00000
      3       3.6965      2.00000
      4       4.3196      2.00000
      5      14.4218      0.00000
      6      17.6411      0.00000
      7      23.6627      0.00000
      8      23.7124      0.00000

 k-point   197 :       0.4333    0.3000    0.0000
  band No.  band energies     occupation 
      1      -6.6417      2.00000
      2       0.8951      2.00000
      3       3.1828      2.00000
      4       4.2655      2.00000
      5      14.7324      0.00000
      6      17.8857      0.00000
      7      23.7623      0.00000
      8      23.8906      0.00000

 k-point   198 :       0.4667    0.3000    0.0000
  band No.  band energies     occupation 
      1      -6.0598      2.00000
      2       0.1675      2.00000
      3       2.6619      2.00000
      4       4.2642      2.00000
      5      14.9872      0.00000
      6      18.4068      0.00000
      7      23.7520      0.00000
      8      24.0085      0.00000

 k-point   199 :       0.5000    0.3000    0.0000
  band No.  band energies     occupation 
      1      -5.4486      2.00000
      2      -0.5550      2.00000
      3       2.1677      2.00000
      4       4.3154      2.00000
      5      15.1867      0.00000
      6      19.1645      0.00000
      7      23.6427      0.00000
      8      24.0808      0.00000

 k-point   200 :      -0.4667    0.3000    0.0000
  band No.  band energies     occupation 
      1      -4.8379      2.00000
      2      -1.2377      2.00000
      3       1.7219      2.00000
      4       4.4184      2.00000
      5      15.3649      0.00000
      6      20.0897      0.00000
      7      23.4458      0.00000
      8      24.1219      0.00000

 k-point   201 :      -0.4333    0.3000    0.0000
  band No.  band energies     occupation 
      1      -4.3145      2.00000
      2      -1.7885      2.00000
      3       1.3376      2.00000
      4       4.5714      2.00000
      5      15.5516      0.00000
      6      21.1136      0.00000
      7      23.1662      0.00000
      8      24.1429      0.00000

 k-point   202 :      -0.4000    0.3000    0.0000
  band No.  band energies     occupation 
      1      -4.1122      2.00000
      2      -1.9705      2.00000
      3       1.0248      2.00000
      4       4.7721      2.00000
      5      15.7642      0.00000
      6      22.1673      0.00000
      7      22.8106      0.00000
      8      24.1602      0.00000

 k-point   203 :      -0.3667    0.3000    0.0000
  band No.  band energies     occupation 
      1      -4.3984      2.00000
      2      -1.6230      2.00000
      3       0.7972      2.00000
      4       5.0169      2.00000
      5      16.0099      0.00000
      6      22.3815      0.00000
      7      23.1251      0.00000
      8      24.2032      0.00000

 k-point   204 :      -0.3333    0.3000    0.0000
  band No.  band energies     occupation 
      1      -4.9352      2.00000
      2      -1.0172      2.00000
      3       0.6926      2.00000
      4       5.3013      2.00000
      5      16.2898      0.00000
      6      21.8825      0.00000
      7      23.6881      0.00000
      8      24.2780      0.00000

 k-point   205 :      -0.3000    0.3000    0.0000
  band No.  band energies     occupation 
      1      -5.5341      2.00000
      2      -0.4626      2.00000
      3       0.8326      2.00000
      4       5.6187      2.00000
      5      16.5995      0.00000
      6      21.3206      0.00000
      7      23.6841      0.00000
      8      24.0661      0.00000

 k-point   206 :       0.3333    0.3333    0.0000
  band No.  band energies     occupation 
      1      -7.7482      2.00000
      2       2.4844      2.00000
      3       4.3656      2.00000
      4       4.3656      2.00000
      5      13.7854      0.00000
      6      17.3661      0.00000
      7      23.6236      0.00000
      8      23.6237      0.00000

 k-point   207 :       0.3667    0.3333    0.0000
  band No.  band energies     occupation 
      1      -7.3304      2.00000
      2       1.9017      2.00000
      3       4.1077      2.00000
      4       4.1966      2.00000
      5      13.8543      0.00000
      6      17.0142      0.00000
      7      24.0232      0.00000
      8      24.0284      0.00000

 k-point   208 :       0.4000    0.3333    0.0000
  band No.  band energies     occupation 
      1      -6.8597      2.00000
      2       1.2916      2.00000
      3       3.7106      2.00000
      4       4.0784      2.00000
      5      14.0853      0.00000
      6      16.8555      0.00000
      7      24.3031      0.00000
      8      24.3339      0.00000

 k-point   209 :       0.4333    0.3333    0.0000
  band No.  band energies     occupation 
      1      -6.3394      2.00000
      2       0.6758      2.00000
      3       3.1998      2.00000
      4       4.0126      2.00000
      5      14.3940      0.00000
      6      16.9370      0.00000
      7      24.4572      0.00000
      8      24.5491      0.00000

 k-point   210 :       0.4667    0.3333    0.0000
  band No.  band energies     occupation 
      1      -5.7754      2.00000
      2       0.0622      2.00000
      3       2.6249      2.00000
      4       3.9998      2.00000
      5      14.6786      0.00000
      6      17.3112      0.00000
      7      24.4880      0.00000
      8      24.6913      0.00000

 k-point   211 :       0.5000    0.3333    0.0000
  band No.  band energies     occupation 
      1      -5.1777      2.00000
      2      -0.5437      2.00000
      3       2.0374      2.00000
      4       4.0401      2.00000
      5      14.8964      0.00000
      6      17.9739      0.00000
      7      24.4037      0.00000
      8      24.7741      0.00000

 k-point   212 :      -0.4667    0.3333    0.0000
  band No.  band energies     occupation 
      1      -4.5691      2.00000
      2      -1.1276      2.00000
      3       1.4813      2.00000
      4       4.1329      2.00000
      5      15.0753      0.00000
      6      18.8552      0.00000
      7      24.2115      0.00000
      8      24.8123      0.00000

 k-point   213 :      -0.4333    0.3333    0.0000
  band No.  band energies     occupation 
      1      -4.0133      2.00000
      2      -1.6352      2.00000
      3       0.9916      2.00000
      4       4.2767      2.00000
      5      15.2551      0.00000
      6      19.8783      0.00000
      7      23.9205      0.00000
      8      24.8154      0.00000

 k-point   214 :      -0.4000    0.3333    0.0000
  band No.  band energies     occupation 
      1      -3.7042      2.00000
      2      -1.8846      2.00000
      3       0.5980      2.00000
      4       4.4694      2.00000
      5      15.4597      0.00000
      6      20.9808      0.00000
      7      23.5352      0.00000
      8      24.7880      0.00000

 k-point   215 :      -0.3667    0.3333    0.0000
  band No.  band energies     occupation 
      1      -3.8829      2.00000
      2      -1.6651      2.00000
      3       0.3421      2.00000
      4       4.7076      2.00000
      5      15.6995      0.00000
      6      22.0978      0.00000
      7      23.0616      0.00000
      8      24.7191      0.00000

 k-point   216 :      -0.3333    0.3333    0.0000
  band No.  band energies     occupation 
      1      -4.3659      2.00000
      2      -1.2542      2.00000
      3       0.3237      2.00000
      4       4.9869      2.00000
      5      15.9771      0.00000
      6      22.5067      0.00000
      7      23.1164      0.00000
      8      24.5528      0.00000

 k-point   217 :       0.3667    0.3667    0.0000
  band No.  band energies     occupation 
      1      -6.9332      2.00000
      2       1.3664      2.00000
      3       4.0152      2.00000
      4       4.0152      2.00000
      5      13.7616      0.00000
      6      16.5446      0.00000
      7      24.4927      0.00000
      8      24.4928      0.00000

 k-point   218 :       0.4000    0.3667    0.0000
  band No.  band energies     occupation 
      1      -6.4830      2.00000
      2       0.7940      2.00000
      3       3.7776      2.00000
      4       3.8842      2.00000
      5      13.8607      0.00000
      6      16.2548      0.00000
      7      24.8397      0.00000
      8      24.8487      0.00000

 k-point   219 :       0.4333    0.3667    0.0000
  band No.  band energies     occupation 
      1      -5.9827      2.00000
      2       0.2205      2.00000
      3       3.3796      2.00000
      4       3.8055      2.00000
      5      14.1140      0.00000
      6      16.1724      0.00000
      7      25.0512      0.00000
      8      25.1027      0.00000

 k-point   220 :       0.4667    0.3667    0.0000
  band No.  band energies     occupation 
      1      -5.4372      2.00000
      2      -0.3386      2.00000
      3       2.8552      2.00000
      4       3.7801      2.00000
      5      14.4149      0.00000
      6      16.3633      0.00000
      7      25.1269      0.00000
      8      25.2658      0.00000

 k-point   221 :       0.5000    0.3667    0.0000
  band No.  band energies     occupation 
      1      -4.8550      2.00000
      2      -0.8754      2.00000
      3       2.2574      2.00000
      4       3.8083      2.00000
      5      14.6569      0.00000
      6      16.8823      0.00000
      7      25.0721      0.00000
      8      25.3543      0.00000

 k-point   222 :      -0.4667    0.3667    0.0000
  band No.  band energies     occupation 
      1      -4.2538      2.00000
      2      -1.3813      2.00000
      3       1.6414      2.00000
      4       3.8895      2.00000
      5      14.8372      0.00000
      6      17.6829      0.00000
      7      24.8916      0.00000
      8      25.3802      0.00000

 k-point   223 :      -0.4333    0.3667    0.0000
  band No.  band energies     occupation 
      1      -3.6825      2.00000
      2      -1.8270      2.00000
      3       1.0616      2.00000
      4       4.0225      2.00000
      5      15.0064      0.00000
      6      18.6709      0.00000
      7      24.5922      0.00000
      8      25.3474      0.00000

 k-point   224 :      -0.4000    0.3667    0.0000
  band No.  band energies     occupation 
      1      -3.3167      2.00000
      2      -2.0740      2.00000
      3       0.5798      2.00000
      4       4.2054      2.00000
      5      15.1988      0.00000
      6      19.7738      0.00000
      7      24.1815      0.00000
      8      25.2517      0.00000

 k-point   225 :      -0.3667    0.3667    0.0000
  band No.  band energies     occupation 
      1      -3.4497      2.00000
      2      -1.9067      2.00000
      3       0.2895      2.00000
      4       4.4352      2.00000
      5      15.4285      0.00000
      6      20.9360      0.00000
      7      23.6670      0.00000
      8      25.0622      0.00000

 k-point   226 :       0.4000    0.4000    0.0000
  band No.  band energies     occupation 
      1      -6.0532      2.00000
      2       0.2379      2.00000
      3       3.7400      2.00000
      4       3.7401      2.00000
      5      13.8024      0.00000
      6      15.8395      0.00000
      7      25.2493      0.00000
      8      25.2494      0.00000

 k-point   227 :       0.4333    0.4000    0.0000
  band No.  band energies     occupation 
      1      -5.5730      2.00000
      2      -0.3246      2.00000
      3       3.5312      2.00000
      4       3.6480      2.00000
      5      13.9353      0.00000
      6      15.6115      0.00000
      7      25.5199      0.00000
      8      25.5360      0.00000

 k-point   228 :       0.4667    0.4000    0.0000
  band No.  band energies     occupation 
      1      -5.0467      2.00000
      2      -0.8705      2.00000
      3       3.1504      2.00000
      4       3.6092      2.00000
      5      14.2065      0.00000
      6      15.6104      0.00000
      7      25.6437      0.00000
      8      25.7171      0.00000

 k-point   229 :       0.5000    0.4000    0.0000
  band No.  band energies     occupation 
      1      -4.4813      2.00000
      2      -1.3885      2.00000
      3       2.6383      2.00000
      4       3.6242      2.00000
      5      14.4731      0.00000
      6      15.9356      0.00000
      7      25.6214      0.00000
      8      25.8052      0.00000

 k-point   230 :      -0.4667    0.4000    0.0000
  band No.  band energies     occupation 
      1      -3.8910      2.00000
      2      -1.8692      2.00000
      3       2.0524      2.00000
      4       3.6928      2.00000
      5      14.6549      0.00000
      6      16.6136      0.00000
      7      25.4567      0.00000
      8      25.8098      0.00000

 k-point   231 :      -0.4333    0.4000    0.0000
  band No.  band energies     occupation 
      1      -3.3185      2.00000
      2      -2.2881      2.00000
      3       1.4559      2.00000
      4       3.8138      2.00000
      5      14.8081      0.00000
      6      17.5365      0.00000
      7      25.1559      0.00000
      8      25.7293      0.00000

 k-point   232 :      -0.4000    0.4000    0.0000
  band No.  band energies     occupation 
      1      -3.0341      2.00000
      2      -2.4169      2.00000
      3       0.9249      2.00000
      4       3.9856      2.00000
      5      14.9832      0.00000
      6      18.6098      0.00000
      7      24.7277      0.00000
      8      25.5541      0.00000

 k-point   233 :       0.4333    0.4333    0.0000
  band No.  band energies     occupation 
      1      -5.1129      2.00000
      2      -0.8874      2.00000
      3       3.5421      2.00000
      4       3.5422      2.00000
      5      13.9162      0.00000
      6      15.2493      0.00000
      7      25.8455      0.00000
      8      25.8456      0.00000

 k-point   234 :       0.4667    0.4333    0.0000
  band No.  band energies     occupation 
      1      -4.6060      2.00000
      2      -1.4369      2.00000
      3       3.3671      2.00000
      4       3.4895      2.00000
      5      14.0850      0.00000
      6      15.0817      0.00000
      7      26.0165      0.00000
      8      26.0378      0.00000

 k-point   235 :       0.5000    0.4333    0.0000
  band No.  band energies     occupation 
      1      -4.0582      2.00000
      2      -1.9580      2.00000
      3       3.0151      2.00000
      4       3.4908      2.00000
      5      14.3524      0.00000
      6      15.1824      0.00000
      7      26.0296      0.00000
      8      26.1198      0.00000

 k-point   236 :      -0.4667    0.4333    0.0000
  band No.  band energies     occupation 
      1      -3.4814      2.00000
      2      -2.4405      2.00000
      3       2.5332      2.00000
      4       3.5460      2.00000
      5      14.5316      0.00000
      6      15.6924      0.00000
      7      25.8867      0.00000
      8      26.1006      0.00000

 k-point   237 :      -0.4333    0.4333    0.0000
  band No.  band energies     occupation 
      1      -2.9907      2.00000
      2      -2.7828      2.00000
      3       1.9867      2.00000
      4       3.6542      2.00000
      5      14.6569      0.00000
      6      16.5212      0.00000
      7      25.5913      0.00000
      8      25.9730      0.00000

 k-point   238 :       0.4667    0.4667    0.0000
  band No.  band energies     occupation 
      1      -4.1182      2.00000
      2      -1.9961      2.00000
      3       3.4229      2.00000
      4       3.4229      2.00000
      5      14.1102      0.00000
      6      14.7691      0.00000
      7      26.2324      0.00000
      8      26.2325      0.00000

 k-point   239 :       0.5000    0.4667    0.0000
  band No.  band energies     occupation 
      1      -3.5885      2.00000
      2      -2.5288      2.00000
      3       3.2851      2.00000
      4       3.4101      2.00000
      5      14.3114      0.00000
      6      14.6651      0.00000
      7      26.2813      0.00000
      8      26.3052      0.00000

 k-point   240 :      -0.4667    0.4667    0.0000
  band No.  band energies     occupation 
      1      -3.0472      2.00000
      2      -3.0029      2.00000
      3       2.9704      2.00000
      4       3.4513      2.00000
      5      14.4585      0.00000
      6      14.9824      0.00000
      7      26.1650      0.00000
      8      26.2617      0.00000

 k-point   241 :       0.5000    0.5000    0.0000
  band No.  band energies     occupation 
      1      -3.0764      2.00000
      2      -3.0764      2.00000
      3       3.3830      2.00000
      4       3.3830      2.00000
      5      14.3918      0.00000
      6      14.3918      0.00000
      7      26.3655      0.00000
      8      26.3656      0.00000

 k-point   242 :       0.1000    0.0667    0.0333
  band No.  band energies     occupation 
      1     -11.5487      2.00000
      2       8.6588      2.00000
      3       8.8724      2.00000
      4       9.4224      2.00000
      5      15.2561      0.00000
      6      15.9769      0.00000
      7      16.0928      0.00000
      8      22.9923      0.00000

 k-point   243 :       0.1333    0.0667    0.0333
  band No.  band energies     occupation 
      1     -11.3957      2.00000
      2       7.9105      2.00000
      3       8.5167      2.00000
      4       9.3043      2.00000
      5      15.4182      0.00000
      6      16.3549      0.00000
      7      16.5314      0.00000
      8      23.0881      0.00000

 k-point   244 :       0.1667    0.0667    0.0333
  band No.  band energies     occupation 
      1     -11.1820      2.00000
      2       6.9573      2.00000
      3       8.1928      2.00000
      4       9.1068      2.00000
      5      15.6904      0.00000
      6      16.7734      0.00000
      7      16.9625      0.00000
      8      23.2183      0.00000

 k-point   245 :       0.2000    0.0667    0.0333
  band No.  band energies     occupation 
      1     -10.9079      2.00000
      2       5.9067      2.00000
      3       7.8803      2.00000
      4       8.8527      2.00000
      5      16.0308      0.00000
      6      17.1914      0.00000
      7      17.3477      0.00000
      8      23.3789      0.00000

 k-point   246 :       0.2333    0.0667    0.0333
  band No.  band energies     occupation 
      1     -10.5743      2.00000
      2       4.8056      2.00000
      3       7.5876      2.00000
      4       8.5674      2.00000
      5      16.3978      0.00000
      6      17.5774      0.00000
      7      17.6708      0.00000
      8      23.5667      0.00000

 k-point   247 :       0.2667    0.0667    0.0333
  band No.  band energies     occupation 
      1     -10.1819      2.00000
      2       3.6836      2.00000
      3       7.3225      2.00000
      4       8.2710      2.00000
      5      16.7545      0.00000
      6      17.9086      0.00000
      7      17.9283      0.00000
      8      23.7802      0.00000

 k-point   248 :       0.3000    0.0667    0.0333
  band No.  band energies     occupation 
      1      -9.7324      2.00000
      2       2.5610      2.00000
      3       7.0905      2.00000
      4       7.9785      2.00000
      5      17.0745      0.00000
      6      18.1222      0.00000
      7      18.1732      0.00000
      8      24.0178      0.00000

 k-point   249 :       0.3333    0.0667    0.0333
  band No.  band energies     occupation 
      1      -9.2275      2.00000
      2       1.4533      2.00000
      3       6.8951      2.00000
      4       7.7007      2.00000
      5      17.3419      0.00000
      6      18.2559      0.00000
      7      18.3708      0.00000
      8      24.2746      0.00000

 k-point   250 :       0.3667    0.0667    0.0333
  band No.  band energies     occupation 
      1      -8.6706      2.00000
      2       0.3734      2.00000
      3       6.7386      2.00000
      4       7.4452      2.00000
      5      17.5528      0.00000
      6      18.3319      0.00000
      7      18.5129      0.00000
      8      24.5376      0.00000

 k-point   251 :       0.4000    0.0667    0.0333
  band No.  band energies     occupation 
      1      -8.0674      2.00000
      2      -0.6658      2.00000
      3       6.6218      2.00000
      4       7.2178      2.00000
      5      17.7124      0.00000
      6      18.3569      0.00000
      7      18.6139      0.00000
      8      24.7853      0.00000

 k-point   252 :       0.4333    0.0667    0.0333
  band No.  band energies     occupation 
      1      -7.4292      2.00000
      2      -1.6479      2.00000
      3       6.5445      2.00000
      4       7.0237      2.00000
      5      17.8313      0.00000
      6      18.3429      0.00000
      7      18.6847      0.00000
      8      24.9976      0.00000

 k-point   253 :       0.4667    0.0667    0.0333
  band No.  band energies     occupation 
      1      -6.7831      2.00000
      2      -2.5420      2.00000
      3       6.5042      2.00000
      4       6.8683      2.00000
      5      17.9195      0.00000
      6      18.3061      0.00000
      7      18.7320      0.00000
      8      25.1583      0.00000

 k-point   254 :       0.5000    0.0667    0.0333
  band No.  band energies     occupation 
      1      -6.2082      2.00000
      2      -3.2667      2.00000
      3       6.4935      2.00000
      4       6.7607      2.00000
      5      17.9807      0.00000
      6      18.2657      0.00000
      7      18.7593      0.00000
      8      25.2570      0.00000

 k-point   255 :      -0.4667    0.0667    0.0333
  band No.  band energies     occupation 
      1      -5.9383      2.00000
      2      -3.5867      2.00000
      3       6.4950      2.00000
      4       6.7197      2.00000
      5      18.0050      0.00000
      6      18.2466      0.00000
      7      18.7682      0.00000
      8      25.2892      0.00000

 k-point   256 :       0.1333    0.1000    0.0333
  band No.  band energies     occupation 
      1     -11.3447      2.00000
      2       8.0261      2.00000
      3       8.2796      2.00000
      4       9.0309      2.00000
      5      15.1160      0.00000
      6      16.7427      0.00000
      7      16.8031      0.00000
      8      23.0199      0.00000

 k-point   257 :       0.1667    0.1000    0.0333
  band No.  band energies     occupation 
      1     -11.1514      2.00000
      2       7.2266      2.00000
      3       7.8963      2.00000
      4       8.8995      2.00000
      5      15.2692      0.00000
      6      17.1744      0.00000
      7      17.2435      0.00000
      8      23.0573      0.00000

 k-point   258 :       0.2000    0.1000    0.0333
  band No.  band energies     occupation 
      1     -10.8976      2.00000
      2       6.2464      2.00000
      3       7.5701      2.00000
      4       8.6985      2.00000
      5      15.5367      0.00000
      6      17.6105      0.00000
      7      17.6449      0.00000
      8      23.1098      0.00000

 k-point   259 :       0.2333    0.1000    0.0333
  band No.  band energies     occupation 
      1     -10.5841      2.00000
      2       5.1877      2.00000
      3       7.2716      2.00000
      4       8.4425      2.00000
      5      15.8741      0.00000
      6      17.9811      0.00000
      7      18.0234      0.00000
      8      23.1829      0.00000

 k-point   260 :       0.2667    0.1000    0.0333
  band No.  band energies     occupation 
      1     -10.2117      2.00000
      2       4.0915      2.00000
      3       7.0041      2.00000
      4       8.1546      2.00000
      5      16.2360      0.00000
      6      18.2541      0.00000
      7      18.3790      0.00000
      8      23.2895      0.00000

 k-point   261 :       0.3000    0.1000    0.0333
  band No.  band energies     occupation 
      1      -9.7816      2.00000
      2       2.9834      2.00000
      3       6.7720      2.00000
      4       7.8548      2.00000
      5      16.5840      0.00000
      6      18.4593      0.00000
      7      18.6672      0.00000
      8      23.4463      0.00000

 k-point   262 :       0.3333    0.1000    0.0333
  band No.  band energies     occupation 
      1      -9.2956      2.00000
      2       1.8817      2.00000
      3       6.5781      2.00000
      4       7.5585      2.00000
      5      16.8906      0.00000
      6      18.6019      0.00000
      7      18.8835      0.00000
      8      23.6654      0.00000

 k-point   263 :       0.3667    0.1000    0.0333
  band No.  band energies     occupation 
      1      -8.7564      2.00000
      2       0.8010      2.00000
      3       6.4240      2.00000
      4       7.2775      2.00000
      5      17.1427      0.00000
      6      18.6851      0.00000
      7      19.0353      0.00000
      8      23.9457      0.00000

 k-point   264 :       0.4000    0.1000    0.0333
  band No.  band energies     occupation 
      1      -8.1688      2.00000
      2      -0.2456      2.00000
      3       6.3089      2.00000
      4       7.0216      2.00000
      5      17.3408      0.00000
      6      18.7140      0.00000
      7      19.1374      0.00000
      8      24.2665      0.00000

 k-point   265 :       0.4333    0.1000    0.0333
  band No.  band energies     occupation 
      1      -7.5417      2.00000
      2      -1.2427      2.00000
      3       6.2291      2.00000
      4       6.8010      2.00000
      5      17.4953      0.00000
      6      18.6970      0.00000
      7      19.2041      0.00000
      8      24.5939      0.00000

 k-point   266 :       0.4667    0.1000    0.0333
  band No.  band energies     occupation 
      1      -6.8950      2.00000
      2      -2.1662      2.00000
      3       6.1749      2.00000
      4       6.6300      2.00000
      5      17.6198      0.00000
      6      18.6455      0.00000
      7      19.2454      0.00000
      8      24.8883      0.00000

 k-point   267 :       0.5000    0.1000    0.0333
  band No.  band energies     occupation 
      1      -6.2831      2.00000
      2      -2.9585      2.00000
      3       6.1263      2.00000
      4       6.5313      2.00000
      5      17.7274      0.00000
      6      18.5719      0.00000
      7      19.2670      0.00000
      8      25.1113      0.00000

 k-point   268 :      -0.4667    0.1000    0.0333
  band No.  band energies     occupation 
      1      -5.8751      2.00000
      2      -3.4487      2.00000
      3       6.0673      2.00000
      4       6.5228      2.00000
      5      17.8258      0.00000
      6      18.4870      0.00000
      7      19.2714      0.00000
      8      25.2362      0.00000

 k-point   269 :      -0.4333    0.1000    0.0333
  band No.  band energies     occupation 
      1      -5.9696      2.00000
      2      -3.3375      2.00000
      3       6.0096      2.00000
      4       6.5936      2.00000
      5      17.9147      0.00000
      6      18.4010      0.00000
      7      19.2593      0.00000
      8      25.2513      0.00000

 k-point   270 :      -0.4000    0.1000    0.0333
  band No.  band energies     occupation 
      1      -6.4773      2.00000
      2      -2.7139      2.00000
      3       5.9736      2.00000
      4       6.7232      2.00000
      5      17.9767      0.00000
      6      18.3303      0.00000
      7      19.2299      0.00000
      8      25.1554      0.00000

 k-point   271 :      -0.3667    0.1000    0.0333
  band No.  band energies     occupation 
      1      -7.1112      2.00000
      2      -1.8666      2.00000
      3       5.9709      2.00000
      4       6.8988      2.00000
      5      17.9666      0.00000
      6      18.3087      0.00000
      7      19.1807      0.00000
      8      24.9604      0.00000

 k-point   272 :      -0.3333    0.1000    0.0333
  band No.  band energies     occupation 
      1      -7.7548      2.00000
      2      -0.9140      2.00000
      3       6.0072      2.00000
      4       7.1127      2.00000
      5      17.8643      0.00000
      6      18.3373      0.00000
      7      19.1071      0.00000
      8      24.6929      0.00000

 k-point   273 :      -0.3000    0.1000    0.0333
  band No.  band energies     occupation 
      1      -8.3700      2.00000
      2       0.1023      2.00000
      3       6.0852      2.00000
      4       7.3591      2.00000
      5      17.6938      0.00000
      6      18.3667      0.00000
      7      19.0017      0.00000
      8      24.3905      0.00000

 k-point   274 :      -0.2667    0.1000    0.0333
  band No.  band energies     occupation 
      1      -8.9421      2.00000
      2       1.1625      2.00000
      3       6.2058      2.00000
      4       7.6319      2.00000
      5      17.4656      0.00000
      6      18.3614      0.00000
      7      18.8527      0.00000
      8      24.0897      0.00000

 k-point   275 :      -0.2333    0.1000    0.0333
  band No.  band energies     occupation 
      1      -9.4639      2.00000
      2       2.2523      2.00000
      3       6.3691      2.00000
      4       7.9238      2.00000
      5      17.1813      0.00000
      6      18.3018      0.00000
      7      18.6464      0.00000
      8      23.8240      0.00000

 k-point   276 :      -0.2000    0.1000    0.0333
  band No.  band energies     occupation 
      1      -9.9315      2.00000
      2       3.3580      2.00000
      3       6.5744      2.00000
      4       8.2257      2.00000
      5      16.8494      0.00000
      6      18.1775      0.00000
      7      18.3712      0.00000
      8      23.6105      0.00000

 k-point   277 :      -0.1667    0.1000    0.0333
  band No.  band energies     occupation 
      1     -10.3424      2.00000
      2       4.4632      2.00000
      3       6.8205      2.00000
      4       8.5251      2.00000
      5      16.4874      0.00000
      6      17.9824      0.00000
      7      18.0263      0.00000
      8      23.4492      0.00000

 k-point   278 :      -0.1333    0.1000    0.0333
  band No.  band energies     occupation 
      1     -10.6953      2.00000
      2       5.5447      2.00000
      3       7.1066      2.00000
      4       8.8050      2.00000
      5      16.1243      0.00000
      6      17.6219      0.00000
      7      17.7146      0.00000
      8      23.3281      0.00000

 k-point   279 :      -0.1000    0.1000    0.0333
  band No.  band energies     occupation 
      1     -10.9890      2.00000
      2       6.5624      2.00000
      3       7.4399      2.00000
      4       9.0435      2.00000
      5      15.7978      0.00000
      6      17.1851      0.00000
      7      17.3738      0.00000
      8      23.2325      0.00000

 k-point   280 :      -0.0667    0.1000    0.0333
  band No.  band energies     occupation 
      1     -11.2226      2.00000
      2       7.4046      2.00000
      3       7.8823      2.00000
      4       9.2158      2.00000
      5      15.5502      0.00000
      6      16.7491      0.00000
      7      16.9703      0.00000
      8      23.1534      0.00000

 k-point   281 :       0.1667    0.1333    0.0333
  band No.  band energies     occupation 
      1     -11.0598      2.00000
      2       7.3381      2.00000
      3       7.6221      2.00000
      4       8.4696      2.00000
      5      14.9361      0.00000
      6      17.6445      0.00000
      7      17.6523      0.00000
      8      22.8494      0.00000

 k-point   282 :       0.2000    0.1333    0.0333
  band No.  band energies     occupation 
      1     -10.8265      2.00000
      2       6.5197      2.00000
      3       7.2375      2.00000
      4       8.3223      2.00000
      5      15.0824      0.00000
      6      18.0754      0.00000
      7      18.1065      0.00000
      8      22.7559      0.00000

 k-point   283 :       0.2333    0.1333    0.0333
  band No.  band energies     occupation 
      1     -10.5333      2.00000
      2       5.5368      2.00000
      3       6.9253      2.00000
      4       8.1123      2.00000
      5      15.3479      0.00000
      6      18.4393      0.00000
      7      18.5456      0.00000
      8      22.6768      0.00000

 k-point   284 :       0.2667    0.1333    0.0333
  band No.  band energies     occupation 
      1     -10.1810      2.00000
      2       4.4879      2.00000
      3       6.6510      2.00000
      4       7.8485      2.00000
      5      15.6838      0.00000
      6      18.7333      0.00000
      7      18.9354      0.00000
      8      22.6401      0.00000

 k-point   285 :       0.3000    0.1333    0.0333
  band No.  band energies     occupation 
      1      -9.7707      2.00000
      2       3.4100      2.00000
      3       6.4144      2.00000
      4       7.5535      2.00000
      5      16.0409      0.00000
      6      18.9560      0.00000
      7      19.2576      0.00000
      8      22.6788      0.00000

 k-point   286 :       0.3333    0.1333    0.0333
  band No.  band energies     occupation 
      1      -9.3040      2.00000
      2       2.3265      2.00000
      3       6.2170      2.00000
      4       7.2479      2.00000
      5      16.3779      0.00000
      6      19.1102      0.00000
      7      19.5045      0.00000
      8      22.8212      0.00000

 k-point   287 :       0.3667    0.1333    0.0333
  band No.  band energies     occupation 
      1      -8.7833      2.00000
      2       1.2546      2.00000
      3       6.0585      2.00000
      4       6.9493      2.00000
      5      16.6677      0.00000
      6      19.2001      0.00000
      7      19.6801      0.00000
      8      23.0796      0.00000

 k-point   288 :       0.4000    0.1333    0.0333
  band No.  band energies     occupation 
      1      -8.2126      2.00000
      2       0.2089      2.00000
      3       5.9356      2.00000
      4       6.6737      2.00000
      5      16.9016      0.00000
      6      19.2317      0.00000
      7      19.7966      0.00000
      8      23.4414      0.00000

 k-point   289 :       0.4333    0.1333    0.0333
  band No.  band energies     occupation 
      1      -7.5991      2.00000
      2      -0.7957      2.00000
      3       5.8380      2.00000
      4       6.4403      2.00000
      5      17.0867      0.00000
      6      19.2128      0.00000
      7      19.8697      0.00000
      8      23.8728      0.00000

 k-point   290 :       0.4667    0.1333    0.0333
  band No.  band energies     occupation 
      1      -6.9578      2.00000
      2      -1.7386      2.00000
      3       5.7446      2.00000
      4       6.2766      2.00000
      5      17.2386      0.00000
      6      19.1531      0.00000
      7      19.9115      0.00000
      8      24.3232      0.00000

 k-point   291 :       0.5000    0.1333    0.0333
  band No.  band energies     occupation 
      1      -6.3269      2.00000
      2      -2.5776      2.00000
      3       5.6329      2.00000
      4       6.2094      2.00000
      5      17.3740      0.00000
      6      19.0626      0.00000
      7      19.9297      0.00000
      8      24.7333      0.00000

 k-point   292 :      -0.4667    0.1333    0.0333
  band No.  band energies     occupation 
      1      -5.8232      2.00000
      2      -3.1936      2.00000
      3       5.5094      2.00000
      4       6.2350      2.00000
      5      17.5059      0.00000
      6      18.9502      0.00000
      7      19.9289      0.00000
      8      25.0374      0.00000

 k-point   293 :      -0.4333    0.1333    0.0333
  band No.  band energies     occupation 
      1      -5.7312      2.00000
      2      -3.3008      2.00000
      3       5.3976      2.00000
      4       6.3313      2.00000
      5      17.6414      0.00000
      6      18.8216      0.00000
      7      19.9108      0.00000
      8      25.1827      0.00000

 k-point   294 :      -0.4000    0.1333    0.0333
  band No.  band energies     occupation 
      1      -6.1369      2.00000
      2      -2.8127      2.00000
      3       5.3140      2.00000
      4       6.4821      2.00000
      5      17.7817      0.00000
      6      18.6796      0.00000
      7      19.8755      0.00000
      8      25.1463      0.00000

 k-point   295 :      -0.3667    0.1333    0.0333
  band No.  band energies     occupation 
      1      -6.7454      2.00000
      2      -2.0253      2.00000
      3       5.2675      2.00000
      4       6.6777      2.00000
      5      17.9184      0.00000
      6      18.5253      0.00000
      7      19.8204      0.00000
      8      24.9439      0.00000

 k-point   296 :      -0.3333    0.1333    0.0333
  band No.  band energies     occupation 
      1      -7.3892      2.00000
      2      -1.1080      2.00000
      3       5.2626      2.00000
      4       6.9113      2.00000
      5      18.0215      0.00000
      6      18.3724      0.00000
      7      19.7403      0.00000
      8      24.6272      0.00000

 k-point   297 :      -0.3000    0.1333    0.0333
  band No.  band energies     occupation 
      1      -8.0140      2.00000
      2      -0.1188      2.00000
      3       5.3021      2.00000
      4       7.1767      2.00000
      5      17.9768      0.00000
      6      18.3115      0.00000
      7      19.6264      0.00000
      8      24.2592      0.00000

 k-point   298 :      -0.2667    0.1333    0.0333
  band No.  band energies     occupation 
      1      -8.5996      2.00000
      2       0.9172      2.00000
      3       5.3876      2.00000
      4       7.4671      2.00000
      5      17.7511      0.00000
      6      18.3511      0.00000
      7      19.4650      0.00000
      8      23.9026      0.00000

 k-point   299 :      -0.2333    0.1333    0.0333
  band No.  band energies     occupation 
      1      -9.1373      2.00000
      2       1.9836      2.00000
      3       5.5204      2.00000
      4       7.7740      2.00000
      5      17.4449      0.00000
      6      18.3703      0.00000
      7      19.2391      0.00000
      8      23.6077      0.00000

 k-point   300 :      -0.2000    0.1333    0.0333
  band No.  band energies     occupation 
      1      -9.6221      2.00000
      2       3.0642      2.00000
      3       5.7020      2.00000
      4       8.0865      2.00000
      5      17.0910      0.00000
      6      18.3289      0.00000
      7      18.9360      0.00000
      8      23.4035      0.00000

 k-point   301 :      -0.1667    0.1333    0.0333
  band No.  band energies     occupation 
      1     -10.0512      2.00000
      2       4.1377      2.00000
      3       5.9366      2.00000
      4       8.3904      2.00000
      5      16.7142      0.00000
      6      18.2118      0.00000
      7      18.5555      0.00000
      8      23.2912      0.00000

 k-point   302 :      -0.1333    0.1333    0.0333
  band No.  band energies     occupation 
      1     -10.4228      2.00000
      2       5.1635      2.00000
      3       6.2426      2.00000
      4       8.6668      2.00000
      5      16.3466      0.00000
      6      18.0132      0.00000
      7      18.1151      0.00000
      8      23.2467      0.00000

 k-point   303 :      -0.1000    0.1333    0.0333
  band No.  band energies     occupation 
      1     -10.7357      2.00000
      2       6.0221      2.00000
      3       6.7084      2.00000
      4       8.8926      2.00000
      5      16.0277      0.00000
      6      17.6458      0.00000
      7      17.7321      0.00000
      8      23.2366      0.00000

 k-point   304 :       0.2000    0.1667    0.0333
  band No.  band energies     occupation 
      1     -10.6947      2.00000
      2       6.6294      2.00000
      3       6.9548      2.00000
      4       7.7848      2.00000
      5      14.7357      0.00000
      6      18.5828      0.00000
      7      18.6217      0.00000
      8      22.3463      0.00000

 k-point   305 :       0.2333    0.1667    0.0333
  band No.  band energies     occupation 
      1     -10.4220      2.00000
      2       5.8109      2.00000
      3       6.5821      2.00000
      4       7.6213      2.00000
      5      14.8817      0.00000
      6      18.9814      0.00000
      7      19.0975      0.00000
      8      22.1025      0.00000

 k-point   306 :       0.2667    0.1667    0.0333
  band No.  band energies     occupation 
      1     -10.0900      2.00000
      2       4.8424      2.00000
      3       6.2913      2.00000
      4       7.3969      2.00000
      5      15.1497      0.00000
      6      19.3079      0.00000
      7      19.5280      0.00000
      8      21.9126      0.00000

 k-point   307 :       0.3000    0.1667    0.0333
  band No.  band energies     occupation 
      1      -9.6997      2.00000
      2       3.8169      2.00000
      3       6.0444      2.00000
      4       7.1204      2.00000
      5      15.4865      0.00000
      6      19.5579      0.00000
      7      19.8923      0.00000
      8      21.8183      0.00000

 k-point   308 :       0.3333    0.1667    0.0333
  band No.  band energies     occupation 
      1      -9.2528      2.00000
      2       2.7684      2.00000
      3       5.8372      2.00000
      4       6.8164      2.00000
      5      15.8376      0.00000
      6      19.7331      0.00000
      7      20.1774      0.00000
      8      21.8579      0.00000

 k-point   309 :       0.3667    0.1667    0.0333
  band No.  band energies     occupation 
      1      -8.7512      2.00000
      2       1.7187      2.00000
      3       5.6662      2.00000
      4       6.5100      2.00000
      5      16.1595      0.00000
      6      19.8375      0.00000
      7      20.3849      0.00000
      8      22.0555      0.00000

 k-point   310 :       0.4000    0.1667    0.0333
  band No.  band energies     occupation 
      1      -8.1984      2.00000
      2       0.6849      2.00000
      3       5.5225      2.00000
      4       6.2271      2.00000
      5      16.4283      0.00000
      6      19.8775      0.00000
      7      20.5264      0.00000
      8      22.4084      0.00000

 k-point   311 :       0.4333    0.1667    0.0333
  band No.  band energies     occupation 
      1      -7.6003      2.00000
      2      -0.3176      2.00000
      3       5.3851      2.00000
      4       6.0009      2.00000
      5      16.6425      0.00000
      6      19.8617      0.00000
      7      20.6164      0.00000
      8      22.8906      0.00000

 k-point   312 :       0.4667    0.1667    0.0333
  band No.  band energies     occupation 
      1      -6.9685      2.00000
      2      -1.2697      2.00000
      3       5.2264      2.00000
      4       5.8680      2.00000
      5      16.8168      0.00000
      6      19.7998      0.00000
      7      20.6665      0.00000
      8      23.4557      0.00000

 k-point   313 :       0.5000    0.1667    0.0333
  band No.  band energies     occupation 
      1      -6.3307      2.00000
      2      -2.1389      2.00000
      3       5.0433      2.00000
      4       5.8375      2.00000
      5      16.9712      0.00000
      6      19.7010      0.00000
      7      20.6868      0.00000
      8      24.0426      0.00000

 k-point   314 :      -0.4667    0.1667    0.0333
  band No.  band energies     occupation 
      1      -5.7668      2.00000
      2      -2.8418      2.00000
      3       4.8601      2.00000
      4       5.8893      2.00000
      5      17.1225      0.00000
      6      19.5724      0.00000
      7      20.6839      0.00000
      8      24.5729      0.00000

 k-point   315 :      -0.4333    0.1667    0.0333
  band No.  band energies     occupation 
      1      -5.5062      2.00000
      2      -3.1471      2.00000
      3       4.6981      2.00000
      4       6.0042      2.00000
      5      17.2819      0.00000
      6      19.4195      0.00000
      7      20.6615      0.00000
      8      24.9476      0.00000

 k-point   316 :      -0.4000    0.1667    0.0333
  band No.  band energies     occupation 
      1      -5.7718      2.00000
      2      -2.8310      2.00000
      3       4.5695      2.00000
      4       6.1709      2.00000
      5      17.4547      0.00000
      6      19.2446      0.00000
      7      20.6207      0.00000
      8      25.0759      0.00000

 k-point   317 :      -0.3667    0.1667    0.0333
  band No.  band energies     occupation 
      1      -6.3365      2.00000
      2      -2.1213      2.00000
      3       4.4812      2.00000
      4       6.3820      2.00000
      5      17.6390      0.00000
      6      19.0450      0.00000
      7      20.5598      0.00000
      8      24.9332      0.00000

 k-point   318 :      -0.3333    0.1667    0.0333
  band No.  band energies     occupation 
      1      -6.9737      2.00000
      2      -1.2466      2.00000
      3       4.4374      2.00000
      4       6.6314      2.00000
      5      17.8275      0.00000
      6      18.8164      0.00000
      7      20.4734      0.00000
      8      24.5952      0.00000

 k-point   319 :      -0.3000    0.1667    0.0333
  band No.  band energies     occupation 
      1      -7.6045      2.00000
      2      -0.2892      2.00000
      3       4.4411      2.00000
      4       6.9125      2.00000
      5      18.0039      0.00000
      6      18.5548      0.00000
      7      20.3508      0.00000
      8      24.1701      0.00000

 k-point   320 :      -0.2667    0.1667    0.0333
  band No.  band energies     occupation 
      1      -8.2018      2.00000
      2       0.7180      2.00000
      3       4.4950      2.00000
      4       7.2180      2.00000
      5      18.0996      0.00000
      6      18.3061      0.00000
      7      20.1739      0.00000
      8      23.7531      0.00000

 k-point   321 :      -0.2333    0.1667    0.0333
  band No.  band energies     occupation 
      1      -8.7539      2.00000
      2       1.7538      2.00000
      3       4.6024      2.00000
      4       7.5383      2.00000
      5      17.8379      0.00000
      6      18.3259      0.00000
      7      19.9175      0.00000
      8      23.4188      0.00000

 k-point   322 :      -0.2000    0.1667    0.0333
  band No.  band energies     occupation 
      1      -9.2549      2.00000
      2       2.7957      2.00000
      3       4.7711      2.00000
      4       7.8613      2.00000
      5      17.4547      0.00000
      6      18.3693      0.00000
      7      19.5672      0.00000
      8      23.2139      0.00000

 k-point   323 :      -0.1667    0.1667    0.0333
  band No.  band energies     occupation 
      1      -9.7013      2.00000
      2       3.8007      2.00000
      3       5.0270      2.00000
      4       8.1712      2.00000
      5      17.0522      0.00000
      6      18.3403      0.00000
      7      19.1287      0.00000
      8      23.1417      0.00000

 k-point   324 :      -0.1333    0.1667    0.0333
  band No.  band energies     occupation 
      1     -10.0911      2.00000
      2       4.6403      2.00000
      3       5.4770      2.00000
      4       8.4477      2.00000
      5      16.6694      0.00000
      6      18.2233      0.00000
      7      18.6314      0.00000
      8      23.1690      0.00000

 k-point   325 :       0.2333    0.2000    0.0333
  band No.  band energies     occupation 
      1     -10.2503      2.00000
      2       5.9106      2.00000
      3       6.3097      2.00000
      4       7.0220      2.00000
      5      14.5321      0.00000
      6      19.5574      0.00000
      7      19.6369      0.00000
      8      21.5172      0.00000

 k-point   326 :       0.2667    0.2000    0.0333
  band No.  band energies     occupation 
      1      -9.9388      2.00000
      2       5.1049      2.00000
      3       5.9540      2.00000
      4       6.8444      2.00000
      5      14.6844      0.00000
      6      19.9269      0.00000
      7      20.1168      0.00000
      8      21.1818      0.00000

 k-point   327 :       0.3000    0.2000    0.0333
  band No.  band energies     occupation 
      1      -9.5689      2.00000
      2       4.1657      2.00000
      3       5.6842      2.00000
      4       6.6027      2.00000
      5      14.9592      0.00000
      6      20.2159      0.00000
      7      20.5268      0.00000
      8      20.9589      0.00000

 k-point   328 :       0.3333    0.2000    0.0333
  band No.  band energies     occupation 
      1      -9.1421      2.00000
      2       3.1764      2.00000
      3       5.4588      2.00000
      4       6.3142      2.00000
      5      15.2977      0.00000
      6      20.4233      0.00000
      7      20.7707      0.00000
      8      20.9706      0.00000

 k-point   329 :       0.3667    0.2000    0.0333
  band No.  band energies     occupation 
      1      -8.6600      2.00000
      2       2.1683      2.00000
      3       5.2644      2.00000
      4       6.0130      2.00000
      5      15.6402      0.00000
      6      20.5479      0.00000
      7      20.8853      0.00000
      8      21.2140      0.00000

 k-point   330 :       0.4000    0.2000    0.0333
  band No.  band energies     occupation 
      1      -8.1258      2.00000
      2       1.1619      2.00000
      3       5.0816      2.00000
      4       5.7403      2.00000
      5      15.9423      0.00000
      6      20.6008      0.00000
      7      21.1122      0.00000
      8      21.4632      0.00000

 k-point   331 :       0.4333    0.2000    0.0333
  band No.  band energies     occupation 
      1      -7.5445      2.00000
      2       0.1749      2.00000
      3       4.8794      2.00000
      4       5.5438      2.00000
      5      16.1869      0.00000
      6      20.5977      0.00000
      7      21.3341      0.00000
      8      21.8293      0.00000

 k-point   332 :       0.4667    0.2000    0.0333
  band No.  band energies     occupation 
      1      -6.9253      2.00000
      2      -0.7742      2.00000
      3       4.6435      2.00000
      4       5.4501      2.00000
      5      16.3829      0.00000
      6      20.5440      0.00000
      7      21.4443      0.00000
      8      22.3974      0.00000

 k-point   333 :       0.5000    0.2000    0.0333
  band No.  band energies     occupation 
      1      -6.2887      2.00000
      2      -1.6582      2.00000
      3       4.3943      2.00000
      4       5.4472      2.00000
      5      16.5519      0.00000
      6      20.4460      0.00000
      7      21.4864      0.00000
      8      23.0824      0.00000

 k-point   334 :      -0.4667    0.2000    0.0333
  band No.  band energies     occupation 
      1      -5.6902      2.00000
      2      -2.4169      2.00000
      3       4.1573      2.00000
      4       5.5152      2.00000
      5      16.7153      0.00000
      6      20.3098      0.00000
      7      21.4898      0.00000
      8      23.7940      0.00000

 k-point   335 :      -0.4333    0.2000    0.0333
  band No.  band energies     occupation 
      1      -5.2978      2.00000
      2      -2.8795      2.00000
      3       3.9487      2.00000
      4       5.6413      2.00000
      5      16.8883      0.00000
      6      20.1404      0.00000
      7      21.4678      0.00000
      8      24.4291      0.00000

 k-point   336 :      -0.4000    0.2000    0.0333
  band No.  band energies     occupation 
      1      -5.3949      2.00000
      2      -2.7612      2.00000
      3       3.7775      2.00000
      4       5.8179      2.00000
      5      17.0788      0.00000
      6      19.9400      0.00000
      7      21.4243      0.00000
      8      24.8391      0.00000

 k-point   337 :      -0.3667    0.2000    0.0333
  band No.  band energies     occupation 
      1      -5.8908      2.00000
      2      -2.1528      2.00000
      3       3.6498      2.00000
      4       6.0392      2.00000
      5      17.2886      0.00000
      6      19.7069      0.00000
      7      21.3607      0.00000
      8      24.8818      0.00000

 k-point   338 :      -0.3333    0.2000    0.0333
  band No.  band energies     occupation 
      1      -6.5118      2.00000
      2      -1.3298      2.00000
      3       3.5698      2.00000
      4       6.2993      2.00000
      5      17.5134      0.00000
      6      19.4356      0.00000
      7      21.2711      0.00000
      8      24.5846      0.00000

 k-point   339 :      -0.3000    0.2000    0.0333
  band No.  band energies     occupation 
      1      -7.1444      2.00000
      2      -0.4099      2.00000
      3       3.5413      2.00000
      4       6.5919      2.00000
      5      17.7439      0.00000
      6      19.1203      0.00000
      7      21.1428      0.00000
      8      24.1229      0.00000

 k-point   340 :      -0.2667    0.2000    0.0333
  band No.  band energies     occupation 
      1      -7.7507      2.00000
      2       0.5614      2.00000
      3       3.5692      2.00000
      4       6.9090      2.00000
      5      17.9645      0.00000
      6      18.7575      0.00000
      7      20.9476      0.00000
      8      23.6537      0.00000

 k-point   341 :      -0.2333    0.2000    0.0333
  band No.  band energies     occupation 
      1      -8.3154      2.00000
      2       1.5534      2.00000
      3       3.6634      2.00000
      4       7.2405      2.00000
      5      18.1487      0.00000
      6      18.3571      0.00000
      7      20.6484      0.00000
      8      23.2883      0.00000

 k-point   342 :      -0.2000    0.2000    0.0333
  band No.  band energies     occupation 
      1      -8.8313      2.00000
      2       2.5186      2.00000
      3       3.8553      2.00000
      4       7.5734      2.00000
      5      17.9020      0.00000
      6      18.3054      0.00000
      7      20.2254      0.00000
      8      23.0904      0.00000

 k-point   343 :      -0.1667    0.2000    0.0333
  band No.  band energies     occupation 
      1      -9.2942      2.00000
      2       3.3200      2.00000
      3       4.2647      2.00000
      4       7.8907      2.00000
      5      17.4623      0.00000
      6      18.3674      0.00000
      7      19.7019      0.00000
      8      23.0560      0.00000

 k-point   344 :       0.2667    0.2333    0.0333
  band No.  band energies     occupation 
      1      -9.7278      2.00000
      2       5.1653      2.00000
      3       5.7062      2.00000
      4       6.2378      2.00000
      5      14.3406      0.00000
      6      20.4891      0.00000
      7      20.5640      0.00000
      8      20.6656      0.00000

 k-point   345 :       0.3000    0.2333    0.0333
  band No.  band energies     occupation 
      1      -9.3784      2.00000
      2       4.3867      2.00000
      3       5.3661      2.00000
      4       6.0467      2.00000
      5      14.5050      0.00000
      6      20.1454      0.00000
      7      20.8904      0.00000
      8      21.1424      0.00000

 k-point   346 :       0.3333    0.2333    0.0333
  band No.  band energies     occupation 
      1      -8.9719      2.00000
      2       3.4951      2.00000
      3       5.1045      2.00000
      4       5.7915      2.00000
      5      14.7900      0.00000
      6      19.9368      0.00000
      7      21.1402      0.00000
      8      21.5436      0.00000

 k-point   347 :       0.3667    0.2333    0.0333
  band No.  band energies     occupation 
      1      -8.5099      2.00000
      2       2.5579      2.00000
      3       4.8703      2.00000
      4       5.5122      2.00000
      5      15.1295      0.00000
      6      19.9086      0.00000
      7      21.3076      0.00000
      8      21.8602      0.00000

 k-point   348 :       0.4000    0.2333    0.0333
  band No.  band energies     occupation 
      1      -7.9950      2.00000
      2       1.6036      2.00000
      3       4.6263      2.00000
      4       5.2691      2.00000
      5      15.4587      0.00000
      6      20.0898      0.00000
      7      21.4002      0.00000
      8      22.0917      0.00000

 k-point   349 :       0.4333    0.2333    0.0333
  band No.  band energies     occupation 
      1      -7.4314      2.00000
      2       0.6523      2.00000
      3       4.3445      2.00000
      4       5.1122      2.00000
      5      15.7362      0.00000
      6      20.4843      0.00000
      7      21.4296      0.00000
      8      22.2480      0.00000

 k-point   350 :       0.4667    0.2333    0.0333
  band No.  band energies     occupation 
      1      -6.8269      2.00000
      2      -0.2763      2.00000
      3       4.0352      2.00000
      4       5.0482      2.00000
      5      15.9563      0.00000
      6      21.0317      0.00000
      7      21.4332      0.00000
      8      22.3475      0.00000

 k-point   351 :       0.5000    0.2333    0.0333
  band No.  band energies     occupation 
      1      -6.1971      2.00000
      2      -1.1576      2.00000
      3       3.7264      2.00000
      4       5.0604      2.00000
      5      16.1392      0.00000
      6      21.2354      0.00000
      7      21.8317      0.00000
      8      22.4385      0.00000

 k-point   352 :      -0.4667    0.2333    0.0333
  band No.  band energies     occupation 
      1      -5.5814      2.00000
      2      -1.9457      2.00000
      3       3.4387      2.00000
      4       5.1359      2.00000
      5      16.3107      0.00000
      6      21.1196      0.00000
      7      22.2378      0.00000
      8      22.8400      0.00000

 k-point   353 :      -0.4333    0.2333    0.0333
  band No.  band energies     occupation 
      1      -5.0978      2.00000
      2      -2.5183      2.00000
      3       3.1845      2.00000
      4       5.2669      2.00000
      5      16.4904      0.00000
      6      20.9429      0.00000
      7      22.2738      0.00000
      8      23.6089      0.00000

 k-point   354 :      -0.4000    0.2333    0.0333
  band No.  band energies     occupation 
      1      -5.0198      2.00000
      2      -2.5993      2.00000
      3       2.9718      2.00000
      4       5.4481      2.00000
      5      16.6899      0.00000
      6      20.7218      0.00000
      7      22.2423      0.00000
      8      24.3130      0.00000

 k-point   355 :      -0.3667    0.2333    0.0333
  band No.  band energies     occupation 
      1      -5.4167      2.00000
      2      -2.1195      2.00000
      3       2.8062      2.00000
      4       5.6744      2.00000
      5      16.9134      0.00000
      6      20.4560      0.00000
      7      22.1832      0.00000
      8      24.6913      0.00000

 k-point   356 :      -0.3333    0.2333    0.0333
  band No.  band energies     occupation 
      1      -6.0088      2.00000
      2      -1.3603      2.00000
      3       2.6927      2.00000
      4       5.9406      2.00000
      5      17.1597      0.00000
      6      20.1418      0.00000
      7      22.0980      0.00000
      8      24.5643      0.00000

 k-point   357 :      -0.3000    0.2333    0.0333
  band No.  band energies     occupation 
      1      -6.6374      2.00000
      2      -0.4864      2.00000
      3       2.6373      2.00000
      4       6.2403      2.00000
      5      17.4216      0.00000
      6      19.7743      0.00000
      7      21.9717      0.00000
      8      24.1090      0.00000

 k-point   358 :      -0.2667    0.2333    0.0333
  band No.  band energies     occupation 
      1      -7.2493      2.00000
      2       0.4350      2.00000
      3       2.6516      2.00000
      4       6.5655      2.00000
      5      17.6873      0.00000
      6      19.3528      0.00000
      7      21.7608      0.00000
      8      23.6039      0.00000

 k-point   359 :      -0.2333    0.2333    0.0333
  band No.  band energies     occupation 
      1      -7.8245      2.00000
      2       1.3436      2.00000
      3       2.7705      2.00000
      4       6.9058      2.00000
      5      17.9389      0.00000
      6      18.8858      0.00000
      7      21.3952      0.00000
      8      23.2361      0.00000

 k-point   360 :      -0.2000    0.2333    0.0333
  band No.  band energies     occupation 
      1      -8.3535      2.00000
      2       2.0932      2.00000
      3       3.1226      2.00000
      4       7.2476      2.00000
      5      18.1529      0.00000
      6      18.3923      0.00000
      7      20.8595      0.00000
      8      23.0783      0.00000

 k-point   361 :       0.3000    0.2667    0.0333
  band No.  band energies     occupation 
      1      -9.1288      2.00000
      2       4.3488      2.00000
      3       5.1566      2.00000
      4       5.5064      2.00000
      5      14.1748      0.00000
      6      19.4432      0.00000
      7      21.5438      0.00000
      8      21.6867      0.00000

 k-point   362 :       0.3333    0.2667    0.0333
  band No.  band energies     occupation 
      1      -8.7428      2.00000
      2       3.6184      2.00000
      3       4.8233      2.00000
      4       5.3008      2.00000
      5      14.3560      0.00000
      6      19.1183      0.00000
      7      21.8484      0.00000
      8      22.1517      0.00000

 k-point   363 :       0.3667    0.2667    0.0333
  band No.  band energies     occupation 
      1      -8.3011      2.00000
      2       2.7993      2.00000
      3       4.5274      2.00000
      4       5.0580      2.00000
      5      14.6532      0.00000
      6      18.9692      0.00000
      7      22.0613      0.00000
      8      22.5273      0.00000

 k-point   364 :       0.4000    0.2667    0.0333
  band No.  band energies     occupation 
      1      -7.8060      2.00000
      2       1.9369      2.00000
      3       4.2059      2.00000
      4       4.8514      2.00000
      5      14.9911      0.00000
      6      19.0323      0.00000
      7      22.1891      0.00000
      8      22.8099      0.00000

 k-point   365 :       0.4333    0.2667    0.0333
  band No.  band energies     occupation 
      1      -7.2611      2.00000
      2       1.0559      2.00000
      3       3.8422      2.00000
      4       4.7244      2.00000
      5      15.3007      0.00000
      6      19.3365      0.00000
      7      22.2408      0.00000
      8      23.0038      0.00000

 k-point   366 :       0.4667    0.2667    0.0333
  band No.  band energies     occupation 
      1      -6.6729      2.00000
      2       0.1771      2.00000
      3       3.4614      2.00000
      4       4.6752      2.00000
      5      15.5498      0.00000
      6      19.8767      0.00000
      7      22.2242      0.00000
      8      23.1213      0.00000

 k-point   367 :       0.5000    0.2667    0.0333
  band No.  band energies     occupation 
      1      -6.0537      2.00000
      2      -0.6757      2.00000
      3       3.0908      2.00000
      4       4.6926      2.00000
      5      15.7488      0.00000
      6      20.6063      0.00000
      7      22.1486      0.00000
      8      23.1799      0.00000

 k-point   368 :      -0.4667    0.2667    0.0333
  band No.  band energies     occupation 
      1      -5.4323      2.00000
      2      -1.4648      2.00000
      3       2.7482      2.00000
      4       4.7691      2.00000
      5      15.9266      0.00000
      6      21.4424      0.00000
      7      22.0343      0.00000
      8      23.2022      0.00000

 k-point   369 :      -0.4333    0.2667    0.0333
  band No.  band energies     occupation 
      1      -4.8911      2.00000
      2      -2.1012      2.00000
      3       2.4448      2.00000
      4       4.9000      2.00000
      5      16.1085      0.00000
      6      21.7734      0.00000
      7      22.3985      0.00000
      8      23.2335      0.00000

 k-point   370 :      -0.4000    0.2667    0.0333
  band No.  band energies     occupation 
      1      -4.6569      2.00000
      2      -2.3541      2.00000
      3       2.1882      2.00000
      4       5.0811      2.00000
      5      16.3106      0.00000
      6      21.5491      0.00000
      7      22.9255      0.00000
      8      23.5706      0.00000

 k-point   371 :      -0.3667    0.2667    0.0333
  band No.  band energies     occupation 
      1      -4.9255      2.00000
      2      -2.0271      2.00000
      3       1.9845      2.00000
      4       5.3082      2.00000
      5      16.5399      0.00000
      6      21.2507      0.00000
      7      22.9591      0.00000
      8      24.2282      0.00000

 k-point   372 :      -0.3333    0.2667    0.0333
  band No.  band energies     occupation 
      1      -5.4725      2.00000
      2      -1.3475      2.00000
      3       1.8408      2.00000
      4       5.5764      2.00000
      5      16.7973      0.00000
      6      20.8889      0.00000
      7      22.9023      0.00000
      8      24.4612      0.00000

 k-point   373 :      -0.3000    0.2667    0.0333
  band No.  band energies     occupation 
      1      -6.0894      2.00000
      2      -0.5362      2.00000
      3       1.7699      2.00000
      4       5.8795      2.00000
      5      17.0783      0.00000
      6      20.4625      0.00000
      7      22.7999      0.00000
      8      24.1116      0.00000

 k-point   374 :      -0.2667    0.2667    0.0333
  band No.  band energies     occupation 
      1      -6.7023      2.00000
      2       0.2937      2.00000
      3       1.8095      2.00000
      4       6.2096      2.00000
      5      17.3735      0.00000
      6      19.9752      0.00000
      7      22.5808      0.00000
      8      23.6007      0.00000

 k-point   375 :      -0.2333    0.2667    0.0333
  band No.  band energies     occupation 
      1      -7.2846      2.00000
      2       0.9788      2.00000
      3       2.0911      2.00000
      4       6.5563      2.00000
      5      17.6675      0.00000
      6      19.4409      0.00000
      7      22.0908      0.00000
      8      23.3027      0.00000

 k-point   376 :       0.3333    0.3000    0.0333
  band No.  band energies     occupation 
      1      -8.4554      2.00000
      2       3.4258      2.00000
      3       4.6693      2.00000
      4       4.8870      2.00000
      5      14.0462      0.00000
      6      18.4298      0.00000
      7      22.5169      0.00000
      8      22.6818      0.00000

 k-point   377 :       0.3667    0.3000    0.0333
  band No.  band energies     occupation 
      1      -8.0343      2.00000
      2       2.7563      2.00000
      3       4.3267      2.00000
      4       4.6802      2.00000
      5      14.2482      0.00000
      6      18.1605      0.00000
      7      22.7854      0.00000
      8      23.1243      0.00000

 k-point   378 :       0.4000    0.3000    0.0333
  band No.  band energies     occupation 
      1      -7.5593      2.00000
      2       2.0292      2.00000
      3       3.9374      2.00000
      4       4.4982      2.00000
      5      14.5577      0.00000
      6      18.0902      0.00000
      7      22.9600      0.00000
      8      23.4663      0.00000

 k-point   379 :       0.4333    0.3000    0.0333
  band No.  band energies     occupation 
      1      -7.0338      2.00000
      2       1.2672      2.00000
      3       3.4912      2.00000
      4       4.3847      2.00000
      5      14.8885      0.00000
      6      18.2611      0.00000
      7      23.0483      0.00000
      8      23.7073      0.00000

 k-point   380 :       0.4667    0.3000    0.0333
  band No.  band energies     occupation 
      1      -6.4631      2.00000
      2       0.4865      2.00000
      3       3.0251      2.00000
      4       4.3391      2.00000
      5      15.1712      0.00000
      6      18.6990      0.00000
      7      23.0595      0.00000
      8      23.8579      0.00000

 k-point   381 :       0.5000    0.3000    0.0333
  band No.  band energies     occupation 
      1      -5.8573      2.00000
      2      -0.2936      2.00000
      3       2.5731      2.00000
      4       4.3549      2.00000
      5      15.3910      0.00000
      6      19.3796      0.00000
      7      22.9987      0.00000
      8      23.9324      0.00000

 k-point   382 :      -0.4667    0.3000    0.0333
  band No.  band energies     occupation 
      1      -5.2379      2.00000
      2      -1.0421      2.00000
      3       2.1568      2.00000
      4       4.4278      2.00000
      5      15.5754      0.00000
      6      20.2403      0.00000
      7      22.8707      0.00000
      8      23.9520      0.00000

 k-point   383 :      -0.4333    0.3000    0.0333
  band No.  band energies     occupation 
      1      -4.6635      2.00000
      2      -1.6924      2.00000
      3       1.7890      2.00000
      4       4.5545      2.00000
      5      15.7569      0.00000
      6      21.2083      0.00000
      7      22.6768      0.00000
      8      23.9364      0.00000

 k-point   384 :      -0.4000    0.3000    0.0333
  band No.  band energies     occupation 
      1      -4.3075      2.00000
      2      -2.0652      2.00000
      3       1.4783      2.00000
      4       4.7320      2.00000
      5      15.9568      0.00000
      6      22.1718      0.00000
      7      22.4531      0.00000
      8      23.9113      0.00000

 k-point   385 :      -0.3667    0.3000    0.0333
  band No.  band energies     occupation 
      1      -4.4307      2.00000
      2      -1.8988      2.00000
      3       1.2327      2.00000
      4       4.9564      2.00000
      5      16.1858      0.00000
      6      22.0494      0.00000
      7      23.1338      0.00000
      8      23.9383      0.00000

 k-point   386 :      -0.3333    0.3000    0.0333
  band No.  band energies     occupation 
      1      -4.9145      2.00000
      2      -1.3201      2.00000
      3       1.0661      2.00000
      4       5.2233      2.00000
      5      16.4469      0.00000
      6      21.6363      0.00000
      7      23.5331      0.00000
      8      24.1795      0.00000

 k-point   387 :      -0.3000    0.3000    0.0333
  band No.  band energies     occupation 
      1      -5.5100      2.00000
      2      -0.6150      2.00000
      3       1.0168      2.00000
      4       5.5266      2.00000
      5      16.7378      0.00000
      6      21.1434      0.00000
      7      23.5430      0.00000
      8      24.0970      0.00000

 k-point   388 :      -0.2667    0.3000    0.0333
  band No.  band energies     occupation 
      1      -6.1176      2.00000
      2      -0.0115      2.00000
      3       1.2121      2.00000
      4       5.8588      2.00000
      5      17.0508      0.00000
      6      20.5824      0.00000
      7      23.3047      0.00000
      8      23.6864      0.00000

 k-point   389 :       0.3667    0.3333    0.0333
  band No.  band energies     occupation 
      1      -7.7103      2.00000
      2       2.4097      2.00000
      3       4.2502      2.00000
      4       4.3871      2.00000
      5      13.9650      0.00000
      6      17.5060      0.00000
      7      23.4494      0.00000
      8      23.6276      0.00000

 k-point   390 :       0.4000    0.3333    0.0333
  band No.  band energies     occupation 
      1      -7.2558      2.00000
      2       1.7919      2.00000
      3       3.8887      2.00000
      4       4.2080      2.00000
      5      14.1907      0.00000
      6      17.3043      0.00000
      7      23.6790      0.00000
      8      24.0336      0.00000

 k-point   391 :       0.4333    0.3333    0.0333
  band No.  band energies     occupation 
      1      -6.7500      2.00000
      2       1.1505      2.00000
      3       3.4137      2.00000
      4       4.0949      2.00000
      5      14.5106      0.00000
      6      17.3231      0.00000
      7      23.8129      0.00000
      8      24.3273      0.00000

 k-point   392 :       0.4667    0.3333    0.0333
  band No.  band energies     occupation 
      1      -6.1979      2.00000
      2       0.4960      2.00000
      3       2.8742      2.00000
      4       4.0456      2.00000
      5      14.8249      0.00000
      6      17.6147      0.00000
      7      23.8596      0.00000
      8      24.5148      0.00000

 k-point   393 :       0.5000    0.3333    0.0333
  band No.  band energies     occupation 
      1      -5.6074      2.00000
      2      -0.1644      2.00000
      3       2.3227      2.00000
      4       4.0553      2.00000
      5      15.0727      0.00000
      6      18.1936      0.00000
      7      23.8235      0.00000
      8      24.6087      0.00000

 k-point   394 :      -0.4667    0.3333    0.0333
  band No.  band energies     occupation 
      1      -4.9954      2.00000
      2      -0.8158      2.00000
      3       1.7999      2.00000
      4       4.1212      2.00000
      5      15.2660      0.00000
      6      19.0069      0.00000
      7      23.7072      0.00000
      8      24.6297      0.00000

 k-point   395 :      -0.4333    0.3333    0.0333
  band No.  band energies     occupation 
      1      -4.4044      2.00000
      2      -1.4161      2.00000
      3       1.3337      2.00000
      4       4.2409      2.00000
      5      15.4450      0.00000
      6      19.9782      0.00000
      7      23.5075      0.00000
      8      24.5997      0.00000

 k-point   396 :      -0.4000    0.3333    0.0333
  band No.  band energies     occupation 
      1      -3.9641      2.00000
      2      -1.8358      2.00000
      3       0.9426      2.00000
      4       4.4119      2.00000
      5      15.6390      0.00000
      6      21.0386      0.00000
      7      23.2185      0.00000
      8      24.5389      0.00000

 k-point   397 :      -0.3667    0.3333    0.0333
  band No.  band energies     occupation 
      1      -3.9480      2.00000
      2      -1.8065      2.00000
      3       0.6447      2.00000
      4       4.6309      2.00000
      5      15.8629      0.00000
      6      22.1159      0.00000
      7      22.8411      0.00000
      8      24.4595      0.00000

 k-point   398 :      -0.3333    0.3333    0.0333
  band No.  band energies     occupation 
      1      -4.3550      2.00000
      2      -1.3598      2.00000
      3       0.4775      2.00000
      4       4.8937      2.00000
      5      16.1220      0.00000
      6      22.3411      0.00000
      7      23.1318      0.00000
      8      24.3573      0.00000

 k-point   399 :      -0.3000    0.3333    0.0333
  band No.  band energies     occupation 
      1      -4.9175      2.00000
      2      -0.8702      2.00000
      3       0.5510      2.00000
      4       5.1948      2.00000
      5      16.4155      0.00000
      6      21.7799      0.00000
      7      23.7763      0.00000
      8      24.1659      0.00000

 k-point   400 :       0.4000    0.3667    0.0333
  band No.  band energies     occupation 
      1      -6.8964      2.00000
      2       1.3354      2.00000
      3       3.9034      2.00000
      4       3.9915      2.00000
      5      13.9401      0.00000
      6      16.6921      0.00000
      7      24.3150      0.00000
      8      24.4953      0.00000

 k-point   401 :       0.4333    0.3667    0.0333
  band No.  band energies     occupation 
      1      -6.4109      2.00000
      2       0.7539      2.00000
      3       3.5311      2.00000
      4       3.8571      2.00000
      5      14.1916      0.00000
      6      16.5619      0.00000
      7      24.5007      0.00000
      8      24.8437      0.00000

 k-point   402 :       0.4667    0.3667    0.0333
  band No.  band energies     occupation 
      1      -5.8779      2.00000
      2       0.1755      2.00000
      3       3.0166      2.00000
      4       3.7992      2.00000
      5      14.5152      0.00000
      6      16.6788      0.00000
      7      24.5878      0.00000
      8      25.0692      0.00000

 k-point   403 :       0.5000    0.3667    0.0333
  band No.  band energies     occupation 
      1      -5.3043      2.00000
      2      -0.3917      2.00000
      3       2.4289      2.00000
      4       3.7998      2.00000
      5      14.7976      0.00000
      6      17.1055      0.00000
      7      24.5829      0.00000
      8      25.1809      0.00000

 k-point   404 :      -0.4667    0.3667    0.0333
  band No.  band energies     occupation 
      1      -4.7034      2.00000
      2      -0.9410      2.00000
      3       1.8234      2.00000
      4       3.8562      2.00000
      5      15.0048      0.00000
      6      17.8276      0.00000
      7      24.4830      0.00000
      8      25.2000      0.00000

 k-point   405 :      -0.4333    0.3667    0.0333
  band No.  band energies     occupation 
      1      -4.1071      2.00000
      2      -1.4535      2.00000
      3       1.2497      2.00000
      4       3.9668      2.00000
      5      15.1796      0.00000
      6      18.7597      0.00000
      7      24.2804      0.00000
      8      25.1496      0.00000

 k-point   406 :      -0.4000    0.3667    0.0333
  band No.  band energies     occupation 
      1      -3.6152      2.00000
      2      -1.8499      2.00000
      3       0.7535      2.00000
      4       4.1292      2.00000
      5      15.3639      0.00000
      6      19.8216      0.00000
      7      23.9656      0.00000
      8      25.0505      0.00000

 k-point   407 :      -0.3667    0.3667    0.0333
  band No.  band energies     occupation 
      1      -3.4991      2.00000
      2      -1.8948      2.00000
      3       0.3882      2.00000
      4       4.3406      2.00000
      5      15.5786      0.00000
      6      20.9527      0.00000
      7      23.5356      0.00000
      8      24.9049      0.00000

 k-point   408 :      -0.3333    0.3667    0.0333
  band No.  band energies     occupation 
      1      -3.8383      2.00000
      2      -1.5919      2.00000
      3       0.2476      2.00000
      4       4.5972      2.00000
      5      15.8311      0.00000
      6      22.0862      0.00000
      7      22.9974      0.00000
      8      24.6903      0.00000

 k-point   409 :       0.4333    0.4000    0.0333
  band No.  band energies     occupation 
      1      -6.0178      2.00000
      2       0.2322      2.00000
      3       3.6322      2.00000
      4       3.6885      2.00000
      5      13.9796      0.00000
      6      15.9936      0.00000
      7      25.0808      0.00000
      8      25.2449      0.00000

 k-point   410 :       0.4667    0.4000    0.0333
  band No.  band energies     occupation 
      1      -5.5045      2.00000
      2      -0.3222      2.00000
      3       3.2638      2.00000
      4       3.6033      2.00000
      5      14.2570      0.00000
      6      15.9365      0.00000
      7      25.2110      0.00000
      8      25.5069      0.00000

 k-point   411 :       0.5000    0.4000    0.0333
  band No.  band energies     occupation 
      1      -4.9489      2.00000
      2      -0.8559      2.00000
      3       2.7460      2.00000
      4       3.5925      2.00000
      5      14.5682      0.00000
      6      16.1668      0.00000
      7      25.2387      0.00000
      8      25.6366      0.00000

 k-point   412 :      -0.4667    0.4000    0.0333
  band No.  band energies     occupation 
      1      -4.3616      2.00000
      2      -1.3605      2.00000
      3       2.1522      2.00000
      4       3.6378      2.00000
      5      14.7970      0.00000
      6      16.7475      0.00000
      7      25.1590      0.00000
      8      25.6495      0.00000

 k-point   413 :      -0.4333    0.4000    0.0333
  band No.  band energies     occupation 
      1      -3.7676      2.00000
      2      -1.8235      2.00000
      3       1.5413      2.00000
      4       3.7375      2.00000
      5      14.9657      0.00000
      6      17.6057      0.00000
      7      24.9558      0.00000
      8      25.5740      0.00000

 k-point   414 :      -0.4000    0.4000    0.0333
  band No.  band energies     occupation 
      1      -3.2550      2.00000
      2      -2.1854      2.00000
      3       0.9767      2.00000
      4       3.8897      2.00000
      5      15.1355      0.00000
      6      18.6366      0.00000
      7      24.6154      0.00000
      8      25.4307      0.00000

 k-point   415 :      -0.3667    0.4000    0.0333
  band No.  band energies     occupation 
      1      -3.1590      2.00000
      2      -2.1730      2.00000
      3       0.5445      2.00000
      4       4.0919      2.00000
      5      15.3365      0.00000
      6      19.7699      0.00000
      7      24.1370      0.00000
      8      25.2163      0.00000

 k-point   416 :       0.4667    0.4333    0.0333
  band No.  band energies     occupation 
      1      -5.0796      2.00000
      2      -0.8775      2.00000
      3       3.4389      2.00000
      4       3.4725      2.00000
      5      14.0911      0.00000
      6      15.4091      0.00000
      7      25.6979      0.00000
      8      25.8251      0.00000

 k-point   417 :       0.5000    0.4333    0.0333
  band No.  band energies     occupation 
      1      -4.5426      2.00000
      2      -1.4082      2.00000
      3       3.0868      2.00000
      4       3.4366      2.00000
      5      14.3892      0.00000
      6      15.4300      0.00000
      7      25.7596      0.00000
      8      25.9690      0.00000

 k-point   418 :      -0.4667    0.4333    0.0333
  band No.  band energies     occupation 
      1      -3.9707      2.00000
      2      -1.9064      2.00000
      3       2.5893      2.00000
      4       3.4695      2.00000
      5      14.6479      0.00000
      6      15.8113      0.00000
      7      25.7023      0.00000
      8      25.9761      0.00000

 k-point   419 :      -0.4333    0.4333    0.0333
  band No.  band energies     occupation 
      1      -3.3849      2.00000
      2      -2.3598      2.00000
      3       2.0208      2.00000
      4       3.5572      2.00000
      5      14.8053      0.00000
      6      16.5597      0.00000
      7      25.5003      0.00000
      8      25.8780      0.00000

 k-point   420 :      -0.4000    0.4333    0.0333
  band No.  band energies     occupation 
      1      -2.9679      2.00000
      2      -2.6108      2.00000
      3       1.4517      2.00000
      4       3.6980      2.00000
      5      14.9530      0.00000
      6      17.5314      0.00000
      7      25.1350      0.00000
      8      25.6988      0.00000

 k-point   421 :       0.5000    0.4667    0.0333
  band No.  band energies     occupation 
      1      -4.0879      2.00000
      2      -1.9764      2.00000
      3       3.3250      2.00000
      4       3.3408      2.00000
      5      14.2824      0.00000
      6      14.9338      0.00000
      7      26.1158      0.00000
      8      26.1865      0.00000

 k-point   422 :      -0.4667    0.4667    0.0333
  band No.  band energies     occupation 
      1      -3.5327      2.00000
      2      -2.4833      2.00000
      3       2.9987      2.00000
      4       3.3537      2.00000
      5      14.5646      0.00000
      6      15.0673      0.00000
      7      26.0838      0.00000
      8      26.1848      0.00000

 k-point   423 :      -0.4333    0.4667    0.0333
  band No.  band energies     occupation 
      1      -2.9994      2.00000
      2      -2.9036      2.00000
      3       2.5379      2.00000
      4       3.4287      2.00000
      5      14.6924      0.00000
      6      15.6749      0.00000
      7      25.8830      0.00000
      8      26.0760      0.00000

 k-point   424 :      -0.4667    0.5000    0.0333
  band No.  band energies     occupation 
      1      -3.0504      2.00000
      2      -3.0504      2.00000
      3       3.2920      2.00000
      4       3.2920      2.00000
      5      14.5607      0.00000
      6      14.5607      0.00000
      7      26.2872      0.00000
      8      26.2873      0.00000

 k-point   425 :       0.2000    0.1333    0.0667
  band No.  band energies     occupation 
      1     -10.9381      2.00000
      2       6.7027      2.00000
      3       7.2416      2.00000
      4       8.7757      2.00000
      5      15.4059      0.00000
      6      17.6209      0.00000
      7      17.6608      0.00000
      8      23.0296      0.00000

 k-point   426 :       0.2333    0.1333    0.0667
  band No.  band energies     occupation 
      1     -10.6648      2.00000
      2       5.8544      2.00000
      3       6.7993      2.00000
      4       8.5851      2.00000
      5      15.6627      0.00000
      6      18.0176      0.00000
      7      18.0796      0.00000
      8      23.0033      0.00000

 k-point   427 :       0.2667    0.1333    0.0667
  band No.  band energies     occupation 
      1     -10.3320      2.00000
      2       4.8398      2.00000
      3       6.4825      2.00000
      4       8.3349      2.00000
      5      15.9969      0.00000
      6      18.3006      0.00000
      7      18.5155      0.00000
      8      22.9992      0.00000

 k-point   428 :       0.3000    0.1333    0.0667
  band No.  band energies     occupation 
      1      -9.9408      2.00000
      2       3.7697      2.00000
      3       6.2225      2.00000
      4       8.0471      2.00000
      5      16.3630      0.00000
      6      18.5066      0.00000
      7      18.9001      0.00000
      8      23.0477      0.00000

 k-point   429 :       0.3333    0.1333    0.0667
  band No.  band energies     occupation 
      1      -9.4927      2.00000
      2       2.6831      2.00000
      3       6.0081      2.00000
      4       7.7426      2.00000
      5      16.7200      0.00000
      6      18.6374      0.00000
      7      19.2148      0.00000
      8      23.1792      0.00000

 k-point   430 :       0.3667    0.1333    0.0667
  band No.  band energies     occupation 
      1      -8.9896      2.00000
      2       1.6020      2.00000
      3       5.8375      2.00000
      4       7.4383      2.00000
      5      17.0377      0.00000
      6      18.7001      0.00000
      7      19.4557      0.00000
      8      23.4106      0.00000

 k-point   431 :       0.4000    0.1333    0.0667
  band No.  band energies     occupation 
      1      -8.4349      2.00000
      2       0.5425      2.00000
      3       5.7096      2.00000
      4       7.1476      2.00000
      5      17.3003      0.00000
      6      18.7052      0.00000
      7      19.6308      0.00000
      8      23.7341      0.00000

 k-point   432 :       0.4333    0.1333    0.0667
  band No.  band energies     occupation 
      1      -7.8344      2.00000
      2      -0.4807      2.00000
      3       5.6228      2.00000
      4       6.8816      2.00000
      5      17.5050      0.00000
      6      18.6677      0.00000
      7      19.7534      0.00000
      8      24.1164      0.00000

 k-point   433 :       0.4667    0.1333    0.0667
  band No.  band energies     occupation 
      1      -7.1996      2.00000
      2      -1.4499      2.00000
      3       5.5733      2.00000
      4       6.6508      2.00000
      5      17.6583      0.00000
      6      18.6056      0.00000
      7      19.8370      0.00000
      8      24.5104      0.00000

 k-point   434 :       0.5000    0.1333    0.0667
  band No.  band energies     occupation 
      1      -6.5578      2.00000
      2      -2.3334      2.00000
      3       5.5541      2.00000
      4       6.4667      2.00000
      5      17.7685      0.00000
      6      18.5375      0.00000
      7      19.8908      0.00000
      8      24.8563      0.00000

 k-point   435 :      -0.4667    0.1333    0.0667
  band No.  band energies     occupation 
      1      -5.9882      2.00000
      2      -3.0491      2.00000
      3       5.5534      2.00000
      4       6.3444      2.00000
      5      17.8386      0.00000
      6      18.4831      0.00000
      7      19.9209      0.00000
      8      25.0965      0.00000

 k-point   436 :      -0.4333    0.1333    0.0667
  band No.  band energies     occupation 
      1      -5.7217      2.00000
      2      -3.3644      2.00000
      3       5.5558      2.00000
      4       6.3007      2.00000
      5      17.8635      0.00000
      6      18.4619      0.00000
      7      19.9305      0.00000
      8      25.1825      0.00000

 k-point   437 :       0.2333    0.1667    0.0667
  band No.  band energies     occupation 
      1     -10.5736      2.00000
      2       5.9912      2.00000
      3       6.5878      2.00000
      4       8.1694      2.00000
      5      15.2220      0.00000
      6      18.4574      0.00000
      7      18.5931      0.00000
      8      22.5793      0.00000

 k-point   438 :       0.2667    0.1667    0.0667
  band No.  band energies     occupation 
      1     -10.2612      2.00000
      2       5.1534      2.00000
      3       6.1580      2.00000
      4       7.9604      2.00000
      5      15.4857      0.00000
      6      18.7636      0.00000
      7      19.0667      0.00000
      8      22.4249      0.00000

 k-point   439 :       0.3000    0.1667    0.0667
  band No.  band energies     occupation 
      1      -9.8901      2.00000
      2       4.1575      2.00000
      3       5.8627      2.00000
      4       7.6970      2.00000
      5      15.8265      0.00000
      6      18.9889      0.00000
      7      19.4963      0.00000
      8      22.3351      0.00000

 k-point   440 :       0.3333    0.1667    0.0667
  band No.  band energies     occupation 
      1      -9.4617      2.00000
      2       3.1113      2.00000
      3       5.6300      2.00000
      4       7.4001      2.00000
      5      16.1932      0.00000
      6      19.1336      0.00000
      7      19.8572      0.00000
      8      22.3545      0.00000

 k-point   441 :       0.3667    0.1667    0.0667
  band No.  band energies     occupation 
      1      -8.9779      2.00000
      2       2.0535      2.00000
      3       5.4451      2.00000
      4       7.0914      2.00000
      5      16.5412      0.00000
      6      19.2040      0.00000
      7      20.1386      0.00000
      8      22.5156      0.00000

 k-point   442 :       0.4000    0.1667    0.0667
  band No.  band energies     occupation 
      1      -8.4414      2.00000
      2       1.0058      2.00000
      3       5.3028      2.00000
      4       6.7896      2.00000
      5      16.8406      0.00000
      6      19.2107      0.00000
      7      20.3449      0.00000
      8      22.8224      0.00000

 k-point   443 :       0.4333    0.1667    0.0667
  band No.  band energies     occupation 
      1      -7.8571      2.00000
      2      -0.0152      2.00000
      3       5.1981      2.00000
      4       6.5114      2.00000
      5      17.0806      0.00000
      6      19.1693      0.00000
      7      20.4910      0.00000
      8      23.2494      0.00000

 k-point   444 :       0.4667    0.1667    0.0667
  band No.  band energies     occupation 
      1      -7.2342      2.00000
      2      -0.9921      2.00000
      3       5.1235      2.00000
      4       6.2733      2.00000
      5      17.2678      0.00000
      6      19.0947      0.00000
      7      20.5901      0.00000
      8      23.7489      0.00000

 k-point   445 :       0.5000    0.1667    0.0667
  band No.  band energies     occupation 
      1      -6.5928      2.00000
      2      -1.8991      2.00000
      3       5.0665      2.00000
      4       6.0940      2.00000
      5      17.4179      0.00000
      6      18.9994      0.00000
      7      20.6519      0.00000
      8      24.2597      0.00000

 k-point   446 :      -0.4667    0.1667    0.0667
  band No.  band energies     occupation 
      1      -5.9876      2.00000
      2      -2.6775      2.00000
      3       5.0122      2.00000
      4       5.9929      2.00000
      5      17.5474      0.00000
      6      18.8929      0.00000
      7      20.6836      0.00000
      8      24.7052      0.00000

 k-point   447 :      -0.4333    0.1667    0.0667
  band No.  band energies     occupation 
      1      -5.5863      2.00000
      2      -3.1575      2.00000
      3       4.9513      2.00000
      4       5.9818      2.00000
      5      17.6668      0.00000
      6      18.7819      0.00000
      7      20.6890      0.00000
      8      24.9907      0.00000

 k-point   448 :      -0.4000    0.1667    0.0667
  band No.  band energies     occupation 
      1      -5.6798      2.00000
      2      -3.0471      2.00000
      3       4.8890      2.00000
      4       6.0567      2.00000
      5      17.7785      0.00000
      6      18.6736      0.00000
      7      20.6707      0.00000
      8      25.0411      0.00000

 k-point   449 :      -0.3667    0.1667    0.0667
  band No.  band energies     occupation 
      1      -6.1808      2.00000
      2      -2.4337      2.00000
      3       4.8396      2.00000
      4       6.2032      2.00000
      5      17.8682      0.00000
      6      18.5800      0.00000
      7      20.6283      0.00000
      8      24.8445      0.00000

 k-point   450 :      -0.3333    0.1667    0.0667
  band No.  band energies     occupation 
      1      -6.8084      2.00000
      2      -1.5997      2.00000
      3       4.8165      2.00000
      4       6.4063      2.00000
      5      17.8972      0.00000
      6      18.5294      0.00000
      7      20.5595      0.00000
      8      24.4729      0.00000

 k-point   451 :      -0.3000    0.1667    0.0667
  band No.  band energies     occupation 
      1      -7.4468      2.00000
      2      -0.6635      2.00000
      3       4.8289      2.00000
      4       6.6538      2.00000
      5      17.8176      0.00000
      6      18.5495      0.00000
      7      20.4592      0.00000
      8      24.0210      0.00000

 k-point   452 :      -0.2667    0.1667    0.0667
  band No.  band energies     occupation 
      1      -8.0580      2.00000
      2       0.3320      2.00000
      3       4.8828      2.00000
      4       6.9350      2.00000
      5      17.6281      0.00000
      6      18.6157      0.00000
      7      20.3171      0.00000
      8      23.5706      0.00000

 k-point   453 :      -0.2333    0.1667    0.0667
  band No.  band energies     occupation 
      1      -8.6268      2.00000
      2       1.3650      2.00000
      3       4.9823      2.00000
      4       7.2394      2.00000
      5      17.3528      0.00000
      6      18.6780      0.00000
      7      20.1179      0.00000
      8      23.1909      0.00000

 k-point   454 :      -0.2000    0.1667    0.0667
  band No.  band energies     occupation 
      1      -9.1459      2.00000
      2       2.4178      2.00000
      3       5.1309      2.00000
      4       7.5551      2.00000
      5      17.0130      0.00000
      6      18.6989      0.00000
      7      19.8439      0.00000
      8      22.9307      0.00000

 k-point   455 :      -0.1667    0.1667    0.0667
  band No.  band energies     occupation 
      1      -9.6114      2.00000
      2       3.4683      2.00000
      3       5.3353      2.00000
      4       7.8674      2.00000
      5      16.6349      0.00000
      6      18.6536      0.00000
      7      19.4855      0.00000
      8      22.8091      0.00000

 k-point   456 :      -0.1333    0.1667    0.0667
  band No.  band energies     occupation 
      1     -10.0207      2.00000
      2       4.4755      2.00000
      3       5.6173      2.00000
      4       8.1576      2.00000
      5      16.2542      0.00000
      6      18.5280      0.00000
      7      19.0530      0.00000
      8      22.8098      0.00000

 k-point   457 :      -0.1000    0.1667    0.0667
  band No.  band energies     occupation 
      1     -10.3722      2.00000
      2       5.3197      2.00000
      3       6.0698      2.00000
      4       8.4039      2.00000
      5      15.9146      0.00000
      6      18.3159      0.00000
      7      18.5728      0.00000
      8      22.8903      0.00000

 k-point   458 :       0.2667    0.2000    0.0667
  band No.  band energies     occupation 
      1     -10.1300      2.00000
      2       5.2818      2.00000
      3       5.9540      2.00000
      4       7.4467      2.00000
      5      15.0284      0.00000
      6      19.3213      0.00000
      7      19.6141      0.00000
      8      21.7980      0.00000

 k-point   459 :       0.3000    0.2000    0.0667
  band No.  band energies     occupation 
      1      -9.7793      2.00000
      2       4.4671      2.00000
      3       5.5413      2.00000
      4       7.2196      2.00000
      5      15.3024      0.00000
      6      19.5763      0.00000
      7      20.0943      0.00000
      8      21.5681      0.00000

 k-point   460 :       0.3333    0.2000    0.0667
  band No.  band energies     occupation 
      1      -9.3710      2.00000
      2       3.5034      2.00000
      3       5.2654      2.00000
      4       6.9423      2.00000
      5      15.6504      0.00000
      6      19.7444      0.00000
      7      20.5059      0.00000
      8      21.4665      0.00000

 k-point   461 :       0.3667    0.2000    0.0667
  band No.  band energies     occupation 
      1      -8.9068      2.00000
      2       2.4927      2.00000
      3       5.0545      2.00000
      4       6.6384      2.00000
      5      16.0157      0.00000
      6      19.8285      0.00000
      7      20.8188      0.00000
      8      21.5501      0.00000

 k-point   462 :       0.4000    0.2000    0.0667
  band No.  band energies     occupation 
      1      -8.3892      2.00000
      2       1.4733      2.00000
      3       4.8881      2.00000
      4       6.3333      2.00000
      5      16.3500      0.00000
      6      19.8414      0.00000
      7      21.0412      0.00000
      8      21.8255      0.00000

 k-point   463 :       0.4333    0.2000    0.0667
  band No.  band energies     occupation 
      1      -7.8224      2.00000
      2       0.4675      2.00000
      3       4.7549      2.00000
      4       6.0512      2.00000
      5      16.6267      0.00000
      6      19.8023      0.00000
      7      21.2161      0.00000
      8      22.2449      0.00000

 k-point   464 :       0.4667    0.2000    0.0667
  band No.  band energies     occupation 
      1      -7.2136      2.00000
      2      -0.5059      2.00000
      3       4.6411      2.00000
      4       5.8167      2.00000
      5      16.8446      0.00000
      6      19.7274      0.00000
      7      21.3503      0.00000
      8      22.7782      0.00000

 k-point   465 :       0.5000    0.2000    0.0667
  band No.  band energies     occupation 
      1      -6.5784      2.00000
      2      -1.4238      2.00000
      3       4.5304      2.00000
      4       5.6547      2.00000
      5      17.0205      0.00000
      6      19.6257      0.00000
      7      21.4383      0.00000
      8      23.3885      0.00000

 k-point   466 :      -0.4667    0.2000    0.0667
  band No.  band energies     occupation 
      1      -5.9553      2.00000
      2      -2.2423      2.00000
      3       4.4108      2.00000
      4       5.5829      2.00000
      5      17.1757      0.00000
      6      19.5031      0.00000
      7      21.4831      0.00000
      8      24.0111      0.00000

 k-point   467 :      -0.4333    0.2000    0.0667
  band No.  band energies     occupation 
      1      -5.4607      2.00000
      2      -2.8417      2.00000
      3       4.2842      2.00000
      4       5.6031      2.00000
      5      17.3283      0.00000
      6      19.3633      0.00000
      7      21.4901      0.00000
      8      24.5442      0.00000

 k-point   468 :      -0.4000    0.2000    0.0667
  band No.  band energies     occupation 
      1      -5.3725      2.00000
      2      -2.9423      2.00000
      3       4.1643      2.00000
      4       5.7038      2.00000
      5      17.4892      0.00000
      6      19.2075      0.00000
      7      21.4658      0.00000
      8      24.8487      0.00000

 k-point   469 :      -0.3667    0.2000    0.0667
  band No.  band energies     occupation 
      1      -5.7717      2.00000
      2      -2.4629      2.00000
      3       4.0660      2.00000
      4       5.8702      2.00000
      5      17.6617      0.00000
      6      19.0338      0.00000
      7      21.4122      0.00000
      8      24.8103      0.00000

 k-point   470 :      -0.3333    0.2000    0.0667
  band No.  band energies     occupation 
      1      -6.3720      2.00000
      2      -1.6909      2.00000
      3       4.0008      2.00000
      4       6.0899      2.00000
      5      17.8402      0.00000
      6      18.8401      0.00000
      7      21.3295      0.00000
      8      24.4740      0.00000

 k-point   471 :      -0.3000    0.2000    0.0667
  band No.  band energies     occupation 
      1      -7.0088      2.00000
      2      -0.7938      2.00000
      3       3.9764      2.00000
      4       6.3524      2.00000
      5      17.9994      0.00000
      6      18.6340      0.00000
      7      21.2142      0.00000
      8      23.9867      0.00000

 k-point   472 :      -0.2667    0.2000    0.0667
  band No.  band energies     occupation 
      1      -7.6278      2.00000
      2       0.1689      2.00000
      3       3.9986      2.00000
      4       6.6480      2.00000
      5      18.0321      0.00000
      6      18.4999      0.00000
      7      21.0557      0.00000
      8      23.4769      0.00000

 k-point   473 :      -0.2333    0.2000    0.0667
  band No.  band energies     occupation 
      1      -8.2088      2.00000
      2       1.1683      2.00000
      3       4.0733      2.00000
      4       6.9659      2.00000
      5      17.8001      0.00000
      6      18.5524      0.00000
      7      20.8335      0.00000
      8      23.0386      0.00000

 k-point   474 :      -0.2000    0.2000    0.0667
  band No.  band energies     occupation 
      1      -8.7426      2.00000
      2       2.1787      2.00000
      3       4.2103      2.00000
      4       7.2935      2.00000
      5      17.4322      0.00000
      6      18.6475      0.00000
      7      20.5172      0.00000
      8      22.7450      0.00000

 k-point   475 :      -0.1667    0.2000    0.0667
  band No.  band energies     occupation 
      1      -9.2243      2.00000
      2       3.1552      2.00000
      3       4.4387      2.00000
      4       7.6150      2.00000
      5      17.0187      0.00000
      6      18.6930      0.00000
      7      20.0957      0.00000
      8      22.6281      0.00000

 k-point   476 :      -0.1333    0.2000    0.0667
  band No.  band energies     occupation 
      1      -9.6510      2.00000
      2       3.9694      2.00000
      3       4.8678      2.00000
      4       7.9107      2.00000
      5      16.6099      0.00000
      6      18.6579      0.00000
      7      19.5938      0.00000
      8      22.6670      0.00000

 k-point   477 :       0.3000    0.2333    0.0667
  band No.  band energies     occupation 
      1      -9.6086      2.00000
      2       4.5722      2.00000
      3       5.3603      2.00000
      4       6.6567      2.00000
      5      14.8438      0.00000
      6      20.2232      0.00000
      7      20.6530      0.00000
      8      20.8220      0.00000

 k-point   478 :       0.3333    0.2333    0.0667
  band No.  band energies     occupation 
      1      -9.2206      2.00000
      2       3.7913      2.00000
      3       4.9638      2.00000
      4       6.4133      2.00000
      5      15.1316      0.00000
      6      20.4127      0.00000
      7      20.5972      0.00000
      8      21.1383      0.00000

 k-point   479 :       0.3667    0.2333    0.0667
  band No.  band energies     occupation 
      1      -8.7765      2.00000
      2       2.8745      2.00000
      3       4.6971      2.00000
      4       6.1262      2.00000
      5      15.4876      0.00000
      6      20.3961      0.00000
      7      20.6499      0.00000
      8      21.5535      0.00000

 k-point   480 :       0.4000    0.2333    0.0667
  band No.  band energies     occupation 
      1      -8.2783      2.00000
      2       1.9118      2.00000
      3       4.4903      2.00000
      4       5.8272      2.00000
      5      15.8476      0.00000
      6      20.3987      0.00000
      7      20.7947      0.00000
      8      21.8912      0.00000

 k-point   481 :       0.4333    0.2333    0.0667
  band No.  band energies     occupation 
      1      -7.7298      2.00000
      2       0.9416      2.00000
      3       4.3134      2.00000
      4       5.5508      2.00000
      5      16.1627      0.00000
      6      20.4339      0.00000
      7      21.0420      0.00000
      8      22.1567      0.00000

 k-point   482 :       0.4667    0.2333    0.0667
  band No.  band energies     occupation 
      1      -7.1371      2.00000
      2      -0.0120      2.00000
      3       4.1443      2.00000
      4       5.3311      2.00000
      5      16.4138      0.00000
      6      20.4193      0.00000
      7      21.4537      0.00000
      8      22.3755      0.00000

 k-point   483 :       0.5000    0.2333    0.0667
  band No.  band energies     occupation 
      1      -6.5120      2.00000
      2      -0.9259      2.00000
      3       3.9657      2.00000
      4       5.1953      2.00000
      5      16.6129      0.00000
      6      20.3476      0.00000
      7      21.9193      0.00000
      8      22.6424      0.00000

 k-point   484 :      -0.4667    0.2333    0.0667
  band No.  band energies     occupation 
      1      -5.8827      2.00000
      2      -1.7644      2.00000
      3       3.7748      2.00000
      4       5.1538      2.00000
      5      16.7848      0.00000
      6      20.2341      0.00000
      7      22.1888      0.00000
      8      23.1473      0.00000

 k-point   485 :      -0.4333    0.2333    0.0667
  band No.  band energies     occupation 
      1      -5.3295      2.00000
      2      -2.4423      2.00000
      3       3.5838      2.00000
      4       5.1995      2.00000
      5      16.9529      0.00000
      6      20.0886      0.00000
      7      22.2638      0.00000
      8      23.8092      0.00000

 k-point   486 :      -0.4000    0.2333    0.0667
  band No.  band energies     occupation 
      1      -5.0782      2.00000
      2      -2.7309      2.00000
      3       3.4092      2.00000
      4       5.3188      2.00000
      5      17.1322      0.00000
      6      19.9149      0.00000
      7      22.2538      0.00000
      8      24.3930      0.00000

 k-point   487 :      -0.3667    0.2333    0.0667
  band No.  band energies     occupation 
      1      -5.3410      2.00000
      2      -2.4173      2.00000
      3       3.2642      2.00000
      4       5.4993      2.00000
      5      17.3309      0.00000
      6      19.7108      0.00000
      7      22.1955      0.00000
      8      24.6593      0.00000

 k-point   488 :      -0.3333    0.2333    0.0667
  band No.  band energies     occupation 
      1      -5.8961      2.00000
      2      -1.7239      2.00000
      3       3.1587      2.00000
      4       5.7311      2.00000
      5      17.5500      0.00000
      6      19.4693      0.00000
      7      22.1012      0.00000
      8      24.4803      0.00000

 k-point   489 :      -0.3000    0.2333    0.0667
  band No.  band energies     occupation 
      1      -6.5239      2.00000
      2      -0.8738      2.00000
      3       3.0999      2.00000
      4       6.0050      2.00000
      5      17.7846      0.00000
      6      19.1809      0.00000
      7      21.9752      0.00000
      8      24.0099      0.00000

 k-point   490 :      -0.2667    0.2333    0.0667
  band No.  band energies     occupation 
      1      -7.1469      2.00000
      2       0.0484      2.00000
      3       3.0954      2.00000
      4       6.3119      2.00000
      5      18.0224      0.00000
      6      18.8382      0.00000
      7      21.8108      0.00000
      8      23.4566      0.00000

 k-point   491 :      -0.2333    0.2333    0.0667
  band No.  band energies     occupation 
      1      -7.7378      2.00000
      2       1.0001      2.00000
      3       3.1572      2.00000
      4       6.6411      2.00000
      5      18.2123      0.00000
      6      18.4737      0.00000
      7      21.5741      0.00000
      8      22.9640      0.00000

 k-point   492 :      -0.2000    0.2333    0.0667
  band No.  band energies     occupation 
      1      -8.2846      2.00000
      2       1.9287      2.00000
      3       3.3196      2.00000
      4       6.9797      2.00000
      5      17.9338      0.00000
      6      18.4989      0.00000
      7      21.2025      0.00000
      8      22.6513      0.00000

 k-point   493 :      -0.1667    0.2333    0.0667
  band No.  band energies     occupation 
      1      -8.7813      2.00000
      2       2.6974      2.00000
      3       3.7030      2.00000
      4       7.3112      2.00000
      5      17.4696      0.00000
      6      18.6332      0.00000
      7      20.6880      0.00000
      8      22.5565      0.00000

 k-point   494 :       0.3333    0.2667    0.0667
  band No.  band energies     occupation 
      1      -9.0110      2.00000
      2       3.8439      2.00000
      3       4.8198      2.00000
      4       5.8532      2.00000
      5      14.6824      0.00000
      6      19.7957      0.00000
      7      21.1418      0.00000
      8      21.6862      0.00000

 k-point   495 :       0.3667    0.2667    0.0667
  band No.  band energies     occupation 
      1      -8.5872      2.00000
      2       3.1074      2.00000
      3       4.4336      2.00000
      4       5.5986      2.00000
      5      14.9872      0.00000
      6      19.5933      0.00000
      7      21.3075      0.00000
      8      22.1586      0.00000

 k-point   496 :       0.4000    0.2667    0.0667
  band No.  band energies     occupation 
      1      -8.1090      2.00000
      2       2.2552      2.00000
      3       4.1513      2.00000
      4       5.3169      2.00000
      5      15.3503      0.00000
      6      19.5735      0.00000
      7      21.3975      0.00000
      8      22.5460      0.00000

 k-point   497 :       0.4333    0.2667    0.0667
  band No.  band energies     occupation 
      1      -7.5796      2.00000
      2       1.3571      2.00000
      3       3.9068      2.00000
      4       5.0556      2.00000
      5      15.7000      0.00000
      6      19.7663      0.00000
      7      21.4260      0.00000
      8      22.8414      0.00000

 k-point   498 :       0.4667    0.2667    0.0667
  band No.  band energies     occupation 
      1      -7.0040      2.00000
      2       0.4507      2.00000
      3       3.6624      2.00000
      4       4.8586      2.00000
      5      15.9898      0.00000
      6      20.1715      0.00000
      7      21.4149      0.00000
      8      23.0497      0.00000

 k-point   499 :       0.5000    0.2667    0.0667
  band No.  band energies     occupation 
      1      -6.3920      2.00000
      2      -0.4366      2.00000
      3       3.4039      2.00000
      4       4.7512      2.00000
      5      16.2153      0.00000
      6      20.6970      0.00000
      7      21.4340      0.00000
      8      23.1837      0.00000

 k-point   500 :      -0.4667    0.2667    0.0667
  band No.  band energies     occupation 
      1      -5.7644      2.00000
      2      -1.2723      2.00000
      3       3.1387      2.00000
      4       4.7344      2.00000
      5      16.4019      0.00000
      6      20.9607      0.00000
      7      21.8031      0.00000
      8      23.2663      0.00000

 k-point   501 :      -0.4333    0.2667    0.0667
  band No.  band energies     occupation 
      1      -5.1776      2.00000
      2      -1.9928      2.00000
      3       2.8840      2.00000
      4       4.7975      2.00000
      5      16.5783      0.00000
      6      20.8873      0.00000
      7      22.4751      0.00000
      8      23.3635      0.00000

 k-point   502 :      -0.4000    0.2667    0.0667
  band No.  band energies     occupation 
      1      -4.7991      2.00000
      2      -2.4257      2.00000
      3       2.6556      2.00000
      4       4.9283      2.00000
      5      16.7652      0.00000
      6      20.7190      0.00000
      7      22.8826      0.00000
      8      23.7211      0.00000

 k-point   503 :      -0.3667    0.2667    0.0667
  band No.  band energies     occupation 
      1      -4.9011      2.00000
      2      -2.2970      2.00000
      3       2.4650      2.00000
      4       5.1173      2.00000
      5      16.9738      0.00000
      6      20.4978      0.00000
      7      22.9084      0.00000
      8      24.2496      0.00000

 k-point   504 :      -0.3333    0.2667    0.0667
  band No.  band energies     occupation 
      1      -5.3884      2.00000
      2      -1.7027      2.00000
      3       2.3211      2.00000
      4       5.3562      2.00000
      5      17.2081      0.00000
      6      20.2233      0.00000
      7      22.8193      0.00000
      8      24.4089      0.00000

 k-point   505 :      -0.3000    0.2667    0.0667
  band No.  band energies     occupation 
      1      -5.9978      2.00000
      2      -0.9109      2.00000
      3       2.2326      2.00000
      4       5.6374      2.00000
      5      17.4659      0.00000
      6      19.8852      0.00000
      7      22.6888      0.00000
      8      24.0754      0.00000

 k-point   506 :      -0.2667    0.2667    0.0667
  band No.  band energies     occupation 
      1      -6.6198      2.00000
      2      -0.0448      2.00000
      3       2.2136      2.00000
      4       5.9521      2.00000
      5      17.7399      0.00000
      6      19.4753      0.00000
      7      22.5357      0.00000
      8      23.5126      0.00000

 k-point   507 :      -0.2333    0.2667    0.0667
  band No.  band energies     occupation 
      1      -7.2172      2.00000
      2       0.8179      2.00000
      3       2.3016      2.00000
      4       6.2901      2.00000
      5      18.0174      0.00000
      6      18.9971      0.00000
      7      22.3151      0.00000
      8      22.9632      0.00000

 k-point   508 :      -0.2000    0.2667    0.0667
  band No.  band energies     occupation 
      1      -7.7747      2.00000
      2       1.5287      2.00000
      3       2.6233      2.00000
      4       6.6383      2.00000
      5      18.2779      0.00000
      6      18.4724      0.00000
      7      21.8497      0.00000
      8      22.6841      0.00000

 k-point   509 :       0.3667    0.3000    0.0667
  band No.  band energies     occupation 
      1      -8.3395      2.00000
      2       3.0624      2.00000
      3       4.3412      2.00000
      4       5.0991      2.00000
      5      14.5562      0.00000
      6      18.8098      0.00000
      7      22.0592      0.00000
      8      22.6910      0.00000

 k-point   510 :       0.4000    0.3000    0.0667
  band No.  band energies     occupation 
      1      -7.8817      2.00000
      2       2.3795      2.00000
      3       3.9544      2.00000
      4       4.8445      2.00000
      5      14.8803      0.00000
      6      18.6740      0.00000
      7      22.1829      0.00000
      8      23.1405      0.00000

 k-point   511 :       0.4333    0.3000    0.0667
  band No.  band energies     occupation 
      1      -7.3718      2.00000
      2       1.6118      2.00000
      3       3.6109      2.00000
      4       4.6026      2.00000
      5      15.2477      0.00000
      6      18.7508      0.00000
      7      22.2313      0.00000
      8      23.4897      0.00000

 k-point   512 :       0.4667    0.3000    0.0667
  band No.  band energies     occupation 
      1      -6.8146      2.00000
      2       0.8011      2.00000
      3       3.2653      2.00000
      4       4.4288      2.00000
      5      15.5793      0.00000
      6      19.0762      0.00000
      7      22.2174      0.00000
      8      23.7347      0.00000

 k-point   513 :       0.5000    0.3000    0.0667
  band No.  band energies     occupation 
      1      -6.2176      2.00000
      2      -0.0198      2.00000
      3       2.9095      2.00000
      4       4.3440      2.00000
      5      15.8390      0.00000
      6      19.6469      0.00000
      7      22.1534      0.00000
      8      23.8836      0.00000

 k-point   514 :      -0.4667    0.3000    0.0667
  band No.  band energies     occupation 
      1      -5.5973      2.00000
      2      -0.8183      2.00000
      3       2.5595      2.00000
      4       4.3434      2.00000
      5      16.0425      0.00000
      6      20.4030      0.00000
      7      22.0539      0.00000
      8      23.9462      0.00000

 k-point   515 :      -0.4333    0.3000    0.0667
  band No.  band energies     occupation 
      1      -4.9938      2.00000
      2      -1.5428      2.00000
      3       2.2338      2.00000
      4       4.4159      2.00000
      5      16.2246      0.00000
      6      21.2191      0.00000
      7      21.9742      0.00000
      8      23.9392      0.00000

 k-point   516 :      -0.4000    0.3000    0.0667
  band No.  band energies     occupation 
      1      -4.5269      2.00000
      2      -2.0659      2.00000
      3       1.9463      2.00000
      4       4.5520      2.00000
      5      16.4132      0.00000
      6      21.5288      0.00000
      7      22.3966      0.00000
      8      23.8846      0.00000

 k-point   517 :      -0.3667    0.3000    0.0667
  band No.  band energies     occupation 
      1      -4.4651      2.00000
      2      -2.1154      2.00000
      3       1.7073      2.00000
      4       4.7443      2.00000
      5      16.6239      0.00000
      6      21.3365      0.00000
      7      23.1472      0.00000
      8      23.8560      0.00000

 k-point   518 :      -0.3333    0.3000    0.0667
  band No.  band energies     occupation 
      1      -4.8596      2.00000
      2      -1.6417      2.00000
      3       1.5265      2.00000
      4       4.9861      2.00000
      5      16.8631      0.00000
      6      21.0317      0.00000
      7      23.3906      0.00000
      8      24.0965      0.00000

 k-point   519 :      -0.3000    0.3000    0.0667
  band No.  band energies     occupation 
      1      -5.4385      2.00000
      2      -0.9275      2.00000
      3       1.4192      2.00000
      4       5.2707      2.00000
      5      17.1309      0.00000
      6      20.6379      0.00000
      7      23.2839      0.00000
      8      24.1166      0.00000

 k-point   520 :      -0.2667    0.3000    0.0667
  band No.  band energies     occupation 
      1      -6.0529      2.00000
      2      -0.1609      2.00000
      3       1.4249      2.00000
      4       5.5900      2.00000
      5      17.4214      0.00000
      6      20.1542      0.00000
      7      23.1421      0.00000
      8      23.6740      0.00000

 k-point   521 :      -0.2333    0.3000    0.0667
  band No.  band energies     occupation 
      1      -6.6524      2.00000
      2       0.4783      2.00000
      3       1.6702      2.00000
      4       5.9341      2.00000
      5      17.7236      0.00000
      6      19.5950      0.00000
      7      23.0258      0.00000
      8      23.0317      0.00000

 k-point   522 :       0.4000    0.3333    0.0667
  band No.  band energies     occupation 
      1      -7.5969      2.00000
      2       2.1942      2.00000
      3       3.9309      2.00000
      4       4.4522      2.00000
      5      14.4753      0.00000
      6      17.9105      0.00000
      7      22.9560      0.00000
      8      23.6397      0.00000

 k-point   523 :       0.4333    0.3333    0.0667
  band No.  band energies     occupation 
      1      -7.1071      2.00000
      2       1.5677      2.00000
      3       3.5295      2.00000
      4       4.2188      2.00000
      5      14.8202      0.00000
      6      17.8517      0.00000
      7      23.0421      0.00000
      8      24.0491      0.00000

 k-point   524 :       0.4667    0.3333    0.0667
  band No.  band energies     occupation 
      1      -6.5689      2.00000
      2       0.8953      2.00000
      3       3.0830      2.00000
      4       4.0572      2.00000
      5      15.1859      0.00000
      6      18.0351      0.00000
      7      23.0556      0.00000
      8      24.3393      0.00000

 k-point   525 :       0.5000    0.3333    0.0667
  band No.  band energies     occupation 
      1      -5.9887      2.00000
      2       0.1948      2.00000
      3       2.6100      2.00000
      4       3.9851      2.00000
      5      15.4894      0.00000
      6      18.4988      0.00000
      7      23.0083      0.00000
      8      24.5121      0.00000

 k-point   526 :      -0.4667    0.3333    0.0667
  band No.  band energies     occupation 
      1      -5.3793      2.00000
      2      -0.5120      2.00000
      3       2.1481      2.00000
      4       3.9919      2.00000
      5      15.7164      0.00000
      6      19.2162      0.00000
      7      22.9068      0.00000
      8      24.5744      0.00000

 k-point   527 :      -0.4333    0.3333    0.0667
  band No.  band energies     occupation 
      1      -4.7706      2.00000
      2      -1.1863      2.00000
      3       1.7252      2.00000
      4       4.0672      2.00000
      5      15.9044      0.00000
      6      20.1119      0.00000
      7      22.7570      0.00000
      8      24.5389      0.00000

 k-point   528 :      -0.4000    0.3333    0.0667
  band No.  band energies     occupation 
      1      -4.2476      2.00000
      2      -1.7352      2.00000
      3       1.3581      2.00000
      4       4.2036      2.00000
      5      16.0911      0.00000
      6      21.1014      0.00000
      7      22.5615      0.00000
      8      24.4214      0.00000

 k-point   529 :      -0.3667    0.3333    0.0667
  band No.  band energies     occupation 
      1      -4.0424      2.00000
      2      -1.9227      2.00000
      3       1.0587      2.00000
      4       4.3951      2.00000
      5      16.2986      0.00000
      6      21.9818      0.00000
      7      22.4374      0.00000
      8      24.2402      0.00000

 k-point   530 :      -0.3333    0.3333    0.0667
  band No.  band energies     occupation 
      1      -4.3252      2.00000
      2      -1.5843      2.00000
      3       0.8429      2.00000
      4       4.6363      2.00000
      5      16.5365      0.00000
      6      21.8365      0.00000
      7      23.1706      0.00000
      8      24.0265      0.00000

 k-point   531 :      -0.3000    0.3333    0.0667
  band No.  band energies     occupation 
      1      -4.8603      2.00000
      2      -0.9898      2.00000
      3       0.7493      2.00000
      4       4.9211      2.00000
      5      16.8065      0.00000
      6      21.3796      0.00000
      7      23.6935      0.00000
      8      23.9158      0.00000

 k-point   532 :      -0.2667    0.3333    0.0667
  band No.  band energies     occupation 
      1      -5.4582      2.00000
      2      -0.4443      2.00000
      3       0.8949      2.00000
      4       5.2422      2.00000
      5      17.1045      0.00000
      6      20.8054      0.00000
      7      23.5073      0.00000
      8      23.9286      0.00000

 k-point   533 :       0.4333    0.3667    0.0667
  band No.  band energies     occupation 
      1      -6.7863      2.00000
      2       1.2346      2.00000
      3       3.5936      2.00000
      4       3.9391      2.00000
      5      14.4492      0.00000
      6      17.1181      0.00000
      7      23.8110      0.00000
      8      24.5010      0.00000

 k-point   534 :       0.4667    0.3667    0.0667
  band No.  band energies     occupation 
      1      -6.2677      2.00000
      2       0.6572      2.00000
      3       3.1687      2.00000
      4       3.7531      2.00000
      5      14.8141      0.00000
      6      17.1408      0.00000
      7      23.8616      0.00000
      8      24.8394      0.00000

 k-point   535 :       0.5000    0.3667    0.0667
  band No.  band energies     occupation 
      1      -5.7055      2.00000
      2       0.0705      2.00000
      3       2.6314      2.00000
      4       3.6801      2.00000
      5      15.1665      0.00000
      6      17.4423      0.00000
      7      23.8426      0.00000
      8      25.0388      0.00000

 k-point   536 :      -0.4667    0.3667    0.0667
  band No.  band energies     occupation 
      1      -5.1099      2.00000
      2      -0.5174      2.00000
      3       2.0632      2.00000
      4       3.6871      2.00000
      5      15.4297      0.00000
      6      18.0521      0.00000
      7      23.7609      0.00000
      8      25.1017      0.00000

 k-point   537 :      -0.4333    0.3667    0.0667
  band No.  band energies     occupation 
      1      -4.5035      2.00000
      2      -1.0900      2.00000
      3       1.5195      2.00000
      4       3.7602      2.00000
      5      15.6261      0.00000
      6      18.9051      0.00000
      7      23.6176      0.00000
      8      25.0392      0.00000

 k-point   538 :      -0.4000    0.3667    0.0667
  band No.  band energies     occupation 
      1      -3.9483      2.00000
      2      -1.5933      2.00000
      3       1.0394      2.00000
      4       3.8928      2.00000
      5      15.8082      0.00000
      6      19.9108      0.00000
      7      23.4036      0.00000
      8      24.8714      0.00000

 k-point   539 :      -0.3667    0.3667    0.0667
  band No.  band energies     occupation 
      1      -3.6358      2.00000
      2      -1.8474      2.00000
      3       0.6544      2.00000
      4       4.0803      2.00000
      5      16.0082      0.00000
      6      20.9942      0.00000
      7      23.0994      0.00000
      8      24.6287      0.00000

 k-point   540 :      -0.3333    0.3667    0.0667
  band No.  band energies     occupation 
      1      -3.8106      2.00000
      2      -1.6372      2.00000
      3       0.4065      2.00000
      4       4.3181      2.00000
      5      16.2400      0.00000
      6      22.0562      0.00000
      7      22.7090      0.00000
      8      24.3517      0.00000

 k-point   541 :      -0.3000    0.3667    0.0667
  band No.  band energies     occupation 
      1      -4.2921      2.00000
      2      -1.2326      2.00000
      3       0.3919      2.00000
      4       4.6006      2.00000
      5      16.5068      0.00000
      6      22.0427      0.00000
      7      23.1657      0.00000
      8      24.0655      0.00000

 k-point   542 :       0.4667    0.4000    0.0667
  band No.  band energies     occupation 
      1      -5.9124      2.00000
      2       0.2081      2.00000
      3       3.3329      2.00000
      4       3.5546      2.00000
      5      14.4858      0.00000
      6      16.4384      0.00000
      7      24.5940      0.00000
      8      25.2268      0.00000

 k-point   543 :       0.5000    0.4000    0.0667
  band No.  band energies     occupation 
      1      -5.3690      2.00000
      2      -0.3304      2.00000
      3       2.8876      2.00000
      4       3.4337      2.00000
      5      14.8665      0.00000
      6      16.5470      0.00000
      7      24.6094      0.00000
      8      25.4547      0.00000

 k-point   544 :      -0.4667    0.4000    0.0667
  band No.  band energies     occupation 
      1      -4.7891      2.00000
      2      -0.8526      2.00000
      3       2.3081      2.00000
      4       3.4334      2.00000
      5      15.1839      0.00000
      6      16.9852      0.00000
      7      24.5531      0.00000
      8      25.5179      0.00000

 k-point   545 :      -0.4333    0.4000    0.0667
  band No.  band energies     occupation 
      1      -4.1903      2.00000
      2      -1.3490      2.00000
      3       1.7009      2.00000
      4       3.5004      2.00000
      5      15.3959      0.00000
      6      17.7462      0.00000
      7      24.4253      0.00000
      8      25.4298      0.00000

 k-point   546 :      -0.4000    0.4000    0.0667
  band No.  band energies     occupation 
      1      -3.6197      2.00000
      2      -1.7912      2.00000
      3       1.1273      2.00000
      4       3.6266      2.00000
      5      15.5706      0.00000
      6      18.7177      0.00000
      7      24.2046      0.00000
      8      25.2197      0.00000

 k-point   547 :      -0.3667    0.4000    0.0667
  band No.  band energies     occupation 
      1      -3.2488      2.00000
      2      -2.0441      2.00000
      3       0.6501      2.00000
      4       3.8077      2.00000
      5      15.7588      0.00000
      6      19.8093      0.00000
      7      23.8520      0.00000
      8      24.9416      0.00000

 k-point   548 :      -0.3333    0.4000    0.0667
  band No.  band energies     occupation 
      1      -3.3780      2.00000
      2      -1.8825      2.00000
      3       0.3619      2.00000
      4       4.0398      2.00000
      5      15.9801      0.00000
      6      20.9567      0.00000
      7      23.3356      0.00000
      8      24.6502      0.00000

 k-point   549 :       0.5000    0.4333    0.0667
  band No.  band energies     occupation 
      1      -4.9806      2.00000
      2      -0.8527      2.00000
      3       3.1519      2.00000
      4       3.2840      2.00000
      5      14.5926      0.00000
      6      15.8702      0.00000
      7      25.2647      0.00000
      8      25.7595      0.00000

 k-point   550 :      -0.4667    0.4333    0.0667
  band No.  band energies     occupation 
      1      -4.4179      2.00000
      2      -1.3593      2.00000
      3       2.6977      2.00000
      4       3.2342      2.00000
      5      14.9743      0.00000
      6      16.0770      0.00000
      7      25.2385      0.00000
      8      25.8278      0.00000

 k-point   551 :      -0.4333    0.4333    0.0667
  band No.  band energies     occupation 
      1      -3.8303      2.00000
      2      -1.8328      2.00000
      3       2.1198      2.00000
      4       3.2921      2.00000
      5      15.2191      0.00000
      6      16.6858      0.00000
      7      25.1289      0.00000
      8      25.7200      0.00000

 k-point   552 :      -0.4000    0.4333    0.0667
  band No.  band energies     occupation 
      1      -3.2574      2.00000
      2      -2.2507      2.00000
      3       1.5273      2.00000
      4       3.4098      2.00000
      5      15.3816      0.00000
      6      17.5903      0.00000
      7      24.8970      0.00000
      8      25.4856      0.00000

 k-point   553 :      -0.3667    0.4333    0.0667
  band No.  band energies     occupation 
      1      -2.9628      2.00000
      2      -2.3906      2.00000
      3       0.9982      2.00000
      4       3.5828      2.00000
      5      15.5519      0.00000
      6      18.6553      0.00000
      7      24.4736      0.00000
      8      25.2146      0.00000

 k-point   554 :      -0.4667    0.4667    0.0667
  band No.  band energies     occupation 
      1      -3.9981      2.00000
      2      -1.9204      2.00000
      3       3.0532      2.00000
      4       3.1150      2.00000
      5      14.7771      0.00000
      6      15.4086      0.00000
      7      25.7674      0.00000
      8      26.0435      0.00000

 k-point   555 :      -0.4333    0.4667    0.0667
  band No.  band energies     occupation 
      1      -3.4243      2.00000
      2      -2.3974      2.00000
      3       2.6026      2.00000
      4       3.1379      2.00000
      5      15.1005      0.00000
      6      15.7695      0.00000
      7      25.6804      0.00000
      8      25.9203      0.00000

 k-point   556 :      -0.4000    0.4667    0.0667
  band No.  band energies     occupation 
      1      -2.9184      2.00000
      2      -2.7549      2.00000
      3       2.0583      2.00000
      4       3.2459      2.00000
      5      15.2379      0.00000
      6      16.5788      0.00000
      7      25.4157      0.00000
      8      25.7029      0.00000

 k-point   557 :      -0.4333    0.5000    0.0667
  band No.  band energies     occupation 
      1      -2.9741      2.00000
      2      -2.9741      2.00000
      3       3.0397      2.00000
      4       3.0398      2.00000
      5      15.0465      0.00000
      6      15.0465      0.00000
      7      26.0415      0.00000
      8      26.0416      0.00000

 k-point   558 :       0.3000    0.2000    0.1000
  band No.  band energies     occupation 
      1      -9.9300      2.00000
      2       4.6284      2.00000
      3       5.4488      2.00000
      4       7.7530      2.00000
      5      15.7555      0.00000
      6      18.9984      0.00000
      7      19.5900      0.00000
      8      22.2074      0.00000

 k-point   559 :       0.3333    0.2000    0.1000
  band No.  band energies     occupation 
      1      -9.5408      2.00000
      2       3.8100      2.00000
      3       5.0150      2.00000
      4       7.4874      2.00000
      5      16.1116      0.00000
      6      19.1410      0.00000
      7      20.0775      0.00000
      8      22.0781      0.00000

 k-point   560 :       0.3667    0.2000    0.1000
  band No.  band energies     occupation 
      1      -9.0951      2.00000
      2       2.8339      2.00000
      3       4.7558      2.00000
      4       7.1843      2.00000
      5      16.5018      0.00000
      6      19.1953      0.00000
      7      20.4935      0.00000
      8      22.0935      0.00000

 k-point   561 :       0.4000    0.2000    0.1000
  band No.  band energies     occupation 
      1      -8.5950      2.00000
      2       1.8168      2.00000
      3       4.5780      2.00000
      4       6.8662      2.00000
      5      16.8759      0.00000
      6      19.1748      0.00000
      7      20.8125      0.00000
      8      22.2924      0.00000

 k-point   562 :       0.4333    0.2000    0.1000
  band No.  band energies     occupation 
      1      -8.0441      2.00000
      2       0.8010      2.00000
      3       4.4556      2.00000
      4       6.5529      2.00000
      5      17.1965      0.00000
      6      19.1037      0.00000
      7      21.0434      0.00000
      8      22.6643      0.00000

 k-point   563 :       0.4667    0.2000    0.1000
  band No.  band energies     occupation 
      1      -7.4484      2.00000
      2      -0.1898      2.00000
      3       4.3786      2.00000
      4       6.2611      2.00000
      5      17.4448      0.00000
      6      19.0084      0.00000
      7      21.2133      0.00000
      8      23.1577      0.00000

 k-point   564 :       0.5000    0.2000    0.1000
  band No.  band energies     occupation 
      1      -6.8194      2.00000
      2      -1.1341      2.00000
      3       4.3388      2.00000
      4       6.0065      2.00000
      5      17.6209      0.00000
      6      18.9120      0.00000
      7      21.3391      0.00000
      8      23.7125      0.00000

 k-point   565 :      -0.4667    0.2000    0.1000
  band No.  band energies     occupation 
      1      -6.1849      2.00000
      2      -1.9977      2.00000
      3       4.3262      2.00000
      4       5.8048      2.00000
      5      17.7352      0.00000
      6      18.8307      0.00000
      7      21.4262      0.00000
      8      24.2569      0.00000

 k-point   566 :      -0.4333    0.2000    0.1000
  band No.  band energies     occupation 
      1      -5.6240      2.00000
      2      -2.6975      2.00000
      3       4.3277      2.00000
      4       5.6731      2.00000
      5      17.7993      0.00000
      6      18.7764      0.00000
      7      21.4766      0.00000
      8      24.6825      0.00000

 k-point   567 :      -0.4000    0.2000    0.1000
  band No.  band energies     occupation 
      1      -5.3629      2.00000
      2      -3.0051      2.00000
      3       4.3302      2.00000
      4       5.6270      2.00000
      5      17.8200      0.00000
      6      18.7573      0.00000
      7      21.4933      0.00000
      8      24.8499      0.00000

 k-point   568 :       0.3333    0.2333    0.1000
  band No.  band energies     occupation 
      1      -9.4104      2.00000
      2       3.9510      2.00000
      3       4.8666      2.00000
      4       6.9895      2.00000
      5      15.5917      0.00000
      6      19.7458      0.00000
      7      20.6400      0.00000
      8      21.3147      0.00000

 k-point   569 :       0.3667    0.2333    0.1000
  band No.  band energies     occupation 
      1      -8.9848      2.00000
      2       3.1683      2.00000
      3       4.4516      2.00000
      4       6.7062      2.00000
      5      15.9648      0.00000
      6      19.8121      0.00000
      7      21.0855      0.00000
      8      21.2543      0.00000

 k-point   570 :       0.4000    0.2333    0.1000
  band No.  band energies     occupation 
      1      -8.5044      2.00000
      2       2.2359      2.00000
      3       4.2084      2.00000
      4       6.3935      2.00000
      5      16.3615      0.00000
      6      19.7884      0.00000
      7      21.1979      0.00000
      8      21.6357      0.00000

 k-point   571 :       0.4333    0.2333    0.1000
  band No.  band energies     occupation 
      1      -7.9722      2.00000
      2       1.2631      2.00000
      3       4.0466      2.00000
      4       6.0770      2.00000
      5      16.7261      0.00000
      6      19.7117      0.00000
      7      21.3855      0.00000
      8      22.0423      0.00000

 k-point   572 :       0.4667    0.2333    0.1000
  band No.  band energies     occupation 
      1      -7.3932      2.00000
      2       0.2940      2.00000
      3       3.9345      2.00000
      4       5.7801      2.00000
      5      17.0231      0.00000
      6      19.6137      0.00000
      7      21.6608      0.00000
      8      22.4464      0.00000

 k-point   573 :       0.5000    0.2333    0.1000
  band No.  band energies     occupation 
      1      -6.7768      2.00000
      2      -0.6443      2.00000
      3       3.8554      2.00000
      4       5.5249      2.00000
      5      17.2477      0.00000
      6      19.5070      0.00000
      7      21.9341      0.00000
      8      22.9136      0.00000

 k-point   574 :      -0.4667    0.2333    0.1000
  band No.  band energies     occupation 
      1      -6.1435      2.00000
      2      -1.5213      2.00000
      3       3.7939      2.00000
      4       5.3330      2.00000
      5      17.4184      0.00000
      6      19.3942      0.00000
      7      22.1288      0.00000
      8      23.4727      0.00000

 k-point   575 :      -0.4333    0.2333    0.1000
  band No.  band energies     occupation 
      1      -5.5482      2.00000
      2      -2.2762      2.00000
      3       3.7351      2.00000
      4       5.2243      2.00000
      5      17.5592      0.00000
      6      19.2764      0.00000
      7      22.2354      0.00000
      8      24.0521      0.00000

 k-point   576 :      -0.4000    0.2333    0.1000
  band No.  band energies     occupation 
      1      -5.1564      2.00000
      2      -2.7399      2.00000
      3       3.6708      2.00000
      4       5.2100      2.00000
      5      17.6886      0.00000
      6      19.1543      0.00000
      7      22.2711      0.00000
      8      24.4911      0.00000

 k-point   577 :      -0.3667    0.2333    0.1000
  band No.  band energies     occupation 
      1      -5.2489      2.00000
      2      -2.6303      2.00000
      3       3.6044      2.00000
      4       5.2882      2.00000
      5      17.8142      0.00000
      6      19.0300      0.00000
      7      22.2485      0.00000
      8      24.5869      0.00000

 k-point   578 :      -0.3333    0.2333    0.1000
  band No.  band energies     occupation 
      1      -5.7404      2.00000
      2      -2.0329      2.00000
      3       3.5484      2.00000
      4       5.4462      2.00000
      5      17.9270      0.00000
      6      18.9097      0.00000
      7      22.1732      0.00000
      8      24.2909      0.00000

 k-point   579 :      -0.3000    0.2333    0.1000
  band No.  band energies     occupation 
      1      -6.3585      2.00000
      2      -1.2222      2.00000
      3       3.5167      2.00000
      4       5.6684      2.00000
      5      17.9888      0.00000
      6      18.8194      0.00000
      7      22.0507      0.00000
      8      23.7750      0.00000

 k-point   580 :      -0.2667    0.2333    0.1000
  band No.  band energies     occupation 
      1      -6.9890      2.00000
      2      -0.3169      2.00000
      3       3.5212      2.00000
      4       5.9399      2.00000
      5      17.9238      0.00000
      6      18.8138      0.00000
      7      21.8890      0.00000
      8      23.2017      0.00000

 k-point   581 :      -0.2333    0.2333    0.1000
  band No.  band energies     occupation 
      1      -7.5938      2.00000
      2       0.6362      2.00000
      3       3.5724      2.00000
      4       6.2465      2.00000
      5      17.6958      0.00000
      6      18.9053      0.00000
      7      21.7011      0.00000
      8      22.6549      0.00000

 k-point   582 :      -0.2000    0.2333    0.1000
  band No.  band energies     occupation 
      1      -8.1573      2.00000
      2       1.6050      2.00000
      3       3.6841      2.00000
      4       6.5733      2.00000
      5      17.3450      0.00000
      6      19.0353      0.00000
      7      21.4772      0.00000
      8      22.1950      0.00000

 k-point   583 :      -0.1667    0.2333    0.1000
  band No.  band energies     occupation 
      1      -8.6722      2.00000
      2       2.5415      2.00000
      3       3.8895      2.00000
      4       6.9032      2.00000
      5      16.9266      0.00000
      6      19.1452      0.00000
      7      21.1332      0.00000
      8      21.9369      0.00000

 k-point   584 :      -0.1333    0.2333    0.1000
  band No.  band energies     occupation 
      1      -9.1343      2.00000
      2       3.3209      2.00000
      3       4.2963      2.00000
      4       7.2157      2.00000
      5      16.4962      0.00000
      6      19.1895      0.00000
      7      20.6403      0.00000
      8      21.9239      0.00000

 k-point   585 :       0.3667    0.2667    0.1000
  band No.  band energies     occupation 
      1      -8.8153      2.00000
      2       3.2799      2.00000
      3       4.3368      2.00000
      4       6.1644      2.00000
      5      15.4439      0.00000
      6      20.2635      0.00000
      7      20.6310      0.00000
      8      21.6891      0.00000

 k-point   586 :       0.4000    0.2667    0.1000
  band No.  band energies     occupation 
      1      -8.3550      2.00000
      2       2.5420      2.00000
      3       3.9371      2.00000
      4       5.8676      2.00000
      5      15.8354      0.00000
      6      20.1169      0.00000
      7      20.7343      0.00000
      8      22.1757      0.00000

 k-point   587 :       0.4333    0.2667    0.1000
  band No.  band energies     occupation 
      1      -7.8421      2.00000
      2       1.6680      2.00000
      3       3.6942      2.00000
      4       5.5548      2.00000
      5      16.2352      0.00000
      6      20.0875      0.00000
      7      20.8438      0.00000
      8      22.5814      0.00000

 k-point   588 :       0.4667    0.2667    0.1000
  band No.  band energies     occupation 
      1      -7.2811      2.00000
      2       0.7527      2.00000
      3       3.5247      2.00000
      4       5.2585      2.00000
      5      16.5833      0.00000
      6      20.1259      0.00000
      7      21.0461      0.00000
      8      22.9020      0.00000

 k-point   589 :       0.5000    0.2667    0.1000
  band No.  band energies     occupation 
      1      -6.6794      2.00000
      2      -0.1574      2.00000
      3       3.3889      2.00000
      4       5.0094      2.00000
      5      16.8534      0.00000
      6      20.1350      0.00000
      7      21.4343      0.00000
      8      23.1456      0.00000

 k-point   590 :      -0.4667    0.2667    0.1000
  band No.  band energies     occupation 
      1      -6.0529      2.00000
      2      -1.0282      2.00000
      3       3.2626      2.00000
      4       4.8351      2.00000
      5      17.0588      0.00000
      6      20.0779      0.00000
      7      21.9847      0.00000
      8      23.3386      0.00000

 k-point   591 :      -0.4333    0.2667    0.1000
  band No.  band energies     occupation 
      1      -5.4406      2.00000
      2      -1.8107      2.00000
      3       3.1318      2.00000
      4       4.7541      2.00000
      5      17.2304      0.00000
      6      19.9717      0.00000
      7      22.5419      0.00000
      8      23.5567      0.00000

 k-point   592 :      -0.4000    0.2667    0.1000
  band No.  band energies     occupation 
      1      -4.9584      2.00000
      2      -2.3831      2.00000
      3       2.9961      2.00000
      4       4.7706      2.00000
      5      17.3952      0.00000
      6      19.8309      0.00000
      7      22.8650      0.00000
      8      23.9191      0.00000

 k-point   593 :      -0.3667    0.2667    0.1000
  band No.  band energies     occupation 
      1      -4.8762      2.00000
      2      -2.4725      2.00000
      3       2.8667      2.00000
      4       4.8753      2.00000
      5      17.5705      0.00000
      6      19.6600      0.00000
      7      22.9181      0.00000
      8      24.2758      0.00000

 k-point   594 :      -0.3333    0.2667    0.1000
  band No.  band energies     occupation 
      1      -5.2678      2.00000
      2      -2.0052      2.00000
      3       2.7584      2.00000
      4       5.0539      2.00000
      5      17.7638      0.00000
      6      19.4547      0.00000
      7      22.8230      0.00000
      8      24.2855      0.00000

 k-point   595 :      -0.3000    0.2667    0.1000
  band No.  band energies     occupation 
      1      -5.8567      2.00000
      2      -1.2599      2.00000
      3       2.6850      2.00000
      4       5.2925      2.00000
      5      17.9743      0.00000
      6      19.2053      0.00000
      7      22.6385      0.00000
      8      23.9400      0.00000

 k-point   596 :      -0.2667    0.2667    0.1000
  band No.  band energies     occupation 
      1      -6.4831      2.00000
      2      -0.4029      2.00000
      3       2.6588      2.00000
      4       5.5779      2.00000
      5      18.1829      0.00000
      6      18.9108      0.00000
      7      22.4013      0.00000
      8      23.4452      0.00000

 k-point   597 :      -0.2333    0.2667    0.1000
  band No.  band energies     occupation 
      1      -7.0933      2.00000
      2       0.4966      2.00000
      3       2.6963      2.00000
      4       5.8976      2.00000
      5      18.2468      0.00000
      6      18.6940      0.00000
      7      22.1624      0.00000
      8      22.9102      0.00000

 k-point   598 :      -0.2000    0.2667    0.1000
  band No.  band energies     occupation 
      1      -7.6672      2.00000
      2       1.3769      2.00000
      3       2.8357      2.00000
      4       6.2371      2.00000
      5      17.8998      0.00000
      6      18.8133      0.00000
      7      21.9778      0.00000
      8      22.3536      0.00000

 k-point   599 :      -0.1667    0.2667    0.1000
  band No.  band energies     occupation 
      1      -8.1952      2.00000
      2       2.1042      2.00000
      3       3.1937      2.00000
      4       6.5794      2.00000
      5      17.4144      0.00000
      6      19.0036      0.00000
      7      21.7450      0.00000
      8      21.9117      0.00000

 k-point   600 :       0.4000    0.3000    0.1000
  band No.  band energies     occupation 
      1      -8.1472      2.00000
      2       2.5947      2.00000
      3       3.8690      2.00000
      4       5.3334      2.00000
      5      15.3266      0.00000
      6      19.3872      0.00000
      7      21.3969      0.00000
      8      22.7078      0.00000

 k-point   601 :       0.4333    0.3000    0.1000
  band No.  band energies     occupation 
      1      -7.6541      2.00000
      2       1.9099      2.00000
      3       3.4769      2.00000
      4       5.0321      2.00000
      5      15.7366      0.00000
      6      19.3516      0.00000
      7      21.4230      0.00000
      8      23.1682      0.00000

 k-point   602 :       0.4667    0.3000    0.1000
  band No.  band energies     occupation 
      1      -7.1119      2.00000
      2       1.1116      2.00000
      3       3.2041      2.00000
      4       4.7410      2.00000
      5      16.1343      0.00000
      6      19.5237      0.00000
      7      21.4048      0.00000
      8      23.5254      0.00000

 k-point   603 :       0.5000    0.3000    0.1000
  band No.  band energies     occupation 
      1      -6.5267      2.00000
      2       0.2720      2.00000
      3       2.9808      2.00000
      4       4.5030      2.00000
      5      16.4579      0.00000
      6      19.9082      0.00000
      7      21.3748      0.00000
      8      23.7769      0.00000

 k-point   604 :      -0.4667    0.3000    0.1000
  band No.  band energies     occupation 
      1      -5.9110      2.00000
      2      -0.5610      2.00000
      3       2.7674      2.00000
      4       4.3505      2.00000
      5      16.6998      0.00000
      6      20.3924      0.00000
      7      21.4237      0.00000
      8      23.9230      0.00000

 k-point   605 :      -0.4333    0.3000    0.1000
  band No.  band energies     occupation 
      1      -5.2932      2.00000
      2      -1.3399      2.00000
      3       2.5511      2.00000
      4       4.2975      2.00000
      5      16.8920      0.00000
      6      20.6509      0.00000
      7      21.8105      0.00000
      8      23.9727      0.00000

 k-point   606 :      -0.4000    0.3000    0.1000
  band No.  band energies     occupation 
      1      -4.7541      2.00000
      2      -1.9737      2.00000
      3       2.3390      2.00000
      4       4.3395      2.00000
      5      17.0709      0.00000
      6      20.6091      0.00000
      7      22.5132      0.00000
      8      23.9390      0.00000

 k-point   607 :      -0.3667    0.3000    0.1000
  band No.  band energies     occupation 
      1      -4.5163      2.00000
      2      -2.2341      2.00000
      3       2.1460      2.00000
      4       4.4639      2.00000
      5      17.2602      0.00000
      6      20.4489      0.00000
      7      23.1704      0.00000
      8      23.8852      0.00000

 k-point   608 :      -0.3333    0.3000    0.1000
  band No.  band energies     occupation 
      1      -4.7785      2.00000
      2      -1.9214      2.00000
      3       1.9872      2.00000
      4       4.6570      2.00000
      5      17.4722      0.00000
      6      20.2201      0.00000
      7      23.3032      0.00000
      8      24.0452      0.00000

 k-point   609 :      -0.3000    0.3000    0.1000
  band No.  band energies     occupation 
      1      -5.3218      2.00000
      2      -1.2581      2.00000
      3       1.8766      2.00000
      4       4.9069      2.00000
      5      17.7111      0.00000
      6      19.9188      0.00000
      7      23.0430      0.00000
      8      24.1029      0.00000

 k-point   610 :      -0.2667    0.3000    0.1000
  band No.  band energies     occupation 
      1      -5.9363      2.00000
      2      -0.4675      2.00000
      3       1.8326      2.00000
      4       5.2026      2.00000
      5      17.9751      0.00000
      6      19.5285      0.00000
      7      22.7088      0.00000
      8      23.8450      0.00000

 k-point   611 :      -0.2333    0.3000    0.1000
  band No.  band energies     occupation 
      1      -6.5475      2.00000
      2       0.3350      2.00000
      3       1.8965      2.00000
      4       5.5325      2.00000
      5      18.2570      0.00000
      6      19.0433      0.00000
      7      22.4061      0.00000
      8      23.4067      0.00000

 k-point   612 :      -0.2000    0.3000    0.1000
  band No.  band energies     occupation 
      1      -7.1285      2.00000
      2       0.9983      2.00000
      3       2.1889      2.00000
      4       5.8830      2.00000
      5      18.4836      0.00000
      6      18.5445      0.00000
      7      22.1794      0.00000
      8      22.8750      0.00000

 k-point   613 :       0.4333    0.3333    0.1000
  band No.  band energies     occupation 
      1      -7.4088      2.00000
      2       1.8620      2.00000
      3       3.4701      2.00000
      4       4.5596      2.00000
      5      15.2510      0.00000
      6      18.5338      0.00000
      7      22.2283      0.00000
      8      23.6636      0.00000

 k-point   614 :       0.4667    0.3333    0.1000
  band No.  band energies     occupation 
      1      -6.8861      2.00000
      2       1.2356      2.00000
      3       3.0736      2.00000
      4       4.2705      2.00000
      5      15.6787      0.00000
      6      18.5918      0.00000
      7      22.2116      0.00000
      8      24.0709      0.00000

 k-point   615 :       0.5000    0.3333    0.1000
  band No.  band energies     occupation 
      1      -6.3186      2.00000
      2       0.5307      2.00000
      3       2.7245      2.00000
      4       4.0406      2.00000
      5      16.0652      0.00000
      6      18.9020      0.00000
      7      22.1479      0.00000
      8      24.3515      0.00000

 k-point   616 :      -0.4667    0.3333    0.1000
  band No.  band energies     occupation 
      1      -5.7165      2.00000
      2      -0.2092      2.00000
      3       2.3888      2.00000
      4       3.9077      2.00000
      5      16.3560      0.00000
      6      19.4743      0.00000
      7      22.0506      0.00000
      8      24.4974      0.00000

 k-point   617 :      -0.4333    0.3333    0.1000
  band No.  band energies     occupation 
      1      -5.1011      2.00000
      2      -0.9370      2.00000
      3       2.0625      2.00000
      4       3.8773      2.00000
      5      16.5711      0.00000
      6      20.2350      0.00000
      7      21.9426      0.00000
      8      24.5073      0.00000

 k-point   618 :      -0.4000    0.3333    0.1000
  band No.  band energies     occupation 
      1      -4.5294      2.00000
      2      -1.5793      2.00000
      3       1.7591      2.00000
      4       3.9376      2.00000
      5      16.7581      0.00000
      6      21.0013      0.00000
      7      21.9227      0.00000
      8      24.3822      0.00000

 k-point   619 :      -0.3667    0.3333    0.1000
  band No.  band energies     occupation 
      1      -4.1704      2.00000
      2      -1.9572      2.00000
      3       1.4944      2.00000
      4       4.0746      2.00000
      5      16.9503      0.00000
      6      21.2479      0.00000
      7      22.4235      0.00000
      8      24.1281      0.00000

 k-point   620 :      -0.3333    0.3333    0.1000
  band No.  band energies     occupation 
      1      -4.2860      2.00000
      2      -1.8069      2.00000
      3       1.2833      2.00000
      4       4.2764      2.00000
      5      17.1651      0.00000
      6      21.0597      0.00000
      7      23.2252      0.00000
      8      23.7839      0.00000

 k-point   621 :      -0.3000    0.3333    0.1000
  band No.  band energies     occupation 
      1      -4.7654      2.00000
      2      -1.2480      2.00000
      3       1.1448      2.00000
      4       4.5332      2.00000
      5      17.4088      0.00000
      6      20.7209      0.00000
      7      23.3177      0.00000
      8      23.9256      0.00000

 k-point   622 :      -0.2667    0.3333    0.1000
  band No.  band energies     occupation 
      1      -5.3584      2.00000
      2      -0.5682      2.00000
      3       1.1210      2.00000
      4       4.8356      2.00000
      5      17.6800      0.00000
      6      20.2539      0.00000
      7      22.9444      0.00000
      8      24.1151      0.00000

 k-point   623 :      -0.2333    0.3333    0.1000
  band No.  band energies     occupation 
      1      -5.9641      2.00000
      2       0.0154      2.00000
      3       1.3286      2.00000
      4       5.1730      2.00000
      5      17.9710      0.00000
      6      19.6753      0.00000
      7      22.6389      0.00000
      8      23.8762      0.00000

 k-point   624 :       0.4667    0.3667    0.1000
  band No.  band energies     occupation 
      1      -6.6043      2.00000
      2       1.0487      2.00000
      3       3.1453      2.00000
      4       3.9018      2.00000
      5      15.2264      0.00000
      6      17.7777      0.00000
      7      23.0529      0.00000
      8      24.5094      0.00000

 k-point   625 :       0.5000    0.3667    0.1000
  band No.  band energies     occupation 
      1      -6.0556      2.00000
      2       0.4795      2.00000
      3       2.7301      2.00000
      4       3.6517      2.00000
      5      15.6689      0.00000
      6      17.9296      0.00000
      7      23.0064      0.00000
      8      24.8245      0.00000

 k-point   626 :      -0.4667    0.3667    0.1000
  band No.  band energies     occupation 
      1      -5.4692      2.00000
      2      -0.1255      2.00000
      3       2.2691      2.00000
      4       3.5239      2.00000
      5      16.0299      0.00000
      6      18.3779      0.00000
      7      22.9138      0.00000
      8      24.9762      0.00000

 k-point   627 :      -0.4333    0.3667    0.1000
  band No.  band energies     occupation 
      1      -4.8616      2.00000
      2      -0.7436      2.00000
      3       1.8039      2.00000
      4       3.5069      2.00000
      5      16.2801      0.00000
      6      19.1091      0.00000
      7      22.7821      0.00000
      8      24.9559      0.00000

 k-point   628 :      -0.4000    0.3667    0.1000
  band No.  band energies     occupation 
      1      -4.2739      2.00000
      2      -1.3275      2.00000
      3       1.3769      2.00000
      4       3.5778      2.00000
      5      16.4745      0.00000
      6      20.0264      0.00000
      7      22.6159      0.00000
      8      24.7674      0.00000

 k-point   629 :      -0.3667    0.3667    0.1000
  band No.  band energies     occupation 
      1      -3.8310      2.00000
      2      -1.7481      2.00000
      3       1.0154      2.00000
      4       3.7212      2.00000
      5      16.6644      0.00000
      6      21.0178      0.00000
      7      22.4246      0.00000
      8      24.4308      0.00000

 k-point   630 :      -0.3333    0.3667    0.1000
  band No.  band energies     occupation 
      1      -3.8058      2.00000
      2      -1.7360      2.00000
      3       0.7423      2.00000
      4       3.9270      2.00000
      5      16.8753      0.00000
      6      21.7442      0.00000
      7      22.4420      0.00000
      8      24.0024      0.00000

 k-point   631 :      -0.3000    0.3667    0.1000
  band No.  band energies     occupation 
      1      -4.2077      2.00000
      2      -1.3106      2.00000
      3       0.5973      2.00000
      4       4.1870      2.00000
      5      17.1162      0.00000
      6      21.5054      0.00000
      7      23.2233      0.00000
      8      23.5738      0.00000

 k-point   632 :      -0.2667    0.3667    0.1000
  band No.  band energies     occupation 
      1      -4.7677      2.00000
      2      -0.8368      2.00000
      3       0.6812      2.00000
      4       4.4930      2.00000
      5      17.3869      0.00000
      6      20.9453      0.00000
      7      23.2156      0.00000
      8      23.9202      0.00000

 k-point   633 :       0.5000    0.4000    0.1000
  band No.  band energies     occupation 
      1      -5.7386      2.00000
      2       0.1450      2.00000
      3       2.8993      2.00000
      4       3.3923      2.00000
      5      15.2614      0.00000
      6      17.1284      0.00000
      7      23.8453      0.00000
      8      25.1889      0.00000

 k-point   634 :      -0.4667    0.4000    0.1000
  band No.  band energies     occupation 
      1      -5.1695      2.00000
      2      -0.3751      2.00000
      3       2.4543      2.00000
      4       3.2119      2.00000
      5      15.7100      0.00000
      6      17.3785      0.00000
      7      23.7753      0.00000
      8      25.3501      0.00000

 k-point   635 :      -0.4333    0.4000    0.1000
  band No.  band energies     occupation 
      1      -4.5735      2.00000
      2      -0.8927      2.00000
      3       1.9006      2.00000
      4       3.1935      2.00000
      5      16.0235      0.00000
      6      17.9785      0.00000
      7      23.6584      0.00000
      8      25.3068      0.00000

 k-point   636 :      -0.4000    0.4000    0.1000
  band No.  band energies     occupation 
      1      -3.9810      2.00000
      2      -1.3872      2.00000
      3       1.3525      2.00000
      4       3.2678      2.00000
      5      16.2305      0.00000
      6      18.8562      0.00000
      7      23.4927      0.00000
      8      25.0683      0.00000

 k-point   637 :      -0.3667    0.4000    0.1000
  band No.  band energies     occupation 
      1      -3.4862      2.00000
      2      -1.7829      2.00000
      3       0.8739      2.00000
      4       3.4129      2.00000
      5      16.4145      0.00000
      6      19.8871      0.00000
      7      23.2586      0.00000
      8      24.6776      0.00000

 k-point   638 :      -0.3333    0.4000    0.1000
  band No.  band energies     occupation 
      1      -3.3582      2.00000
      2      -1.8448      2.00000
      3       0.5227      2.00000
      4       3.6191      2.00000
      5      16.6165      0.00000
      6      20.9781      0.00000
      7      22.9116      0.00000
      8      24.2334      0.00000

 k-point   639 :      -0.3000    0.4000    0.1000
  band No.  band energies     occupation 
      1      -3.6930      2.00000
      2      -1.5529      2.00000
      3       0.3881      2.00000
      4       3.8794      2.00000
      5      16.8500      0.00000
      6      21.9012      0.00000
      7      22.5450      0.00000
      8      23.8539      0.00000

 k-point   640 :      -0.4667    0.4333    0.1000
  band No.  band energies     occupation 
      1      -4.8185      2.00000
      2      -0.8284      2.00000
      3       2.7362      2.00000
      4       3.0298      2.00000
      5      15.3634      0.00000
      6      16.5851      0.00000
      7      24.5700      0.00000
      8      25.6282      0.00000

 k-point   641 :      -0.4333    0.4333    0.1000
  band No.  band energies     occupation 
      1      -4.2369      2.00000
      2      -1.3083      2.00000
      3       2.2600      2.00000
      4       2.9420      2.00000
      5      15.7955      0.00000
      6      16.9512      0.00000
      7      24.4779      0.00000
      8      25.5726      0.00000

 k-point   642 :      -0.4000    0.4333    0.1000
  band No.  band energies     occupation 
      1      -3.6473      2.00000
      2      -1.7574      2.00000
      3       1.6723      2.00000
      4       3.0127      2.00000
      5      16.0329      0.00000
      6      17.7240      0.00000
      7      24.3284      0.00000
      8      25.2999      0.00000

 k-point   643 :      -0.3667    0.4333    0.1000
  band No.  band energies     occupation 
      1      -3.1282      2.00000
      2      -2.1238      2.00000
      3       1.1185      2.00000
      4       3.1560      2.00000
      5      16.2062      0.00000
      6      18.7276      0.00000
      7      24.0757      0.00000
      8      24.8878      0.00000

 k-point   644 :      -0.3333    0.4333    0.1000
  band No.  band energies     occupation 
      1      -3.0166      2.00000
      2      -2.1293      2.00000
      3       0.6905      2.00000
      4       3.3601      2.00000
      5      16.3942      0.00000
      6      19.8390      0.00000
      7      23.6061      0.00000
      8      24.5052      0.00000

 k-point   645 :      -0.4333    0.4667    0.1000
  band No.  band energies     occupation 
      1      -3.8529      2.00000
      2      -1.8381      2.00000
      3       2.6606      2.00000
      4       2.7974      2.00000
      5      15.5396      0.00000
      6      16.1435      0.00000
      7      25.1782      0.00000
      8      25.7682      0.00000

 k-point   646 :      -0.4000    0.4667    0.1000
  band No.  band energies     occupation 
      1      -3.2713      2.00000
      2      -2.2821      2.00000
      3       2.1600      2.00000
      4       2.8155      2.00000
      5      15.8870      0.00000
      6      16.6886      0.00000
      7      25.0529      0.00000
      8      25.4760      0.00000

 k-point   647 :      -0.3667    0.4667    0.1000
  band No.  band energies     occupation 
      1      -2.8246      2.00000
      2      -2.5635      2.00000
      3       1.5964      2.00000
      4       2.9552      2.00000
      5      16.0394      0.00000
      6      17.6357      0.00000
      7      24.7352      0.00000
      8      25.1128      0.00000

 k-point   648 :      -0.4000    0.5000    0.1000
  band No.  band energies     occupation 
      1      -2.8539      2.00000
      2      -2.8539      2.00000
      3       2.6783      2.00000
      4       2.6783      2.00000
      5      15.7974      0.00000
      6      15.7974      0.00000
      7      25.6024      0.00000
      8      25.6026      0.00000

 k-point   649 :       0.4000    0.2667    0.1333
  band No.  band energies     occupation 
      1      -8.5429      2.00000
      2       2.6932      2.00000
      3       3.7771      2.00000
      4       6.4128      2.00000
      5      16.3793      0.00000
      6      19.7601      0.00000
      7      21.1248      0.00000
      8      21.7029      0.00000

 k-point   650 :       0.4333    0.2667    0.1333
  band No.  band energies     occupation 
      1      -8.0475      2.00000
      2       1.9574      2.00000
      3       3.3906      2.00000
      4       6.0869      2.00000
      5      16.8293      0.00000
      6      19.6289      0.00000
      7      21.2043      0.00000
      8      22.2154      0.00000

 k-point   651 :       0.4667    0.2667    0.1333
  band No.  band energies     occupation 
      1      -7.5024      2.00000
      2       1.0736      2.00000
      3       3.1982      2.00000
      4       5.7550      2.00000
      5      17.2470      0.00000
      6      19.4798      0.00000
      7      21.4264      0.00000
      8      22.6624      0.00000

 k-point   652 :       0.5000    0.2667    0.1333
  band No.  band energies     occupation 
      1      -6.9137      2.00000
      2       0.1580      2.00000
      3       3.0981      2.00000
      4       5.4404      2.00000
      5      17.5764      0.00000
      6      19.3508      0.00000
      7      21.7751      0.00000
      8      23.0464      0.00000

 k-point   653 :      -0.4667    0.2667    0.1333
  band No.  band energies     occupation 
      1      -6.2934      2.00000
      2      -0.7360      2.00000
      3       3.0512      2.00000
      4       5.1636      2.00000
      5      17.7958      0.00000
      6      19.2564      0.00000
      7      22.2014      0.00000
      8      23.3959      0.00000

 k-point   654 :      -0.4333    0.2667    0.1333
  band No.  band energies     occupation 
      1      -5.6694      2.00000
      2      -1.5635      2.00000
      3       3.0369      2.00000
      4       4.9442      2.00000
      5      17.9189      0.00000
      6      19.1956      0.00000
      7      22.5958      0.00000
      8      23.7569      0.00000

 k-point   655 :      -0.4000    0.2667    0.1333
  band No.  band energies     occupation 
      1      -5.1201      2.00000
      2      -2.2375      2.00000
      3       3.0381      2.00000
      4       4.8017      2.00000
      5      17.9764      0.00000
      6      19.1624      0.00000
      7      22.8454      0.00000
      8      24.1155      0.00000

 k-point   656 :      -0.3667    0.2667    0.1333
  band No.  band energies     occupation 
      1      -4.8657      2.00000
      2      -2.5337      2.00000
      3       3.0405      2.00000
      4       4.7519      2.00000
      5      17.9929      0.00000
      6      19.1520      0.00000
      7      22.9256      0.00000
      8      24.2870      0.00000

 k-point   657 :       0.4333    0.3000    0.1333
  band No.  band energies     occupation 
      1      -7.8796      2.00000
      2       2.0757      2.00000
      3       3.3203      2.00000
      4       5.5553      2.00000
      5      16.2821      0.00000
      6      19.9155      0.00000
      7      20.8093      0.00000
      8      22.7366      0.00000

 k-point   658 :       0.4667    0.3000    0.1333
  band No.  band energies     occupation 
      1      -7.3537      2.00000
      2       1.3920      2.00000
      3       2.9490      2.00000
      4       5.2228      2.00000
      5      16.7503      0.00000
      6      19.8187      0.00000
      7      20.9039      0.00000
      8      23.2112      0.00000

 k-point   659 :       0.5000    0.3000    0.1333
  band No.  band energies     occupation 
      1      -6.7824      2.00000
      2       0.5759      2.00000
      3       2.7509      2.00000
      4       4.9025      2.00000
      5      17.1598      0.00000
      6      19.8083      0.00000
      7      21.0924      0.00000
      8      23.5818      0.00000

 k-point   660 :      -0.4667    0.3000    0.1333
  band No.  band energies     occupation 
      1      -6.1754      2.00000
      2      -0.2710      2.00000
      3       2.6352      2.00000
      4       4.6235      2.00000
      5      17.4628      0.00000
      6      19.8192      0.00000
      7      21.4602      0.00000
      8      23.8404      0.00000

 k-point   661 :      -0.4333    0.3000    0.1333
  band No.  band energies     occupation 
      1      -5.5534      2.00000
      2      -1.0870      2.00000
      3       2.5554      2.00000
      4       4.4122      2.00000
      5      17.6699      0.00000
      6      19.7926      0.00000
      7      22.0164      0.00000
      8      23.9828      0.00000

 k-point   662 :      -0.4000    0.3000    0.1333
  band No.  band energies     occupation 
      1      -4.9712      2.00000
      2      -1.7993      2.00000
      3       2.4858      2.00000
      4       4.2911      2.00000
      5      17.8227      0.00000
      6      19.7216      0.00000
      7      22.6629      0.00000
      8      24.0066      0.00000

 k-point   663 :      -0.3667    0.3000    0.1333
  band No.  band energies     occupation 
      1      -4.5911      2.00000
      2      -2.2375      2.00000
      3       2.4138      2.00000
      4       4.2730      2.00000
      5      17.9575      0.00000
      6      19.6152      0.00000
      7      23.2040      0.00000
      8      23.9419      0.00000

 k-point   664 :      -0.3333    0.3000    0.1333
  band No.  band energies     occupation 
      1      -4.6836      2.00000
      2      -2.1277      2.00000
      3       2.3417      2.00000
      4       4.3563      2.00000
      5      18.0926      0.00000
      6      19.4781      0.00000
      7      23.2473      0.00000
      8      23.9969      0.00000

 k-point   665 :      -0.3000    0.3000    0.1333
  band No.  band energies     occupation 
      1      -5.1638      2.00000
      2      -1.5560      2.00000
      3       2.2829      2.00000
      4       4.5279      2.00000
      5      18.2260      0.00000
      6      19.3109      0.00000
      7      22.8385      0.00000
      8      24.0637      0.00000

 k-point   666 :      -0.2667    0.3000    0.1333
  band No.  band energies     occupation 
      1      -5.7690      2.00000
      2      -0.7909      2.00000
      3       2.2560      2.00000
      4       4.7705      2.00000
      5      18.3164      0.00000
      6      19.1361      0.00000
      7      22.3242      0.00000
      8      23.9458      0.00000

 k-point   667 :      -0.2333    0.3000    0.1333
  band No.  band energies     occupation 
      1      -6.3881      2.00000
      2       0.0407      2.00000
      3       2.2844      2.00000
      4       5.0665      2.00000
      5      18.2213      0.00000
      6      19.0720      0.00000
      7      21.8585      0.00000
      8      23.6749      0.00000

 k-point   668 :      -0.2000    0.3000    0.1333
  band No.  band energies     occupation 
      1      -6.9834      2.00000
      2       0.8588      2.00000
      3       2.4122      2.00000
      4       5.3981      2.00000
      5      17.8575      0.00000
      6      19.1971      0.00000
      7      21.5113      0.00000
      8      23.2815      0.00000

 k-point   669 :      -0.1667    0.3000    0.1333
  band No.  band energies     occupation 
      1      -7.5391      2.00000
      2       1.5363      2.00000
      3       2.7477      2.00000
      4       5.7460      2.00000
      5      17.3550      0.00000
      6      19.4096      0.00000
      7      21.2970      0.00000
      8      22.7870      0.00000

 k-point   670 :       0.4667    0.3333    0.1333
  band No.  band energies     occupation 
      1      -7.1481      2.00000
      2       1.4463      2.00000
      3       2.9334      2.00000
      4       4.7025      2.00000
      5      16.2192      0.00000
      6      19.2717      0.00000
      7      21.4016      0.00000
      8      23.6952      0.00000

 k-point   671 :       0.5000    0.3333    0.1333
  band No.  band energies     occupation 
      1      -6.5953      2.00000
      2       0.8216      2.00000
      3       2.5691      2.00000
      4       4.3755      2.00000
      5      16.7027      0.00000
      6      19.3785      0.00000
      7      21.3562      0.00000
      8      24.0994      0.00000

 k-point   672 :      -0.4667    0.3333    0.1333
  band No.  band energies     occupation 
      1      -6.0037      2.00000
      2       0.0912      2.00000
      3       2.3324      2.00000
      4       4.0936      2.00000
      5      17.0935      0.00000
      6      19.6971      0.00000
      7      21.3268      0.00000
      8      24.3571      0.00000

 k-point   673 :      -0.4333    0.3333    0.1333
  band No.  band energies     occupation 
      1      -5.3894      2.00000
      2      -0.6648      2.00000
      3       2.1518      2.00000
      4       3.8927      2.00000
      5      17.3644      0.00000
      6      20.1201      0.00000
      7      21.4180      0.00000
      8      24.4485      0.00000

 k-point   674 :      -0.4000    0.3333    0.1333
  band No.  band energies     occupation 
      1      -4.7912      2.00000
      2      -1.3707      2.00000
      3       1.9868      2.00000
      4       3.7961      2.00000
      5      17.5599      0.00000
      6      20.3590      0.00000
      7      21.8389      0.00000
      8      24.3539      0.00000

 k-point   675 :      -0.3667    0.3333    0.1333
  band No.  band energies     occupation 
      1      -4.3241      2.00000
      2      -1.8939      2.00000
      3       1.8267      2.00000
      4       3.8089      2.00000
      5      17.7323      0.00000
      6      20.3389      0.00000
      7      22.5561      0.00000
      8      24.0631      0.00000

 k-point   676 :      -0.3333    0.3333    0.1333
  band No.  band energies     occupation 
      1      -4.2519      2.00000
      2      -1.9631      2.00000
      3       1.6810      2.00000
      4       3.9209      2.00000
      5      17.9130      0.00000
      6      20.1863      0.00000
      7      23.2855      0.00000
      8      23.6334      0.00000

 k-point   677 :      -0.3000    0.3333    0.1333
  band No.  band energies     occupation 
      1      -4.6376      2.00000
      2      -1.5163      2.00000
      3       1.5683      2.00000
      4       4.1155      2.00000
      5      18.1162      0.00000
      6      19.9399      0.00000
      7      22.9945      0.00000
      8      23.9668      0.00000

 k-point   678 :      -0.2667    0.3333    0.1333
  band No.  band energies     occupation 
      1      -5.2119      2.00000
      2      -0.8350      2.00000
      3       1.5140      2.00000
      4       4.3763      2.00000
      5      18.3471      0.00000
      6      19.5847      0.00000
      7      22.4459      0.00000
      8      24.2378      0.00000

 k-point   679 :      -0.2333    0.3333    0.1333
  band No.  band energies     occupation 
      1      -5.8232      2.00000
      2      -0.1110      2.00000
      3       1.5646      2.00000
      4       4.6880      2.00000
      5      18.6015      0.00000
      6      19.1056      0.00000
      7      21.9987      0.00000
      8      24.1519      0.00000

 k-point   680 :      -0.2000    0.3333    0.1333
  band No.  band energies     occupation 
      1      -6.4204      2.00000
      2       0.4963      2.00000
      3       1.8293      2.00000
      4       5.0348      2.00000
      5      18.4878      0.00000
      6      18.9106      0.00000
      7      21.6928      0.00000
      8      23.8018      0.00000

 k-point   681 :       0.5000    0.3667    0.1333
  band No.  band energies     occupation 
      1      -6.3527      2.00000
      2       0.7709      2.00000
      3       2.6228      2.00000
      4       3.9199      2.00000
      5      16.2018      0.00000
      6      18.5938      0.00000
      7      22.1450      0.00000
      8      24.5156      0.00000

 k-point   682 :      -0.4667    0.3667    0.1333
  band No.  band energies     occupation 
      1      -5.7784      2.00000
      2       0.2085      2.00000
      3       2.2535      2.00000
      4       3.6191      2.00000
      5      16.6947      0.00000
      6      18.8311      0.00000
      7      22.0462      0.00000
      8      24.7847      0.00000

 k-point   683 :      -0.4333    0.3667    0.1333
  band No.  band energies     occupation 
      1      -5.1757      2.00000
      2      -0.4195      2.00000
      3       1.9310      2.00000
      4       3.4205      2.00000
      5      17.0522      0.00000
      6      19.3607      0.00000
      7      21.9317      0.00000
      8      24.8474      0.00000

 k-point   684 :      -0.4000    0.3667    0.1333
  band No.  band energies     occupation 
      1      -4.5730      2.00000
      2      -1.0545      2.00000
      3       1.6311      2.00000
      4       3.3447      2.00000
      5      17.2877      0.00000
      6      20.1030      0.00000
      7      21.8333      0.00000
      8      24.6821      0.00000

 k-point   685 :      -0.3667    0.3667    0.1333
  band No.  band energies     occupation 
      1      -4.0511      2.00000
      2      -1.5928      2.00000
      3       1.3566      2.00000
      4       3.3835      2.00000
      5      17.4760      0.00000
      6      20.7993      0.00000
      7      21.8935      0.00000
      8      24.2979      0.00000

 k-point   686 :      -0.3333    0.3667    0.1333
  band No.  band energies     occupation 
      1      -3.8345      2.00000
      2      -1.7983      2.00000
      3       1.1254      2.00000
      4       3.5175      2.00000
      5      17.6653      0.00000
      6      20.9733      0.00000
      7      22.4718      0.00000
      8      23.7521      0.00000

 k-point   687 :      -0.3000    0.3667    0.1333
  band No.  band energies     occupation 
      1      -4.1061      2.00000
      2      -1.4916      2.00000
      3       0.9626      2.00000
      4       3.7290      2.00000
      5      17.8765      0.00000
      6      20.7531      0.00000
      7      23.1292      0.00000
      8      23.3294      0.00000

 k-point   688 :      -0.2667    0.3667    0.1333
  band No.  band energies     occupation 
      1      -4.6362      2.00000
      2      -0.9348      2.00000
      3       0.9134      2.00000
      4       4.0036      2.00000
      5      18.1153      0.00000
      6      20.3296      0.00000
      7      22.6164      0.00000
      8      24.0084      0.00000

 k-point   689 :      -0.2333    0.3667    0.1333
  band No.  band energies     occupation 
      1      -5.2309      2.00000
      2      -0.4169      2.00000
      3       1.0786      2.00000
      4       4.3279      2.00000
      5      18.3763      0.00000
      6      19.7401      0.00000
      7      22.2366      0.00000
      8      24.3121      0.00000

 k-point   690 :      -0.4667    0.4000    0.1333
  band No.  band energies     occupation 
      1      -5.4999      2.00000
      2       0.0156      2.00000
      3       2.3943      2.00000
      4       3.2680      2.00000
      5      16.2388      0.00000
      6      17.9954      0.00000
      7      22.9143      0.00000
      8      25.1123      0.00000

 k-point   691 :      -0.4333    0.4000    0.1333
  band No.  band energies     occupation 
      1      -4.9118      2.00000
      2      -0.4879      2.00000
      3       2.0044      2.00000
      4       3.0259      2.00000
      5      16.7289      0.00000
      6      18.3509      0.00000
      7      22.7901      0.00000
      8      25.1579      0.00000

 k-point   692 :      -0.4000    0.4000    0.1333
  band No.  band energies     occupation 
      1      -4.3126      2.00000
      2      -1.0091      2.00000
      3       1.5662      2.00000
      4       2.9546      2.00000
      5      17.0331      0.00000
      6      19.0571      0.00000
      7      22.6404      0.00000
      8      24.9437      0.00000

 k-point   693 :      -0.3667    0.4000    0.1333
  band No.  band energies     occupation 
      1      -3.7595      2.00000
      2      -1.4916      2.00000
      3       1.1485      2.00000
      4       3.0109      2.00000
      5      17.2354      0.00000
      6      19.9825      0.00000
      7      22.4688      0.00000
      8      24.4980      0.00000

 k-point   694 :      -0.3333    0.4000    0.1333
  band No.  band energies     occupation 
      1      -3.4337      2.00000
      2      -1.7606      2.00000
      3       0.8073      2.00000
      4       3.1603      2.00000
      5      17.4231      0.00000
      6      20.9511      0.00000
      7      22.2960      0.00000
      8      23.9096      0.00000

 k-point   695 :      -0.3000    0.4000    0.1333
  band No.  band energies     occupation 
      1      -3.5943      2.00000
      2      -1.5816      2.00000
      3       0.5940      2.00000
      4       3.3838      2.00000
      5      17.6298      0.00000
      6      21.4529      0.00000
      7      22.4803      0.00000
      8      23.3250      0.00000

 k-point   696 :      -0.2667    0.4000    0.1333
  band No.  band energies     occupation 
      1      -4.0709      2.00000
      2      -1.1969      2.00000
      3       0.5939      2.00000
      4       3.6685      2.00000
      5      17.8629      0.00000
      6      21.0387      0.00000
      7      22.8868      0.00000
      8      23.3018      0.00000

 k-point   697 :      -0.4333    0.4333    0.1333
  band No.  band energies     occupation 
      1      -4.5984      2.00000
      2      -0.8307      2.00000
      3       2.2539      2.00000
      4       2.7802      2.00000
      5      16.3378      0.00000
      6      17.4894      0.00000
      7      23.6696      0.00000
      8      25.3926      0.00000

 k-point   698 :      -0.4000    0.4333    0.1333
  band No.  band energies     occupation 
      1      -4.0081      2.00000
      2      -1.2839      2.00000
      3       1.8275      2.00000
      4       2.6372      2.00000
      5      16.7973      0.00000
      6      17.9779      0.00000
      7      23.5313      0.00000
      8      25.1515      0.00000

 k-point   699 :      -0.3667    0.4333    0.1333
  band No.  band energies     occupation 
      1      -3.4402      2.00000
      2      -1.7079      2.00000
      3       1.3077      2.00000
      4       2.6988      2.00000
      5      17.0286      0.00000
      6      18.8574      0.00000
      7      23.3533      0.00000
      8      24.6691      0.00000

 k-point   700 :      -0.3333    0.4333    0.1333
  band No.  band energies     occupation 
      1      -3.0492      2.00000
      2      -1.9805      2.00000
      3       0.8559      2.00000
      4       2.8585      2.00000
      5      17.2089      0.00000
      6      19.9037      0.00000
      7      23.0890      0.00000
      8      24.0737      0.00000

 k-point   701 :      -0.3000    0.4333    0.1333
  band No.  band energies     occupation 
      1      -3.1630      2.00000
      2      -1.8395      2.00000
      3       0.5765      2.00000
      4       3.0906      2.00000
      5      17.4052      0.00000
      6      20.9681      0.00000
      7      22.6309      0.00000
      8      23.5951      0.00000

 k-point   702 :      -0.4000    0.4667    0.1333
  band No.  band energies     occupation 
      1      -3.6600      2.00000
      2      -1.7482      2.00000
      3       2.2094      2.00000
      4       2.4546      2.00000
      5      16.5059      0.00000
      6      17.0756      0.00000
      7      24.3667      0.00000
      8      25.3208      0.00000

 k-point   703 :      -0.3667    0.4667    0.1333
  band No.  band energies     occupation 
      1      -3.0883      2.00000
      2      -2.1563      2.00000
      3       1.7340      2.00000
      4       2.4514      2.00000
      5      16.8647      0.00000
      6      17.7566      0.00000
      7      24.2110      0.00000
      8      24.8183      0.00000

 k-point   704 :      -0.3333    0.4667    0.1333
  band No.  band energies     occupation 
      1      -2.7492      2.00000
      2      -2.3419      2.00000
      3       1.2159      2.00000
      4       2.6190      2.00000
      5      17.0286      0.00000
      6      18.7879      0.00000
      7      23.8495      0.00000
      8      24.3055      0.00000

 k-point   705 :      -0.3667    0.5000    0.1333
  band No.  band energies     occupation 
      1      -2.7019      2.00000
      2      -2.7019      2.00000
      3       2.2712      2.00000
      4       2.2712      2.00000
      5      16.7498      0.00000
      6      16.7498      0.00000
      7      24.9468      0.00000
      8      24.9469      0.00000

 k-point   706 :       0.5000    0.3333    0.1667
  band No.  band energies     occupation 
      1      -6.8171      2.00000
      2       0.9811      2.00000
      3       2.3737      2.00000
      4       4.8679      2.00000
      5      17.3168      0.00000
      6      19.6229      0.00000
      7      20.9968      0.00000
      8      23.7404      0.00000

 k-point   707 :      -0.4667    0.3333    0.1667
  band No.  band energies     occupation 
      1      -6.2388      2.00000
      2       0.3614      2.00000
      3       2.0558      2.00000
      4       4.5230      2.00000
      5      17.8318      0.00000
      6      19.5197      0.00000
      7      21.1804      0.00000
      8      24.1304      0.00000

 k-point   708 :      -0.4333    0.3333    0.1667
  band No.  band energies     occupation 
      1      -5.6311      2.00000
      2      -0.3775      2.00000
      3       1.9198      2.00000
      4       4.2156      2.00000
      5      18.1848      0.00000
      6      19.5169      0.00000
      7      21.5279      0.00000
      8      24.3380      0.00000

 k-point   709 :      -0.4000    0.3333    0.1667
  band No.  band energies     occupation 
      1      -5.0212      2.00000
      2      -1.1172      2.00000
      3       1.8713      2.00000
      4       3.9705      2.00000
      5      18.3511      0.00000
      6      19.5709      0.00000
      7      22.0721      0.00000
      8      24.3111      0.00000

 k-point   710 :      -0.3667    0.3333    0.1667
  band No.  band energies     occupation 
      1      -4.4858      2.00000
      2      -1.7407      2.00000
      3       1.8601      2.00000
      4       3.8107      2.00000
      5      18.4069      0.00000
      6      19.6177      0.00000
      7      22.7464      0.00000
      8      24.0126      0.00000

 k-point   711 :      -0.3333    0.3333    0.1667
  band No.  band energies     occupation 
      1      -4.2383      2.00000
      2      -2.0190      2.00000
      3       1.8595      2.00000
      4       3.7548      2.00000
      5      18.4187      0.00000
      6      19.6336      0.00000
      7      23.3189      0.00000
      8      23.5736      0.00000

 k-point   712 :      -0.4667    0.3667    0.1667
  band No.  band energies     occupation 
      1      -6.0354      2.00000
      2       0.4148      2.00000
      3       2.0790      2.00000
      4       4.0078      2.00000
      5      17.3143      0.00000
      6      19.3655      0.00000
      7      21.3045      0.00000
      8      24.5076      0.00000

 k-point   713 :      -0.4333    0.3667    0.1667
  band No.  band energies     occupation 
      1      -5.4420      2.00000
      2      -0.1409      2.00000
      3       1.7720      2.00000
      4       3.6799      2.00000
      5      17.8334      0.00000
      6      19.5450      0.00000
      7      21.2952      0.00000
      8      24.6901      0.00000

 k-point   714 :      -0.4000    0.3667    0.1667
  band No.  band energies     occupation 
      1      -4.8357      2.00000
      2      -0.7800      2.00000
      3       1.5947      2.00000
      4       3.4281      2.00000
      5      18.1564      0.00000
      6      19.8824      0.00000
      7      21.4335      0.00000
      8      24.5880      0.00000

 k-point   715 :      -0.3667    0.3667    0.1667
  band No.  band energies     occupation 
      1      -4.2694      2.00000
      2      -1.3891      2.00000
      3       1.4765      2.00000
      4       3.2815      2.00000
      5      18.3389      0.00000
      6      20.1178      0.00000
      7      21.8865      0.00000
      8      24.1920      0.00000

 k-point   716 :      -0.3333    0.3667    0.1667
  band No.  band energies     occupation 
      1      -3.9018      2.00000
      2      -1.7766      2.00000
      3       1.3791      2.00000
      4       3.2563      2.00000
      5      18.4759      0.00000
      6      20.1318      0.00000
      7      22.6153      0.00000
      8      23.5711      0.00000

 k-point   717 :      -0.3000    0.3667    0.1667
  band No.  band energies     occupation 
      1      -3.9984      2.00000
      2      -1.6658      2.00000
      3       1.2996      2.00000
      4       3.3498      2.00000
      5      18.6142      0.00000
      6      19.9932      0.00000
      7      22.8311      0.00000
      8      23.4322      0.00000

 k-point   718 :      -0.2667    0.3667    0.1667
  band No.  band energies     occupation 
      1      -4.4681      2.00000
      2      -1.1552      2.00000
      3       1.2617      2.00000
      4       3.5447      2.00000
      5      18.7671      0.00000
      6      19.7151      0.00000
      7      22.1623      0.00000
      8      24.0976      0.00000

 k-point   719 :      -0.2333    0.3667    0.1667
  band No.  band energies     occupation 
      1      -5.0561      2.00000
      2      -0.5345      2.00000
      3       1.3156      2.00000
      4       3.8197      2.00000
      5      18.8869      0.00000
      6      19.3164      0.00000
      7      21.6544      0.00000
      8      24.4701      0.00000

 k-point   720 :      -0.2000    0.3667    0.1667
  band No.  band energies     occupation 
      1      -5.6583      2.00000
      2       0.0087      2.00000
      3       1.5539      2.00000
      4       4.1532      2.00000
      5      18.5107      0.00000
      6      19.2839      0.00000
      7      21.3461      0.00000
      8      24.4620      0.00000

 k-point   721 :      -0.4333    0.4000    0.1667
  band No.  band energies     occupation 
      1      -5.2019      2.00000
      2      -0.1980      2.00000
      3       1.8715      2.00000
      4       3.2331      2.00000
      5      17.3578      0.00000
      6      18.9242      0.00000
      7      21.9280      0.00000
      8      24.9589      0.00000

 k-point   722 :      -0.4000    0.4000    0.1667
  band No.  band energies     occupation 
      1      -4.6049      2.00000
      2      -0.6877      2.00000
      3       1.5653      2.00000
      4       2.9468      2.00000
      5      17.8650      0.00000
      6      19.3170      0.00000
      7      21.8114      0.00000
      8      24.8129      0.00000

 k-point   723 :      -0.3667    0.4000    0.1667
  band No.  band energies     occupation 
      1      -4.0247      2.00000
      2      -1.2074      2.00000
      3       1.3022      2.00000
      4       2.8030      2.00000
      5      18.1398      0.00000
      6      20.0048      0.00000
      7      21.7393      0.00000
      8      24.3586      0.00000

 k-point   724 :      -0.3333    0.4000    0.1667
  band No.  band energies     occupation 
      1      -3.5742      2.00000
      2      -1.6219      2.00000
      3       1.0718      2.00000
      4       2.8062      2.00000
      5      18.3190      0.00000
      6      20.6219      0.00000
      7      21.8892      0.00000
      8      23.6919      0.00000

 k-point   725 :      -0.3000    0.4000    0.1667
  band No.  band energies     occupation 
      1      -3.5240      2.00000
      2      -1.6514      2.00000
      3       0.8962      2.00000
      4       2.9339      2.00000
      5      18.4910      0.00000
      6      20.7145      0.00000
      7      22.5282      0.00000
      8      22.9669      0.00000

 k-point   726 :      -0.2667    0.4000    0.1667
  band No.  band energies     occupation 
      1      -3.9140      2.00000
      2      -1.2753      2.00000
      3       0.8233      2.00000
      4       3.1594      2.00000
      5      18.6828      0.00000
      6      20.3972      0.00000
      7      22.3051      0.00000
      8      23.4027      0.00000

 k-point   727 :      -0.2333    0.4000    0.1667
  band No.  band energies     occupation 
      1      -4.4690      2.00000
      2      -0.8337      2.00000
      3       0.9357      2.00000
      4       3.4610      2.00000
      5      18.8920      0.00000
      6      19.8143      0.00000
      7      21.8866      0.00000
      8      24.1210      0.00000

 k-point   728 :      -0.4000    0.4333    0.1667
  band No.  band energies     occupation 
      1      -4.3286      2.00000
      2      -0.8923      2.00000
      3       1.7602      2.00000
      4       2.6051      2.00000
      5      17.4559      0.00000
      6      18.4989      0.00000
      7      22.6479      0.00000
      8      24.9965      0.00000

 k-point   729 :      -0.3667    0.4333    0.1667
  band No.  band energies     occupation 
      1      -3.7463      2.00000
      2      -1.3201      2.00000
      3       1.4377      2.00000
      4       2.4032      2.00000
      5      17.9193      0.00000
      6      19.0643      0.00000
      7      22.4924      0.00000
      8      24.5115      0.00000

 k-point   730 :      -0.3333    0.4333    0.1667
  band No.  band energies     occupation 
      1      -3.2437      2.00000
      2      -1.7036      2.00000
      3       1.0704      2.00000
      4       2.4218      2.00000
      5      18.1330      0.00000
      6      19.9761      0.00000
      7      22.3271      0.00000
      8      23.8189      0.00000

 k-point   731 :      -0.3000    0.4333    0.1667
  band No.  band energies     occupation 
      1      -3.0800      2.00000
      2      -1.8087      2.00000
      3       0.7782      2.00000
      4       2.5794      2.00000
      5      18.3067      0.00000
      6      20.8783      0.00000
      7      22.1903      0.00000
      8      23.0924      0.00000

 k-point   732 :      -0.2667    0.4333    0.1667
  band No.  band energies     occupation 
      1      -3.4030      2.00000
      2      -1.5411      2.00000
      3       0.6640      2.00000
      4       2.8324      2.00000
      5      18.4926      0.00000
      6      21.0405      0.00000
      7      22.5524      0.00000
      8      22.5688      0.00000

 k-point   733 :      -0.3667    0.4667    0.1667
  band No.  band energies     occupation 
      1      -3.4325      2.00000
      2      -1.6794      2.00000
      3       1.7577      2.00000
      4       2.1563      2.00000
      5      17.6146      0.00000
      6      18.1341      0.00000
      7      23.3853      0.00000
      8      24.6592      0.00000

 k-point   734 :      -0.3333    0.4667    0.1667
  band No.  band energies     occupation 
      1      -2.9004      2.00000
      2      -2.0458      2.00000
      3       1.3829      2.00000
      4       2.1121      2.00000
      5      17.9677      0.00000
      6      18.9046      0.00000
      7      23.2094      0.00000
      8      23.9504      0.00000

 k-point   735 :      -0.3000    0.4667    0.1667
  band No.  band energies     occupation 
      1      -2.7322      2.00000
      2      -2.1100      2.00000
      3       0.9778      2.00000
      4       2.2986      2.00000
      5      18.1315      0.00000
      6      19.9520      0.00000
      7      22.8339      0.00000
      8      23.3261      0.00000

 k-point   736 :      -0.3333    0.5000    0.1667
  band No.  band energies     occupation 
      1      -2.5383      2.00000
      2      -2.5383      2.00000
      3       1.8817      2.00000
      4       1.8817      2.00000
      5      17.8395      0.00000
      6      17.8395      0.00000
      7      24.0819      0.00000
      8      24.0819      0.00000

 k-point   737 :      -0.4000    0.4000    0.2000
  band No.  band energies     occupation 
      1      -4.8535      2.00000
      2      -0.4901      2.00000
      3       1.3733      2.00000
      4       3.3034      2.00000
      5      18.5665      0.00000
      6      19.4871      0.00000
      7      21.3214      0.00000
      8      24.6597      0.00000

 k-point   738 :      -0.3667    0.4000    0.2000
  band No.  band energies     occupation 
      1      -4.2640      2.00000
      2      -0.9627      2.00000
      3       1.1610      2.00000
      4       2.9988      2.00000
      5      19.0020      0.00000
      6      19.6899      0.00000
      7      21.4950      0.00000
      8      24.2363      0.00000

 k-point   739 :      -0.3333    0.4000    0.2000
  band No.  band energies     occupation 
      1      -3.7432      2.00000
      2      -1.4458      2.00000
      3       1.0779      2.00000
      4       2.7976      2.00000
      5      19.0729      0.00000
      6      20.0328      0.00000
      7      21.9553      0.00000
      8      23.5307      0.00000

 k-point   740 :      -0.3000    0.4000    0.2000
  band No.  band energies     occupation 
      1      -3.4979      2.00000
      2      -1.6842      2.00000
      3       1.0586      2.00000
      4       2.7267      2.00000
      5      19.0759      0.00000
      6      20.1523      0.00000
      7      22.5936      0.00000
      8      22.8124      0.00000

 k-point   741 :      -0.3667    0.4333    0.2000
  band No.  band energies     occupation 
      1      -4.0230      2.00000
      2      -1.0369      2.00000
      3       1.3017      2.00000
      4       2.5542      2.00000
      5      18.6636      0.00000
      6      19.4151      0.00000
      7      21.7097      0.00000
      8      24.3721      0.00000

 k-point   742 :      -0.3333    0.4333    0.2000
  band No.  band energies     occupation 
      1      -3.4758      2.00000
      2      -1.4355      2.00000
      3       1.1126      2.00000
      4       2.3095      2.00000
      5      19.0669      0.00000
      6      19.9387      0.00000
      7      21.6775      0.00000
      8      23.6487      0.00000

 k-point   743 :      -0.3000    0.4333    0.2000
  band No.  band energies     occupation 
      1      -3.1151      2.00000
      2      -1.7257      2.00000
      3       0.9648      2.00000
      4       2.2549      2.00000
      5      19.2014      0.00000
      6      20.4876      0.00000
      7      21.9075      0.00000
      8      22.8252      0.00000

 k-point   744 :      -0.2667    0.4333    0.2000
  band No.  band energies     occupation 
      1      -3.2360      2.00000
      2      -1.6136      2.00000
      3       0.8782      2.00000
      4       2.3782      2.00000
      5      19.3199      0.00000
      6      20.4467      0.00000
      7      22.0559      0.00000
      8      22.6635      0.00000

 k-point   745 :      -0.2333    0.4333    0.2000
  band No.  band energies     occupation 
      1      -3.7034      2.00000
      2      -1.2621      2.00000
      3       0.9213      2.00000
      4       2.6385      2.00000
      5      19.4385      0.00000
      6      19.9025      0.00000
      7      21.6599      0.00000
      8      23.5133      0.00000

 k-point   746 :      -0.3333    0.4667    0.2000
  band No.  band energies     occupation 
      1      -3.1916      2.00000
      2      -1.6678      2.00000
      3       1.3587      2.00000
      4       1.9668      2.00000
      5      18.8057      0.00000
      6      19.2093      0.00000
      7      22.3450      0.00000
      8      23.7834      0.00000

 k-point   747 :      -0.3000    0.4667    0.2000
  band No.  band energies     occupation 
      1      -2.7492      2.00000
      2      -1.9757      2.00000
      3       1.1555      2.00000
      4       1.8648      2.00000
      5      19.1061      0.00000
      6      20.0000      0.00000
      7      22.2006      0.00000
      8      22.9392      0.00000

 k-point   748 :      -0.2667    0.4667    0.2000
  band No.  band energies     occupation 
      1      -2.8055      2.00000
      2      -1.8975      2.00000
      3       0.9259      2.00000
      4       2.0518      2.00000
      5      19.2337      0.00000
      6      20.7247      0.00000
      7      22.1035      0.00000
      8      22.2940      0.00000

 k-point   749 :      -0.3000    0.5000    0.2000
  band No.  band energies     occupation 
      1      -2.3938      2.00000
      2      -2.3938      2.00000
      3       1.5712      2.00000
      4       1.5712      2.00000
      5      18.9919      0.00000
      6      18.9919      0.00000
      7      23.0695      0.00000
      8      23.0695      0.00000

 k-point   750 :      -0.3000    0.4667    0.2333
  band No.  band energies     occupation 
      1      -2.9692      2.00000
      2      -1.7407      2.00000
      3       1.0644      2.00000
      4       1.9302      2.00000
      5      19.8672      0.00000
      6      19.9918      0.00000
      7      21.6898      0.00000
      8      22.7755      0.00000

 k-point   751 :      -0.2667    0.4667    0.2333
  band No.  band energies     occupation 
      1      -2.6889      2.00000
      2      -1.9537      2.00000
      3       1.0779      2.00000
      4       1.7727      2.00000
      5      19.8785      0.00000
      6      20.4337      0.00000
      7      21.8799      0.00000
      8      22.1205      0.00000

 k-point   752 :      -0.2667    0.5000    0.2333
  band No.  band energies     occupation 
      1      -2.3064      2.00000
      2      -2.3064      2.00000
      3       1.3965      2.00000
      4       1.3965      2.00000
      5      20.0253      0.00000
      6      20.0253      0.00000
      7      22.1006      0.00000
      8      22.1006      0.00000


--------------------------------------------------------------------------------------------------------


 soft charge-density along one line, spin component           1
         0         1         2         3         4         5         6         7         8         9
 total charge-density along one line
 
 pseudopotential strength for first ion, spin component:           1
  9.438  12.533  -0.000  -0.000  -0.000   0.000   0.000   0.000
 12.533  16.642  -0.000  -0.000  -0.000   0.000   0.000   0.000
 -0.000  -0.000  -3.666  -0.000  -0.000   7.181   0.000   0.000
 -0.000  -0.000  -0.000  -3.666  -0.000   0.000   7.181   0.000
 -0.000  -0.000  -0.000  -0.000  -3.666   0.000   0.000   7.181
  0.000   0.000   7.181   0.000   0.000 -16.161  -0.000  -0.000
  0.000   0.000   0.000   7.181   0.000  -0.000 -16.161  -0.000
  0.000   0.000   0.000   0.000   7.181  -0.000  -0.000 -16.161
 total augmentation occupancy for first ion, spin component:           1
  7.431  -3.279   0.000   0.000  -0.000  -0.000   0.000   0.000
 -3.279   1.531   0.000   0.000   0.000   0.000   0.000   0.000
  0.000   0.000   1.559  -0.000   0.000   0.128  -0.000   0.000
  0.000   0.000  -0.000   1.559   0.000  -0.000   0.128   0.000
 -0.000   0.000   0.000   0.000   1.559   0.000   0.000   0.128
 -0.000   0.000   0.128  -0.000   0.000   0.012  -0.000   0.000
  0.000   0.000  -0.000   0.128   0.000  -0.000   0.012   0.000
  0.000   0.000   0.000   0.000   0.128   0.000   0.000   0.012


------------------------ aborting loop because EDIFF is reached ----------------------------------------





 total charge

# of ion       s       p       d       tot
------------------------------------------
    1        0.829   1.742   0.000   2.570
    2        0.829   1.742   0.000   2.570
--------------------------------------------------
tot          1.658   3.483   0.000   5.141
 
    CHARGE:  cpu time      0.0169: real time      0.0170
    FORLOC:  cpu time      0.0000: real time      0.0000
    FORNL :  cpu time      0.0151: real time      0.0151
    STRESS:  cpu time      0.1258: real time      0.1264
    FORCOR:  cpu time      0.0013: real time      0.0013
    FORHAR:  cpu time      0.0004: real time      0.0004
    MIXING:  cpu time      0.0002: real time      0.0002
    OFIELD:  cpu time      0.0000: real time      0.0000

  FORCE on cell =-STRESS in cart. coord.  units (eV):
  Direction    XX          YY          ZZ          XY          YZ          ZX
  --------------------------------------------------------------------------------------
  Alpha Z    28.79729    28.79729    28.79729
  Ewald    -115.76204  -115.76204  -115.76204    -0.00000     0.00000    -0.00000
  Hartree     8.82913     8.82913     8.82913    -0.00000    -0.00000    -0.00000
  E(xc)     -30.39793   -30.39793   -30.39793     0.00000     0.00000     0.00000
  Local     -11.09858   -11.09862   -11.09863     0.00004     0.00002     0.00003
  n-local    -6.99691    -6.87865    -7.58876    -0.74874    -0.14105     0.24248
  augment    -0.71921    -0.71917    -0.71916    -0.00003    -0.00001    -0.00002
  Kinetic   124.84599   127.20276   130.46670     5.48155     2.14957     0.73441
  Fock        0.00000     0.00000     0.00000     0.00000     0.00000     0.00000
  -------------------------------------------------------------------------------------
  Total      -0.00095    -0.00095    -0.00095    -0.00000     0.00000    -0.00000
  in kB      -0.13394    -0.13394    -0.13394    -0.00000     0.00000    -0.00000
  external pressure =       -0.13 kB  Pullay stress =        0.00 kB


 VOLUME and BASIS-vectors are now :
 -----------------------------------------------------------------------------
  energy-cutoff  :      500.00
  volume of cell :       11.41
      direct lattice vectors                 reciprocal lattice vectors
     2.526995815  0.000000000  0.000000000     0.395726813 -0.228472982 -0.161554795
     1.263497908  2.188442571 -0.000000000    -0.000000000  0.456945964 -0.161554795
     1.263497908  0.729480857  2.063283443    -0.000000000  0.000000000  0.484664384

  length of vectors
     2.526995815  2.526995815  2.526995815     0.484664384  0.484664384  0.484664384


 FORCES acting on ions
    electron-ion (+dipol)            ewald-force                    non-local-force                 convergence-correction
 -----------------------------------------------------------------------------------------------
   -.172E-05 -.999E-06 -.167E-05   -.514E-08 0.327E-08 -.272E-08   0.106E-16 -.278E-16 -.982E-18   -.110E-07 -.633E-08 -.448E-08
   0.172E-05 0.999E-06 0.167E-05   0.514E-08 -.327E-08 0.272E-08   -.707E-17 0.427E-16 0.376E-17   0.110E-07 0.633E-08 0.448E-08
 -----------------------------------------------------------------------------------------------
   -.655E-13 -.435E-13 -.200E-13   0.151E-14 0.170E-15 -.706E-16   0.358E-17 0.149E-16 0.278E-17   0.216E-14 0.856E-14 0.222E-13
 
 
 POSITION                                       TOTAL-FORCE (eV/Angst)
 -----------------------------------------------------------------------------------
      1.26350      0.72948      0.51582        -0.000000     -0.000000     -0.000000
      0.00000      0.00000      0.00000         0.000000      0.000000      0.000000
 -----------------------------------------------------------------------------------
    total drift:                               -0.000000     -0.000000      0.000000


--------------------------------------------------------------------------------------------------------



  FREE ENERGIE OF THE ION-ELECTRON SYSTEM (eV)
  ---------------------------------------------------
  free  energy   TOTEN  =       -18.18608019 eV

  energy  without entropy=      -18.18608019  energy(sigma->0) =      -18.18608019
 


--------------------------------------------------------------------------------------------------------


    POTLOK:  cpu time      0.0027: real time      0.0027


--------------------------------------------------------------------------------------------------------


 writing wavefunctions
     LOOP+:  cpu time      9.9341: real time     10.1474
    4ORBIT:  cpu time      0.0000: real time      0.0000



 total charge

# of ion       s       p       d       tot
------------------------------------------
    1        0.829   1.742   0.000   2.570
    2        0.829   1.742   0.000   2.570
--------------------------------------------------
tot          1.658   3.483   0.000   5.141
 

 total amount of memory used by VASP MPI-rank0    33467. kBytes
=======================================================================

   base                                    :      30000. kBytes
   nonl-proj                               :       2119. kBytes
   fftplans                                :         39. kBytes
   grid                                    :         55. kBytes
   one-center                              :          3. kBytes
   wavefun                                 :       1251. kBytes
 
  
  
 General timing and accounting informations for this job:
 ========================================================
  
                  Total CPU time used (sec):       10.937
                            User time (sec):       10.459
                          System time (sec):        0.477
                         Elapsed time (sec):       11.624
  
                   Maximum memory used (kb):      160820.
                   Average memory used (kb):          N/A
  
                          Minor page faults:        11712
                          Major page faults:           62
                 Voluntary context switches:          967
