real-time non-blocking time  (microseconds, -R) unlimited
core file size              (blocks, -c) unlimited
data seg size               (kbytes, -d) unlimited
scheduling priority                 (-e) 0
file size                   (blocks, -f) unlimited
pending signals                     (-i) 505933
max locked memory           (kbytes, -l) unlimited
max memory size             (kbytes, -m) 117440512
open files                          (-n) 1024
pipe size                (512 bytes, -p) 8
POSIX message queues         (bytes, -q) 819200
real-time priority                  (-r) 0
stack size                  (kbytes, -s) unlimited
cpu time                   (seconds, -t) unlimited
max user processes                  (-u) 125621
virtual memory              (kbytes, -v) unlimited
file locks                          (-x) unlimited
 running   28 mpi-ranks, with    1 threads/rank, on    1 nodes
 distrk:  each k-point on   28 cores,    1 groups
 distr:  one band on    7 cores,    4 groups
 vasp.6.5.1 10Mar25 (build Feb 13 2026 23:13:13) complex                        
  
 POSCAR found type information on POSCAR C 
 POSCAR found :  1 types and       2 ions
 scaLAPACK will be used
 LDA part: xc-table for (Slater+PW92), standard interpolation
 POSCAR, INCAR and KPOINTS ok, starting setup
 FFT: planning ... GRIDC
 FFT: planning ... GRID_SOFT
 FFT: planning ... GRID
 WAVECAR not read
 entering main loop
       N       E                     dE             d eps       ncg     rms          rms(c)
DAV:   1    -0.556735690239E+00   -0.55674E+00   -0.49975E+03 12584   0.961E+02
DAV:   2    -0.186972319503E+02   -0.18140E+02   -0.17286E+02 19008   0.109E+02
DAV:   3    -0.188135209027E+02   -0.11629E+00   -0.11629E+00 12736   0.113E+01
DAV:   4    -0.188136979397E+02   -0.17704E-03   -0.17704E-03 17552   0.457E-01
DAV:   5    -0.188136980203E+02   -0.80620E-07   -0.80620E-07 12568   0.576E-03    0.553E+00
DAV:   6    -0.183431674537E+02    0.47053E+00   -0.36047E-01 12440   0.479E+00    0.332E+00
DAV:   7    -0.181847778445E+02    0.15839E+00   -0.39881E-01 14344   0.514E+00    0.759E-01
DAV:   8    -0.181860502359E+02   -0.12724E-02   -0.18012E-03 12608   0.487E-01    0.464E-02
DAV:   9    -0.181860674477E+02   -0.17212E-04   -0.13088E-04 17664   0.101E-01    0.274E-02
DAV:  10    -0.181860803361E+02   -0.12888E-04   -0.13850E-05 12288   0.434E-02    0.619E-03
DAV:  11    -0.181860801886E+02    0.14757E-06   -0.38473E-08  8768   0.218E-03
   1 F= -.18186080E+02 E0= -.18186080E+02  d E =-.930288E-57
 writing wavefunctions
