unknown system                          
   1.00000000000000     
     2.517300    0.000000    0.000000
     1.258650    2.180046    0.000000
     1.258650    0.726682    2.055367
   C 
     2
Direct
   0.250000  0.250000  0.250000
   0.000000  0.000000  0.000000
 
   28   28   28
 0.15107941549E+02 0.15881971199E+02 0.17648994143E+02 0.19178774945E+02 0.19465446559E+02
 0.18309288123E+02 0.16205667289E+02 0.13827859833E+02 0.11618315400E+02 0.97695514733E+01
 0.83625749320E+01 0.73575608916E+01 0.66812005774E+01 0.62845484086E+01 0.61525600995E+01
 0.62845440183E+01 0.66812023675E+01 0.73575681899E+01 0.83625756274E+01 0.97695470503E+01
 0.11618324448E+02 0.13827887566E+02 0.16205689745E+02 0.18309280082E+02 0.19465413825E+02
 0.19178745973E+02 0.17648985928E+02 0.15881975094E+02 0.15881971199E+02 0.17294571149E+02
 0.19139019752E+02 0.20198343924E+02 0.19833777596E+02 0.18223816978E+02 0.15999685501E+02
 0.13739645491E+02 0.11741432473E+02 0.10150390723E+02 0.89783400781E+01 0.81578260959E+01
 0.76268291661E+01 0.73611287224E+01 0.73611132900E+01 0.76268022249E+01 0.81578163018E+01
 0.89783473485E+01 0.10150399845E+02 0.11741443780E+02 0.13739663484E+02 0.15999692710E+02
 0.18223793871E+02 0.19833745642E+02 0.20198356741E+02 0.19139100187E+02 0.17294673529E+02
 0.15882017851E+02 0.17648994143E+02 0.19139019752E+02 0.20414113099E+02 0.20614268071E+02
 0.19567031479E+02 0.17694483437E+02 0.15573182229E+02 0.13586912874E+02 0.11928116658E+02
 0.10666077837E+02 0.97534583821E+01 0.91223313006E+01 0.87401060316E+01 0.86102033311E+01
 0.87400751666E+01 0.91223052434E+01 0.97534588928E+01 0.10666092676E+02 0.11928129676E+02
 0.13586922073E+02 0.15573182491E+02 0.17694464109E+02 0.19567004996E+02 0.20614274908E+02
 0.20414178819E+02 0.19139118697E+02 0.17649066673E+02 0.16994442166E+02 0.19178774945E+02
 0.20198343924E+02 0.20614268071E+02 0.20037306181E+02 0.18626355993E+02 0.16828667577E+02
 0.15035739321E+02 0.13468125109E+02 0.12237738540E+02 0.11323366719E+02 0.10657185312E+02
 0.10199700765E+02 0.99590261469E+01 0.99590106925E+01 0.10199673690E+02 0.10657177172E+02
 0.11323381214E+02 0.12237758187E+02 0.13468138037E+02 0.15035742429E+02 0.16828658672E+02
 0.18626341581E+02 0.20037304178E+02 0.20614286057E+02 0.20198366527E+02 0.19178785862E+02
 0.18345620618E+02 0.18345619010E+02 0.19465446559E+02 0.19833777596E+02 0.19567031479E+02
 0.18626355993E+02 0.17276337093E+02 0.15836441765E+02 0.14523247428E+02 0.13468122075E+02
 0.12670512137E+02 0.12063146371E+02 0.11597914833E+02 0.11286996001E+02 0.11175469182E+02
 0.11286968901E+02 0.11597889467E+02 0.12063145314E+02 0.12670532328E+02 0.13468148274E+02
 0.14523266623E+02 0.15836444810E+02 0.17276324244E+02 0.18626341493E+02 0.19567027274E+02
 0.19833775361E+02 0.19465432665E+02 0.18875043874E+02 0.18596630072E+02 0.18875061181E+02
 0.18309288123E+02 0.18223816978E+02 0.17694483437E+02 0.16828667577E+02 0.15836441765E+02
 0.14899532110E+02 0.14147177904E+02 0.13586911182E+02 0.13147286212E+02 0.12768496517E+02
 0.12458874529E+02 0.12276468773E+02 0.12276449079E+02 0.12458832931E+02 0.12768466531E+02
 0.13147286404E+02 0.13586937503E+02 0.14147213964E+02 0.14899556799E+02 0.15836438136E+02
 0.16828638900E+02 0.17694455905E+02 0.18223815673E+02 0.18309312625E+02 0.18074205940E+02
 0.17825404137E+02 0.17825392026E+02 0.18074177181E+02 0.16205667289E+02 0.15999685501E+02
 0.15573182229E+02 0.15035739321E+02 0.14523247428E+02 0.14147177904E+02 0.13912465375E+02
 0.13739652370E+02 0.13551868593E+02 0.13337665736E+02 0.13151942301E+02 0.13076940633E+02
 0.13151914019E+02 0.13337629090E+02 0.13551846685E+02 0.13739656781E+02 0.13912493406E+02
 0.14147214890E+02 0.14523271150E+02 0.15035733380E+02 0.15573153828E+02 0.15999665763E+02
 0.16205684324E+02 0.16179245121E+02 0.16042458666E+02 0.15969501502E+02 0.16042416185E+02
 0.16179196429E+02 0.13827859833E+02 0.13739645491E+02 0.13586912874E+02 0.13468125109E+02
 0.13468122075E+02 0.13586911182E+02 0.13739652370E+02 0.13827867320E+02 0.13808842549E+02
 0.13711610261E+02 0.13624098422E+02 0.13624098791E+02 0.13711606975E+02 0.13808830840E+02
 0.13827853464E+02 0.13739649746E+02 0.13586926819E+02 0.13468150927E+02 0.13468154752E+02
 0.13586930881E+02 0.13739646683E+02 0.13827850756E+02 0.13808835691E+02 0.13711611374E+02
 0.13624094689E+02 0.13624092986E+02 0.13711611071E+02 0.13808842607E+02 0.11618315400E+02
 0.11741432473E+02 0.11928116658E+02 0.12237738540E+02 0.12670512137E+02 0.13147286212E+02
 0.13551868593E+02 0.13808842549E+02 0.13903424599E+02 0.13896276794E+02 0.13879289484E+02
 0.13896306907E+02 0.13903449311E+02 0.13808837407E+02 0.13551845360E+02 0.13147269384E+02
 0.12670512723E+02 0.12237757779E+02 0.11928154027E+02 0.11741476124E+02 0.11618338721E+02
 0.11492896189E+02 0.11349393892E+02 0.11225910783E+02 0.11176352555E+02 0.11225947515E+02
 0.11349437923E+02 0.11492912286E+02 0.97695514733E+01 0.10150390723E+02 0.10666077837E+02
 0.11323366719E+02 0.12063146371E+02 0.12768496517E+02 0.13337665736E+02 0.13711610261E+02
 0.13896276794E+02 0.13956885389E+02 0.13956910926E+02 0.13896323250E+02 0.13711628260E+02
 0.13337647353E+02 0.12768470316E+02 0.12063130687E+02 0.11323358446E+02 0.10666078035E+02
 0.10150409597E+02 0.97695852866E+01 0.94812040621E+01 0.92484207738E+01 0.90672635406E+01
 0.89634105764E+01 0.89634189582E+01 0.90672777737E+01 0.92484191446E+01 0.94811781198E+01
 0.83625749320E+01 0.89783400781E+01 0.97534583821E+01 0.10657185312E+02 0.11597914833E+02
 0.12458874529E+02 0.13151942301E+02 0.13624098422E+02 0.13879289484E+02 0.13956910926E+02
 0.13879326826E+02 0.13624130296E+02 0.13151941303E+02 0.12458856868E+02 0.11597904811E+02
 0.10657180375E+02 0.97534429770E+01 0.89783142101E+01 0.83625547546E+01 0.78908320279E+01
 0.75321682788E+01 0.72671051255E+01 0.70979295022E+01 0.70389232355E+01 0.70978952397E+01
 0.72670611451E+01 0.75321404985E+01 0.78908308176E+01 0.73575608916E+01 0.81578260959E+01
 0.91223313006E+01 0.10199700765E+02 0.11286996001E+02 0.12276468773E+02 0.13076940633E+02
 0.13624098791E+02 0.13896306907E+02 0.13896323250E+02 0.13624130296E+02 0.13076957733E+02
 0.12276464634E+02 0.11286986090E+02 0.10199697272E+02 0.91223306131E+01 0.81578160066E+01
 0.73575326470E+01 0.67253146096E+01 0.62402161589E+01 0.58801513396E+01 0.56357273455E+01
 0.55103123261E+01 0.55102900873E+01 0.56356862201E+01 0.58801361736E+01 0.62402401051E+01
 0.67253540193E+01 0.66812005774E+01 0.76268291661E+01 0.87401060316E+01 0.99590261469E+01
 0.11175469182E+02 0.12276449079E+02 0.13151914019E+02 0.13711606975E+02 0.13903449311E+02
 0.13711628260E+02 0.13151941303E+02 0.12276464634E+02 0.11175464910E+02 0.99590081859E+01
 0.87400919294E+01 0.76268336407E+01 0.66812167396E+01 0.59176488637E+01 0.53217884835E+01
 0.48718264798E+01 0.45526046444E+01 0.43595784261E+01 0.42946720965E+01 0.43595804289E+01
 0.45526240091E+01 0.48718618658E+01 0.53218139783E+01 0.59176466961E+01 0.62845484086E+01
 0.73611287224E+01 0.86102033311E+01 0.99590106925E+01 0.11286968901E+02 0.12458832931E+02
 0.13337629090E+02 0.13808830840E+02 0.13808837407E+02 0.13337647353E+02 0.12458856868E+02
 0.11286986090E+02 0.99590081859E+01 0.86101821558E+01 0.73611103222E+01 0.62845565935E+01
 0.54033597861E+01 0.47073889297E+01 0.41743599555E+01 0.37846735596E+01 0.35273138844E+01
 0.33987326184E+01 0.33987459386E+01 0.35273455410E+01 0.37847009601E+01 0.41743595888E+01
 0.47073590355E+01 0.54033264597E+01 0.61525600995E+01 0.73611132900E+01 0.87400751666E+01
 0.10199673690E+02 0.11597889467E+02 0.12768466531E+02 0.13551846685E+02 0.13827853464E+02
 0.13551845360E+02 0.12768470316E+02 0.11597904811E+02 0.10199697272E+02 0.87400919294E+01
 0.73611103222E+01 0.61525435727E+01 0.51499362749E+01 0.43500302934E+01 0.37314828449E+01
 0.32710085115E+01 0.29513525721E+01 0.27625586004E+01 0.27000522510E+01 0.27625657904E+01
 0.29513513356E+01 0.32709881127E+01 0.37314536780E+01 0.43500148895E+01 0.51499441540E+01
 0.62845440183E+01 0.76268022249E+01 0.91223052434E+01 0.10657177172E+02 0.12063145314E+02
 0.13147286404E+02 0.13739656781E+02 0.13739649746E+02 0.13147269384E+02 0.12063130687E+02
 0.10657180375E+02 0.91223306131E+01 0.76268336407E+01 0.62845565935E+01 0.51499362749E+01
 0.42318534816E+01 0.35142069706E+01 0.29730539143E+01 0.25863740743E+01 0.23375797130E+01
 0.22158579526E+01 0.22158507496E+01 0.23375599843E+01 0.25863506232E+01 0.29730429219E+01
 0.35142193204E+01 0.42318798349E+01 0.51499515268E+01 0.66812023675E+01 0.81578163018E+01
 0.97534588928E+01 0.11323381214E+02 0.12670532328E+02 0.13586937503E+02 0.13912493406E+02
 0.13586926819E+02 0.12670512723E+02 0.11323358446E+02 0.97534429770E+01 0.81578160066E+01
 0.66812167396E+01 0.54033597861E+01 0.43500302934E+01 0.35142069706E+01 0.28748538066E+01
 0.24082023464E+01 0.20926945137E+01 0.19110429150E+01 0.18518306168E+01 0.19110344003E+01
 0.20926895426E+01 0.24082113406E+01 0.28748730412E+01 0.35142210966E+01 0.43500275227E+01
 0.54033436250E+01 0.73575681899E+01 0.89783473485E+01 0.10666092676E+02 0.12237758187E+02
 0.13468148274E+02 0.14147213964E+02 0.14147214890E+02 0.13468150927E+02 0.12237757779E+02
 0.10666078035E+02 0.89783142101E+01 0.73575326470E+01 0.59176488637E+01 0.47073889297E+01
 0.37314828449E+01 0.29730539143E+01 0.24082023464E+01 0.20125122772E+01 0.17637356948E+01
 0.16442923680E+01 0.16442964748E+01 0.17637495962E+01 0.20125329583E+01 0.24082143657E+01
 0.29730419804E+01 0.37314534568E+01 0.47073697549E+01 0.59176609211E+01 0.83625756274E+01
 0.10150399845E+02 0.11928129676E+02 0.13468138037E+02 0.14523266623E+02 0.14899556799E+02
 0.14523271150E+02 0.13468154752E+02 0.11928154027E+02 0.10150409597E+02 0.83625547546E+01
 0.67253146096E+01 0.53217884835E+01 0.41743599555E+01 0.32710085115E+01 0.25863740743E+01
 0.20926945137E+01 0.17637356948E+01 0.15769628691E+01 0.15166174566E+01 0.15769734475E+01
 0.17637487344E+01 0.20926962655E+01 0.25863566607E+01 0.32709832738E+01 0.41743523989E+01
 0.53218121782E+01 0.67253527868E+01 0.97695470503E+01 0.11741443780E+02 0.13586922073E+02
 0.15035742429E+02 0.15836444810E+02 0.15836438136E+02 0.15035733380E+02 0.13586930881E+02
 0.11741476124E+02 0.97695852866E+01 0.78908320279E+01 0.62402161589E+01 0.48718264798E+01
 0.37846735596E+01 0.29513525721E+01 0.23375797130E+01 0.19110429150E+01 0.16442923680E+01
 0.15166174566E+01 0.15166167695E+01 0.16442873669E+01 0.19110311062E+01 0.23375683608E+01
 0.29513555370E+01 0.37846961564E+01 0.48718554247E+01 0.62402279341E+01 0.78908135564E+01
 0.11618324448E+02 0.13739663484E+02 0.15573182491E+02 0.16828658672E+02 0.17276324244E+02
 0.16828638900E+02 0.15573153828E+02 0.13739646683E+02 0.11618338721E+02 0.94812040621E+01
 0.75321682788E+01 0.58801513396E+01 0.45526046444E+01 0.35273138844E+01 0.27625586004E+01
 0.22158579526E+01 0.18518306168E+01 0.16442964748E+01 0.15769734475E+01 0.16442873669E+01
 0.18518145374E+01 0.22158476819E+01 0.27625706867E+01 0.35273456502E+01 0.45526277587E+01
 0.58801386238E+01 0.75321239965E+01 0.94811605144E+01 0.13827887566E+02 0.15999692710E+02
 0.17694464109E+02 0.18626341581E+02 0.18626341493E+02 0.17694455905E+02 0.15999665763E+02
 0.13827850756E+02 0.11492896189E+02 0.92484207738E+01 0.72671051255E+01 0.56357273455E+01
 0.43595784261E+01 0.33987326184E+01 0.27000522510E+01 0.22158507496E+01 0.19110344003E+01
 0.17637495962E+01 0.17637487344E+01 0.19110311062E+01 0.22158476819E+01 0.27000564196E+01
 0.33987419084E+01 0.43595752388E+01 0.56356988404E+01 0.72670662323E+01 0.92484036094E+01
 0.11492915065E+02 0.16205689745E+02 0.18223793871E+02 0.19567004996E+02 0.20037304178E+02
 0.19567027274E+02 0.18223815673E+02 0.16205684324E+02 0.13808835691E+02 0.11349393892E+02
 0.90672635406E+01 0.70979295022E+01 0.55103123261E+01 0.42946720965E+01 0.33987459386E+01
 0.27625657904E+01 0.23375599843E+01 0.20926895426E+01 0.20125329583E+01 0.20926962655E+01
 0.23375683608E+01 0.27625706867E+01 0.33987419084E+01 0.42946529332E+01 0.55102817576E+01
 0.70979092696E+01 0.90672762171E+01 0.11349434640E+02 0.13808872279E+02 0.18309280082E+02
 0.19833745642E+02 0.20614274908E+02 0.20614286057E+02 0.19833775361E+02 0.18309312625E+02
 0.16179245121E+02 0.13711611374E+02 0.11225910783E+02 0.89634105764E+01 0.70389232355E+01
 0.55102900873E+01 0.43595804289E+01 0.35273455410E+01 0.29513513356E+01 0.25863506232E+01
 0.24082113406E+01 0.24082143657E+01 0.25863566607E+01 0.29513555370E+01 0.35273456502E+01
 0.43595752388E+01 0.55102817576E+01 0.70389233064E+01 0.89634315139E+01 0.11225945430E+02
 0.13711632580E+02 0.16179234355E+02 0.19465413825E+02 0.20198356741E+02 0.20414178819E+02
 0.20198366527E+02 0.19465432665E+02 0.18074205940E+02 0.16042458666E+02 0.13624094689E+02
 0.11176352555E+02 0.89634189582E+01 0.70978952397E+01 0.56356862201E+01 0.45526240091E+01
 0.37847009601E+01 0.32709881127E+01 0.29730429219E+01 0.28748730412E+01 0.29730419804E+01
 0.32709832738E+01 0.37846961564E+01 0.45526277587E+01 0.56356988404E+01 0.70979092696E+01
 0.89634315139E+01 0.11176365352E+02 0.13624102800E+02 0.16042452811E+02 0.18074187307E+02
 0.19178745973E+02 0.19139100187E+02 0.19139118697E+02 0.19178785862E+02 0.18875043874E+02
 0.17825404137E+02 0.15969501502E+02 0.13624092986E+02 0.11225947515E+02 0.90672777737E+01
 0.72670611451E+01 0.58801361736E+01 0.48718618658E+01 0.41743595888E+01 0.37314536780E+01
 0.35142193204E+01 0.35142210966E+01 0.37314534568E+01 0.41743523989E+01 0.48718554247E+01
 0.58801386238E+01 0.72670662323E+01 0.90672762171E+01 0.11225945430E+02 0.13624102800E+02
 0.15969517572E+02 0.17825403459E+02 0.18875014701E+02 0.17648985928E+02 0.17294673529E+02
 0.17649066673E+02 0.18345620618E+02 0.18596630072E+02 0.17825392026E+02 0.16042416185E+02
 0.13711611071E+02 0.11349437923E+02 0.92484191446E+01 0.75321404985E+01 0.62402401051E+01
 0.53218139783E+01 0.47073590355E+01 0.43500148895E+01 0.42318798349E+01 0.43500275227E+01
 0.47073697549E+01 0.53218121782E+01 0.62402279341E+01 0.75321239965E+01 0.92484036094E+01
 0.11349434640E+02 0.13711632580E+02 0.16042452811E+02 0.17825403459E+02 0.18596579496E+02
 0.18345521831E+02 0.15881975094E+02 0.15882017851E+02 0.16994442166E+02 0.18345619010E+02
 0.18875061181E+02 0.18074177181E+02 0.16179196429E+02 0.13808842607E+02 0.11492912286E+02
 0.94811781198E+01 0.78908308176E+01 0.67253540193E+01 0.59176466961E+01 0.54033264597E+01
 0.51499441540E+01 0.51499515268E+01 0.54033436250E+01 0.59176609211E+01 0.67253527868E+01
 0.78908135564E+01 0.94811605144E+01 0.11492915065E+02 0.13808872279E+02 0.16179234355E+02
 0.18074187307E+02 0.18875014701E+02 0.18345521831E+02 0.16994341793E+02 0.15881971833E+02
 0.17294574568E+02 0.19139023564E+02 0.20198346852E+02 0.19833781132E+02 0.18223821397E+02
 0.15999688313E+02 0.13739645517E+02 0.11741431567E+02 0.10150389885E+02 0.89783378740E+01
 0.81578224710E+01 0.76268267365E+01 0.73611285525E+01 0.73611132814E+01 0.76268012691E+01
 0.81578160864E+01 0.89783485154E+01 0.10150400404E+02 0.11741442957E+02 0.13739663135E+02
 0.15999693309E+02 0.18223793094E+02 0.19833742606E+02 0.20198353723E+02 0.19139098591E+02
 0.17294672084E+02 0.15882016338E+02 0.17294574568E+02 0.19010596859E+02 0.20542478090E+02
 0.20934178721E+02 0.19974697826E+02 0.18105087349E+02 0.15945028537E+02 0.13912461915E+02
 0.12210018035E+02 0.10913945887E+02 0.99776187608E+01 0.93308183725E+01 0.89392835020E+01
 0.88062135915E+01 0.89392434828E+01 0.93307806155E+01 0.99776126178E+01 0.10913962487E+02
 0.12210039187E+02 0.13912479318E+02 0.15945029217E+02 0.18105057453E+02 0.19974658271E+02
 0.20934188217E+02 0.20542574756E+02 0.19010745369E+02 0.17294685308E+02 0.16549528523E+02
 0.19139023564E+02 0.20542478090E+02 0.21298572869E+02 0.20911491595E+02 0.19535407922E+02
 0.17678752593E+02 0.15799964749E+02 0.14147183408E+02 0.12845512510E+02 0.11878427082E+02
 0.11174331549E+02 0.10690473831E+02 0.10435545368E+02 0.10435529550E+02 0.10690443367E+02
 0.11174314939E+02 0.11878432100E+02 0.12845527711E+02 0.14147196155E+02 0.15799964484E+02
 0.17678733136E+02 0.19535383782E+02 0.20911498179E+02 0.21298631588E+02 0.20542568280E+02
 0.19139100135E+02 0.18048635416E+02 0.18048606376E+02 0.20198346852E+02 0.20934178721E+02
 0.20911491595E+02 0.20042552545E+02 0.18638073347E+02 0.17095490206E+02 0.15674742722E+02
 0.14523253390E+02 0.13649819751E+02 0.12982011900E+02 0.12468375005E+02 0.12124773657E+02
 0.12001353127E+02 0.12124769041E+02 0.12468370572E+02 0.12982011697E+02 0.13649824789E+02
 0.14523261429E+02 0.15674746260E+02 0.17095482048E+02 0.18638060853E+02 0.20042555638E+02
 0.20911515216E+02 0.20934199124E+02 0.20198342018E+02 0.19268301230E+02 0.18851168645E+02
 0.19268318233E+02 0.19833781132E+02 0.19974697826E+02 0.19535407922E+02 0.18638073347E+02
 0.17558001573E+02 0.16521533664E+02 0.15674740296E+02 0.15035739822E+02 0.14525620616E+02
 0.14083697394E+02 0.13719620252E+02 0.13503476256E+02 0.13503478224E+02 0.13719621905E+02
 0.14083693447E+02 0.14525615383E+02 0.15035742959E+02 0.15674751613E+02 0.16521540446E+02
 0.17557995751E+02 0.18638063631E+02 0.19535405761E+02 0.19974697271E+02 0.19833766735E+02
 0.19313862444E+02 0.18865286724E+02 0.18865300218E+02 0.19313888248E+02 0.18223821397E+02
 0.18105087349E+02 0.17678752593E+02 0.17095490206E+02 0.16521533664E+02 0.16085740203E+02
 0.15799963664E+02 0.15573184956E+02 0.15324058319E+02 0.15036406649E+02 0.14784466984E+02
 0.14682225987E+02 0.14784469695E+02 0.15036401833E+02 0.15324044581E+02 0.15573176239E+02
 0.15799971612E+02 0.16085758161E+02 0.16521543938E+02 0.17095482920E+02 0.17678734003E+02
 0.18105073175E+02 0.18223823875E+02 0.18033066965E+02 0.17730645660E+02 0.17587682859E+02
 0.17730629138E+02 0.18033049619E+02 0.15999688313E+02 0.15945028537E+02 0.15799964749E+02
 0.15674742722E+02 0.15674740296E+02 0.15799963664E+02 0.15945034809E+02 0.15999695192E+02
 0.15903484698E+02 0.15704154866E+02 0.15542365961E+02 0.15542376985E+02 0.15704173069E+02
 0.15903486696E+02 0.15999680252E+02 0.15945022067E+02 0.15799966727E+02 0.15674756225E+02
 0.15674759444E+02 0.15799970182E+02 0.15945019611E+02 0.15999678151E+02 0.15903490940E+02
 0.15704176860E+02 0.15542373490E+02 0.15542361132E+02 0.15704155069E+02 0.15903484148E+02
 0.13739645517E+02 0.13912461915E+02 0.14147183408E+02 0.14523253390E+02 0.15035739822E+02
 0.15573184956E+02 0.15999695192E+02 0.16205674802E+02 0.16179195465E+02 0.16042414537E+02
 0.15969504734E+02 0.16042459143E+02 0.16179238293E+02 0.16205679302E+02 0.15999668462E+02
 0.15573155935E+02 0.15035729102E+02 0.14523268491E+02 0.14147219275E+02 0.13912496645E+02
 0.13739653370E+02 0.13551844575E+02 0.13337633164E+02 0.13151915380E+02 0.13076933514E+02
 0.13151935268E+02 0.13337665100E+02 0.13551867137E+02 0.11741431567E+02 0.12210018035E+02
 0.12845512510E+02 0.13649819751E+02 0.14525620616E+02 0.15324058319E+02 0.15903484698E+02
 0.16179195465E+02 0.16202851293E+02 0.16140713037E+02 0.16140745019E+02 0.16202912960E+02
 0.16179227352E+02 0.15903468512E+02 0.15324019195E+02 0.14525585789E+02 0.13649803448E+02
 0.12845525679E+02 0.12210060017E+02 0.11741474987E+02 0.11381597161E+02 0.11079021079E+02
 0.10834069994E+02 0.10691109023E+02 0.10691128678E+02 0.10834113772E+02 0.11079052802E+02
 0.11381587942E+02 0.10150389885E+02 0.10913945887E+02 0.11878427082E+02 0.12982011900E+02
 0.14083697394E+02 0.15036406649E+02 0.15704154866E+02 0.16042414537E+02 0.16140713037E+02
 0.16149113192E+02 0.16140747895E+02 0.16042444448E+02 0.15704153722E+02 0.15036386462E+02
 0.14083676852E+02 0.12981991567E+02 0.11878406037E+02 0.10913936696E+02 0.10150401622E+02
 0.95722198880E+01 0.91341181758E+01 0.88060721458E+01 0.85922643412E+01 0.85166195588E+01
 0.85922611726E+01 0.88060633652E+01 0.91341001648E+01 0.95721971497E+01 0.89783378740E+01
 0.99776187608E+01 0.11174331549E+02 0.12468375005E+02 0.13719620252E+02 0.14784466984E+02
 0.15542365961E+02 0.15969504734E+02 0.16140745019E+02 0.16140747895E+02 0.15969507270E+02
 0.15542362264E+02 0.14784464189E+02 0.13719625661E+02 0.12468379840E+02 0.11174320501E+02
 0.99775894138E+01 0.89783021312E+01 0.81967713320E+01 0.76056297544E+01 0.71697143920E+01
 0.68723184504E+01 0.67182707791E+01 0.67182481100E+01 0.68722708987E+01 0.71696803335E+01
 0.76056286225E+01 0.81967968078E+01 0.81578224710E+01 0.93308183725E+01 0.10690473831E+02
 0.12124773657E+02 0.13503476256E+02 0.14682225987E+02 0.15542376985E+02 0.16042459143E+02
 0.16202912960E+02 0.16042444448E+02 0.15542362264E+02 0.14682225233E+02 0.13503488107E+02
 0.12124784691E+02 0.10690475175E+02 0.93308112972E+01 0.81578068917E+01 0.72133879162E+01
 0.64856063523E+01 0.59425446728E+01 0.55587332707E+01 0.53257448949E+01 0.52470085329E+01
 0.53257204281E+01 0.55587177857E+01 0.59425606006E+01 0.64856408013E+01 0.72134166126E+01
 0.76268267365E+01 0.89392835020E+01 0.10435545368E+02 0.12001353127E+02 0.13503478224E+02
 0.14784469695E+02 0.15704173069E+02 0.16179238293E+02 0.16179227352E+02 0.15704153722E+02
 0.14784464189E+02 0.13503488107E+02 0.12001359315E+02 0.10435537335E+02 0.89392752366E+01
 0.76268354899E+01 0.65506232803E+01 0.57075232965E+01 0.50685902048E+01 0.46042314386E+01
 0.42971991993E+01 0.41430790184E+01 0.41430859650E+01 0.42972212044E+01 0.46042628431E+01
 0.50686115875E+01 0.57075195385E+01 0.65506047053E+01 0.73611285525E+01 0.88062135915E+01
 0.10435529550E+02 0.12124769041E+02 0.13719621905E+02 0.15036401833E+02 0.15903486696E+02
 0.16205679302E+02 0.15903468512E+02 0.15036386462E+02 0.13719625661E+02 0.12124784691E+02
 0.10435537335E+02 0.88062070914E+01 0.73611228413E+01 0.61614942468E+01 0.52108039802E+01
 0.44819468882E+01 0.39420391947E+01 0.35667538471E+01 0.33438703467E+01 0.32697266478E+01
 0.33438927878E+01 0.35667772265E+01 0.39420405246E+01 0.44819232621E+01 0.52107748564E+01
 0.61614814693E+01 0.73611132814E+01 0.89392434828E+01 0.10690443367E+02 0.12468370572E+02
 0.14083693447E+02 0.15324044581E+02 0.15999680252E+02 0.15999668462E+02 0.15324019195E+02
 0.14083676852E+02 0.12468379840E+02 0.10690475175E+02 0.89392752366E+01 0.73611228413E+01
 0.60319346187E+01 0.49657079891E+01 0.41399409452E+01 0.35204554108E+01 0.30771628560E+01
 0.27900413690E+01 0.26485437124E+01 0.26485443879E+01 0.27900363801E+01 0.30771443430E+01
 0.35204329137E+01 0.41399339838E+01 0.49657206223E+01 0.60319472168E+01 0.76268012691E+01
 0.93307806155E+01 0.11174314939E+02 0.12982011697E+02 0.14525615383E+02 0.15573176239E+02
 0.15945022067E+02 0.15573155935E+02 0.14525585789E+02 0.12981991567E+02 0.11174320501E+02
 0.93308112972E+01 0.76268354899E+01 0.61614942468E+01 0.49657079891E+01 0.40267522048E+01
 0.33134438867E+01 0.27930961015E+01 0.24393435991E+01 0.22340290814E+01 0.21667186338E+01
 0.22340152664E+01 0.24393238177E+01 0.27930858813E+01 0.33134556433E+01 0.40267792596E+01
 0.49657255461E+01 0.61614827461E+01 0.81578160864E+01 0.99776126178E+01 0.11878432100E+02
 0.13649824789E+02 0.15035742959E+02 0.15799971612E+02 0.15799966727E+02 0.15035729102E+02
 0.13649803448E+02 0.11878406037E+02 0.99775894138E+01 0.81578068917E+01 0.65506232803E+01
 0.52108039802E+01 0.41399409452E+01 0.33134438867E+01 0.26995415478E+01 0.22685249923E+01
 0.19960231568E+01 0.18644502248E+01 0.18644490178E+01 0.19960240470E+01 0.22685344976E+01
 0.26995564507E+01 0.33134512437E+01 0.41399321722E+01 0.52107863895E+01 0.65506140081E+01
 0.89783485154E+01 0.10913962487E+02 0.12845527711E+02 0.14523261429E+02 0.15674751613E+02
 0.16085758161E+02 0.15674756225E+02 0.14523268491E+02 0.12845525679E+02 0.10913936696E+02
 0.89783021312E+01 0.72133879162E+01 0.57075232965E+01 0.44819468882E+01 0.35204554108E+01
 0.27930961015E+01 0.22685249923E+01 0.19183404087E+01 0.17190204701E+01 0.16545075592E+01
 0.17190333101E+01 0.19183610028E+01 0.22685386388E+01 0.27930859198E+01 0.35204225231E+01
 0.44819178617E+01 0.57075275937E+01 0.72134271874E+01 0.10150400404E+02 0.12210039187E+02
 0.14147196155E+02 0.15674746260E+02 0.16521540446E+02 0.16521543938E+02 0.15674759444E+02
 0.14147219275E+02 0.12210060017E+02 0.10150401622E+02 0.81967713320E+01 0.64856063523E+01
 0.50685902048E+01 0.39420391947E+01 0.30771628560E+01 0.24393435991E+01 0.19960231568E+01
 0.17190204701E+01 0.15865929871E+01 0.15865972091E+01 0.17190287276E+01 0.19960256730E+01
 0.24393340346E+01 0.30771465123E+01 0.39420315763E+01 0.50686032773E+01 0.64856343311E+01
 0.81967931016E+01 0.11741442957E+02 0.13912479318E+02 0.15799964484E+02 0.17095482048E+02
 0.17557995751E+02 0.17095482920E+02 0.15799970182E+02 0.13912496645E+02 0.11741474987E+02
 0.95722198880E+01 0.76056297544E+01 0.59425446728E+01 0.46042314386E+01 0.35667538471E+01
 0.27900413690E+01 0.22340290814E+01 0.18644502248E+01 0.16545075592E+01 0.15865972091E+01
 0.16545004389E+01 0.18644355175E+01 0.22340159726E+01 0.27900464931E+01 0.35667818266E+01
 0.46042635938E+01 0.59425546095E+01 0.76056088098E+01 0.95721828723E+01 0.13739663135E+02
 0.15945029217E+02 0.17678733136E+02 0.18638060853E+02 0.18638063631E+02 0.17678734003E+02
 0.15945019611E+02 0.13739653370E+02 0.11381597161E+02 0.91341181758E+01 0.71697143920E+01
 0.55587332707E+01 0.42971991993E+01 0.33438703467E+01 0.26485437124E+01 0.21667186338E+01
 0.18644490178E+01 0.17190333101E+01 0.17190287276E+01 0.18644355175E+01 0.21667037023E+01
 0.26485444293E+01 0.33438937560E+01 0.42972250079E+01 0.55587315006E+01 0.71696813222E+01
 0.91340822307E+01 0.11381585455E+02 0.15999693309E+02 0.18105057453E+02 0.19535383782E+02
 0.20042555638E+02 0.19535405761E+02 0.18105073175E+02 0.15999678151E+02 0.13551844575E+02
 0.11079021079E+02 0.88060721458E+01 0.68723184504E+01 0.53257448949E+01 0.41430790184E+01
 0.32697266478E+01 0.26485443879E+01 0.22340152664E+01 0.19960240470E+01 0.19183610028E+01
 0.19960256730E+01 0.22340159726E+01 0.26485444293E+01 0.32697260327E+01 0.41430705404E+01
 0.53257221212E+01 0.68722926818E+01 0.88060684474E+01 0.11079049394E+02 0.13551882762E+02
 0.18223793094E+02 0.19974658271E+02 0.20911498179E+02 0.20911515216E+02 0.19974697271E+02
 0.18223823875E+02 0.15903490940E+02 0.13337633164E+02 0.10834069994E+02 0.85922643412E+01
 0.67182707791E+01 0.52470085329E+01 0.41430859650E+01 0.33438927878E+01 0.27900363801E+01
 0.24393238177E+01 0.22685344976E+01 0.22685386388E+01 0.24393340346E+01 0.27900464931E+01
 0.33438937560E+01 0.41430705404E+01 0.52469816893E+01 0.67182543902E+01 0.85922806250E+01
 0.10834114936E+02 0.13337673882E+02 0.15903496082E+02 0.19833742606E+02 0.20934188217E+02
 0.21298631588E+02 0.20934199124E+02 0.19833766735E+02 0.18033066965E+02 0.15704176860E+02
 0.13151915380E+02 0.10691109023E+02 0.85166195588E+01 0.67182481100E+01 0.53257204281E+01
 0.42972212044E+01 0.35667772265E+01 0.30771443430E+01 0.27930858813E+01 0.26995564507E+01
 0.27930859198E+01 0.30771465123E+01 0.35667818266E+01 0.42972250079E+01 0.53257221212E+01
 0.67182543902E+01 0.85166388330E+01 0.10691136140E+02 0.13151930408E+02 0.15704166006E+02
 0.18033039268E+02 0.20198353723E+02 0.20542574756E+02 0.20542568280E+02 0.20198342018E+02
 0.19313862444E+02 0.17730645660E+02 0.15542373490E+02 0.13076933514E+02 0.10691128678E+02
 0.85922611726E+01 0.68722708987E+01 0.55587177857E+01 0.46042628431E+01 0.39420405246E+01
 0.35204329137E+01 0.33134556433E+01 0.33134512437E+01 0.35204225231E+01 0.39420315763E+01
 0.46042635938E+01 0.55587315006E+01 0.68722926818E+01 0.85922806250E+01 0.10691136140E+02
 0.13076926014E+02 0.15542357750E+02 0.17730634775E+02 0.19313865244E+02 0.19139098591E+02
 0.19010745369E+02 0.19139100135E+02 0.19268301230E+02 0.18865286724E+02 0.17587682859E+02
 0.15542361132E+02 0.13151935268E+02 0.10834113772E+02 0.88060633652E+01 0.71696803335E+01
 0.59425606006E+01 0.50686115875E+01 0.44819232621E+01 0.41399339838E+01 0.40267792596E+01
 0.41399321722E+01 0.44819178617E+01 0.50686032773E+01 0.59425546095E+01 0.71696813222E+01
 0.88060684474E+01 0.10834114936E+02 0.13151930408E+02 0.15542357750E+02 0.17587687235E+02
 0.18865294447E+02 0.19268304191E+02 0.17294672084E+02 0.17294685308E+02 0.18048635416E+02
 0.18851168645E+02 0.18865300218E+02 0.17730629138E+02 0.15704155069E+02 0.13337665100E+02
 0.11079052802E+02 0.91341001648E+01 0.76056286225E+01 0.64856408013E+01 0.57075195385E+01
 0.52107748564E+01 0.49657206223E+01 0.49657255461E+01 0.52107863895E+01 0.57075275937E+01
 0.64856343311E+01 0.76056088098E+01 0.91340822307E+01 0.11079049394E+02 0.13337673882E+02
 0.15704166006E+02 0.17730634775E+02 0.18865294447E+02 0.18851147484E+02 0.18048607654E+02
 0.15882016338E+02 0.16549528523E+02 0.18048606376E+02 0.19268318233E+02 0.19313888248E+02
 0.18033049620E+02 0.15903484148E+02 0.13551867137E+02 0.11381587942E+02 0.95721971497E+01
 0.81967968078E+01 0.72134166126E+01 0.65506047053E+01 0.61614814693E+01 0.60319472168E+01
 0.61614827461E+01 0.65506140081E+01 0.72134271874E+01 0.81967931016E+01 0.95721828723E+01
 0.11381585455E+02 0.13551882762E+02 0.15903496082E+02 0.18033039268E+02 0.19313865244E+02
 0.19268304191E+02 0.18048607654E+02 0.16549534637E+02 0.17648998562E+02 0.19139027350E+02
 0.20414118920E+02 0.20614270666E+02 0.19567034348E+02 0.17694486847E+02 0.15573181862E+02
 0.13586908115E+02 0.11928112108E+02 0.10666075108E+02 0.97534544429E+01 0.91223262746E+01
 0.87401042992E+01 0.86102053120E+01 0.87400761508E+01 0.91223039251E+01 0.97534590380E+01
 0.10666094968E+02 0.11928130111E+02 0.13586919889E+02 0.15573181505E+02 0.17694464716E+02
 0.19567003069E+02 0.20614270174E+02 0.20414176202E+02 0.19139119836E+02 0.17649068119E+02
 0.16994443296E+02 0.19139027350E+02 0.20542482269E+02 0.21298574878E+02 0.20911491261E+02
 0.19535407255E+02 0.17678751585E+02 0.15799961571E+02 0.14147178622E+02 0.12845508866E+02
 0.11878425191E+02 0.11174329814E+02 0.10690472430E+02 0.10435546065E+02 0.10435531701E+02
 0.10690444360E+02 0.11174314577E+02 0.11878432460E+02 0.12845528836E+02 0.14147196030E+02
 0.15799963123E+02 0.17678732498E+02 0.19535383789E+02 0.20911497029E+02 0.21298629890E+02
 0.20542568681E+02 0.19139102870E+02 0.18048638308E+02 0.18048609019E+02 0.20414118920E+02
 0.21298574878E+02 0.21377637459E+02 0.20543321139E+02 0.19123177630E+02 0.17544490679E+02
 0.16085743297E+02 0.14899539623E+02 0.13998374103E+02 0.13308248609E+02 0.12777174344E+02
 0.12421800326E+02 0.12294088771E+02 0.12421809188E+02 0.12777182691E+02 0.13308250764E+02
 0.13998374372E+02 0.14899541726E+02 0.16085740669E+02 0.17544477673E+02 0.19123167208E+02
 0.20543335721E+02 0.21377677010E+02 0.21298609322E+02 0.20414124035E+02 0.19348314854E+02
 0.18875977238E+02 0.19348326386E+02 0.20614270666E+02 0.20911491261E+02 0.20543321139E+02
 0.19638502438E+02 0.18511750168E+02 0.17421411186E+02 0.16521535758E+02 0.15836447394E+02
 0.15285535733E+02 0.14807277999E+02 0.14411308401E+02 0.14175223784E+02 0.14175243665E+02
 0.14411346476E+02 0.14807297838E+02 0.15285529184E+02 0.15836433106E+02 0.16521525737E+02
 0.17421401666E+02 0.18511743288E+02 0.19638511350E+02 0.20543343005E+02 0.20911494524E+02
 0.20614229543E+02 0.19904508156E+02 0.19324569193E+02 0.19324600568E+02 0.19904572249E+02
 0.19567034348E+02 0.19535407255E+02 0.19123177630E+02 0.18511750168E+02 0.17899083846E+02
 0.17421408426E+02 0.17095487112E+02 0.16828667411E+02 0.16531978577E+02 0.16185649472E+02
 0.15880421673E+02 0.15756231358E+02 0.15880449743E+02 0.16185671841E+02 0.16531973945E+02
 0.16828649258E+02 0.17095475928E+02 0.17421405256E+02 0.17899080853E+02 0.18511747569E+02
 0.19123176264E+02 0.19535397279E+02 0.19567005833E+02 0.19227969611E+02 0.18780861556E+02
 0.18577464818E+02 0.18780890686E+02 0.19228009464E+02 0.17694486847E+02 0.17678751585E+02
 0.17544490679E+02 0.17421411186E+02 0.17421408426E+02 0.17544486577E+02 0.17678750500E+02
 0.17694485155E+02 0.17514851233E+02 0.17208937031E+02 0.16970794100E+02 0.16970803731E+02
 0.17208951510E+02 0.17514849627E+02 0.17694469802E+02 0.17678738613E+02 0.17544484946E+02
 0.17421411669E+02 0.17421413638E+02 0.17544486679E+02 0.17678735882E+02 0.17694466716E+02
 0.17514850570E+02 0.17208952906E+02 0.16970802038E+02 0.16970793741E+02 0.17208942016E+02
 0.17514856970E+02 0.15573181862E+02 0.15799961571E+02 0.16085743297E+02 0.16521535758E+02
 0.17095487112E+02 0.17678750500E+02 0.18105090443E+02 0.18223823490E+02 0.18033046526E+02
 0.17730627045E+02 0.17587685953E+02 0.17730647754E+02 0.18033063871E+02 0.18223821782E+02
 0.18105076269E+02 0.17678736096E+02 0.17095479827E+02 0.16521541845E+02 0.16085761255E+02
 0.15799973706E+02 0.15573173146E+02 0.15324042487E+02 0.15036404927E+02 0.14784471788E+02
 0.14682222893E+02 0.14784464891E+02 0.15036409742E+02 0.15324060413E+02 0.13586908115E+02
 0.14147178622E+02 0.14899539623E+02 0.15836447394E+02 0.16828667411E+02 0.17694485155E+02
 0.18223823490E+02 0.18309290851E+02 0.18074172574E+02 0.17825388487E+02 0.17825405634E+02
 0.18074205016E+02 0.18309306494E+02 0.18223812803E+02 0.17694459597E+02 0.16828640645E+02
 0.15836434220E+02 0.14899555265E+02 0.14147218225E+02 0.13586939381E+02 0.13147282355E+02
 0.12768464429E+02 0.12458835854E+02 0.12276448742E+02 0.12276462055E+02 0.12458870231E+02
 0.12768498772E+02 0.13147287399E+02 0.11928112108E+02 0.12845508866E+02 0.13998374103E+02
 0.15285535733E+02 0.16531978577E+02 0.17514851233E+02 0.18033046526E+02 0.18074172574E+02
 0.17872909285E+02 0.17755079584E+02 0.17872919824E+02 0.18074175290E+02 0.18033032952E+02
 0.17514830746E+02 0.16531958380E+02 0.15285515267E+02 0.13998361721E+02 0.12845520529E+02
 0.11928145243E+02 0.11235983693E+02 0.10710990592E+02 0.10312943710E+02 0.10049019451E+02
 0.99546223128E+01 0.10049041213E+02 0.10312968004E+02 0.10710992316E+02 0.11235956575E+02
 0.10666075108E+02 0.11878425191E+02 0.13308248609E+02 0.14807277999E+02 0.16185649472E+02
 0.17208937031E+02 0.17730627045E+02 0.17825388487E+02 0.17755079584E+02 0.17755063865E+02
 0.17825349642E+02 0.17730587779E+02 0.17208920817E+02 0.16185658244E+02 0.14807288741E+02
 0.13308239905E+02 0.11878401041E+02 0.10666056043E+02 0.97210616023E+01 0.90136335433E+01
 0.84951083721E+01 0.81402389094E+01 0.79550890062E+01 0.79550792863E+01 0.81402156965E+01
 0.84950836740E+01 0.90136177556E+01 0.97210625374E+01 0.97534544429E+01 0.11174329814E+02
 0.12777174344E+02 0.14411308401E+02 0.15880421673E+02 0.16970794100E+02 0.17587685953E+02
 0.17825405634E+02 0.17872919824E+02 0.17825349642E+02 0.17587620136E+02 0.16970766818E+02
 0.15880441687E+02 0.14411345566E+02 0.12777193829E+02 0.11174318718E+02 0.97534206803E+01
 0.86042669296E+01 0.77268130616E+01 0.70800423160E+01 0.66258620019E+01 0.63498726091E+01
 0.62563082763E+01 0.63498374814E+01 0.66258242930E+01 0.70800332941E+01 0.77268368611E+01
 0.86043062610E+01 0.91223262746E+01 0.10690472430E+02 0.12421800326E+02 0.14175223784E+02
 0.15756231358E+02 0.16970803731E+02 0.17730647754E+02 0.18074205016E+02 0.18074175290E+02
 0.17730587779E+02 0.16970766818E+02 0.15756237240E+02 0.14175248962E+02 0.12421817086E+02
 0.10690476641E+02 0.91223246340E+01 0.78202318454E+01 0.68039976630E+01 0.60424657149E+01
 0.54943825738E+01 0.51331299510E+01 0.49514699337E+01 0.49514646494E+01 0.51331246017E+01
 0.54943932385E+01 0.60424906392E+01 0.68040198676E+01 0.78202415786E+01 0.87401042992E+01
 0.10435546065E+02 0.12294088771E+02 0.14175243665E+02 0.15880449743E+02 0.17208951510E+02
 0.18033063871E+02 0.18309306494E+02 0.18033032952E+02 0.17208920817E+02 0.15880441687E+02
 0.14175248962E+02 0.12294088379E+02 0.10435540480E+02 0.87401092728E+01 0.73115830150E+01
 0.61792792186E+01 0.53180926720E+01 0.46857847328E+01 0.42480593791E+01 0.39877514312E+01
 0.39009239338E+01 0.39877732909E+01 0.42480888849E+01 0.46858025568E+01 0.53180874428E+01
 0.61792566281E+01 0.73115620620E+01 0.86102053120E+01 0.10435531701E+02 0.12421809188E+02
 0.14411346476E+02 0.16185671841E+02 0.17514849627E+02 0.18223821782E+02 0.18223812803E+02
 0.17514830746E+02 0.16185658244E+02 0.14411345566E+02 0.12421817086E+02 0.10435540480E+02
 0.86102106574E+01 0.70567586300E+01 0.58113980404E+01 0.48535397370E+01 0.41403094343E+01
 0.36315680324E+01 0.33013112856E+01 0.31378139592E+01 0.31378237714E+01 0.33013275595E+01
 0.36315688594E+01 0.41402914353E+01 0.48535182644E+01 0.58113856517E+01 0.70567536715E+01
 0.87400761508E+01 0.10690444360E+02 0.12777182691E+02 0.14807297838E+02 0.16531973945E+02
 0.17694469802E+02 0.18105076269E+02 0.17694459597E+02 0.16531958380E+02 0.14807288741E+02
 0.12777193829E+02 0.10690476641E+02 0.87401092728E+01 0.70567586300E+01 0.56887824708E+01
 0.46238131568E+01 0.38213837306E+01 0.32380541435E+01 0.28404164534E+01 0.26081748926E+01
 0.25316573244E+01 0.26081682436E+01 0.28403988816E+01 0.32380342981E+01 0.38213814204E+01
 0.46238326085E+01 0.56888005543E+01 0.70567500523E+01 0.91223039251E+01 0.11174314577E+02
 0.13308250764E+02 0.15285529184E+02 0.16828649258E+02 0.17678738613E+02 0.17678736096E+02
 0.16828640645E+02 0.15285515267E+02 0.13308239905E+02 0.11174318718E+02 0.91223246340E+01
 0.73115830150E+01 0.58113980404E+01 0.46238131568E+01 0.37157579756E+01 0.30447843390E+01
 0.25732643917E+01 0.22734386317E+01 0.21277328598E+01 0.21277275066E+01 0.22734262771E+01
 0.25732559547E+01 0.30447916357E+01 0.37157800191E+01 0.46238320070E+01 0.58113957276E+01
 0.73115616348E+01 0.97534590380E+01 0.11878432460E+02 0.13998374372E+02 0.15836433106E+02
 0.17095475928E+02 0.17544484946E+02 0.17095479827E+02 0.15836434220E+02 0.13998361721E+02
 0.11878401041E+02 0.97534206803E+01 0.78202318454E+01 0.61792792186E+01 0.48535397370E+01
 0.38213837306E+01 0.30447843390E+01 0.24854375321E+01 0.21109854517E+01 0.18968185492E+01
 0.18272453328E+01 0.18968248630E+01 0.21109987838E+01 0.24854518923E+01 0.30447866705E+01
 0.38213673346E+01 0.48535167747E+01 0.61792731149E+01 0.78202541645E+01 0.10666094968E+02
 0.12845528836E+02 0.14899541726E+02 0.16521525737E+02 0.17421405256E+02 0.17421411669E+02
 0.16521541845E+02 0.14899555265E+02 0.12845520529E+02 0.10666056043E+02 0.86042669296E+01
 0.68039976630E+01 0.53180926720E+01 0.41403094343E+01 0.32380541435E+01 0.25732643917E+01
 0.21109854517E+01 0.18217327902E+01 0.16832455618E+01 0.16832528904E+01 0.18217509677E+01
 0.21110019635E+01 0.25732620645E+01 0.32380268419E+01 0.41402752496E+01 0.53180831882E+01
 0.68040278682E+01 0.86043185176E+01 0.11928130111E+02 0.14147196030E+02 0.16085740669E+02
 0.17421401666E+02 0.17899080853E+02 0.17421413638E+02 0.16085761255E+02 0.14147218225E+02
 0.11928145243E+02 0.97210616023E+01 0.77268130616E+01 0.60424657149E+01 0.46857847328E+01
 0.36315680324E+01 0.28404164534E+01 0.22734386317E+01 0.18968185492E+01 0.16832455618E+01
 0.16142610415E+01 0.16832473093E+01 0.18968178892E+01 0.22734337101E+01 0.28404116621E+01
 0.36315701168E+01 0.46857958158E+01 0.60424806773E+01 0.77268229162E+01 0.97210593369E+01
 0.13586919889E+02 0.15799963123E+02 0.17544477673E+02 0.18511743288E+02 0.18511747569E+02
 0.17544486679E+02 0.15799973706E+02 0.13586939381E+02 0.11235983693E+02 0.90136335433E+01
 0.70800423160E+01 0.54943825738E+01 0.42480593791E+01 0.33013112856E+01 0.26081748926E+01
 0.21277328598E+01 0.18272453328E+01 0.16832528904E+01 0.16832473093E+01 0.18272294172E+01
 0.21277152028E+01 0.26081744148E+01 0.33013390942E+01 0.42480990317E+01 0.54944005841E+01
 0.70800220870E+01 0.90135912616E+01 0.11235947329E+02 0.15573181505E+02 0.17678732498E+02
 0.19123167208E+02 0.19638511350E+02 0.19123176264E+02 0.17678735882E+02 0.15573173146E+02
 0.13147282355E+02 0.10710990592E+02 0.84951083721E+01 0.66258620019E+01 0.51331299510E+01
 0.39877514312E+01 0.31378139592E+01 0.25316573244E+01 0.21277275066E+01 0.18968248630E+01
 0.18217509677E+01 0.18968178892E+01 0.21277152028E+01 0.25316494214E+01 0.31378217355E+01
 0.39877699612E+01 0.51331374368E+01 0.66258448343E+01 0.84950799271E+01 0.10710975833E+02
 0.13147287609E+02 0.17694464716E+02 0.19535383789E+02 0.20543335721E+02 0.20543343005E+02
 0.19535397279E+02 0.17694466716E+02 0.15324042487E+02 0.12768464429E+02 0.10312943710E+02
 0.81402389094E+01 0.63498726091E+01 0.49514699337E+01 0.39009239338E+01 0.31378237714E+01
 0.26081682436E+01 0.22734262771E+01 0.21109987838E+01 0.21110019635E+01 0.22734337101E+01
 0.26081744148E+01 0.31378217355E+01 0.39009089798E+01 0.49514453784E+01 0.63498524125E+01
 0.81402394065E+01 0.10312968242E+02 0.12768497447E+02 0.15324062316E+02 0.19567003069E+02
 0.20911497029E+02 0.21377677010E+02 0.20911494524E+02 0.19567005833E+02 0.17514850570E+02
 0.15036404927E+02 0.12458835854E+02 0.10049019451E+02 0.79550890062E+01 0.62563082763E+01
 0.49514646494E+01 0.39877732909E+01 0.33013275595E+01 0.28403988816E+01 0.25732559547E+01
 0.24854518923E+01 0.25732620645E+01 0.28404116621E+01 0.33013390942E+01 0.39877699612E+01
 0.49514453784E+01 0.62562924220E+01 0.79550967549E+01 0.10049047129E+02 0.12458859819E+02
 0.15036409816E+02 0.17514844163E+02 0.20614270174E+02 0.21298629890E+02 0.21298609322E+02
 0.20614229543E+02 0.19227969611E+02 0.17208952906E+02 0.14784471788E+02 0.12276448742E+02
 0.99546223128E+01 0.79550792863E+01 0.63498374814E+01 0.51331246017E+01 0.42480888849E+01
 0.36315688594E+01 0.32380342981E+01 0.30447916357E+01 0.30447866705E+01 0.32380268419E+01
 0.36315701168E+01 0.42480990317E+01 0.51331374368E+01 0.63498524125E+01 0.79550967549E+01
 0.99546316614E+01 0.12276436142E+02 0.14784443715E+02 0.17208938735E+02 0.19227990601E+02
 0.20414176202E+02 0.20542568681E+02 0.20414124035E+02 0.19904508156E+02 0.18780861556E+02
 0.16970802038E+02 0.14682222893E+02 0.12276462055E+02 0.10049041213E+02 0.81402156965E+01
 0.66258242930E+01 0.54943932385E+01 0.46858025568E+01 0.41402914353E+01 0.38213814204E+01
 0.37157800191E+01 0.38213673346E+01 0.41402752496E+01 0.46857958158E+01 0.54944005841E+01
 0.66258448343E+01 0.81402394065E+01 0.10049047129E+02 0.12276436142E+02 0.14682181756E+02
 0.16970785995E+02 0.18780895732E+02 0.19904574786E+02 0.19139119836E+02 0.19139102870E+02
 0.19348314854E+02 0.19324569193E+02 0.18577464818E+02 0.16970793741E+02 0.14784464891E+02
 0.12458870231E+02 0.10312968004E+02 0.84950836740E+01 0.70800332941E+01 0.60424906392E+01
 0.53180874428E+01 0.48535182644E+01 0.46238326085E+01 0.46238320070E+01 0.48535167747E+01
 0.53180831882E+01 0.60424806773E+01 0.70800220870E+01 0.84950799271E+01 0.10312968242E+02
 0.12458859819E+02 0.14784443715E+02 0.16970785995E+02 0.18577490994E+02 0.19324619245E+02
 0.19348359339E+02 0.17649068119E+02 0.18048638308E+02 0.18875977238E+02 0.19324600568E+02
 0.18780890686E+02 0.17208942016E+02 0.15036409742E+02 0.12768498772E+02 0.10710992316E+02
 0.90136177556E+01 0.77268368611E+01 0.68040198676E+01 0.61792566281E+01 0.58113856517E+01
 0.56888005543E+01 0.58113957276E+01 0.61792731149E+01 0.68040278682E+01 0.77268229162E+01
 0.90135912616E+01 0.10710975833E+02 0.12768497447E+02 0.15036409816E+02 0.17208938735E+02
 0.18780895732E+02 0.19324619245E+02 0.18875998256E+02 0.18048649959E+02 0.16994443296E+02
 0.18048609019E+02 0.19348326386E+02 0.19904572249E+02 0.19228009464E+02 0.17514856970E+02
 0.15324060413E+02 0.13147287399E+02 0.11235956575E+02 0.97210625374E+01 0.86043062610E+01
 0.78202415786E+01 0.73115620620E+01 0.70567536715E+01 0.70567500523E+01 0.73115616348E+01
 0.78202541645E+01 0.86043185176E+01 0.97210593369E+01 0.11235947329E+02 0.13147287609E+02
 0.15324062316E+02 0.17514844163E+02 0.19227990601E+02 0.19904574786E+02 0.19348359339E+02
 0.18048649959E+02 0.16994461365E+02 0.19178778755E+02 0.20198350028E+02 0.20614270056E+02
 0.20037303922E+02 0.18626355350E+02 0.16828668494E+02 0.15035736119E+02 0.13468118398E+02
 0.12237734921E+02 0.11323366753E+02 0.10657183552E+02 0.10199697439E+02 0.99590268682E+01
 0.99590147684E+01 0.10199674658E+02 0.10657174885E+02 0.11323381599E+02 0.12237761237E+02
 0.13468137888E+02 0.15035739143E+02 0.16828658058E+02 0.18626343514E+02 0.20037303004E+02
 0.20614282434E+02 0.20198366951E+02 0.19178790522E+02 0.18345623485E+02 0.18345619728E+02
 0.20198350028E+02 0.20934181406E+02 0.20911489768E+02 0.20042547359E+02 0.18638069168E+02
 0.17095486703E+02 0.15674736709E+02 0.14523246653E+02 0.13649817037E+02 0.12982012772E+02
 0.12468375449E+02 0.12124773956E+02 0.12001356278E+02 0.12124773286E+02 0.12468371549E+02
 0.12982010366E+02 0.13649825389E+02 0.14523263313E+02 0.15674745551E+02 0.17095479584E+02
 0.18638060588E+02 0.20042556972E+02 0.20911514819E+02 0.20934198538E+02 0.20198345460E+02
 0.19268307488E+02 0.18851172958E+02 0.19268320465E+02 0.20614270056E+02 0.20911489768E+02
 0.20543317303E+02 0.19638497585E+02 0.18511746657E+02 0.17421408692E+02 0.16521532922E+02
 0.15836445442E+02 0.15285536663E+02 0.14807280763E+02 0.14411310581E+02 0.14175225484E+02
 0.14175246119E+02 0.14411348571E+02 0.14807297823E+02 0.15285528214E+02 0.15836433345E+02
 0.16521526496E+02 0.17421401083E+02 0.18511742186E+02 0.19638511722E+02 0.20543344331E+02
 0.20911495277E+02 0.20614230655E+02 0.19904511197E+02 0.19324572715E+02 0.19324601989E+02
 0.19904571837E+02 0.20037303922E+02 0.20042547359E+02 0.19638497585E+02 0.19017922875E+02
 0.18391859385E+02 0.17899081753E+02 0.17557998813E+02 0.17276337869E+02 0.16961398284E+02
 0.16592302934E+02 0.16266372093E+02 0.16133656222E+02 0.16266407838E+02 0.16592331598E+02
 0.16961392598E+02 0.17276313405E+02 0.17557979514E+02 0.17899070354E+02 0.18391852536E+02
 0.19017926510E+02 0.19638509314E+02 0.20042543442E+02 0.20037263706E+02 0.19637955806E+02
 0.19132869996E+02 0.18905384602E+02 0.19132918462E+02 0.19638019870E+02 0.18626355350E+02
 0.18638069168E+02 0.18511746657E+02 0.18391859385E+02 0.18391857966E+02 0.18511743896E+02
 0.18638066741E+02 0.18626352316E+02 0.18390738783E+02 0.18014914542E+02 0.17727191062E+02
 0.17727192785E+02 0.18014910510E+02 0.18390719707E+02 0.18626328934E+02 0.18638054190E+02
 0.18511740285E+02 0.18391854082E+02 0.18391854708E+02 0.18511740676E+02 0.18638052800E+02
 0.18626327190E+02 0.18390719309E+02 0.18014910564E+02 0.17727192434E+02 0.17727192046E+02
 0.18014918185E+02 0.18390743178E+02 0.16828668494E+02 0.17095486703E+02 0.17421408692E+02
 0.17899081753E+02 0.18511743896E+02 0.19123171033E+02 0.19535403335E+02 0.19567030704E+02
 0.19228004657E+02 0.18780888464E+02 0.18577467356E+02 0.18780864948E+02 0.19227970669E+02
 0.19567006984E+02 0.19535400349E+02 0.19123178026E+02 0.18511746076E+02 0.17899079643E+02
 0.17421406641E+02 0.17095476558E+02 0.16828646899E+02 0.16531972185E+02 0.16185673537E+02
 0.15880452251E+02 0.15756232707E+02 0.15880424837E+02 0.16185655878E+02 0.16531983903E+02
 0.15035736119E+02 0.15674736709E+02 0.16521532922E+02 0.17557998813E+02 0.18638066741E+02
 0.19535403335E+02 0.19974698084E+02 0.19833781273E+02 0.19313886084E+02 0.18865300887E+02
 0.18865291997E+02 0.19313866237E+02 0.19833766095E+02 0.19974697273E+02 0.19535408839E+02
 0.18638064755E+02 0.17557992897E+02 0.16521539111E+02 0.15674754123E+02 0.15035743950E+02
 0.14525612662E+02 0.14083692680E+02 0.13719625752E+02 0.13503481429E+02 0.13503476204E+02
 0.13719621681E+02 0.14083701909E+02 0.14525622297E+02 0.13468118398E+02 0.14523246653E+02
 0.15836445442E+02 0.17276337869E+02 0.18626352316E+02 0.19567030704E+02 0.19833781273E+02
 0.19465447334E+02 0.18875057504E+02 0.18596629296E+02 0.18875047551E+02 0.19465433441E+02
 0.19833771684E+02 0.19567026499E+02 0.18626345170E+02 0.17276325020E+02 0.15836441133E+02
 0.14523265848E+02 0.13468151951E+02 0.12670533103E+02 0.12063141637E+02 0.11597888691E+02
 0.11286972578E+02 0.11175469958E+02 0.11286992324E+02 0.11597914058E+02 0.12063150048E+02
 0.12670512912E+02 0.12237734921E+02 0.13649817037E+02 0.15285536663E+02 0.16961398284E+02
 0.18390738783E+02 0.19228004657E+02 0.19313886084E+02 0.18875057504E+02 0.18435218620E+02
 0.18435200432E+02 0.18875014666E+02 0.19313844933E+02 0.19227985435E+02 0.18390739896E+02
 0.16961401965E+02 0.15285531280E+02 0.13649810045E+02 0.12237740835E+02 0.11134551780E+02
 0.10313169155E+02 0.97135242583E+01 0.93022886097E+01 0.90866440685E+01 0.90866487191E+01
 0.93022951795E+01 0.97135193701E+01 0.10313150164E+02 0.11134531922E+02 0.11323366753E+02
 0.12982012772E+02 0.14807280763E+02 0.16592302934E+02 0.18014914542E+02 0.18780888464E+02
 0.18865300887E+02 0.18596629296E+02 0.18435200432E+02 0.18596567407E+02 0.18865225297E+02
 0.18780849831E+02 0.18014924739E+02 0.16592335624E+02 0.14807301456E+02 0.12982005002E+02
 0.11323338595E+02 0.99672093129E+01 0.89361470097E+01 0.81834677059E+01 0.76584139568E+01
 0.73395945558E+01 0.72313359356E+01 0.73395716874E+01 0.76583813523E+01 0.81834456865E+01
 0.89361503072E+01 0.99672350358E+01 0.10657183552E+02 0.12468375449E+02 0.14411310581E+02
 0.16266372093E+02 0.17727191062E+02 0.18577467356E+02 0.18865291997E+02 0.18875047551E+02
 0.18875014666E+02 0.18865225297E+02 0.18577425598E+02 0.17727198244E+02 0.16266406309E+02
 0.14411340049E+02 0.12468384621E+02 0.10657169977E+02 0.91203631120E+01 0.79186254234E+01
 0.70259743323E+01 0.63901322831E+01 0.59733089952E+01 0.57637936340E+01 0.57637808105E+01
 0.59732824336E+01 0.63901172327E+01 0.70259866292E+01 0.79186577502E+01 0.91203941986E+01
 0.10199697439E+02 0.12124773956E+02 0.14175225484E+02 0.16133656222E+02 0.17727192784E+02
 0.18780864948E+02 0.19313866237E+02 0.19465433441E+02 0.19313844933E+02 0.18780849831E+02
 0.17727198244E+02 0.16133666904E+02 0.14175225302E+02 0.12124769406E+02 0.10199701302E+02
 0.85328157655E+01 0.72000951448E+01 0.61912504485E+01 0.54577203252E+01 0.49536397437E+01
 0.46544784497E+01 0.45546093372E+01 0.46544852998E+01 0.49536529566E+01 0.54577369035E+01
 0.61912624834E+01 0.72000949479E+01 0.85328070838E+01 0.99590268682E+01 0.12001356278E+02
 0.14175246119E+02 0.16266407838E+02 0.18014910510E+02 0.19227970669E+02 0.19833766095E+02
 0.19833771684E+02 0.19227985435E+02 0.18014924739E+02 0.16266406309E+02 0.14175225302E+02
 0.12001333285E+02 0.99590223661E+01 0.81765465118E+01 0.67317910866E+01 0.56222785445E+01
 0.48022253883E+01 0.42211594014E+01 0.38447023145E+01 0.36580439695E+01 0.36580567477E+01
 0.38447280461E+01 0.42211749700E+01 0.48022199009E+01 0.56222565841E+01 0.67317640773E+01
 0.81765291053E+01 0.99590147684E+01 0.12124773286E+02 0.14411348571E+02 0.16592331598E+02
 0.18390719707E+02 0.19567006984E+02 0.19974697273E+02 0.19567026499E+02 0.18390739896E+02
 0.16592335624E+02 0.14411340049E+02 0.12124769406E+02 0.99590223661E+01 0.80554850076E+01
 0.64967597120E+01 0.52858627916E+01 0.43795333144E+01 0.37243938979E+01 0.32782606838E+01
 0.30168771762E+01 0.29304722840E+01 0.30168843126E+01 0.32782587723E+01 0.37243783020E+01
 0.43795187555E+01 0.52858590846E+01 0.64967580240E+01 0.80554764790E+01 0.10199674658E+02
 0.12468371549E+02 0.14807297823E+02 0.16961392598E+02 0.18626328934E+02 0.19535400349E+02
 0.19535408839E+02 0.18626345170E+02 0.16961401965E+02 0.14807301456E+02 0.12468384621E+02
 0.10199701302E+02 0.81765465118E+01 0.64967597120E+01 0.51736000167E+01 0.41700691958E+01
 0.34333199650E+01 0.29162334500E+01 0.25861321969E+01 0.24248227030E+01 0.24248181351E+01
 0.25861175552E+01 0.29162147595E+01 0.34333155674E+01 0.41700897445E+01 0.51736285156E+01
 0.64967670878E+01 0.81765261347E+01 0.10657174885E+02 0.12982010366E+02 0.15285528214E+02
 0.17276313405E+02 0.18638054190E+02 0.19123178026E+02 0.18638064755E+02 0.17276325020E+02
 0.15285531280E+02 0.12982005002E+02 0.10657169977E+02 0.85328157655E+01 0.67317910866E+01
 0.52858627916E+01 0.41700691958E+01 0.33369261002E+01 0.27386725467E+01 0.23371794932E+01
 0.21062492345E+01 0.20308901526E+01 0.21062454867E+01 0.23371766207E+01 0.27386766142E+01
 0.33369380325E+01 0.41700815782E+01 0.52858670700E+01 0.67317879920E+01 0.85328142426E+01
 0.11323381599E+02 0.13649825389E+02 0.15836433345E+02 0.17557979514E+02 0.18511740285E+02
 0.18511746076E+02 0.17557992897E+02 0.15836441133E+02 0.13649810045E+02 0.11323338595E+02
 0.91203631120E+01 0.72000951448E+01 0.56222785445E+01 0.43795333144E+01 0.34333199650E+01
 0.27386725467E+01 0.22555891379E+01 0.19523720386E+01 0.18066517506E+01 0.18066576031E+01
 0.19523880859E+01 0.22556070745E+01 0.27386762181E+01 0.34332992424E+01 0.43795009694E+01
 0.56222649375E+01 0.72001195354E+01 0.91204128798E+01 0.12237761237E+02 0.14523263313E+02
 0.16521526496E+02 0.17899070354E+02 0.18391854082E+02 0.17899079643E+02 0.16521539111E+02
 0.14523265848E+02 0.12237740835E+02 0.99672093129E+01 0.79186254234E+01 0.61912504485E+01
 0.48022253883E+01 0.37243938979E+01 0.29162334500E+01 0.23371794932E+01 0.19523720386E+01
 0.17339964169E+01 0.16634240115E+01 0.17340072323E+01 0.19523870700E+01 0.23371856634E+01
 0.29162196883E+01 0.37243651714E+01 0.48022045139E+01 0.61912589766E+01 0.79186616926E+01
 0.99672492658E+01 0.13468137888E+02 0.15674745551E+02 0.17421401083E+02 0.18391852536E+02
 0.18391854708E+02 0.17421406641E+02 0.15674754123E+02 0.13468151951E+02 0.11134551780E+02
 0.89361470097E+01 0.70259743323E+01 0.54577203252E+01 0.42211594014E+01 0.32782606838E+01
 0.25861321969E+01 0.21062492345E+01 0.18066517506E+01 0.16634240115E+01 0.16634215155E+01
 0.18066447136E+01 0.21062414834E+01 0.25861320313E+01 0.32782734216E+01 0.42211786336E+01
 0.54577312069E+01 0.70259676159E+01 0.89361274519E+01 0.11134531404E+02 0.15035739143E+02
 0.17095479584E+02 0.18511742186E+02 0.19017926510E+02 0.18511740676E+02 0.17095476558E+02
 0.15035743950E+02 0.12670533103E+02 0.10313169155E+02 0.81834677059E+01 0.63901322831E+01
 0.49536397437E+01 0.38447023145E+01 0.30168771762E+01 0.24248227030E+01 0.20308901526E+01
 0.18066576031E+01 0.17340072323E+01 0.18066447136E+01 0.20308699724E+01 0.24248113869E+01
 0.30168922521E+01 0.38447401917E+01 0.49536699765E+01 0.63901246714E+01 0.81834238629E+01
 0.10313119911E+02 0.12670505588E+02 0.16828658058E+02 0.18638060588E+02 0.19638511722E+02
 0.19638509314E+02 0.18638052800E+02 0.16828646899E+02 0.14525612662E+02 0.12063141637E+02
 0.97135242583E+01 0.76584139568E+01 0.59733089952E+01 0.46544784497E+01 0.36580439695E+01
 0.29304722840E+01 0.24248181351E+01 0.21062454867E+01 0.19523880859E+01 0.19523870700E+01
 0.21062414834E+01 0.24248113869E+01 0.29304673517E+01 0.36580449815E+01 0.46544817086E+01
 0.59733051676E+01 0.76583996651E+01 0.97135081017E+01 0.12063135532E+02 0.14525619104E+02
 0.18626343514E+02 0.20042556972E+02 0.20543344331E+02 0.20042543442E+02 0.18626327190E+02
 0.16531972185E+02 0.14083692680E+02 0.11597888691E+02 0.93022886097E+01 0.73395945558E+01
 0.57637936340E+01 0.45546093372E+01 0.36580567477E+01 0.30168843126E+01 0.25861175552E+01
 0.23371766207E+01 0.22556070745E+01 0.23371856634E+01 0.25861320313E+01 0.30168922521E+01
 0.36580449815E+01 0.45545808100E+01 0.57637698154E+01 0.73395940482E+01 0.93023079677E+01
 0.11597910257E+02 0.14083707060E+02 0.16531984800E+02 0.20037303004E+02 0.20911514819E+02
 0.20911495277E+02 0.20037263706E+02 0.18390719309E+02 0.16185673537E+02 0.13719625752E+02
 0.11286972578E+02 0.90866440685E+01 0.72313359356E+01 0.57637808105E+01 0.46544852998E+01
 0.38447280461E+01 0.32782587723E+01 0.29162147595E+01 0.27386766142E+01 0.27386762181E+01
 0.29162196883E+01 0.32782734216E+01 0.38447401917E+01 0.46544817086E+01 0.57637698154E+01
 0.72313367733E+01 0.90866570949E+01 0.11286978540E+02 0.13719617406E+02 0.16185670936E+02
 0.18390743166E+02 0.20614282434E+02 0.20934198538E+02 0.20614230655E+02 0.19637955806E+02
 0.18014910564E+02 0.15880452251E+02 0.13503481429E+02 0.11175469958E+02 0.90866487191E+01
 0.73395716874E+01 0.59732824336E+01 0.49536529566E+01 0.42211749700E+01 0.37243783020E+01
 0.34333155674E+01 0.33369380325E+01 0.34332992424E+01 0.37243651714E+01 0.42211786336E+01
 0.49536699765E+01 0.59733051676E+01 0.73395940482E+01 0.90866570949E+01 0.11175448996E+02
 0.13503439499E+02 0.15880426833E+02 0.18014933627E+02 0.19638016959E+02 0.20198366951E+02
 0.20198345460E+02 0.19904511197E+02 0.19132869996E+02 0.17727192434E+02 0.15756232707E+02
 0.13503476204E+02 0.11286992324E+02 0.93022951795E+01 0.76583813523E+01 0.63901172327E+01
 0.54577369035E+01 0.48022199009E+01 0.43795187555E+01 0.41700897445E+01 0.41700815782E+01
 0.43795009694E+01 0.48022045139E+01 0.54577312069E+01 0.63901246714E+01 0.76583996651E+01
 0.93023079677E+01 0.11286978540E+02 0.13503439499E+02 0.15756208176E+02 0.17727210895E+02
 0.19132923962E+02 0.19904564741E+02 0.19178790523E+02 0.19268307488E+02 0.19324572715E+02
 0.18905384602E+02 0.17727192046E+02 0.15880424837E+02 0.13719621681E+02 0.11597914058E+02
 0.97135193701E+01 0.81834456865E+01 0.70259866292E+01 0.61912624834E+01 0.56222565841E+01
 0.52858590846E+01 0.51736285156E+01 0.52858670700E+01 0.56222649375E+01 0.61912589766E+01
 0.70259676159E+01 0.81834238629E+01 0.97135081017E+01 0.11597910257E+02 0.13719617406E+02
 0.15880426833E+02 0.17727210895E+02 0.18905411331E+02 0.19324587751E+02 0.19268308724E+02
 0.18345623485E+02 0.18851172958E+02 0.19324601989E+02 0.19132918462E+02 0.18014918185E+02
 0.16185655878E+02 0.14083701909E+02 0.12063150048E+02 0.10313150164E+02 0.89361503072E+01
 0.79186577502E+01 0.72000949479E+01 0.67317640773E+01 0.64967580240E+01 0.64967670878E+01
 0.67317879920E+01 0.72001195354E+01 0.79186616926E+01 0.89361274519E+01 0.10313119911E+02
 0.12063135532E+02 0.14083707060E+02 0.16185670936E+02 0.18014933627E+02 0.19132923962E+02
 0.19324587751E+02 0.18851146012E+02 0.18345609417E+02 0.18345619728E+02 0.19268320465E+02
 0.19904571837E+02 0.19638019870E+02 0.18390743178E+02 0.16531983903E+02 0.14525622297E+02
 0.12670512912E+02 0.11134531922E+02 0.99672350358E+01 0.91203941986E+01 0.85328070838E+01
 0.81765291053E+01 0.80554764790E+01 0.81765261347E+01 0.85328142426E+01 0.91204128798E+01
 0.99672492658E+01 0.11134531404E+02 0.12670505588E+02 0.14525619104E+02 0.16531984800E+02
 0.18390743166E+02 0.19638016959E+02 0.19904564741E+02 0.19268308724E+02 0.18345609417E+02
 0.17919067587E+02 0.19465447334E+02 0.19833781273E+02 0.19567030704E+02 0.18626352316E+02
 0.17276337869E+02 0.15836445442E+02 0.14523246653E+02 0.13468118398E+02 0.12670512912E+02
 0.12063150048E+02 0.11597914058E+02 0.11286992324E+02 0.11175469958E+02 0.11286972578E+02
 0.11597888691E+02 0.12063141637E+02 0.12670533103E+02 0.13468151951E+02 0.14523265848E+02
 0.15836441133E+02 0.17276325020E+02 0.18626345170E+02 0.19567026499E+02 0.19833771684E+02
 0.19465433441E+02 0.18875047551E+02 0.18596629296E+02 0.18875057504E+02 0.19833781273E+02
 0.19974698084E+02 0.19535403335E+02 0.18638066741E+02 0.17557998813E+02 0.16521532922E+02
 0.15674736709E+02 0.15035736119E+02 0.14525622297E+02 0.14083701909E+02 0.13719621681E+02
 0.13503476204E+02 0.13503481429E+02 0.13719625752E+02 0.14083692680E+02 0.14525612662E+02
 0.15035743950E+02 0.15674754123E+02 0.16521539111E+02 0.17557992897E+02 0.18638064755E+02
 0.19535408839E+02 0.19974697273E+02 0.19833766095E+02 0.19313866237E+02 0.18865291997E+02
 0.18865300887E+02 0.19313886084E+02 0.19567030704E+02 0.19535403335E+02 0.19123171033E+02
 0.18511743896E+02 0.17899081753E+02 0.17421408692E+02 0.17095486703E+02 0.16828668494E+02
 0.16531983903E+02 0.16185655878E+02 0.15880424837E+02 0.15756232707E+02 0.15880452251E+02
 0.16185673537E+02 0.16531972185E+02 0.16828646899E+02 0.17095476558E+02 0.17421406641E+02
 0.17899079643E+02 0.18511746076E+02 0.19123178026E+02 0.19535400349E+02 0.19567006984E+02
 0.19227970669E+02 0.18780864948E+02 0.18577467356E+02 0.18780888464E+02 0.19228004657E+02
 0.18626352316E+02 0.18638066741E+02 0.18511743896E+02 0.18391857966E+02 0.18391859385E+02
 0.18511746657E+02 0.18638069168E+02 0.18626355350E+02 0.18390743178E+02 0.18014918185E+02
 0.17727192046E+02 0.17727192434E+02 0.18014910564E+02 0.18390719309E+02 0.18626327190E+02
 0.18638052800E+02 0.18511740676E+02 0.18391854708E+02 0.18391854082E+02 0.18511740285E+02
 0.18638054190E+02 0.18626328934E+02 0.18390719707E+02 0.18014910510E+02 0.17727192785E+02
 0.17727191062E+02 0.18014914542E+02 0.18390738783E+02 0.17276337869E+02 0.17557998813E+02
 0.17899081753E+02 0.18391859385E+02 0.19017922875E+02 0.19638497585E+02 0.20042547359E+02
 0.20037303922E+02 0.19638019870E+02 0.19132918462E+02 0.18905384602E+02 0.19132869996E+02
 0.19637955806E+02 0.20037263706E+02 0.20042543442E+02 0.19638509314E+02 0.19017926510E+02
 0.18391852536E+02 0.17899070354E+02 0.17557979514E+02 0.17276313405E+02 0.16961392598E+02
 0.16592331598E+02 0.16266407838E+02 0.16133656222E+02 0.16266372093E+02 0.16592302934E+02
 0.16961398284E+02 0.15836445442E+02 0.16521532922E+02 0.17421408692E+02 0.18511746657E+02
 0.19638497585E+02 0.20543317303E+02 0.20911489768E+02 0.20614270056E+02 0.19904571837E+02
 0.19324601989E+02 0.19324572715E+02 0.19904511197E+02 0.20614230655E+02 0.20911495277E+02
 0.20543344331E+02 0.19638511722E+02 0.18511742186E+02 0.17421401083E+02 0.16521526496E+02
 0.15836433345E+02 0.15285528214E+02 0.14807297823E+02 0.14411348571E+02 0.14175246119E+02
 0.14175225484E+02 0.14411310581E+02 0.14807280763E+02 0.15285536663E+02 0.14523246653E+02
 0.15674736709E+02 0.17095486703E+02 0.18638069168E+02 0.20042547359E+02 0.20911489768E+02
 0.20934181406E+02 0.20198350028E+02 0.19268320465E+02 0.18851172958E+02 0.19268307488E+02
 0.20198345460E+02 0.20934198538E+02 0.20911514819E+02 0.20042556972E+02 0.18638060588E+02
 0.17095479584E+02 0.15674745551E+02 0.14523263313E+02 0.13649825389E+02 0.12982010366E+02
 0.12468371549E+02 0.12124773286E+02 0.12001356278E+02 0.12124773956E+02 0.12468375449E+02
 0.12982012772E+02 0.13649817037E+02 0.13468118398E+02 0.15035736119E+02 0.16828668494E+02
 0.18626355350E+02 0.20037303922E+02 0.20614270056E+02 0.20198350028E+02 0.19178778755E+02
 0.18345619728E+02 0.18345623485E+02 0.19178790522E+02 0.20198366951E+02 0.20614282434E+02
 0.20037303004E+02 0.18626343514E+02 0.16828658058E+02 0.15035739143E+02 0.13468137888E+02
 0.12237761237E+02 0.11323381599E+02 0.10657174885E+02 0.10199674658E+02 0.99590147684E+01
 0.99590268682E+01 0.10199697439E+02 0.10657183552E+02 0.11323366753E+02 0.12237734921E+02
 0.12670512912E+02 0.14525622297E+02 0.16531983903E+02 0.18390743178E+02 0.19638019870E+02
 0.19904571837E+02 0.19268320465E+02 0.18345619728E+02 0.17919067587E+02 0.18345609417E+02
 0.19268308724E+02 0.19904564741E+02 0.19638016959E+02 0.18390743166E+02 0.16531984800E+02
 0.14525619104E+02 0.12670505588E+02 0.11134531404E+02 0.99672492658E+01 0.91204128798E+01
 0.85328142426E+01 0.81765261347E+01 0.80554764790E+01 0.81765291053E+01 0.85328070838E+01
 0.91203941986E+01 0.99672350358E+01 0.11134531922E+02 0.12063150048E+02 0.14083701909E+02
 0.16185655878E+02 0.18014918185E+02 0.19132918462E+02 0.19324601989E+02 0.18851172958E+02
 0.18345623485E+02 0.18345609417E+02 0.18851146012E+02 0.19324587751E+02 0.19132923962E+02
 0.18014933627E+02 0.16185670936E+02 0.14083707060E+02 0.12063135532E+02 0.10313119911E+02
 0.89361274519E+01 0.79186616926E+01 0.72001195354E+01 0.67317879920E+01 0.64967670878E+01
 0.64967580240E+01 0.67317640773E+01 0.72000949479E+01 0.79186577502E+01 0.89361503072E+01
 0.10313150164E+02 0.11597914058E+02 0.13719621681E+02 0.15880424837E+02 0.17727192046E+02
 0.18905384602E+02 0.19324572715E+02 0.19268307488E+02 0.19178790523E+02 0.19268308724E+02
 0.19324587751E+02 0.18905411331E+02 0.17727210895E+02 0.15880426833E+02 0.13719617406E+02
 0.11597910257E+02 0.97135081017E+01 0.81834238629E+01 0.70259676159E+01 0.61912589766E+01
 0.56222649375E+01 0.52858670700E+01 0.51736285156E+01 0.52858590846E+01 0.56222565841E+01
 0.61912624834E+01 0.70259866292E+01 0.81834456865E+01 0.97135193701E+01 0.11286992324E+02
 0.13503476204E+02 0.15756232707E+02 0.17727192434E+02 0.19132869996E+02 0.19904511197E+02
 0.20198345460E+02 0.20198366951E+02 0.19904564741E+02 0.19132923962E+02 0.17727210895E+02
 0.15756208176E+02 0.13503439499E+02 0.11286978540E+02 0.93023079677E+01 0.76583996651E+01
 0.63901246714E+01 0.54577312069E+01 0.48022045139E+01 0.43795009694E+01 0.41700815782E+01
 0.41700897445E+01 0.43795187555E+01 0.48022199009E+01 0.54577369035E+01 0.63901172327E+01
 0.76583813523E+01 0.93022951795E+01 0.11175469958E+02 0.13503481429E+02 0.15880452251E+02
 0.18014910564E+02 0.19637955806E+02 0.20614230655E+02 0.20934198538E+02 0.20614282434E+02
 0.19638016959E+02 0.18014933627E+02 0.15880426833E+02 0.13503439499E+02 0.11175448996E+02
 0.90866570949E+01 0.73395940482E+01 0.59733051676E+01 0.49536699765E+01 0.42211786336E+01
 0.37243651714E+01 0.34332992424E+01 0.33369380325E+01 0.34333155674E+01 0.37243783020E+01
 0.42211749700E+01 0.49536529566E+01 0.59732824336E+01 0.73395716874E+01 0.90866487191E+01
 0.11286972578E+02 0.13719625752E+02 0.16185673537E+02 0.18390719309E+02 0.20037263706E+02
 0.20911495277E+02 0.20911514819E+02 0.20037303004E+02 0.18390743166E+02 0.16185670936E+02
 0.13719617406E+02 0.11286978540E+02 0.90866570949E+01 0.72313367733E+01 0.57637698154E+01
 0.46544817086E+01 0.38447401917E+01 0.32782734216E+01 0.29162196883E+01 0.27386762181E+01
 0.27386766142E+01 0.29162147595E+01 0.32782587723E+01 0.38447280461E+01 0.46544852998E+01
 0.57637808105E+01 0.72313359356E+01 0.90866440685E+01 0.11597888691E+02 0.14083692680E+02
 0.16531972185E+02 0.18626327190E+02 0.20042543442E+02 0.20543344331E+02 0.20042556972E+02
 0.18626343514E+02 0.16531984800E+02 0.14083707060E+02 0.11597910257E+02 0.93023079677E+01
 0.73395940482E+01 0.57637698154E+01 0.45545808100E+01 0.36580449815E+01 0.30168922521E+01
 0.25861320313E+01 0.23371856634E+01 0.22556070745E+01 0.23371766207E+01 0.25861175552E+01
 0.30168843126E+01 0.36580567477E+01 0.45546093372E+01 0.57637936340E+01 0.73395945558E+01
 0.93022886097E+01 0.12063141637E+02 0.14525612662E+02 0.16828646899E+02 0.18638052800E+02
 0.19638509314E+02 0.19638511722E+02 0.18638060588E+02 0.16828658058E+02 0.14525619104E+02
 0.12063135532E+02 0.97135081017E+01 0.76583996651E+01 0.59733051676E+01 0.46544817086E+01
 0.36580449815E+01 0.29304673517E+01 0.24248113869E+01 0.21062414834E+01 0.19523870700E+01
 0.19523880859E+01 0.21062454867E+01 0.24248181351E+01 0.29304722840E+01 0.36580439695E+01
 0.46544784497E+01 0.59733089952E+01 0.76584139568E+01 0.97135242583E+01 0.12670533103E+02
 0.15035743950E+02 0.17095476558E+02 0.18511740676E+02 0.19017926510E+02 0.18511742186E+02
 0.17095479584E+02 0.15035739143E+02 0.12670505588E+02 0.10313119911E+02 0.81834238629E+01
 0.63901246714E+01 0.49536699765E+01 0.38447401917E+01 0.30168922521E+01 0.24248113869E+01
 0.20308699724E+01 0.18066447136E+01 0.17340072323E+01 0.18066576031E+01 0.20308901526E+01
 0.24248227030E+01 0.30168771762E+01 0.38447023145E+01 0.49536397437E+01 0.63901322831E+01
 0.81834677059E+01 0.10313169155E+02 0.13468151951E+02 0.15674754123E+02 0.17421406641E+02
 0.18391854708E+02 0.18391852536E+02 0.17421401083E+02 0.15674745551E+02 0.13468137888E+02
 0.11134531404E+02 0.89361274519E+01 0.70259676159E+01 0.54577312069E+01 0.42211786336E+01
 0.32782734216E+01 0.25861320313E+01 0.21062414834E+01 0.18066447136E+01 0.16634215155E+01
 0.16634240115E+01 0.18066517506E+01 0.21062492345E+01 0.25861321969E+01 0.32782606838E+01
 0.42211594014E+01 0.54577203252E+01 0.70259743323E+01 0.89361470097E+01 0.11134551780E+02
 0.14523265848E+02 0.16521539111E+02 0.17899079643E+02 0.18391854082E+02 0.17899070354E+02
 0.16521526496E+02 0.14523263313E+02 0.12237761237E+02 0.99672492658E+01 0.79186616926E+01
 0.61912589766E+01 0.48022045139E+01 0.37243651714E+01 0.29162196883E+01 0.23371856634E+01
 0.19523870700E+01 0.17340072323E+01 0.16634240115E+01 0.17339964169E+01 0.19523720386E+01
 0.23371794932E+01 0.29162334500E+01 0.37243938979E+01 0.48022253883E+01 0.61912504485E+01
 0.79186254234E+01 0.99672093129E+01 0.12237740835E+02 0.15836441133E+02 0.17557992897E+02
 0.18511746076E+02 0.18511740285E+02 0.17557979514E+02 0.15836433345E+02 0.13649825389E+02
 0.11323381599E+02 0.91204128798E+01 0.72001195354E+01 0.56222649375E+01 0.43795009694E+01
 0.34332992424E+01 0.27386762181E+01 0.22556070745E+01 0.19523880859E+01 0.18066576031E+01
 0.18066517506E+01 0.19523720386E+01 0.22555891379E+01 0.27386725467E+01 0.34333199650E+01
 0.43795333144E+01 0.56222785445E+01 0.72000951448E+01 0.91203631120E+01 0.11323338595E+02
 0.13649810045E+02 0.17276325020E+02 0.18638064755E+02 0.19123178026E+02 0.18638054190E+02
 0.17276313405E+02 0.15285528214E+02 0.12982010366E+02 0.10657174885E+02 0.85328142426E+01
 0.67317879920E+01 0.52858670700E+01 0.41700815782E+01 0.33369380325E+01 0.27386766142E+01
 0.23371766207E+01 0.21062454867E+01 0.20308901526E+01 0.21062492345E+01 0.23371794932E+01
 0.27386725467E+01 0.33369261002E+01 0.41700691958E+01 0.52858627916E+01 0.67317910866E+01
 0.85328157655E+01 0.10657169977E+02 0.12982005002E+02 0.15285531280E+02 0.18626345170E+02
 0.19535408839E+02 0.19535400349E+02 0.18626328934E+02 0.16961392598E+02 0.14807297823E+02
 0.12468371549E+02 0.10199674658E+02 0.81765261347E+01 0.64967670878E+01 0.51736285156E+01
 0.41700897445E+01 0.34333155674E+01 0.29162147595E+01 0.25861175552E+01 0.24248181351E+01
 0.24248227030E+01 0.25861321969E+01 0.29162334500E+01 0.34333199650E+01 0.41700691958E+01
 0.51736000167E+01 0.64967597120E+01 0.81765465118E+01 0.10199701302E+02 0.12468384621E+02
 0.14807301456E+02 0.16961401965E+02 0.19567026499E+02 0.19974697273E+02 0.19567006984E+02
 0.18390719707E+02 0.16592331598E+02 0.14411348571E+02 0.12124773286E+02 0.99590147684E+01
 0.80554764790E+01 0.64967580240E+01 0.52858590846E+01 0.43795187555E+01 0.37243783020E+01
 0.32782587723E+01 0.30168843126E+01 0.29304722840E+01 0.30168771762E+01 0.32782606838E+01
 0.37243938979E+01 0.43795333144E+01 0.52858627916E+01 0.64967597120E+01 0.80554850076E+01
 0.99590223661E+01 0.12124769406E+02 0.14411340049E+02 0.16592335624E+02 0.18390739896E+02
 0.19833771684E+02 0.19833766095E+02 0.19227970669E+02 0.18014910510E+02 0.16266407838E+02
 0.14175246119E+02 0.12001356278E+02 0.99590268682E+01 0.81765291053E+01 0.67317640773E+01
 0.56222565841E+01 0.48022199009E+01 0.42211749700E+01 0.38447280461E+01 0.36580567477E+01
 0.36580439695E+01 0.38447023145E+01 0.42211594014E+01 0.48022253883E+01 0.56222785445E+01
 0.67317910866E+01 0.81765465118E+01 0.99590223661E+01 0.12001333285E+02 0.14175225302E+02
 0.16266406309E+02 0.18014924739E+02 0.19227985435E+02 0.19465433441E+02 0.19313866237E+02
 0.18780864948E+02 0.17727192784E+02 0.16133656222E+02 0.14175225484E+02 0.12124773956E+02
 0.10199697439E+02 0.85328070838E+01 0.72000949479E+01 0.61912624834E+01 0.54577369035E+01
 0.49536529566E+01 0.46544852998E+01 0.45546093372E+01 0.46544784497E+01 0.49536397437E+01
 0.54577203252E+01 0.61912504485E+01 0.72000951448E+01 0.85328157655E+01 0.10199701302E+02
 0.12124769406E+02 0.14175225302E+02 0.16133666904E+02 0.17727198244E+02 0.18780849831E+02
 0.19313844933E+02 0.18875047551E+02 0.18865291997E+02 0.18577467356E+02 0.17727191062E+02
 0.16266372093E+02 0.14411310581E+02 0.12468375449E+02 0.10657183552E+02 0.91203941986E+01
 0.79186577502E+01 0.70259866292E+01 0.63901172327E+01 0.59732824336E+01 0.57637808105E+01
 0.57637936340E+01 0.59733089952E+01 0.63901322831E+01 0.70259743323E+01 0.79186254234E+01
 0.91203631120E+01 0.10657169977E+02 0.12468384621E+02 0.14411340049E+02 0.16266406309E+02
 0.17727198244E+02 0.18577425598E+02 0.18865225297E+02 0.18875014666E+02 0.18596629296E+02
 0.18865300887E+02 0.18780888464E+02 0.18014914542E+02 0.16592302934E+02 0.14807280763E+02
 0.12982012772E+02 0.11323366753E+02 0.99672350358E+01 0.89361503072E+01 0.81834456865E+01
 0.76583813523E+01 0.73395716874E+01 0.72313359356E+01 0.73395945558E+01 0.76584139568E+01
 0.81834677059E+01 0.89361470097E+01 0.99672093129E+01 0.11323338595E+02 0.12982005002E+02
 0.14807301456E+02 0.16592335624E+02 0.18014924739E+02 0.18780849831E+02 0.18865225297E+02
 0.18596567407E+02 0.18435200432E+02 0.18875057504E+02 0.19313886084E+02 0.19228004657E+02
 0.18390738783E+02 0.16961398284E+02 0.15285536663E+02 0.13649817037E+02 0.12237734921E+02
 0.11134531922E+02 0.10313150164E+02 0.97135193701E+01 0.93022951795E+01 0.90866487191E+01
 0.90866440685E+01 0.93022886097E+01 0.97135242583E+01 0.10313169155E+02 0.11134551780E+02
 0.12237740835E+02 0.13649810045E+02 0.15285531280E+02 0.16961401965E+02 0.18390739896E+02
 0.19227985435E+02 0.19313844933E+02 0.18875014666E+02 0.18435200432E+02 0.18435218620E+02
 0.18309290851E+02 0.18223823490E+02 0.17694485155E+02 0.16828667411E+02 0.15836447394E+02
 0.14899539623E+02 0.14147178622E+02 0.13586908115E+02 0.13147287399E+02 0.12768498772E+02
 0.12458870231E+02 0.12276462055E+02 0.12276448742E+02 0.12458835854E+02 0.12768464429E+02
 0.13147282355E+02 0.13586939381E+02 0.14147218225E+02 0.14899555265E+02 0.15836434220E+02
 0.16828640645E+02 0.17694459597E+02 0.18223812803E+02 0.18309306494E+02 0.18074205016E+02
 0.17825405634E+02 0.17825388487E+02 0.18074172574E+02 0.18223823490E+02 0.18105090443E+02
 0.17678750500E+02 0.17095487112E+02 0.16521535758E+02 0.16085743297E+02 0.15799961571E+02
 0.15573181862E+02 0.15324060413E+02 0.15036409742E+02 0.14784464891E+02 0.14682222893E+02
 0.14784471788E+02 0.15036404927E+02 0.15324042487E+02 0.15573173146E+02 0.15799973706E+02
 0.16085761255E+02 0.16521541845E+02 0.17095479827E+02 0.17678736096E+02 0.18105076269E+02
 0.18223821782E+02 0.18033063871E+02 0.17730647754E+02 0.17587685953E+02 0.17730627045E+02
 0.18033046526E+02 0.17694485155E+02 0.17678750500E+02 0.17544486577E+02 0.17421408426E+02
 0.17421411186E+02 0.17544490679E+02 0.17678751585E+02 0.17694486847E+02 0.17514856970E+02
 0.17208942016E+02 0.16970793741E+02 0.16970802038E+02 0.17208952906E+02 0.17514850570E+02
 0.17694466716E+02 0.17678735882E+02 0.17544486679E+02 0.17421413638E+02 0.17421411669E+02
 0.17544484946E+02 0.17678738613E+02 0.17694469802E+02 0.17514849627E+02 0.17208951510E+02
 0.16970803731E+02 0.16970794100E+02 0.17208937031E+02 0.17514851233E+02 0.16828667411E+02
 0.17095487112E+02 0.17421408426E+02 0.17899083846E+02 0.18511750168E+02 0.19123177630E+02
 0.19535407255E+02 0.19567034348E+02 0.19228009464E+02 0.18780890686E+02 0.18577464818E+02
 0.18780861556E+02 0.19227969611E+02 0.19567005833E+02 0.19535397279E+02 0.19123176264E+02
 0.18511747569E+02 0.17899080853E+02 0.17421405256E+02 0.17095475928E+02 0.16828649258E+02
 0.16531973945E+02 0.16185671841E+02 0.15880449743E+02 0.15756231358E+02 0.15880421673E+02
 0.16185649472E+02 0.16531978577E+02 0.15836447394E+02 0.16521535758E+02 0.17421411186E+02
 0.18511750168E+02 0.19638502438E+02 0.20543321139E+02 0.20911491261E+02 0.20614270666E+02
 0.19904572249E+02 0.19324600568E+02 0.19324569193E+02 0.19904508156E+02 0.20614229543E+02
 0.20911494524E+02 0.20543343005E+02 0.19638511350E+02 0.18511743288E+02 0.17421401666E+02
 0.16521525737E+02 0.15836433106E+02 0.15285529184E+02 0.14807297838E+02 0.14411346476E+02
 0.14175243665E+02 0.14175223784E+02 0.14411308401E+02 0.14807277999E+02 0.15285535733E+02
 0.14899539623E+02 0.16085743297E+02 0.17544490679E+02 0.19123177630E+02 0.20543321139E+02
 0.21377637459E+02 0.21298574878E+02 0.20414118920E+02 0.19348326386E+02 0.18875977238E+02
 0.19348314854E+02 0.20414124035E+02 0.21298609322E+02 0.21377677010E+02 0.20543335721E+02
 0.19123167208E+02 0.17544477673E+02 0.16085740669E+02 0.14899541726E+02 0.13998374372E+02
 0.13308250764E+02 0.12777182691E+02 0.12421809188E+02 0.12294088771E+02 0.12421800326E+02
 0.12777174344E+02 0.13308248609E+02 0.13998374103E+02 0.14147178622E+02 0.15799961571E+02
 0.17678751585E+02 0.19535407255E+02 0.20911491261E+02 0.21298574878E+02 0.20542482269E+02
 0.19139027350E+02 0.18048609019E+02 0.18048638308E+02 0.19139102870E+02 0.20542568681E+02
 0.21298629890E+02 0.20911497029E+02 0.19535383789E+02 0.17678732498E+02 0.15799963123E+02
 0.14147196030E+02 0.12845528836E+02 0.11878432460E+02 0.11174314577E+02 0.10690444360E+02
 0.10435531701E+02 0.10435546065E+02 0.10690472430E+02 0.11174329814E+02 0.11878425191E+02
 0.12845508866E+02 0.13586908115E+02 0.15573181862E+02 0.17694486847E+02 0.19567034348E+02
 0.20614270666E+02 0.20414118920E+02 0.19139027350E+02 0.17648998562E+02 0.16994443296E+02
 0.17649068119E+02 0.19139119836E+02 0.20414176202E+02 0.20614270174E+02 0.19567003069E+02
 0.17694464716E+02 0.15573181505E+02 0.13586919889E+02 0.11928130111E+02 0.10666094968E+02
 0.97534590380E+01 0.91223039251E+01 0.87400761508E+01 0.86102053120E+01 0.87401042992E+01
 0.91223262746E+01 0.97534544429E+01 0.10666075108E+02 0.11928112108E+02 0.13147287399E+02
 0.15324060413E+02 0.17514856970E+02 0.19228009464E+02 0.19904572249E+02 0.19348326386E+02
 0.18048609019E+02 0.16994443296E+02 0.16994461365E+02 0.18048649959E+02 0.19348359339E+02
 0.19904574786E+02 0.19227990601E+02 0.17514844163E+02 0.15324062316E+02 0.13147287609E+02
 0.11235947329E+02 0.97210593369E+01 0.86043185176E+01 0.78202541645E+01 0.73115616348E+01
 0.70567500523E+01 0.70567536715E+01 0.73115620620E+01 0.78202415786E+01 0.86043062610E+01
 0.97210625374E+01 0.11235956575E+02 0.12768498772E+02 0.15036409742E+02 0.17208942016E+02
 0.18780890686E+02 0.19324600568E+02 0.18875977238E+02 0.18048638308E+02 0.17649068119E+02
 0.18048649959E+02 0.18875998256E+02 0.19324619245E+02 0.18780895732E+02 0.17208938735E+02
 0.15036409816E+02 0.12768497447E+02 0.10710975833E+02 0.90135912616E+01 0.77268229162E+01
 0.68040278682E+01 0.61792731149E+01 0.58113957276E+01 0.56888005543E+01 0.58113856517E+01
 0.61792566281E+01 0.68040198676E+01 0.77268368611E+01 0.90136177556E+01 0.10710992316E+02
 0.12458870231E+02 0.14784464891E+02 0.16970793741E+02 0.18577464818E+02 0.19324569193E+02
 0.19348314854E+02 0.19139102870E+02 0.19139119836E+02 0.19348359339E+02 0.19324619245E+02
 0.18577490994E+02 0.16970785995E+02 0.14784443715E+02 0.12458859819E+02 0.10312968242E+02
 0.84950799271E+01 0.70800220870E+01 0.60424806773E+01 0.53180831882E+01 0.48535167747E+01
 0.46238320070E+01 0.46238326085E+01 0.48535182644E+01 0.53180874428E+01 0.60424906392E+01
 0.70800332941E+01 0.84950836740E+01 0.10312968004E+02 0.12276462055E+02 0.14682222893E+02
 0.16970802038E+02 0.18780861556E+02 0.19904508156E+02 0.20414124035E+02 0.20542568681E+02
 0.20414176202E+02 0.19904574786E+02 0.18780895732E+02 0.16970785995E+02 0.14682181756E+02
 0.12276436142E+02 0.10049047129E+02 0.81402394065E+01 0.66258448343E+01 0.54944005841E+01
 0.46857958158E+01 0.41402752496E+01 0.38213673346E+01 0.37157800191E+01 0.38213814204E+01
 0.41402914353E+01 0.46858025568E+01 0.54943932385E+01 0.66258242930E+01 0.81402156965E+01
 0.10049041213E+02 0.12276448742E+02 0.14784471788E+02 0.17208952906E+02 0.19227969611E+02
 0.20614229543E+02 0.21298609322E+02 0.21298629890E+02 0.20614270174E+02 0.19227990601E+02
 0.17208938735E+02 0.14784443715E+02 0.12276436142E+02 0.99546316614E+01 0.79550967549E+01
 0.63498524125E+01 0.51331374368E+01 0.42480990317E+01 0.36315701168E+01 0.32380268419E+01
 0.30447866705E+01 0.30447916357E+01 0.32380342981E+01 0.36315688594E+01 0.42480888849E+01
 0.51331246017E+01 0.63498374814E+01 0.79550792863E+01 0.99546223128E+01 0.12458835854E+02
 0.15036404927E+02 0.17514850570E+02 0.19567005833E+02 0.20911494524E+02 0.21377677010E+02
 0.20911497029E+02 0.19567003069E+02 0.17514844163E+02 0.15036409816E+02 0.12458859819E+02
 0.10049047129E+02 0.79550967549E+01 0.62562924220E+01 0.49514453784E+01 0.39877699612E+01
 0.33013390942E+01 0.28404116621E+01 0.25732620645E+01 0.24854518923E+01 0.25732559547E+01
 0.28403988816E+01 0.33013275595E+01 0.39877732909E+01 0.49514646494E+01 0.62563082763E+01
 0.79550890062E+01 0.10049019451E+02 0.12768464429E+02 0.15324042487E+02 0.17694466716E+02
 0.19535397279E+02 0.20543343005E+02 0.20543335721E+02 0.19535383789E+02 0.17694464716E+02
 0.15324062316E+02 0.12768497447E+02 0.10312968242E+02 0.81402394065E+01 0.63498524125E+01
 0.49514453784E+01 0.39009089798E+01 0.31378217355E+01 0.26081744148E+01 0.22734337101E+01
 0.21110019635E+01 0.21109987838E+01 0.22734262771E+01 0.26081682436E+01 0.31378237714E+01
 0.39009239338E+01 0.49514699337E+01 0.63498726091E+01 0.81402389094E+01 0.10312943710E+02
 0.13147282355E+02 0.15573173146E+02 0.17678735882E+02 0.19123176264E+02 0.19638511350E+02
 0.19123167208E+02 0.17678732498E+02 0.15573181505E+02 0.13147287609E+02 0.10710975833E+02
 0.84950799271E+01 0.66258448343E+01 0.51331374368E+01 0.39877699612E+01 0.31378217355E+01
 0.25316494214E+01 0.21277152028E+01 0.18968178892E+01 0.18217509677E+01 0.18968248630E+01
 0.21277275066E+01 0.25316573244E+01 0.31378139592E+01 0.39877514312E+01 0.51331299510E+01
 0.66258620019E+01 0.84951083721E+01 0.10710990592E+02 0.13586939381E+02 0.15799973706E+02
 0.17544486679E+02 0.18511747569E+02 0.18511743288E+02 0.17544477673E+02 0.15799963123E+02
 0.13586919889E+02 0.11235947329E+02 0.90135912616E+01 0.70800220870E+01 0.54944005841E+01
 0.42480990317E+01 0.33013390942E+01 0.26081744148E+01 0.21277152028E+01 0.18272294172E+01
 0.16832473093E+01 0.16832528904E+01 0.18272453328E+01 0.21277328598E+01 0.26081748926E+01
 0.33013112856E+01 0.42480593791E+01 0.54943825738E+01 0.70800423160E+01 0.90136335433E+01
 0.11235983693E+02 0.14147218225E+02 0.16085761255E+02 0.17421413638E+02 0.17899080853E+02
 0.17421401666E+02 0.16085740669E+02 0.14147196030E+02 0.11928130111E+02 0.97210593369E+01
 0.77268229162E+01 0.60424806773E+01 0.46857958158E+01 0.36315701168E+01 0.28404116621E+01
 0.22734337101E+01 0.18968178892E+01 0.16832473093E+01 0.16142610415E+01 0.16832455618E+01
 0.18968185492E+01 0.22734386317E+01 0.28404164534E+01 0.36315680324E+01 0.46857847328E+01
 0.60424657149E+01 0.77268130616E+01 0.97210616023E+01 0.11928145243E+02 0.14899555265E+02
 0.16521541845E+02 0.17421411669E+02 0.17421405256E+02 0.16521525737E+02 0.14899541726E+02
 0.12845528836E+02 0.10666094968E+02 0.86043185176E+01 0.68040278682E+01 0.53180831882E+01
 0.41402752496E+01 0.32380268419E+01 0.25732620645E+01 0.21110019635E+01 0.18217509677E+01
 0.16832528904E+01 0.16832455618E+01 0.18217327902E+01 0.21109854517E+01 0.25732643917E+01
 0.32380541435E+01 0.41403094343E+01 0.53180926720E+01 0.68039976630E+01 0.86042669296E+01
 0.10666056043E+02 0.12845520529E+02 0.15836434220E+02 0.17095479827E+02 0.17544484946E+02
 0.17095475928E+02 0.15836433106E+02 0.13998374372E+02 0.11878432460E+02 0.97534590380E+01
 0.78202541645E+01 0.61792731149E+01 0.48535167747E+01 0.38213673346E+01 0.30447866705E+01
 0.24854518923E+01 0.21109987838E+01 0.18968248630E+01 0.18272453328E+01 0.18968185492E+01
 0.21109854517E+01 0.24854375321E+01 0.30447843390E+01 0.38213837306E+01 0.48535397370E+01
 0.61792792186E+01 0.78202318454E+01 0.97534206803E+01 0.11878401041E+02 0.13998361721E+02
 0.16828640645E+02 0.17678736096E+02 0.17678738613E+02 0.16828649258E+02 0.15285529184E+02
 0.13308250764E+02 0.11174314577E+02 0.91223039251E+01 0.73115616348E+01 0.58113957276E+01
 0.46238320070E+01 0.37157800191E+01 0.30447916357E+01 0.25732559547E+01 0.22734262771E+01
 0.21277275066E+01 0.21277328598E+01 0.22734386317E+01 0.25732643917E+01 0.30447843390E+01
 0.37157579756E+01 0.46238131568E+01 0.58113980404E+01 0.73115830150E+01 0.91223246340E+01
 0.11174318718E+02 0.13308239905E+02 0.15285515267E+02 0.17694459597E+02 0.18105076269E+02
 0.17694469802E+02 0.16531973945E+02 0.14807297838E+02 0.12777182691E+02 0.10690444360E+02
 0.87400761508E+01 0.70567500523E+01 0.56888005543E+01 0.46238326085E+01 0.38213814204E+01
 0.32380342981E+01 0.28403988816E+01 0.26081682436E+01 0.25316573244E+01 0.26081748926E+01
 0.28404164534E+01 0.32380541435E+01 0.38213837306E+01 0.46238131568E+01 0.56887824708E+01
 0.70567586300E+01 0.87401092728E+01 0.10690476641E+02 0.12777193829E+02 0.14807288741E+02
 0.16531958380E+02 0.18223812803E+02 0.18223821782E+02 0.17514849627E+02 0.16185671841E+02
 0.14411346476E+02 0.12421809188E+02 0.10435531701E+02 0.86102053120E+01 0.70567536715E+01
 0.58113856517E+01 0.48535182644E+01 0.41402914353E+01 0.36315688594E+01 0.33013275595E+01
 0.31378237714E+01 0.31378139592E+01 0.33013112856E+01 0.36315680324E+01 0.41403094343E+01
 0.48535397370E+01 0.58113980404E+01 0.70567586300E+01 0.86102106574E+01 0.10435540480E+02
 0.12421817086E+02 0.14411345566E+02 0.16185658244E+02 0.17514830746E+02 0.18309306494E+02
 0.18033063871E+02 0.17208951510E+02 0.15880449743E+02 0.14175243665E+02 0.12294088771E+02
 0.10435546065E+02 0.87401042992E+01 0.73115620620E+01 0.61792566281E+01 0.53180874428E+01
 0.46858025568E+01 0.42480888849E+01 0.39877732909E+01 0.39009239338E+01 0.39877514312E+01
 0.42480593791E+01 0.46857847328E+01 0.53180926720E+01 0.61792792186E+01 0.73115830150E+01
 0.87401092728E+01 0.10435540480E+02 0.12294088379E+02 0.14175248962E+02 0.15880441687E+02
 0.17208920817E+02 0.18033032952E+02 0.18074205016E+02 0.17730647754E+02 0.16970803731E+02
 0.15756231358E+02 0.14175223784E+02 0.12421800326E+02 0.10690472430E+02 0.91223262746E+01
 0.78202415786E+01 0.68040198676E+01 0.60424906392E+01 0.54943932385E+01 0.51331246017E+01
 0.49514646494E+01 0.49514699337E+01 0.51331299510E+01 0.54943825738E+01 0.60424657149E+01
 0.68039976630E+01 0.78202318454E+01 0.91223246340E+01 0.10690476641E+02 0.12421817086E+02
 0.14175248962E+02 0.15756237240E+02 0.16970766818E+02 0.17730587779E+02 0.18074175290E+02
 0.17825405634E+02 0.17587685953E+02 0.16970794100E+02 0.15880421673E+02 0.14411308401E+02
 0.12777174344E+02 0.11174329814E+02 0.97534544429E+01 0.86043062610E+01 0.77268368611E+01
 0.70800332941E+01 0.66258242930E+01 0.63498374814E+01 0.62563082763E+01 0.63498726091E+01
 0.66258620019E+01 0.70800423160E+01 0.77268130616E+01 0.86042669296E+01 0.97534206803E+01
 0.11174318718E+02 0.12777193829E+02 0.14411345566E+02 0.15880441687E+02 0.16970766818E+02
 0.17587620136E+02 0.17825349642E+02 0.17872919824E+02 0.17825388487E+02 0.17730627045E+02
 0.17208937031E+02 0.16185649472E+02 0.14807277999E+02 0.13308248609E+02 0.11878425191E+02
 0.10666075108E+02 0.97210625374E+01 0.90136177556E+01 0.84950836740E+01 0.81402156965E+01
 0.79550792863E+01 0.79550890062E+01 0.81402389094E+01 0.84951083721E+01 0.90136335433E+01
 0.97210616023E+01 0.10666056043E+02 0.11878401041E+02 0.13308239905E+02 0.14807288741E+02
 0.16185658244E+02 0.17208920817E+02 0.17730587779E+02 0.17825349642E+02 0.17755063865E+02
 0.17755079584E+02 0.18074172574E+02 0.18033046526E+02 0.17514851233E+02 0.16531978577E+02
 0.15285535733E+02 0.13998374103E+02 0.12845508866E+02 0.11928112108E+02 0.11235956575E+02
 0.10710992316E+02 0.10312968004E+02 0.10049041213E+02 0.99546223128E+01 0.10049019451E+02
 0.10312943710E+02 0.10710990592E+02 0.11235983693E+02 0.11928145243E+02 0.12845520529E+02
 0.13998361721E+02 0.15285515267E+02 0.16531958380E+02 0.17514830746E+02 0.18033032952E+02
 0.18074175290E+02 0.17872919824E+02 0.17755079584E+02 0.17872909285E+02 0.16205674802E+02
 0.15999695192E+02 0.15573184956E+02 0.15035739822E+02 0.14523253390E+02 0.14147183408E+02
 0.13912461915E+02 0.13739645517E+02 0.13551867137E+02 0.13337665100E+02 0.13151935268E+02
 0.13076933514E+02 0.13151915380E+02 0.13337633164E+02 0.13551844575E+02 0.13739653370E+02
 0.13912496645E+02 0.14147219275E+02 0.14523268491E+02 0.15035729102E+02 0.15573155935E+02
 0.15999668462E+02 0.16205679302E+02 0.16179238293E+02 0.16042459143E+02 0.15969504734E+02
 0.16042414537E+02 0.16179195465E+02 0.15999695192E+02 0.15945034809E+02 0.15799963664E+02
 0.15674740296E+02 0.15674742722E+02 0.15799964749E+02 0.15945028537E+02 0.15999688313E+02
 0.15903484148E+02 0.15704155069E+02 0.15542361132E+02 0.15542373490E+02 0.15704176860E+02
 0.15903490940E+02 0.15999678151E+02 0.15945019611E+02 0.15799970182E+02 0.15674759444E+02
 0.15674756225E+02 0.15799966727E+02 0.15945022067E+02 0.15999680252E+02 0.15903486696E+02
 0.15704173069E+02 0.15542376985E+02 0.15542365961E+02 0.15704154866E+02 0.15903484698E+02
 0.15573184956E+02 0.15799963664E+02 0.16085740203E+02 0.16521533664E+02 0.17095490206E+02
 0.17678752593E+02 0.18105087349E+02 0.18223821397E+02 0.18033049619E+02 0.17730629138E+02
 0.17587682859E+02 0.17730645660E+02 0.18033066965E+02 0.18223823875E+02 0.18105073175E+02
 0.17678734003E+02 0.17095482920E+02 0.16521543938E+02 0.16085758161E+02 0.15799971612E+02
 0.15573176239E+02 0.15324044581E+02 0.15036401833E+02 0.14784469695E+02 0.14682225987E+02
 0.14784466984E+02 0.15036406649E+02 0.15324058319E+02 0.15035739822E+02 0.15674740296E+02
 0.16521533664E+02 0.17558001573E+02 0.18638073347E+02 0.19535407922E+02 0.19974697826E+02
 0.19833781132E+02 0.19313888248E+02 0.18865300218E+02 0.18865286724E+02 0.19313862444E+02
 0.19833766735E+02 0.19974697271E+02 0.19535405761E+02 0.18638063631E+02 0.17557995751E+02
 0.16521540446E+02 0.15674751613E+02 0.15035742959E+02 0.14525615383E+02 0.14083693447E+02
 0.13719621905E+02 0.13503478224E+02 0.13503476256E+02 0.13719620252E+02 0.14083697394E+02
 0.14525620616E+02 0.14523253390E+02 0.15674742722E+02 0.17095490206E+02 0.18638073347E+02
 0.20042552545E+02 0.20911491595E+02 0.20934178721E+02 0.20198346852E+02 0.19268318233E+02
 0.18851168645E+02 0.19268301230E+02 0.20198342018E+02 0.20934199124E+02 0.20911515216E+02
 0.20042555638E+02 0.18638060853E+02 0.17095482048E+02 0.15674746260E+02 0.14523261429E+02
 0.13649824789E+02 0.12982011697E+02 0.12468370572E+02 0.12124769041E+02 0.12001353127E+02
 0.12124773657E+02 0.12468375005E+02 0.12982011900E+02 0.13649819751E+02 0.14147183408E+02
 0.15799964749E+02 0.17678752593E+02 0.19535407922E+02 0.20911491595E+02 0.21298572869E+02
 0.20542478090E+02 0.19139023564E+02 0.18048606376E+02 0.18048635416E+02 0.19139100135E+02
 0.20542568280E+02 0.21298631588E+02 0.20911498179E+02 0.19535383782E+02 0.17678733136E+02
 0.15799964484E+02 0.14147196155E+02 0.12845527711E+02 0.11878432100E+02 0.11174314939E+02
 0.10690443367E+02 0.10435529550E+02 0.10435545368E+02 0.10690473831E+02 0.11174331549E+02
 0.11878427082E+02 0.12845512510E+02 0.13912461915E+02 0.15945028537E+02 0.18105087349E+02
 0.19974697826E+02 0.20934178721E+02 0.20542478090E+02 0.19010596859E+02 0.17294574568E+02
 0.16549528523E+02 0.17294685308E+02 0.19010745369E+02 0.20542574756E+02 0.20934188217E+02
 0.19974658271E+02 0.18105057453E+02 0.15945029217E+02 0.13912479318E+02 0.12210039187E+02
 0.10913962487E+02 0.99776126178E+01 0.93307806155E+01 0.89392434828E+01 0.88062135915E+01
 0.89392835020E+01 0.93308183725E+01 0.99776187608E+01 0.10913945887E+02 0.12210018035E+02
 0.13739645517E+02 0.15999688313E+02 0.18223821397E+02 0.19833781132E+02 0.20198346852E+02
 0.19139023564E+02 0.17294574568E+02 0.15881971833E+02 0.15882016338E+02 0.17294672084E+02
 0.19139098591E+02 0.20198353723E+02 0.19833742606E+02 0.18223793094E+02 0.15999693309E+02
 0.13739663135E+02 0.11741442957E+02 0.10150400404E+02 0.89783485154E+01 0.81578160864E+01
 0.76268012691E+01 0.73611132814E+01 0.73611285525E+01 0.76268267365E+01 0.81578224710E+01
 0.89783378740E+01 0.10150389885E+02 0.11741431567E+02 0.13551867137E+02 0.15903484148E+02
 0.18033049620E+02 0.19313888248E+02 0.19268318233E+02 0.18048606376E+02 0.16549528523E+02
 0.15882016338E+02 0.16549534637E+02 0.18048607654E+02 0.19268304191E+02 0.19313865244E+02
 0.18033039268E+02 0.15903496082E+02 0.13551882762E+02 0.11381585455E+02 0.95721828723E+01
 0.81967931016E+01 0.72134271874E+01 0.65506140081E+01 0.61614827461E+01 0.60319472168E+01
 0.61614814693E+01 0.65506047053E+01 0.72134166126E+01 0.81967968078E+01 0.95721971497E+01
 0.11381587942E+02 0.13337665100E+02 0.15704155069E+02 0.17730629138E+02 0.18865300218E+02
 0.18851168645E+02 0.18048635416E+02 0.17294685308E+02 0.17294672084E+02 0.18048607654E+02
 0.18851147484E+02 0.18865294447E+02 0.17730634775E+02 0.15704166006E+02 0.13337673882E+02
 0.11079049394E+02 0.91340822307E+01 0.76056088098E+01 0.64856343311E+01 0.57075275937E+01
 0.52107863895E+01 0.49657255461E+01 0.49657206223E+01 0.52107748564E+01 0.57075195385E+01
 0.64856408013E+01 0.76056286225E+01 0.91341001648E+01 0.11079052802E+02 0.13151935268E+02
 0.15542361132E+02 0.17587682859E+02 0.18865286724E+02 0.19268301230E+02 0.19139100135E+02
 0.19010745369E+02 0.19139098591E+02 0.19268304191E+02 0.18865294447E+02 0.17587687235E+02
 0.15542357750E+02 0.13151930408E+02 0.10834114936E+02 0.88060684474E+01 0.71696813222E+01
 0.59425546095E+01 0.50686032773E+01 0.44819178617E+01 0.41399321722E+01 0.40267792596E+01
 0.41399339838E+01 0.44819232621E+01 0.50686115875E+01 0.59425606006E+01 0.71696803335E+01
 0.88060633652E+01 0.10834113772E+02 0.13076933514E+02 0.15542373490E+02 0.17730645660E+02
 0.19313862444E+02 0.20198342018E+02 0.20542568280E+02 0.20542574756E+02 0.20198353723E+02
 0.19313865244E+02 0.17730634775E+02 0.15542357750E+02 0.13076926014E+02 0.10691136140E+02
 0.85922806250E+01 0.68722926818E+01 0.55587315006E+01 0.46042635938E+01 0.39420315763E+01
 0.35204225231E+01 0.33134512437E+01 0.33134556433E+01 0.35204329137E+01 0.39420405246E+01
 0.46042628431E+01 0.55587177857E+01 0.68722708987E+01 0.85922611726E+01 0.10691128678E+02
 0.13151915380E+02 0.15704176860E+02 0.18033066965E+02 0.19833766735E+02 0.20934199124E+02
 0.21298631588E+02 0.20934188217E+02 0.19833742606E+02 0.18033039268E+02 0.15704166006E+02
 0.13151930408E+02 0.10691136140E+02 0.85166388330E+01 0.67182543902E+01 0.53257221212E+01
 0.42972250079E+01 0.35667818266E+01 0.30771465123E+01 0.27930859198E+01 0.26995564507E+01
 0.27930858813E+01 0.30771443430E+01 0.35667772265E+01 0.42972212044E+01 0.53257204281E+01
 0.67182481100E+01 0.85166195588E+01 0.10691109023E+02 0.13337633164E+02 0.15903490940E+02
 0.18223823875E+02 0.19974697271E+02 0.20911515216E+02 0.20911498179E+02 0.19974658271E+02
 0.18223793094E+02 0.15903496082E+02 0.13337673882E+02 0.10834114936E+02 0.85922806250E+01
 0.67182543902E+01 0.52469816893E+01 0.41430705404E+01 0.33438937560E+01 0.27900464931E+01
 0.24393340346E+01 0.22685386388E+01 0.22685344976E+01 0.24393238177E+01 0.27900363801E+01
 0.33438927878E+01 0.41430859650E+01 0.52470085329E+01 0.67182707791E+01 0.85922643412E+01
 0.10834069994E+02 0.13551844575E+02 0.15999678151E+02 0.18105073175E+02 0.19535405761E+02
 0.20042555638E+02 0.19535383782E+02 0.18105057453E+02 0.15999693309E+02 0.13551882762E+02
 0.11079049394E+02 0.88060684474E+01 0.68722926818E+01 0.53257221212E+01 0.41430705404E+01
 0.32697260327E+01 0.26485444293E+01 0.22340159726E+01 0.19960256730E+01 0.19183610028E+01
 0.19960240470E+01 0.22340152664E+01 0.26485443879E+01 0.32697266478E+01 0.41430790184E+01
 0.53257448949E+01 0.68723184504E+01 0.88060721458E+01 0.11079021079E+02 0.13739653370E+02
 0.15945019611E+02 0.17678734003E+02 0.18638063631E+02 0.18638060853E+02 0.17678733136E+02
 0.15945029217E+02 0.13739663135E+02 0.11381585455E+02 0.91340822307E+01 0.71696813222E+01
 0.55587315006E+01 0.42972250079E+01 0.33438937560E+01 0.26485444293E+01 0.21667037023E+01
 0.18644355175E+01 0.17190287276E+01 0.17190333101E+01 0.18644490178E+01 0.21667186338E+01
 0.26485437124E+01 0.33438703467E+01 0.42971991993E+01 0.55587332707E+01 0.71697143920E+01
 0.91341181758E+01 0.11381597161E+02 0.13912496645E+02 0.15799970182E+02 0.17095482920E+02
 0.17557995751E+02 0.17095482048E+02 0.15799964484E+02 0.13912479318E+02 0.11741442957E+02
 0.95721828723E+01 0.76056088098E+01 0.59425546095E+01 0.46042635938E+01 0.35667818266E+01
 0.27900464931E+01 0.22340159726E+01 0.18644355175E+01 0.16545004389E+01 0.15865972091E+01
 0.16545075592E+01 0.18644502248E+01 0.22340290814E+01 0.27900413690E+01 0.35667538471E+01
 0.46042314386E+01 0.59425446728E+01 0.76056297544E+01 0.95722198880E+01 0.11741474987E+02
 0.14147219275E+02 0.15674759444E+02 0.16521543938E+02 0.16521540446E+02 0.15674746260E+02
 0.14147196155E+02 0.12210039187E+02 0.10150400404E+02 0.81967931016E+01 0.64856343311E+01
 0.50686032773E+01 0.39420315763E+01 0.30771465123E+01 0.24393340346E+01 0.19960256730E+01
 0.17190287276E+01 0.15865972091E+01 0.15865929871E+01 0.17190204701E+01 0.19960231568E+01
 0.24393435991E+01 0.30771628560E+01 0.39420391947E+01 0.50685902048E+01 0.64856063523E+01
 0.81967713320E+01 0.10150401622E+02 0.12210060017E+02 0.14523268491E+02 0.15674756225E+02
 0.16085758161E+02 0.15674751613E+02 0.14523261429E+02 0.12845527711E+02 0.10913962487E+02
 0.89783485154E+01 0.72134271874E+01 0.57075275937E+01 0.44819178617E+01 0.35204225231E+01
 0.27930859198E+01 0.22685386388E+01 0.19183610028E+01 0.17190333101E+01 0.16545075592E+01
 0.17190204701E+01 0.19183404087E+01 0.22685249923E+01 0.27930961015E+01 0.35204554108E+01
 0.44819468882E+01 0.57075232965E+01 0.72133879162E+01 0.89783021312E+01 0.10913936696E+02
 0.12845525679E+02 0.15035729102E+02 0.15799966727E+02 0.15799971612E+02 0.15035742959E+02
 0.13649824789E+02 0.11878432100E+02 0.99776126178E+01 0.81578160864E+01 0.65506140081E+01
 0.52107863895E+01 0.41399321722E+01 0.33134512437E+01 0.26995564507E+01 0.22685344976E+01
 0.19960240470E+01 0.18644490178E+01 0.18644502248E+01 0.19960231568E+01 0.22685249923E+01
 0.26995415478E+01 0.33134438867E+01 0.41399409452E+01 0.52108039802E+01 0.65506232803E+01
 0.81578068917E+01 0.99775894138E+01 0.11878406037E+02 0.13649803448E+02 0.15573155935E+02
 0.15945022067E+02 0.15573176239E+02 0.14525615383E+02 0.12982011697E+02 0.11174314939E+02
 0.93307806155E+01 0.76268012691E+01 0.61614827461E+01 0.49657255461E+01 0.40267792596E+01
 0.33134556433E+01 0.27930858813E+01 0.24393238177E+01 0.22340152664E+01 0.21667186338E+01
 0.22340290814E+01 0.24393435991E+01 0.27930961015E+01 0.33134438867E+01 0.40267522048E+01
 0.49657079891E+01 0.61614942468E+01 0.76268354899E+01 0.93308112972E+01 0.11174320501E+02
 0.12981991567E+02 0.14525585789E+02 0.15999668462E+02 0.15999680252E+02 0.15324044581E+02
 0.14083693447E+02 0.12468370572E+02 0.10690443367E+02 0.89392434828E+01 0.73611132814E+01
 0.60319472168E+01 0.49657206223E+01 0.41399339838E+01 0.35204329137E+01 0.30771443430E+01
 0.27900363801E+01 0.26485443879E+01 0.26485437124E+01 0.27900413690E+01 0.30771628560E+01
 0.35204554108E+01 0.41399409452E+01 0.49657079891E+01 0.60319346187E+01 0.73611228413E+01
 0.89392752366E+01 0.10690475175E+02 0.12468379840E+02 0.14083676852E+02 0.15324019195E+02
 0.16205679302E+02 0.15903486696E+02 0.15036401833E+02 0.13719621905E+02 0.12124769041E+02
 0.10435529550E+02 0.88062135915E+01 0.73611285525E+01 0.61614814693E+01 0.52107748564E+01
 0.44819232621E+01 0.39420405246E+01 0.35667772265E+01 0.33438927878E+01 0.32697266478E+01
 0.33438703467E+01 0.35667538471E+01 0.39420391947E+01 0.44819468882E+01 0.52108039802E+01
 0.61614942468E+01 0.73611228413E+01 0.88062070914E+01 0.10435537335E+02 0.12124784691E+02
 0.13719625661E+02 0.15036386462E+02 0.15903468512E+02 0.16179238293E+02 0.15704173069E+02
 0.14784469695E+02 0.13503478224E+02 0.12001353127E+02 0.10435545368E+02 0.89392835020E+01
 0.76268267365E+01 0.65506047053E+01 0.57075195385E+01 0.50686115875E+01 0.46042628431E+01
 0.42972212044E+01 0.41430859650E+01 0.41430790184E+01 0.42971991993E+01 0.46042314386E+01
 0.50685902048E+01 0.57075232965E+01 0.65506232803E+01 0.76268354899E+01 0.89392752366E+01
 0.10435537335E+02 0.12001359315E+02 0.13503488107E+02 0.14784464189E+02 0.15704153722E+02
 0.16179227352E+02 0.16042459143E+02 0.15542376985E+02 0.14682225987E+02 0.13503476256E+02
 0.12124773657E+02 0.10690473831E+02 0.93308183725E+01 0.81578224710E+01 0.72134166126E+01
 0.64856408013E+01 0.59425606006E+01 0.55587177857E+01 0.53257204281E+01 0.52470085329E+01
 0.53257448949E+01 0.55587332707E+01 0.59425446728E+01 0.64856063523E+01 0.72133879162E+01
 0.81578068917E+01 0.93308112972E+01 0.10690475175E+02 0.12124784691E+02 0.13503488107E+02
 0.14682225233E+02 0.15542362264E+02 0.16042444448E+02 0.16202912960E+02 0.15969504734E+02
 0.15542365961E+02 0.14784466984E+02 0.13719620252E+02 0.12468375005E+02 0.11174331549E+02
 0.99776187608E+01 0.89783378740E+01 0.81967968078E+01 0.76056286225E+01 0.71696803335E+01
 0.68722708987E+01 0.67182481100E+01 0.67182707791E+01 0.68723184504E+01 0.71697143920E+01
 0.76056297544E+01 0.81967713320E+01 0.89783021312E+01 0.99775894138E+01 0.11174320501E+02
 0.12468379840E+02 0.13719625661E+02 0.14784464189E+02 0.15542362264E+02 0.15969507270E+02
 0.16140747895E+02 0.16140745019E+02 0.16042414537E+02 0.15704154866E+02 0.15036406649E+02
 0.14083697394E+02 0.12982011900E+02 0.11878427082E+02 0.10913945887E+02 0.10150389885E+02
 0.95721971497E+01 0.91341001648E+01 0.88060633652E+01 0.85922611726E+01 0.85166195588E+01
 0.85922643412E+01 0.88060721458E+01 0.91341181758E+01 0.95722198880E+01 0.10150401622E+02
 0.10913936696E+02 0.11878406037E+02 0.12981991567E+02 0.14083676852E+02 0.15036386462E+02
 0.15704153722E+02 0.16042444448E+02 0.16140747895E+02 0.16149113192E+02 0.16140713037E+02
 0.16179195465E+02 0.15903484698E+02 0.15324058319E+02 0.14525620616E+02 0.13649819751E+02
 0.12845512510E+02 0.12210018035E+02 0.11741431567E+02 0.11381587942E+02 0.11079052802E+02
 0.10834113772E+02 0.10691128678E+02 0.10691109023E+02 0.10834069994E+02 0.11079021079E+02
 0.11381597161E+02 0.11741474987E+02 0.12210060017E+02 0.12845525679E+02 0.13649803448E+02
 0.14525585789E+02 0.15324019195E+02 0.15903468512E+02 0.16179227352E+02 0.16202912960E+02
 0.16140745019E+02 0.16140713037E+02 0.16202851293E+02 0.13827867320E+02 0.13739652370E+02
 0.13586911182E+02 0.13468122075E+02 0.13468125109E+02 0.13586912874E+02 0.13739645491E+02
 0.13827859833E+02 0.13808842607E+02 0.13711611071E+02 0.13624092986E+02 0.13624094689E+02
 0.13711611374E+02 0.13808835691E+02 0.13827850756E+02 0.13739646683E+02 0.13586930881E+02
 0.13468154752E+02 0.13468150927E+02 0.13586926819E+02 0.13739649746E+02 0.13827853464E+02
 0.13808830840E+02 0.13711606975E+02 0.13624098791E+02 0.13624098422E+02 0.13711610261E+02
 0.13808842549E+02 0.13739652370E+02 0.13912465375E+02 0.14147177904E+02 0.14523247428E+02
 0.15035739321E+02 0.15573182229E+02 0.15999685501E+02 0.16205667289E+02 0.16179196429E+02
 0.16042416185E+02 0.15969501502E+02 0.16042458666E+02 0.16179245121E+02 0.16205684324E+02
 0.15999665763E+02 0.15573153828E+02 0.15035733380E+02 0.14523271150E+02 0.14147214890E+02
 0.13912493406E+02 0.13739656781E+02 0.13551846685E+02 0.13337629090E+02 0.13151914019E+02
 0.13076940633E+02 0.13151942301E+02 0.13337665736E+02 0.13551868593E+02 0.13586911182E+02
 0.14147177904E+02 0.14899532110E+02 0.15836441765E+02 0.16828667577E+02 0.17694483437E+02
 0.18223816978E+02 0.18309288123E+02 0.18074177181E+02 0.17825392026E+02 0.17825404137E+02
 0.18074205940E+02 0.18309312625E+02 0.18223815673E+02 0.17694455905E+02 0.16828638900E+02
 0.15836438136E+02 0.14899556799E+02 0.14147213964E+02 0.13586937503E+02 0.13147286404E+02
 0.12768466531E+02 0.12458832931E+02 0.12276449079E+02 0.12276468773E+02 0.12458874529E+02
 0.12768496517E+02 0.13147286212E+02 0.13468122075E+02 0.14523247428E+02 0.15836441765E+02
 0.17276337093E+02 0.18626355993E+02 0.19567031479E+02 0.19833777596E+02 0.19465446559E+02
 0.18875061181E+02 0.18596630072E+02 0.18875043874E+02 0.19465432665E+02 0.19833775361E+02
 0.19567027274E+02 0.18626341493E+02 0.17276324244E+02 0.15836444810E+02 0.14523266623E+02
 0.13468148274E+02 0.12670532328E+02 0.12063145314E+02 0.11597889467E+02 0.11286968901E+02
 0.11175469182E+02 0.11286996001E+02 0.11597914833E+02 0.12063146371E+02 0.12670512137E+02
 0.13468125109E+02 0.15035739321E+02 0.16828667577E+02 0.18626355993E+02 0.20037306181E+02
 0.20614268071E+02 0.20198343924E+02 0.19178774945E+02 0.18345619010E+02 0.18345620618E+02
 0.19178785862E+02 0.20198366527E+02 0.20614286057E+02 0.20037304178E+02 0.18626341581E+02
 0.16828658672E+02 0.15035742429E+02 0.13468138037E+02 0.12237758187E+02 0.11323381214E+02
 0.10657177172E+02 0.10199673690E+02 0.99590106925E+01 0.99590261469E+01 0.10199700765E+02
 0.10657185312E+02 0.11323366719E+02 0.12237738540E+02 0.13586912874E+02 0.15573182229E+02
 0.17694483437E+02 0.19567031479E+02 0.20614268071E+02 0.20414113099E+02 0.19139019752E+02
 0.17648994143E+02 0.16994442166E+02 0.17649066673E+02 0.19139118697E+02 0.20414178819E+02
 0.20614274908E+02 0.19567004996E+02 0.17694464109E+02 0.15573182491E+02 0.13586922073E+02
 0.11928129676E+02 0.10666092676E+02 0.97534588928E+01 0.91223052434E+01 0.87400751666E+01
 0.86102033311E+01 0.87401060316E+01 0.91223313006E+01 0.97534583821E+01 0.10666077837E+02
 0.11928116658E+02 0.13739645491E+02 0.15999685501E+02 0.18223816978E+02 0.19833777596E+02
 0.20198343924E+02 0.19139019752E+02 0.17294571149E+02 0.15881971199E+02 0.15882017851E+02
 0.17294673529E+02 0.19139100187E+02 0.20198356741E+02 0.19833745642E+02 0.18223793871E+02
 0.15999692710E+02 0.13739663484E+02 0.11741443780E+02 0.10150399845E+02 0.89783473485E+01
 0.81578163018E+01 0.76268022249E+01 0.73611132900E+01 0.73611287224E+01 0.76268291661E+01
 0.81578260959E+01 0.89783400781E+01 0.10150390723E+02 0.11741432473E+02 0.13827859833E+02
 0.16205667289E+02 0.18309288123E+02 0.19465446559E+02 0.19178774945E+02 0.17648994143E+02
 0.15881971199E+02 0.15107941549E+02 0.15881975094E+02 0.17648985928E+02 0.19178745973E+02
 0.19465413825E+02 0.18309280082E+02 0.16205689745E+02 0.13827887566E+02 0.11618324448E+02
 0.97695470503E+01 0.83625756274E+01 0.73575681899E+01 0.66812023675E+01 0.62845440183E+01
 0.61525600995E+01 0.62845484086E+01 0.66812005774E+01 0.73575608916E+01 0.83625749320E+01
 0.97695514733E+01 0.11618315400E+02 0.13808842607E+02 0.16179196429E+02 0.18074177181E+02
 0.18875061181E+02 0.18345619010E+02 0.16994442166E+02 0.15882017851E+02 0.15881975094E+02
 0.16994341793E+02 0.18345521831E+02 0.18875014701E+02 0.18074187307E+02 0.16179234355E+02
 0.13808872279E+02 0.11492915065E+02 0.94811605144E+01 0.78908135564E+01 0.67253527868E+01
 0.59176609211E+01 0.54033436250E+01 0.51499515268E+01 0.51499441540E+01 0.54033264597E+01
 0.59176466961E+01 0.67253540193E+01 0.78908308176E+01 0.94811781198E+01 0.11492912286E+02
 0.13711611071E+02 0.16042416185E+02 0.17825392026E+02 0.18596630072E+02 0.18345620618E+02
 0.17649066673E+02 0.17294673529E+02 0.17648985928E+02 0.18345521831E+02 0.18596579496E+02
 0.17825403459E+02 0.16042452811E+02 0.13711632580E+02 0.11349434640E+02 0.92484036094E+01
 0.75321239965E+01 0.62402279341E+01 0.53218121782E+01 0.47073697549E+01 0.43500275227E+01
 0.42318798349E+01 0.43500148895E+01 0.47073590355E+01 0.53218139783E+01 0.62402401051E+01
 0.75321404985E+01 0.92484191446E+01 0.11349437923E+02 0.13624092986E+02 0.15969501502E+02
 0.17825404137E+02 0.18875043874E+02 0.19178785862E+02 0.19139118697E+02 0.19139100187E+02
 0.19178745973E+02 0.18875014701E+02 0.17825403459E+02 0.15969517572E+02 0.13624102800E+02
 0.11225945430E+02 0.90672762171E+01 0.72670662323E+01 0.58801386238E+01 0.48718554247E+01
 0.41743523989E+01 0.37314534568E+01 0.35142210966E+01 0.35142193204E+01 0.37314536780E+01
 0.41743595888E+01 0.48718618658E+01 0.58801361736E+01 0.72670611451E+01 0.90672777737E+01
 0.11225947515E+02 0.13624094689E+02 0.16042458666E+02 0.18074205940E+02 0.19465432665E+02
 0.20198366527E+02 0.20414178819E+02 0.20198356741E+02 0.19465413825E+02 0.18074187307E+02
 0.16042452811E+02 0.13624102800E+02 0.11176365352E+02 0.89634315139E+01 0.70979092696E+01
 0.56356988404E+01 0.45526277587E+01 0.37846961564E+01 0.32709832738E+01 0.29730419804E+01
 0.28748730412E+01 0.29730429219E+01 0.32709881127E+01 0.37847009601E+01 0.45526240091E+01
 0.56356862201E+01 0.70978952397E+01 0.89634189582E+01 0.11176352555E+02 0.13711611374E+02
 0.16179245121E+02 0.18309312625E+02 0.19833775361E+02 0.20614286057E+02 0.20614274908E+02
 0.19833745642E+02 0.18309280082E+02 0.16179234355E+02 0.13711632580E+02 0.11225945430E+02
 0.89634315139E+01 0.70389233064E+01 0.55102817576E+01 0.43595752388E+01 0.35273456502E+01
 0.29513555370E+01 0.25863566607E+01 0.24082143657E+01 0.24082113406E+01 0.25863506232E+01
 0.29513513356E+01 0.35273455410E+01 0.43595804289E+01 0.55102900873E+01 0.70389232355E+01
 0.89634105764E+01 0.11225910783E+02 0.13808835691E+02 0.16205684324E+02 0.18223815673E+02
 0.19567027274E+02 0.20037304178E+02 0.19567004996E+02 0.18223793871E+02 0.16205689745E+02
 0.13808872279E+02 0.11349434640E+02 0.90672762171E+01 0.70979092696E+01 0.55102817576E+01
 0.42946529332E+01 0.33987419084E+01 0.27625706867E+01 0.23375683608E+01 0.20926962655E+01
 0.20125329583E+01 0.20926895426E+01 0.23375599843E+01 0.27625657904E+01 0.33987459386E+01
 0.42946720965E+01 0.55103123261E+01 0.70979295022E+01 0.90672635406E+01 0.11349393892E+02
 0.13827850756E+02 0.15999665763E+02 0.17694455905E+02 0.18626341493E+02 0.18626341581E+02
 0.17694464109E+02 0.15999692710E+02 0.13827887566E+02 0.11492915065E+02 0.92484036094E+01
 0.72670662323E+01 0.56356988404E+01 0.43595752388E+01 0.33987419084E+01 0.27000564196E+01
 0.22158476819E+01 0.19110311062E+01 0.17637487344E+01 0.17637495962E+01 0.19110344003E+01
 0.22158507496E+01 0.27000522510E+01 0.33987326184E+01 0.43595784261E+01 0.56357273455E+01
 0.72671051255E+01 0.92484207738E+01 0.11492896189E+02 0.13739646683E+02 0.15573153828E+02
 0.16828638900E+02 0.17276324244E+02 0.16828658672E+02 0.15573182491E+02 0.13739663484E+02
 0.11618324448E+02 0.94811605144E+01 0.75321239965E+01 0.58801386238E+01 0.45526277587E+01
 0.35273456502E+01 0.27625706867E+01 0.22158476819E+01 0.18518145374E+01 0.16442873669E+01
 0.15769734475E+01 0.16442964748E+01 0.18518306168E+01 0.22158579526E+01 0.27625586004E+01
 0.35273138844E+01 0.45526046444E+01 0.58801513396E+01 0.75321682788E+01 0.94812040621E+01
 0.11618338721E+02 0.13586930881E+02 0.15035733380E+02 0.15836438136E+02 0.15836444810E+02
 0.15035742429E+02 0.13586922073E+02 0.11741443780E+02 0.97695470503E+01 0.78908135564E+01
 0.62402279341E+01 0.48718554247E+01 0.37846961564E+01 0.29513555370E+01 0.23375683608E+01
 0.19110311062E+01 0.16442873669E+01 0.15166167695E+01 0.15166174566E+01 0.16442923680E+01
 0.19110429150E+01 0.23375797130E+01 0.29513525721E+01 0.37846735596E+01 0.48718264798E+01
 0.62402161589E+01 0.78908320279E+01 0.97695852866E+01 0.11741476124E+02 0.13468154752E+02
 0.14523271150E+02 0.14899556799E+02 0.14523266623E+02 0.13468138037E+02 0.11928129676E+02
 0.10150399845E+02 0.83625756274E+01 0.67253527868E+01 0.53218121782E+01 0.41743523989E+01
 0.32709832738E+01 0.25863566607E+01 0.20926962655E+01 0.17637487344E+01 0.15769734475E+01
 0.15166174566E+01 0.15769628691E+01 0.17637356948E+01 0.20926945137E+01 0.25863740743E+01
 0.32710085115E+01 0.41743599555E+01 0.53217884835E+01 0.67253146096E+01 0.83625547546E+01
 0.10150409597E+02 0.11928154027E+02 0.13468150927E+02 0.14147214890E+02 0.14147213964E+02
 0.13468148274E+02 0.12237758187E+02 0.10666092676E+02 0.89783473485E+01 0.73575681899E+01
 0.59176609211E+01 0.47073697549E+01 0.37314534568E+01 0.29730419804E+01 0.24082143657E+01
 0.20125329583E+01 0.17637495962E+01 0.16442964748E+01 0.16442923680E+01 0.17637356948E+01
 0.20125122772E+01 0.24082023464E+01 0.29730539143E+01 0.37314828449E+01 0.47073889297E+01
 0.59176488637E+01 0.73575326470E+01 0.89783142101E+01 0.10666078035E+02 0.12237757779E+02
 0.13586926819E+02 0.13912493406E+02 0.13586937503E+02 0.12670532328E+02 0.11323381214E+02
 0.97534588928E+01 0.81578163018E+01 0.66812023675E+01 0.54033436250E+01 0.43500275227E+01
 0.35142210966E+01 0.28748730412E+01 0.24082113406E+01 0.20926895426E+01 0.19110344003E+01
 0.18518306168E+01 0.19110429150E+01 0.20926945137E+01 0.24082023464E+01 0.28748538066E+01
 0.35142069706E+01 0.43500302934E+01 0.54033597861E+01 0.66812167396E+01 0.81578160066E+01
 0.97534429770E+01 0.11323358446E+02 0.12670512723E+02 0.13739649746E+02 0.13739656781E+02
 0.13147286404E+02 0.12063145314E+02 0.10657177172E+02 0.91223052434E+01 0.76268022249E+01
 0.62845440183E+01 0.51499515268E+01 0.42318798349E+01 0.35142193204E+01 0.29730429219E+01
 0.25863506232E+01 0.23375599843E+01 0.22158507496E+01 0.22158579526E+01 0.23375797130E+01
 0.25863740743E+01 0.29730539143E+01 0.35142069706E+01 0.42318534816E+01 0.51499362749E+01
 0.62845565935E+01 0.76268336407E+01 0.91223306131E+01 0.10657180375E+02 0.12063130687E+02
 0.13147269384E+02 0.13827853464E+02 0.13551846685E+02 0.12768466531E+02 0.11597889467E+02
 0.10199673690E+02 0.87400751666E+01 0.73611132900E+01 0.61525600995E+01 0.51499441540E+01
 0.43500148895E+01 0.37314536780E+01 0.32709881127E+01 0.29513513356E+01 0.27625657904E+01
 0.27000522510E+01 0.27625586004E+01 0.29513525721E+01 0.32710085115E+01 0.37314828449E+01
 0.43500302934E+01 0.51499362749E+01 0.61525435727E+01 0.73611103222E+01 0.87400919294E+01
 0.10199697272E+02 0.11597904811E+02 0.12768470316E+02 0.13551845360E+02 0.13808830840E+02
 0.13337629090E+02 0.12458832931E+02 0.11286968901E+02 0.99590106925E+01 0.86102033311E+01
 0.73611287224E+01 0.62845484086E+01 0.54033264597E+01 0.47073590355E+01 0.41743595888E+01
 0.37847009601E+01 0.35273455410E+01 0.33987459386E+01 0.33987326184E+01 0.35273138844E+01
 0.37846735596E+01 0.41743599555E+01 0.47073889297E+01 0.54033597861E+01 0.62845565935E+01
 0.73611103222E+01 0.86101821558E+01 0.99590081859E+01 0.11286986090E+02 0.12458856868E+02
 0.13337647353E+02 0.13808837407E+02 0.13711606975E+02 0.13151914019E+02 0.12276449079E+02
 0.11175469182E+02 0.99590261469E+01 0.87401060316E+01 0.76268291661E+01 0.66812005774E+01
 0.59176466961E+01 0.53218139783E+01 0.48718618658E+01 0.45526240091E+01 0.43595804289E+01
 0.42946720965E+01 0.43595784261E+01 0.45526046444E+01 0.48718264798E+01 0.53217884835E+01
 0.59176488637E+01 0.66812167396E+01 0.76268336407E+01 0.87400919294E+01 0.99590081859E+01
 0.11175464910E+02 0.12276464634E+02 0.13151941303E+02 0.13711628260E+02 0.13903449311E+02
 0.13624098791E+02 0.13076940633E+02 0.12276468773E+02 0.11286996001E+02 0.10199700765E+02
 0.91223313006E+01 0.81578260959E+01 0.73575608916E+01 0.67253540193E+01 0.62402401051E+01
 0.58801361736E+01 0.56356862201E+01 0.55102900873E+01 0.55103123261E+01 0.56357273455E+01
 0.58801513396E+01 0.62402161589E+01 0.67253146096E+01 0.73575326470E+01 0.81578160066E+01
 0.91223306131E+01 0.10199697272E+02 0.11286986090E+02 0.12276464634E+02 0.13076957733E+02
 0.13624130296E+02 0.13896323250E+02 0.13896306907E+02 0.13624098422E+02 0.13151942301E+02
 0.12458874529E+02 0.11597914833E+02 0.10657185312E+02 0.97534583821E+01 0.89783400781E+01
 0.83625749320E+01 0.78908308176E+01 0.75321404985E+01 0.72670611451E+01 0.70978952397E+01
 0.70389232355E+01 0.70979295022E+01 0.72671051255E+01 0.75321682788E+01 0.78908320279E+01
 0.83625547546E+01 0.89783142101E+01 0.97534429770E+01 0.10657180375E+02 0.11597904811E+02
 0.12458856868E+02 0.13151941303E+02 0.13624130296E+02 0.13879326826E+02 0.13956910926E+02
 0.13879289484E+02 0.13711610261E+02 0.13337665736E+02 0.12768496517E+02 0.12063146371E+02
 0.11323366719E+02 0.10666077837E+02 0.10150390723E+02 0.97695514733E+01 0.94811781198E+01
 0.92484191446E+01 0.90672777737E+01 0.89634189582E+01 0.89634105764E+01 0.90672635406E+01
 0.92484207738E+01 0.94812040621E+01 0.97695852866E+01 0.10150409597E+02 0.10666078035E+02
 0.11323358446E+02 0.12063130687E+02 0.12768470316E+02 0.13337647353E+02 0.13711628260E+02
 0.13896323250E+02 0.13956910926E+02 0.13956885389E+02 0.13896276794E+02 0.13808842549E+02
 0.13551868593E+02 0.13147286212E+02 0.12670512137E+02 0.12237738540E+02 0.11928116658E+02
 0.11741432473E+02 0.11618315400E+02 0.11492912286E+02 0.11349437923E+02 0.11225947515E+02
 0.11176352555E+02 0.11225910783E+02 0.11349393892E+02 0.11492896189E+02 0.11618338721E+02
 0.11741476124E+02 0.11928154027E+02 0.12237757779E+02 0.12670512723E+02 0.13147269384E+02
 0.13551845360E+02 0.13808837407E+02 0.13903449311E+02 0.13896306907E+02 0.13879289484E+02
 0.13896276794E+02 0.13903424599E+02 0.11618319884E+02 0.11741435418E+02 0.11928112174E+02
 0.12237735596E+02 0.12670516621E+02 0.13147289156E+02 0.13551864108E+02 0.13808839605E+02
 0.13903429084E+02 0.13896279738E+02 0.13879285000E+02 0.13896303963E+02 0.13903453796E+02
 0.13808840351E+02 0.13551840876E+02 0.13147266439E+02 0.12670517208E+02 0.12237760724E+02
 0.11928149542E+02 0.11741473180E+02 0.11618343205E+02 0.11492899134E+02 0.11349389408E+02
 0.11225907838E+02 0.11176357040E+02 0.11225950459E+02 0.11349433439E+02 0.11492909342E+02
 0.11741435418E+02 0.12210017560E+02 0.12845504213E+02 0.13649813878E+02 0.14525621565E+02
 0.15324056844E+02 0.15903477402E+02 0.16179192494E+02 0.16202856684E+02 0.16140716819E+02
 0.16140742739E+02 0.16202913640E+02 0.16179234266E+02 0.15903471627E+02 0.15324014719E+02
 0.14525583801E+02 0.13649808148E+02 0.12845527456E+02 0.12210054972E+02 0.11741472865E+02
 0.11381601994E+02 0.11079023425E+02 0.10834066287E+02 0.10691109115E+02 0.10691136180E+02
 0.10834118314E+02 0.11079049763E+02 0.11381586511E+02 0.11928112174E+02 0.12845504213E+02
 0.13998363798E+02 0.15285530194E+02 0.16531980194E+02 0.17514850767E+02 0.18033042408E+02
 0.18074174389E+02 0.17872918319E+02 0.17755085258E+02 0.17872919279E+02 0.18074177371E+02
 0.18033039169E+02 0.17514831710E+02 0.16531952912E+02 0.15285513641E+02 0.13998366061E+02
 0.12845521181E+02 0.11928140324E+02 0.11235982933E+02 0.10710996063E+02 0.10312946048E+02
 0.10049016894E+02 0.99546241029E+01 0.10049048314E+02 0.10312969810E+02 0.10710986385E+02
 0.11235952501E+02 0.12237735596E+02 0.13649813878E+02 0.15285530194E+02 0.16961397598E+02
 0.18390743911E+02 0.19228006685E+02 0.19313884802E+02 0.18875061270E+02 0.18435226724E+02
 0.18435203342E+02 0.18875011941E+02 0.19313845315E+02 0.19227989199E+02 0.18390738765E+02
 0.16961396512E+02 0.15285530623E+02 0.13649814144E+02 0.12237740729E+02 0.11134547444E+02
 0.10313169497E+02 0.97135293568E+01 0.93022896214E+01 0.90866407583E+01 0.90866493975E+01
 0.93022992393E+01 0.97135176538E+01 0.10313142812E+02 0.11134528259E+02 0.12670516621E+02
 0.14525621565E+02 0.16531980194E+02 0.18390743911E+02 0.19638023580E+02 0.19904571104E+02
 0.19268316756E+02 0.18345620460E+02 0.17919071296E+02 0.18345608684E+02 0.19268305015E+02
 0.19904565473E+02 0.19638020668E+02 0.18390742433E+02 0.16531981091E+02 0.14525619837E+02
 0.12670509297E+02 0.11134530671E+02 0.99672455567E+01 0.91204136124E+01 0.85328179517E+01
 0.81765254022E+01 0.80554727699E+01 0.81765298378E+01 0.85328107929E+01 0.91203934660E+01
 0.99672313267E+01 0.11134532654E+02 0.13147289156E+02 0.15324056844E+02 0.17514850767E+02
 0.19228006685E+02 0.19904571104E+02 0.19348321817E+02 0.18048603816E+02 0.16994443419E+02
 0.16994464662E+02 0.18048650647E+02 0.19348359152E+02 0.19904578560E+02 0.19227995422E+02
 0.17514844184E+02 0.15324059934E+02 0.13147288714E+02 0.11235949935E+02 0.97210580206E+01
 0.86043155667E+01 0.78202551366E+01 0.73115643746E+01 0.70567493043E+01 0.70567520574E+01
 0.73115652482E+01 0.78202469875E+01 0.86043077084E+01 0.97210615914E+01 0.11235958238E+02
 0.13551864108E+02 0.15903477402E+02 0.18033042408E+02 0.19313884802E+02 0.19268316756E+02
 0.18048603816E+02 0.16549527499E+02 0.15882020246E+02 0.16549540578E+02 0.18048611234E+02
 0.19268306740E+02 0.19313869418E+02 0.18033042391E+02 0.15903494953E+02 0.13551880387E+02
 0.11381585922E+02 0.95721841178E+01 0.81967916604E+01 0.72134253618E+01 0.65506153408E+01
 0.61614851234E+01 0.60319474616E+01 0.61614820059E+01 0.65506085888E+01 0.72134206204E+01
 0.81967965201E+01 0.95721943127E+01 0.11381585961E+02 0.13808839605E+02 0.16179192494E+02
 0.18074174389E+02 0.18875061270E+02 0.18345620460E+02 0.16994443419E+02 0.15882020246E+02
 0.15881979636E+02 0.16994346220E+02 0.18345523966E+02 0.18875015653E+02 0.18074188464E+02
 0.16179234441E+02 0.13808870372E+02 0.11492913289E+02 0.94811606330E+01 0.78908139793E+01
 0.67253519053E+01 0.59176602625E+01 0.54033447422E+01 0.51499529483E+01 0.51499443902E+01
 0.54033268265E+01 0.59176481499E+01 0.67253544022E+01 0.78908283258E+01 0.94811744448E+01
 0.11492909399E+02 0.13903429084E+02 0.16202856684E+02 0.17872918319E+02 0.18435226724E+02
 0.17919071296E+02 0.16994464662E+02 0.16549540578E+02 0.16994346220E+02 0.17918920930E+02
 0.18435141919E+02 0.17872927099E+02 0.16202909116E+02 0.13903461795E+02 0.11529187094E+02
 0.94035534718E+01 0.76595347080E+01 0.63447098079E+01 0.54104957402E+01 0.47862317890E+01
 0.44234926433E+01 0.43035964569E+01 0.44234726083E+01 0.47862131946E+01 0.54104933539E+01
 0.63447209125E+01 0.76595539111E+01 0.94035752271E+01 0.11529192057E+02 0.13896279738E+02
 0.16140716819E+02 0.17755085258E+02 0.18435203342E+02 0.18345608684E+02 0.18048650647E+02
 0.18048611234E+02 0.18345523966E+02 0.18435141919E+02 0.17755084951E+02 0.16140751905E+02
 0.13896298099E+02 0.11506833597E+02 0.93207848448E+01 0.74799815734E+01 0.60535402579E+01
 0.50157774130E+01 0.42989773327E+01 0.38445478786E+01 0.36218111283E+01 0.36218027338E+01
 0.38445351514E+01 0.42989764208E+01 0.50157839664E+01 0.60535455798E+01 0.74799938854E+01
 0.93208098988E+01 0.11506849442E+02 0.13879285000E+02 0.16140742739E+02 0.17872919279E+02
 0.18875011941E+02 0.19268305015E+02 0.19348359152E+02 0.19268306740E+02 0.18875015653E+02
 0.17872927099E+02 0.16140751905E+02 0.13879284474E+02 0.11474488987E+02 0.92492263078E+01
 0.73478189545E+01 0.58412554023E+01 0.47216559155E+01 0.39283472969E+01 0.33984883465E+01
 0.30913824456E+01 0.29901772063E+01 0.30913779946E+01 0.33984908137E+01 0.39283551727E+01
 0.47216547089E+01 0.58412447266E+01 0.73478166799E+01 0.92492399530E+01 0.11474503377E+02
 0.13896303963E+02 0.16202913640E+02 0.18074177371E+02 0.19313845315E+02 0.19904565473E+02
 0.19904578560E+02 0.19313869418E+02 0.18074188464E+02 0.16202909116E+02 0.13896298099E+02
 0.11474488987E+02 0.92204089830E+01 0.72751476635E+01 0.57088861787E+01 0.45235559599E+01
 0.36657847057E+01 0.30726362991E+01 0.26967656825E+01 0.25131248200E+01 0.25131223664E+01
 0.26967635713E+01 0.30726398149E+01 0.36657879696E+01 0.45235512354E+01 0.57088758036E+01
 0.72751382898E+01 0.92204029594E+01 0.11474488041E+02 0.13903453796E+02 0.16179234266E+02
 0.18033039169E+02 0.19227989199E+02 0.19638020668E+02 0.19227995422E+02 0.18033042391E+02
 0.16179234441E+02 0.13903461795E+02 0.11506833597E+02 0.92492263078E+01 0.72751476635E+01
 0.56634881961E+01 0.44230703493E+01 0.35081910534E+01 0.28588611147E+01 0.24247429310E+01
 0.21740228513E+01 0.20917651372E+01 0.21740164656E+01 0.24247362266E+01 0.28588590196E+01
 0.35081951305E+01 0.44230804982E+01 0.56634992274E+01 0.72751485012E+01 0.92492122823E+01
 0.11506815781E+02 0.13808840351E+02 0.15903471627E+02 0.17514831710E+02 0.18390738765E+02
 0.18390742433E+02 0.17514844184E+02 0.15903494953E+02 0.13808870372E+02 0.11529187094E+02
 0.93207848448E+01 0.73478189545E+01 0.57088861787E+01 0.44230703493E+01 0.34555397085E+01
 0.27528656823E+01 0.22655830783E+01 0.19578538757E+01 0.18085827699E+01 0.18085807608E+01
 0.19578490433E+01 0.22655770261E+01 0.27528603329E+01 0.34555417128E+01 0.44230883175E+01
 0.57089174198E+01 0.73478447698E+01 0.93207867072E+01 0.11529165038E+02 0.13551840876E+02
 0.15324014719E+02 0.16531952912E+02 0.16961396512E+02 0.16531981091E+02 0.15324059934E+02
 0.13551880387E+02 0.11492913289E+02 0.94035534718E+01 0.74799815734E+01 0.58412554023E+01
 0.45235559599E+01 0.35081910534E+01 0.27528656823E+01 0.22132254648E+01 0.18529933319E+01
 0.16467268374E+01 0.15795941867E+01 0.16467316809E+01 0.18529997757E+01 0.22132247422E+01
 0.27528514310E+01 0.35081731458E+01 0.45235576228E+01 0.58412889048E+01 0.74800301195E+01
 0.94035835468E+01 0.11492904592E+02 0.13147266439E+02 0.14525583801E+02 0.15285513641E+02
 0.15285530623E+02 0.14525619837E+02 0.13147288714E+02 0.11381585922E+02 0.94811606330E+01
 0.76595347080E+01 0.60535402579E+01 0.47216559155E+01 0.36657847057E+01 0.28588611147E+01
 0.22655830783E+01 0.18529933319E+01 0.15942281979E+01 0.14699825580E+01 0.14699862389E+01
 0.15942393451E+01 0.18530074492E+01 0.22655869113E+01 0.28588429672E+01 0.36657515882E+01
 0.47216344947E+01 0.60535542850E+01 0.76595804877E+01 0.94812072022E+01 0.11381601151E+02
 0.12670517208E+02 0.13649808148E+02 0.13998366061E+02 0.13649814144E+02 0.12670509297E+02
 0.11235949935E+02 0.95721841178E+01 0.78908139793E+01 0.63447098079E+01 0.50157774130E+01
 0.39283472969E+01 0.30726362991E+01 0.24247429310E+01 0.19578538757E+01 0.16467268374E+01
 0.14699825580E+01 0.14128453597E+01 0.14699805264E+01 0.16467287296E+01 0.19578646268E+01
 0.24247572898E+01 0.30726384697E+01 0.39283258506E+01 0.50157426542E+01 0.63446903204E+01
 0.78908295544E+01 0.95722237499E+01 0.11235982673E+02 0.12237760724E+02 0.12845527456E+02
 0.12845521181E+02 0.12237740729E+02 0.11134530671E+02 0.97210580206E+01 0.81967916604E+01
 0.67253519053E+01 0.54104957402E+01 0.42989773327E+01 0.33984883465E+01 0.26967656825E+01
 0.21740228513E+01 0.18085827699E+01 0.15795941867E+01 0.14699862389E+01 0.14699805264E+01
 0.15795790373E+01 0.18085677238E+01 0.21740240362E+01 0.26967890098E+01 0.33985150002E+01
 0.42989777872E+01 0.54104626360E+01 0.67253113609E+01 0.81967763670E+01 0.97210745191E+01
 0.11134559076E+02 0.11928149542E+02 0.12210054972E+02 0.11928140324E+02 0.11134547444E+02
 0.99672455567E+01 0.86043155667E+01 0.72134253618E+01 0.59176602625E+01 0.47862317890E+01
 0.38445478786E+01 0.30913824456E+01 0.25131248200E+01 0.20917651372E+01 0.18085807608E+01
 0.16467316809E+01 0.15942393451E+01 0.16467287296E+01 0.18085677238E+01 0.20917438088E+01
 0.25131117222E+01 0.30913915189E+01 0.38445713093E+01 0.47862453951E+01 0.59176484876E+01
 0.72133964254E+01 0.86042910417E+01 0.99672390925E+01 0.11134555473E+02 0.11741473180E+02
 0.11741472865E+02 0.11235982933E+02 0.10313169497E+02 0.91204136124E+01 0.78202551366E+01
 0.65506153408E+01 0.54033447422E+01 0.44234926433E+01 0.36218111283E+01 0.29901772063E+01
 0.25131223664E+01 0.21740164656E+01 0.19578490433E+01 0.18529997757E+01 0.18530074492E+01
 0.19578646268E+01 0.21740240362E+01 0.25131117222E+01 0.29901541332E+01 0.36217936656E+01
 0.44234947718E+01 0.54033623675E+01 0.65506300233E+01 0.78202531114E+01 0.91203990830E+01
 0.10313156931E+02 0.11235979305E+02 0.11618343205E+02 0.11381601994E+02 0.10710996063E+02
 0.97135293568E+01 0.85328179517E+01 0.73115643746E+01 0.61614851234E+01 0.51499529483E+01
 0.43035964569E+01 0.36218027338E+01 0.30913779946E+01 0.26967635713E+01 0.24247362266E+01
 0.22655770261E+01 0.22132247422E+01 0.22655869113E+01 0.24247572898E+01 0.26967890098E+01
 0.30913915189E+01 0.36217936656E+01 0.43035744179E+01 0.51499402251E+01 0.61614928308E+01
 0.73115823502E+01 0.85328306070E+01 0.97135338874E+01 0.10710999143E+02 0.11381605517E+02
 0.11492899134E+02 0.11079023425E+02 0.10312946048E+02 0.93022896214E+01 0.81765254022E+01
 0.70567493043E+01 0.60319474616E+01 0.51499443902E+01 0.44234726083E+01 0.38445351514E+01
 0.33984908137E+01 0.30726398149E+01 0.28588590196E+01 0.27528603329E+01 0.27528514310E+01
 0.28588429672E+01 0.30726384697E+01 0.33985150002E+01 0.38445713093E+01 0.44234947718E+01
 0.51499402251E+01 0.60319283006E+01 0.70567348297E+01 0.81765258916E+01 0.93023046671E+01
 0.10312970439E+02 0.11079047304E+02 0.11492909313E+02 0.11349389408E+02 0.10834066287E+02
 0.10049016894E+02 0.90866407583E+01 0.80554727699E+01 0.70567520574E+01 0.61614820059E+01
 0.54033268265E+01 0.47862131946E+01 0.42989764208E+01 0.39283551727E+01 0.36657879696E+01
 0.35081951305E+01 0.34555417128E+01 0.35081731458E+01 0.36657515882E+01 0.39283258506E+01
 0.42989777872E+01 0.47862453951E+01 0.54033623675E+01 0.61614928308E+01 0.70567348297E+01
 0.80554467062E+01 0.90866291854E+01 0.10049031728E+02 0.10834099934E+02 0.11349417538E+02
 0.11529162460E+02 0.11225907838E+02 0.10691109115E+02 0.99546241029E+01 0.90866493975E+01
 0.81765298378E+01 0.73115652482E+01 0.65506085888E+01 0.59176481499E+01 0.54104933539E+01
 0.50157839664E+01 0.47216547089E+01 0.45235512354E+01 0.44230804982E+01 0.44230883175E+01
 0.45235576228E+01 0.47216344947E+01 0.50157426542E+01 0.54104626360E+01 0.59176484876E+01
 0.65506300233E+01 0.73115823502E+01 0.81765258916E+01 0.90866291854E+01 0.99546100418E+01
 0.10691119982E+02 0.11225935599E+02 0.11506827656E+02 0.11506812750E+02 0.11176357040E+02
 0.10691136180E+02 0.10049048314E+02 0.93022992393E+01 0.85328107929E+01 0.78202469875E+01
 0.72134206204E+01 0.67253544022E+01 0.63447209125E+01 0.60535455798E+01 0.58412447266E+01
 0.57088758036E+01 0.56634992274E+01 0.57089174198E+01 0.58412889048E+01 0.60535542850E+01
 0.63446903204E+01 0.67253113609E+01 0.72133964254E+01 0.78202531114E+01 0.85328306070E+01
 0.93023046671E+01 0.10049031728E+02 0.10691119982E+02 0.11176362259E+02 0.11474506881E+02
 0.11574420444E+02 0.11474491368E+02 0.11225950459E+02 0.10834118314E+02 0.10312969810E+02
 0.97135176538E+01 0.91203934660E+01 0.86043077084E+01 0.81967965201E+01 0.78908283258E+01
 0.76595539111E+01 0.74799938854E+01 0.73478166799E+01 0.72751382898E+01 0.72751485012E+01
 0.73478447698E+01 0.74800301195E+01 0.76595804877E+01 0.78908295544E+01 0.81967763670E+01
 0.86042910417E+01 0.91203990830E+01 0.97135338874E+01 0.10312970439E+02 0.10834099934E+02
 0.11225935599E+02 0.11474506881E+02 0.11590716966E+02 0.11590712493E+02 0.11474505370E+02
 0.11349433439E+02 0.11079049763E+02 0.10710986385E+02 0.10313142812E+02 0.99672313267E+01
 0.97210615914E+01 0.95721943127E+01 0.94811744448E+01 0.94035752271E+01 0.93208098988E+01
 0.92492399530E+01 0.92204029594E+01 0.92492122823E+01 0.93207867072E+01 0.94035835468E+01
 0.94812072022E+01 0.95722237499E+01 0.97210745191E+01 0.99672390925E+01 0.10313156931E+02
 0.10710999143E+02 0.11079047304E+02 0.11349417538E+02 0.11506827656E+02 0.11574420444E+02
 0.11590712493E+02 0.11574427113E+02 0.11506842822E+02 0.11492909342E+02 0.11381586511E+02
 0.11235952501E+02 0.11134528259E+02 0.11134532654E+02 0.11235958238E+02 0.11381585961E+02
 0.11492909399E+02 0.11529192057E+02 0.11506849442E+02 0.11474503377E+02 0.11474488041E+02
 0.11506815781E+02 0.11529165038E+02 0.11492904592E+02 0.11381601151E+02 0.11235982673E+02
 0.11134559076E+02 0.11134555473E+02 0.11235979305E+02 0.11381605517E+02 0.11492909313E+02
 0.11529162460E+02 0.11506812750E+02 0.11474491368E+02 0.11474505370E+02 0.11506842822E+02
 0.11529184686E+02 0.97695572703E+01 0.10150395048E+02 0.10666076486E+02 0.11323368740E+02
 0.12063155070E+02 0.12768501842E+02 0.13337663384E+02 0.13711609381E+02 0.13896281051E+02
 0.13956885457E+02 0.13956903559E+02 0.13896318719E+02 0.13711630993E+02 0.13337648089E+02
 0.12768465144E+02 0.12063128825E+02 0.11323363394E+02 0.10666080108E+02 0.10150404994E+02
 0.97695835575E+01 0.94812088768E+01 0.92484222789E+01 0.90672576002E+01 0.89634066331E+01
 0.89634211037E+01 0.90672770833E+01 0.92484125362E+01 0.94811756998E+01 0.10150395048E+02
 0.10913946793E+02 0.11878421919E+02 0.12982010993E+02 0.14083702557E+02 0.15036407555E+02
 0.15704149703E+02 0.16042413631E+02 0.16140718200E+02 0.16149114098E+02 0.16140742732E+02
 0.16042443542E+02 0.15704158886E+02 0.15036387369E+02 0.14083671689E+02 0.12981990661E+02
 0.11878411200E+02 0.10913937602E+02 0.10150396459E+02 0.95722189816E+01 0.91341233390E+01
 0.88060730523E+01 0.85922591779E+01 0.85166186524E+01 0.85922663358E+01 0.88060642716E+01
 0.91340950015E+01 0.95721962432E+01 0.10666076486E+02 0.11878421919E+02 0.13308241437E+02
 0.14807277426E+02 0.16185655303E+02 0.17208938946E+02 0.17730625060E+02 0.17825392367E+02
 0.17755088391E+02 0.17755066663E+02 0.17825346214E+02 0.17730588274E+02 0.17208925283E+02
 0.16185656999E+02 0.14807282585E+02 0.13308239361E+02 0.11878405844E+02 0.10666055824E+02
 0.97210565640E+01 0.90136339980E+01 0.84951141733E+01 0.81402398082E+01 0.79550849932E+01
 0.79550800776E+01 0.81402204591E+01 0.84950818448E+01 0.90136097009E+01 0.97210589878E+01
 0.11323368740E+02 0.12982010993E+02 0.14807277426E+02 0.16592307214E+02 0.18014923883E+02
 0.18780892873E+02 0.18865301738E+02 0.18596635127E+02 0.18435208308E+02 0.18596567441E+02
 0.18865219689E+02 0.18780848626E+02 0.18014926752E+02 0.16592332285E+02 0.14807295316E+02
 0.12982005428E+02 0.11323343158E+02 0.99672083359E+01 0.89361425551E+01 0.81834692630E+01
 0.76584193854E+01 0.73395941281E+01 0.72313311696E+01 0.73395713669E+01 0.76583830733E+01
 0.81834403354E+01 0.89361408313E+01 0.99672318979E+01 0.12063155070E+02 0.14083702557E+02
 0.16185655303E+02 0.18014923883E+02 0.19132926386E+02 0.19324603638E+02 0.18851171381E+02
 0.18345626283E+02 0.18345612898E+02 0.18851142403E+02 0.19324581159E+02 0.19132923108E+02
 0.18014935585E+02 0.16185667995E+02 0.14083702663E+02 0.12063137347E+02 0.10313124083E+02
 0.89361258482E+01 0.79186578646E+01 0.72001214833E+01 0.67317920312E+01 0.64967649159E+01
 0.64967528592E+01 0.67317638110E+01 0.72000963180E+01 0.79186533828E+01 0.89361444742E+01
 0.10313151421E+02 0.12768501842E+02 0.15036407555E+02 0.17208938946E+02 0.18780892873E+02
 0.19324603638E+02 0.18875975051E+02 0.18048635238E+02 0.17649070307E+02 0.18048653029E+02
 0.18875996068E+02 0.19324616175E+02 0.18780897920E+02 0.17208941805E+02 0.15036407628E+02
 0.12768494377E+02 0.10710978020E+02 0.90135943315E+01 0.77268207289E+01 0.68040247983E+01
 0.61792753023E+01 0.58113987975E+01 0.56887983670E+01 0.58113825818E+01 0.61792588155E+01
 0.68040229375E+01 0.77268346737E+01 0.90136146857E+01 0.10710994504E+02 0.13337663384E+02
 0.15704149703E+02 0.17730625060E+02 0.18865301738E+02 0.18851171381E+02 0.18048635238E+02
 0.17294686417E+02 0.17294678057E+02 0.18048613367E+02 0.18851148188E+02 0.18865294113E+02
 0.17730637363E+02 0.15704167378E+02 0.13337670544E+02 0.11079046332E+02 0.91340837801E+01
 0.76056105186E+01 0.64856320188E+01 0.57075256492E+01 0.52107889375E+01 0.49657282535E+01
 0.49657194277E+01 0.52107739373E+01 0.57075224231E+01 0.64856424701E+01 0.76056247000E+01
 0.91340952039E+01 0.11079051346E+02 0.13711609381E+02 0.16042413631E+02 0.17825392367E+02
 0.18596635127E+02 0.18345626283E+02 0.17649070307E+02 0.17294678057E+02 0.17648992535E+02
 0.18345526030E+02 0.18596578755E+02 0.17825401528E+02 0.16042452381E+02 0.13711630915E+02
 0.11349430525E+02 0.92484011459E+01 0.75321251973E+01 0.62402288202E+01 0.53218104257E+01
 0.47073689774E+01 0.43500298553E+01 0.42318815865E+01 0.43500136863E+01 0.47073579465E+01
 0.53218144332E+01 0.62402381490E+01 0.75321343719E+01 0.92484133457E+01 0.11349435561E+02
 0.13896281051E+02 0.16140718200E+02 0.17755088391E+02 0.18435208308E+02 0.18345612898E+02
 0.18048653029E+02 0.18048613367E+02 0.18345526030E+02 0.18435141691E+02 0.17755082075E+02
 0.16140749022E+02 0.13896296512E+02 0.11506831846E+02 0.93207826369E+01 0.74799808862E+01
 0.60535413401E+01 0.50157778763E+01 0.42989764616E+01 0.38445477596E+01 0.36218123437E+01
 0.36218030639E+01 0.38445337121E+01 0.42989749650E+01 0.50157829675E+01 0.60535432409E+01
 0.74799902505E+01 0.93208077749E+01 0.11506849966E+02 0.13956885457E+02 0.16149114098E+02
 0.17755066663E+02 0.18596567441E+02 0.18851142403E+02 0.18875996068E+02 0.18851148188E+02
 0.18596578755E+02 0.17755082075E+02 0.16149124087E+02 0.13956874323E+02 0.11574397852E+02
 0.93474561074E+01 0.74350351037E+01 0.59133163723E+01 0.47808613872E+01 0.39785597599E+01
 0.34430033597E+01 0.31326902649E+01 0.30304276488E+01 0.31326817588E+01 0.34430016737E+01
 0.39785655172E+01 0.47808591777E+01 0.59133070457E+01 0.74350412581E+01 0.93474866798E+01
 0.11574430857E+02 0.13956903559E+02 0.16140742732E+02 0.17825346214E+02 0.18865219689E+02
 0.19324581159E+02 0.19324616175E+02 0.18865294113E+02 0.17825401528E+02 0.16140749022E+02
 0.13956874323E+02 0.11590673646E+02 0.93506366993E+01 0.74001116184E+01 0.58158209032E+01
 0.46121391747E+01 0.37403959336E+01 0.31378304163E+01 0.27560590944E+01 0.25694675990E+01
 0.25694648154E+01 0.27560575404E+01 0.31378365090E+01 0.37404000934E+01 0.46121288835E+01
 0.58158018842E+01 0.74001036394E+01 0.93506525012E+01 0.11590707617E+02 0.13896318719E+02
 0.16042443542E+02 0.17730588274E+02 0.18780848626E+02 0.19132923108E+02 0.18780897920E+02
 0.17730637363E+02 0.16042452381E+02 0.13896296512E+02 0.11574397852E+02 0.93506366993E+01
 0.73864853902E+01 0.57647250199E+01 0.45094062755E+01 0.35818545542E+01 0.29234043521E+01
 0.24829996925E+01 0.22283234448E+01 0.21446661467E+01 0.22283201902E+01 0.24829989705E+01
 0.29234086105E+01 0.35818583767E+01 0.45094015800E+01 0.57647090538E+01 0.73864662720E+01
 0.93506314243E+01 0.11574415530E+02 0.13711630993E+02 0.15704158886E+02 0.17208925283E+02
 0.18014926752E+02 0.18014935585E+02 0.17208941805E+02 0.15704167378E+02 0.13711630915E+02
 0.11506831846E+02 0.93474561074E+01 0.74001116184E+01 0.57647250199E+01 0.44747675671E+01
 0.35024739354E+01 0.27961507570E+01 0.23059010275E+01 0.19955700921E+01 0.18446189374E+01
 0.18446171019E+01 0.19955652868E+01 0.23058961235E+01 0.27961507545E+01 0.35024816931E+01
 0.44747782727E+01 0.57647285870E+01 0.74001042585E+01 0.93474462671E+01 0.11506828935E+02
 0.13337648089E+02 0.15036387369E+02 0.16185656999E+02 0.16592332285E+02 0.16185667995E+02
 0.15036407628E+02 0.13337670544E+02 0.11349430525E+02 0.93207826369E+01 0.74350351037E+01
 0.58158209032E+01 0.45094062755E+01 0.35024739354E+01 0.27539745566E+01 0.22189791058E+01
 0.18608848524E+01 0.16550088909E+01 0.15877985433E+01 0.16550097624E+01 0.18608826314E+01
 0.22189715306E+01 0.27539661748E+01 0.35024743603E+01 0.45094218307E+01 0.58158471053E+01
 0.74350579709E+01 0.93207889392E+01 0.11349417907E+02 0.12768465144E+02 0.14083671689E+02
 0.14807282585E+02 0.14807295316E+02 0.14083702663E+02 0.12768494377E+02 0.11079046332E+02
 0.92484011459E+01 0.74799808862E+01 0.59133163723E+01 0.46121391747E+01 0.35818545542E+01
 0.27961507570E+01 0.22189791058E+01 0.18168913605E+01 0.15637140487E+01 0.14416562790E+01
 0.14416601351E+01 0.15637226211E+01 0.18168965732E+01 0.22189721511E+01 0.27961306703E+01
 0.35818344541E+01 0.46121395606E+01 0.59133461012E+01 0.74800244417E+01 0.92484293757E+01
 0.11079041896E+02 0.12063128825E+02 0.12981990661E+02 0.13308239361E+02 0.12982005428E+02
 0.12063137347E+02 0.10710978020E+02 0.91340837801E+01 0.75321251973E+01 0.60535413401E+01
 0.47808613872E+01 0.37403959336E+01 0.29234043521E+01 0.23059010275E+01 0.18608848524E+01
 0.15637140487E+01 0.13943890169E+01 0.13395340208E+01 0.13943944632E+01 0.15637249480E+01
 0.18608969375E+01 0.23059034733E+01 0.29233870807E+01 0.37403634747E+01 0.47808364143E+01
 0.60535469598E+01 0.75321611929E+01 0.91341243297E+01 0.10710995859E+02 0.11323363394E+02
 0.11878411200E+02 0.11878405844E+02 0.11323343158E+02 0.10313124083E+02 0.90135943315E+01
 0.76056105186E+01 0.62402288202E+01 0.50157778763E+01 0.39785597599E+01 0.31378304163E+01
 0.24829996925E+01 0.19955700921E+01 0.16550088909E+01 0.14416562790E+01 0.13395340208E+01
 0.13395313670E+01 0.14416513351E+01 0.16550099298E+01 0.19955839894E+01 0.24830198965E+01
 0.31378360078E+01 0.39785356855E+01 0.50157362964E+01 0.62402022584E+01 0.76056203836E+01
 0.90136310065E+01 0.10313160761E+02 0.10666080108E+02 0.10913937602E+02 0.10666055824E+02
 0.99672083359E+01 0.89361258482E+01 0.77268207289E+01 0.64856320188E+01 0.53218104257E+01
 0.42989764616E+01 0.34430033597E+01 0.27560590944E+01 0.22283234448E+01 0.18446189374E+01
 0.15877985433E+01 0.14416601351E+01 0.13943944632E+01 0.14416513351E+01 0.15877817494E+01
 0.18446046499E+01 0.22283281464E+01 0.27560850152E+01 0.34430283385E+01 0.42989733616E+01
 0.53217765695E+01 0.64855936008E+01 0.77268073327E+01 0.89361444744E+01 0.99672418245E+01
 0.10150404994E+02 0.10150396459E+02 0.97210565640E+01 0.89361425551E+01 0.79186578646E+01
 0.68040247983E+01 0.57075256492E+01 0.47073689774E+01 0.38445477596E+01 0.31326902649E+01
 0.25694675990E+01 0.21446661467E+01 0.18446171019E+01 0.16550097624E+01 0.15637226211E+01
 0.15637249480E+01 0.16550099298E+01 0.18446046499E+01 0.21446438461E+01 0.25694527868E+01
 0.31326971787E+01 0.38445706071E+01 0.47073854142E+01 0.57075182752E+01 0.68039987683E+01
 0.79186358859E+01 0.89361416234E+01 0.97210707971E+01 0.97695835575E+01 0.95722189816E+01
 0.90136339980E+01 0.81834692630E+01 0.72001214833E+01 0.61792753023E+01 0.52107889375E+01
 0.43500298553E+01 0.36218123437E+01 0.30304276488E+01 0.25694648154E+01 0.22283201902E+01
 0.19955652868E+01 0.18608826314E+01 0.18168965732E+01 0.18608969375E+01 0.19955839894E+01
 0.22283281464E+01 0.25694527868E+01 0.30304032721E+01 0.36217966671E+01 0.43500369395E+01
 0.52108094487E+01 0.61792863183E+01 0.72001131198E+01 0.81834543143E+01 0.90136283913E+01
 0.95722215980E+01 0.94812088768E+01 0.91341233390E+01 0.84951141733E+01 0.76584193854E+01
 0.67317920312E+01 0.58113987975E+01 0.49657282535E+01 0.42318815865E+01 0.36218030639E+01
 0.31326817588E+01 0.27560575404E+01 0.24829989705E+01 0.23058961235E+01 0.22189715306E+01
 0.22189721511E+01 0.23059034733E+01 0.24830198965E+01 0.27560850152E+01 0.31326971787E+01
 0.36217966671E+01 0.42318648102E+01 0.49657199762E+01 0.58114033576E+01 0.67317987601E+01
 0.76584211781E+01 0.84951154198E+01 0.91341279435E+01 0.94812118982E+01 0.92484222789E+01
 0.88060730523E+01 0.81402398082E+01 0.73395941281E+01 0.64967649159E+01 0.56887983670E+01
 0.49657194277E+01 0.43500136863E+01 0.38445337121E+01 0.34430016737E+01 0.31378365090E+01
 0.29234086105E+01 0.27961507545E+01 0.27539661748E+01 0.27961306703E+01 0.29233870807E+01
 0.31378360078E+01 0.34430283385E+01 0.38445706071E+01 0.43500369395E+01 0.49657199762E+01
 0.56887851202E+01 0.64967511323E+01 0.73395877433E+01 0.81402438004E+01 0.88060852017E+01
 0.92484333443E+01 0.94035868281E+01 0.90672576002E+01 0.85922591779E+01 0.79550849932E+01
 0.72313311696E+01 0.64967528592E+01 0.58113825818E+01 0.52107739373E+01 0.47073579465E+01
 0.42989749650E+01 0.39785655172E+01 0.37404000934E+01 0.35818583767E+01 0.35024816931E+01
 0.35024743603E+01 0.35818344541E+01 0.37403634747E+01 0.39785356855E+01 0.42989733616E+01
 0.47073854142E+01 0.52108094487E+01 0.58114033576E+01 0.64967511323E+01 0.72313150699E+01
 0.79550697979E+01 0.85922558292E+01 0.90672640466E+01 0.93207871136E+01 0.93207826738E+01
 0.89634066331E+01 0.85166186524E+01 0.79550800776E+01 0.73395713669E+01 0.67317638110E+01
 0.61792588155E+01 0.57075224231E+01 0.53218144332E+01 0.50157829675E+01 0.47808591777E+01
 0.46121288835E+01 0.45094015800E+01 0.44747782727E+01 0.45094218307E+01 0.46121395606E+01
 0.47808364143E+01 0.50157362964E+01 0.53217765695E+01 0.57075182752E+01 0.61792863183E+01
 0.67317987601E+01 0.73395877433E+01 0.79550697979E+01 0.85165947825E+01 0.89633872942E+01
 0.92492000320E+01 0.93474439884E+01 0.92492082527E+01 0.89634211037E+01 0.85922663358E+01
 0.81402204591E+01 0.76583830733E+01 0.72000963180E+01 0.68040229375E+01 0.64856424701E+01
 0.62402381490E+01 0.60535432409E+01 0.59133070457E+01 0.58158018842E+01 0.57647090538E+01
 0.57647285870E+01 0.58158471053E+01 0.59133461012E+01 0.60535469598E+01 0.62402022584E+01
 0.64855936008E+01 0.68039987683E+01 0.72001131198E+01 0.76584211781E+01 0.81402438004E+01
 0.85922558292E+01 0.89633872942E+01 0.92203714211E+01 0.93506211956E+01 0.93506339996E+01
 0.92204039478E+01 0.90672770833E+01 0.88060642716E+01 0.84950818448E+01 0.81834403354E+01
 0.79186533828E+01 0.77268346737E+01 0.76056247000E+01 0.75321343719E+01 0.74799902505E+01
 0.74350412581E+01 0.74001036394E+01 0.73864662720E+01 0.74001042585E+01 0.74350579709E+01
 0.74800244417E+01 0.75321611929E+01 0.76056203836E+01 0.77268073327E+01 0.79186358859E+01
 0.81834543143E+01 0.84951154198E+01 0.88060852017E+01 0.90672640466E+01 0.92492000320E+01
 0.93506211956E+01 0.93825532664E+01 0.93506537419E+01 0.92492383109E+01 0.92484125362E+01
 0.91340950015E+01 0.90136097009E+01 0.89361408313E+01 0.89361444742E+01 0.90136146857E+01
 0.91340952039E+01 0.92484133457E+01 0.93208077749E+01 0.93474866798E+01 0.93506525012E+01
 0.93506314243E+01 0.93474462671E+01 0.93207889392E+01 0.92484293757E+01 0.91341243297E+01
 0.90136310065E+01 0.89361444744E+01 0.89361416234E+01 0.90136283913E+01 0.91341279435E+01
 0.92484333443E+01 0.93207871136E+01 0.93474439884E+01 0.93506339996E+01 0.93506537419E+01
 0.93474808124E+01 0.93208011555E+01 0.94811756998E+01 0.95721962432E+01 0.97210589878E+01
 0.99672318979E+01 0.10313151421E+02 0.10710994504E+02 0.11079051346E+02 0.11349435561E+02
 0.11506849966E+02 0.11574430857E+02 0.11590707617E+02 0.11574415530E+02 0.11506828935E+02
 0.11349417907E+02 0.11079041896E+02 0.10710995859E+02 0.10313160761E+02 0.99672418245E+01
 0.97210707971E+01 0.95722215980E+01 0.94812118982E+01 0.94035868281E+01 0.93207826738E+01
 0.92492082527E+01 0.92204039478E+01 0.92492383109E+01 0.93208011555E+01 0.94035683801E+01
 0.83625842313E+01 0.89783465396E+01 0.97534593229E+01 0.10657189042E+02 0.11597922582E+02
 0.12458876804E+02 0.13151937054E+02 0.13624094798E+02 0.13879289814E+02 0.13956907061E+02
 0.13879318007E+02 0.13624126406E+02 0.13151944451E+02 0.12458857713E+02 0.11597900915E+02
 0.10657180192E+02 0.97534480023E+01 0.89783153665E+01 0.83625503093E+01 0.78908309801E+01
 0.75321721723E+01 0.72671045959E+01 0.70979226948E+01 0.70389196369E+01 0.70978975027E+01
 0.72670611479E+01 0.75321370646E+01 0.78908330831E+01 0.89783465396E+01 0.99776218035E+01
 0.11174328678E+02 0.12468375807E+02 0.13719624465E+02 0.14784464840E+02 0.15542357903E+02
 0.15969501084E+02 0.16140746256E+02 0.16140744868E+02 0.15969500655E+02 0.15542361999E+02
 0.14784469767E+02 0.13719626676E+02 0.12468375952E+02 0.11174321275E+02 0.99775946545E+01
 0.89783021206E+01 0.81967663270E+01 0.76056295293E+01 0.71697186341E+01 0.68723173221E+01
 0.67182647488E+01 0.67182475483E+01 0.68722761794E+01 0.71696819332E+01 0.76056266339E+01
 0.81968005869E+01 0.97534593229E+01 0.11174328678E+02 0.12777169464E+02 0.14411309537E+02
 0.15880426553E+02 0.16970792964E+02 0.17587681072E+02 0.17825406770E+02 0.17872924704E+02
 0.17825348506E+02 0.17587615256E+02 0.16970767954E+02 0.15880446568E+02 0.14411344430E+02
 0.12777188949E+02 0.11174319854E+02 0.97534255604E+01 0.86042657936E+01 0.77268081815E+01
 0.70800434519E+01 0.66258668820E+01 0.63498714731E+01 0.62563033962E+01 0.63498386174E+01
 0.66258291731E+01 0.70800321581E+01 0.77268319810E+01 0.86043073969E+01 0.10657189042E+02
 0.12468375807E+02 0.14411309537E+02 0.16266378082E+02 0.17727199453E+02 0.18577468714E+02
 0.18865289953E+02 0.18875050639E+02 0.18875018616E+02 0.18865221398E+02 0.18577418538E+02
 0.17727197681E+02 0.16266408736E+02 0.14411336818E+02 0.12468379756E+02 0.10657172082E+02
 0.91203677526E+01 0.79186235293E+01 0.70259700359E+01 0.63901345215E+01 0.59733135027E+01
 0.57637911716E+01 0.57637751773E+01 0.59732824578E+01 0.63901190711E+01 0.70259819713E+01
 0.79186514489E+01 0.91203957461E+01 0.11597922582E+02 0.13719624465E+02 0.15880426553E+02
 0.17727199453E+02 0.18905391575E+02 0.19324571313E+02 0.19268303017E+02 0.19178790576E+02
 0.19268308279E+02 0.19324580209E+02 0.18905403287E+02 0.17727210682E+02 0.15880429205E+02
 0.13719614574E+02 0.11597907137E+02 0.97135115964E+01 0.81834281127E+01 0.70259650952E+01
 0.61912553068E+01 0.56222675667E+01 0.52858701881E+01 0.51736243090E+01 0.52858530526E+01
 0.56222566625E+01 0.61912639710E+01 0.70259829550E+01 0.81834430281E+01 0.97135253127E+01
 0.12458876804E+02 0.14784464840E+02 0.16970792964E+02 0.18577468714E+02 0.19324571313E+02
 0.19348309616E+02 0.19139096905E+02 0.19139119280E+02 0.19348358482E+02 0.19324613124E+02
 0.18577486472E+02 0.16970788824E+02 0.14784447199E+02 0.12458857740E+02 0.10312966448E+02
 0.84950837944E+01 0.70800252345E+01 0.60424775728E+01 0.53180802766E+01 0.48535196433E+01
 0.46238341558E+01 0.46238283864E+01 0.48535143273E+01 0.53180899748E+01 0.60424938266E+01
 0.70800317999E+01 0.84950837787E+01 0.10312974877E+02 0.13151937054E+02 0.15542357903E+02
 0.17587681072E+02 0.18865289953E+02 0.19268303017E+02 0.19139096905E+02 0.19010743583E+02
 0.19139101820E+02 0.19268305978E+02 0.18865291218E+02 0.17587685449E+02 0.15542360980E+02
 0.13151932194E+02 0.10834111707E+02 0.88060666611E+01 0.71696845516E+01 0.59425563958E+01
 0.50686000479E+01 0.44819160754E+01 0.41399354016E+01 0.40267810459E+01 0.41399307545E+01
 0.44819214758E+01 0.50686148169E+01 0.59425623869E+01 0.71696771042E+01 0.88060615789E+01
 0.10834117002E+02 0.13624094798E+02 0.15969501084E+02 0.17825406770E+02 0.18875050639E+02
 0.19178790576E+02 0.19139119280E+02 0.19139101820E+02 0.19178749836E+02 0.18875014974E+02
 0.17825398784E+02 0.15969514188E+02 0.13624103012E+02 0.11225944180E+02 0.90672722107E+01
 0.72670650447E+01 0.58801415046E+01 0.48718563884E+01 0.41743497293E+01 0.37314528375E+01
 0.35142241105E+01 0.35142201509E+01 0.37314504402E+01 0.41743576327E+01 0.48718626655E+01
 0.58801343350E+01 0.72670557117E+01 0.90672751494E+01 0.11225949838E+02 0.13879289814E+02
 0.16140746256E+02 0.17872924704E+02 0.18875018616E+02 0.19268308278E+02 0.19348358482E+02
 0.19268305978E+02 0.18875014974E+02 0.17872922944E+02 0.16140745096E+02 0.13879280139E+02
 0.11474488042E+02 0.92492249709E+01 0.73478168550E+01 0.58412559909E+01 0.47216586777E+01
 0.39283478376E+01 0.33984865584E+01 0.30913824849E+01 0.29901791029E+01 0.30913774036E+01
 0.33984873397E+01 0.39283528498E+01 0.47216540548E+01 0.58412425051E+01 0.73478137382E+01
 0.92492410037E+01 0.11474508587E+02 0.13956907061E+02 0.16140744868E+02 0.17825348506E+02
 0.18865221398E+02 0.19324580209E+02 0.19324613124E+02 0.18865291218E+02 0.17825398784E+02
 0.16140745096E+02 0.13956870390E+02 0.11590672194E+02 0.93506373406E+01 0.74001120325E+01
 0.58158210115E+01 0.46121404505E+01 0.37403976135E+01 0.31378304938E+01 0.27560581773E+01
 0.25694677572E+01 0.25694654967E+01 0.27560566193E+01 0.31378344742E+01 0.37403992263E+01
 0.46121292282E+01 0.58158020016E+01 0.74001043325E+01 0.93506556758E+01 0.11590712303E+02
 0.13879318007E+02 0.15969500655E+02 0.17587615256E+02 0.18577418538E+02 0.18905403287E+02
 0.18577486472E+02 0.17587685449E+02 0.15969514188E+02 0.13879280139E+02 0.11590672194E+02
 0.93825481483E+01 0.74242094742E+01 0.58000950185E+01 0.45398699136E+01 0.36078640725E+01
 0.29461409986E+01 0.25034841761E+01 0.22474053675E+01 0.21632561308E+01 0.22474045414E+01
 0.25034859734E+01 0.29461466533E+01 0.36078671420E+01 0.45398590400E+01 0.58000672704E+01
 0.74241824894E+01 0.93825505737E+01 0.11590710638E+02 0.13624126406E+02 0.15542361999E+02
 0.16970767954E+02 0.17727197681E+02 0.17727210682E+02 0.16970788824E+02 0.15542360980E+02
 0.13624103012E+02 0.11474488042E+02 0.93506373406E+01 0.74242094742E+01 0.57945831333E+01
 0.45037427487E+01 0.35290465273E+01 0.28205313239E+01 0.23284440930E+01 0.20165655329E+01
 0.18646480957E+01 0.18646482811E+01 0.20165651141E+01 0.23284445323E+01 0.28205380211E+01
 0.35290572355E+01 0.45037410324E+01 0.57945562202E+01 0.74241711935E+01 0.93506192617E+01
 0.11474502608E+02 0.13151944451E+02 0.14784469767E+02 0.15880446568E+02 0.16266408736E+02
 0.15880429205E+02 0.14784447199E+02 0.13151932194E+02 0.11225944180E+02 0.92492249709E+01
 0.74001120325E+01 0.58000950185E+01 0.45037427487E+01 0.35028992185E+01 0.27585178173E+01
 0.22259948266E+01 0.18688204304E+01 0.16628979660E+01 0.15955348389E+01 0.16628992729E+01
 0.18688175661E+01 0.22259900307E+01 0.27585217143E+01 0.35029140890E+01 0.45037547278E+01
 0.58000891771E+01 0.74000899070E+01 0.92492027247E+01 0.11225937293E+02 0.12458857713E+02
 0.13719626676E+02 0.14411344430E+02 0.14411336818E+02 0.13719614574E+02 0.12458857740E+02
 0.10834111707E+02 0.90672722107E+01 0.73478168550E+01 0.58158210115E+01 0.45398699136E+01
 0.35290465273E+01 0.27585178173E+01 0.21923335810E+01 0.17970626872E+01 0.15472532762E+01
 0.14263826803E+01 0.14263858736E+01 0.15472572980E+01 0.17970590285E+01 0.21923230879E+01
 0.27585103598E+01 0.35290509083E+01 0.45398864633E+01 0.58158406455E+01 0.73478263188E+01
 0.90672659805E+01 0.10834100412E+02 0.11597900915E+02 0.12468375952E+02 0.12777188949E+02
 0.12468379756E+02 0.11597907137E+02 0.10312966448E+02 0.88060666611E+01 0.72670650447E+01
 0.58412559909E+01 0.46121404505E+01 0.36078640725E+01 0.28205313239E+01 0.22259948266E+01
 0.17970626872E+01 0.15096975960E+01 0.13452867196E+01 0.12918733708E+01 0.13452940332E+01
 0.15097061774E+01 0.17970647834E+01 0.22259854988E+01 0.28205125671E+01 0.36078475085E+01
 0.46121412334E+01 0.58412777067E+01 0.72670930823E+01 0.88060825090E+01 0.10312966307E+02
 0.10657180192E+02 0.11174321275E+02 0.11174319854E+02 0.10657172082E+02 0.97135115964E+01
 0.84950837944E+01 0.71696845516E+01 0.58801415046E+01 0.47216586777E+01 0.37403976135E+01
 0.29461409986E+01 0.23284440930E+01 0.18688204304E+01 0.15472532762E+01 0.13452867196E+01
 0.12483792589E+01 0.12483805745E+01 0.13452917393E+01 0.15472636784E+01 0.18688335747E+01
 0.23284494211E+01 0.29461271583E+01 0.37403672974E+01 0.47216319775E+01 0.58801386428E+01
 0.71697064899E+01 0.84951134859E+01 0.97135322836E+01 0.97534480023E+01 0.99775946545E+01
 0.97534255604E+01 0.91203677526E+01 0.81834281127E+01 0.70800252345E+01 0.59425563958E+01
 0.48718563884E+01 0.39283478376E+01 0.31378304938E+01 0.25034841761E+01 0.20165655329E+01
 0.16628979660E+01 0.14263826803E+01 0.12918733708E+01 0.12483805745E+01 0.12918678625E+01
 0.14263765547E+01 0.16629010970E+01 0.20165840860E+01 0.25035082852E+01 0.31378375503E+01
 0.39283246227E+01 0.48718158240E+01 0.59425276336E+01 0.70800276124E+01 0.81834570071E+01
 0.91204029911E+01 0.89783153665E+01 0.89783021206E+01 0.86042657936E+01 0.79186235293E+01
 0.70259650952E+01 0.60424775728E+01 0.50686000479E+01 0.41743497293E+01 0.33984865584E+01
 0.27560581773E+01 0.22474053675E+01 0.18646480957E+01 0.15955348389E+01 0.14263858736E+01
 0.13452940332E+01 0.13452917393E+01 0.14263765547E+01 0.15955183411E+01 0.18646355518E+01
 0.22474118988E+01 0.27560843295E+01 0.33985121491E+01 0.41743509326E+01 0.50685728666E+01
 0.60424429463E+01 0.70259502856E+01 0.79186378198E+01 0.86042928566E+01 0.83625503093E+01
 0.81967663270E+01 0.77268081815E+01 0.70259700359E+01 0.61912553068E+01 0.53180802766E+01
 0.44819160754E+01 0.37314528375E+01 0.30913824849E+01 0.25694677572E+01 0.21632561308E+01
 0.18646482811E+01 0.16628992729E+01 0.15472572980E+01 0.15097061774E+01 0.15472636784E+01
 0.16629010970E+01 0.18646355518E+01 0.21632326737E+01 0.25694515032E+01 0.30913896188E+01
 0.37314795601E+01 0.44819387290E+01 0.53180778900E+01 0.61912316123E+01 0.70259485099E+01
 0.77268046400E+01 0.81967728032E+01 0.78908309801E+01 0.76056295293E+01 0.70800434519E+01
 0.63901345215E+01 0.56222675667E+01 0.48535196433E+01 0.41399354016E+01 0.35142241105E+01
 0.29901791029E+01 0.25694654967E+01 0.22474045414E+01 0.20165651141E+01 0.18688175661E+01
 0.17970590285E+01 0.17970647834E+01 0.18688335747E+01 0.20165840860E+01 0.22474118988E+01
 0.25694515032E+01 0.29901535428E+01 0.35142108238E+01 0.41399469560E+01 0.48535422517E+01
 0.56222771018E+01 0.63901236942E+01 0.70800256010E+01 0.76056184497E+01 0.78908280838E+01
 0.75321721723E+01 0.71697186341E+01 0.66258668820E+01 0.59733135027E+01 0.52858701881E+01
 0.46238341558E+01 0.40267810459E+01 0.35142201509E+01 0.30913774036E+01 0.27560566193E+01
 0.25034859734E+01 0.23284445323E+01 0.22259900307E+01 0.21923230879E+01 0.22259854988E+01
 0.23284494211E+01 0.25035082852E+01 0.27560843295E+01 0.30913896188E+01 0.35142108238E+01
 0.40267653084E+01 0.46238293866E+01 0.52858767488E+01 0.59733184447E+01 0.66258618124E+01
 0.71697075027E+01 0.75321638856E+01 0.76595842626E+01 0.72671045959E+01 0.68723173221E+01
 0.63498714731E+01 0.57637911716E+01 0.51736243090E+01 0.46238283864E+01 0.41399307545E+01
 0.37314504402E+01 0.33984873397E+01 0.31378344742E+01 0.29461466533E+01 0.28205380211E+01
 0.27585217143E+01 0.27585103598E+01 0.28205125671E+01 0.29461271583E+01 0.31378375503E+01
 0.33985121491E+01 0.37314795601E+01 0.41399469560E+01 0.46238293866E+01 0.51736195706E+01
 0.57637875926E+01 0.63498670545E+01 0.68723082982E+01 0.72670937403E+01 0.74800263756E+01
 0.74800313661E+01 0.70979226948E+01 0.67182647488E+01 0.62563033962E+01 0.57637751773E+01
 0.52858530526E+01 0.48535143273E+01 0.44819214758E+01 0.41743576327E+01 0.39283528498E+01
 0.37403992263E+01 0.36078671420E+01 0.35290572355E+01 0.35029140890E+01 0.35290509083E+01
 0.36078475085E+01 0.37403672974E+01 0.39283246227E+01 0.41743509326E+01 0.44819387290E+01
 0.48535422517E+01 0.52858767488E+01 0.57637875926E+01 0.62563028462E+01 0.67182513581E+01
 0.70979016420E+01 0.73478235177E+01 0.74350552782E+01 0.73478398692E+01 0.70389196369E+01
 0.67182475483E+01 0.63498386174E+01 0.59732824578E+01 0.56222566625E+01 0.53180899748E+01
 0.50686148169E+01 0.48718626655E+01 0.47216540548E+01 0.46121292282E+01 0.45398590400E+01
 0.45037410324E+01 0.45037547278E+01 0.45398864633E+01 0.46121412334E+01 0.47216319775E+01
 0.48718158240E+01 0.50685728666E+01 0.53180778900E+01 0.56222771018E+01 0.59733184447E+01
 0.63498670545E+01 0.67182513581E+01 0.70388970299E+01 0.72751131449E+01 0.74000875590E+01
 0.74001023246E+01 0.72751448163E+01 0.70978975027E+01 0.68722761794E+01 0.66258291731E+01
 0.63901190711E+01 0.61912639710E+01 0.60424938266E+01 0.59425623869E+01 0.58801343350E+01
 0.58412425051E+01 0.58158020016E+01 0.58000672704E+01 0.57945562202E+01 0.58000891771E+01
 0.58158406455E+01 0.58412777067E+01 0.58801386428E+01 0.59425276336E+01 0.60424429463E+01
 0.61912316123E+01 0.63901236942E+01 0.66258618124E+01 0.68723082982E+01 0.70979016420E+01
 0.72751131449E+01 0.73864402881E+01 0.74241732448E+01 0.73864689648E+01 0.72751393956E+01
 0.72670611479E+01 0.71696819332E+01 0.70800321581E+01 0.70259819713E+01 0.70259829550E+01
 0.70800317999E+01 0.71696771042E+01 0.72670557117E+01 0.73478137382E+01 0.74001043325E+01
 0.74241824894E+01 0.74241711935E+01 0.74000899070E+01 0.73478263188E+01 0.72670930823E+01
 0.71697064899E+01 0.70800276124E+01 0.70259502856E+01 0.70259485099E+01 0.70800256010E+01
 0.71697075027E+01 0.72670937403E+01 0.73478235177E+01 0.74000875590E+01 0.74241732448E+01
 0.74241858753E+01 0.74001055733E+01 0.73478157310E+01 0.75321370646E+01 0.76056266339E+01
 0.77268319810E+01 0.79186514489E+01 0.81834430281E+01 0.84950837787E+01 0.88060615789E+01
 0.90672751494E+01 0.92492410037E+01 0.93506556758E+01 0.93825505737E+01 0.93506192617E+01
 0.92492027247E+01 0.90672659805E+01 0.88060825090E+01 0.84951134859E+01 0.81834570071E+01
 0.79186378198E+01 0.77268046400E+01 0.76056184497E+01 0.75321638856E+01 0.74800263756E+01
 0.74350552782E+01 0.74001023246E+01 0.73864689648E+01 0.74001055733E+01 0.74350385654E+01
 0.74799883166E+01 0.78908330831E+01 0.81968005869E+01 0.86043073969E+01 0.91203957461E+01
 0.97135253127E+01 0.10312974877E+02 0.10834117002E+02 0.11225949838E+02 0.11474508587E+02
 0.11590712303E+02 0.11590710638E+02 0.11474502608E+02 0.11225937293E+02 0.10834100412E+02
 0.10312966307E+02 0.97135322836E+01 0.91204029911E+01 0.86042928566E+01 0.81967728032E+01
 0.78908280838E+01 0.76595842626E+01 0.74800313661E+01 0.73478398692E+01 0.72751448163E+01
 0.72751393956E+01 0.73478157310E+01 0.74799883166E+01 0.76595517496E+01 0.73575685114E+01
 0.81578294570E+01 0.91223294751E+01 0.10199701249E+02 0.11286999168E+02 0.12276466947E+02
 0.13076933620E+02 0.13624094823E+02 0.13896307098E+02 0.13896320542E+02 0.13624124727E+02
 0.13076957149E+02 0.12276469166E+02 0.11286987423E+02 0.10199694430E+02 0.91223310681E+01
 0.81578202017E+01 0.73575329548E+01 0.67253106503E+01 0.62402156154E+01 0.58801545360E+01
 0.56357265357E+01 0.55103073414E+01 0.55102892071E+01 0.56356904551E+01 0.58801380917E+01
 0.62402391622E+01 0.67253574800E+01 0.81578294570E+01 0.93308183148E+01 0.10690468193E+02
 0.12124771213E+02 0.13503475888E+02 0.14682219742E+02 0.15542367161E+02 0.16042455148E+02
 0.16202914057E+02 0.16042442578E+02 0.15542358898E+02 0.14682228275E+02 0.13503495068E+02
 0.12124786194E+02 0.10690472342E+02 0.93308127081E+01 0.81578113021E+01 0.72133870570E+01
 0.64856018333E+01 0.59425449519E+01 0.55587368157E+01 0.53257434863E+01 0.52470043254E+01
 0.53257225848E+01 0.55587250384E+01 0.59425641155E+01 0.64856413036E+01 0.72134215868E+01
 0.91223294751E+01 0.10690468193E+02 0.12421792680E+02 0.14175221674E+02 0.15756231657E+02
 0.16970798494E+02 0.17730641108E+02 0.18074205807E+02 0.18074180030E+02 0.17730587799E+02
 0.16970765188E+02 0.15756241683E+02 0.14175255226E+02 0.12421816438E+02 0.10690472815E+02
 0.91223264074E+01 0.78202358952E+01 0.68039956785E+01 0.60424613208E+01 0.54943842140E+01
 0.51331341340E+01 0.49514685175E+01 0.49514615921E+01 0.51331284561E+01 0.54944000905E+01
 0.60424914185E+01 0.68040174784E+01 0.78202439097E+01 0.10199701249E+02 0.12124771213E+02
 0.14175221674E+02 0.16133658964E+02 0.17727196595E+02 0.18780862205E+02 0.19313862427E+02
 0.19465436183E+02 0.19313848744E+02 0.18780847088E+02 0.17727194434E+02 0.16133669647E+02
 0.14175229112E+02 0.12124766664E+02 0.10199697491E+02 0.85328185081E+01 0.72000989551E+01
 0.61912477059E+01 0.54577165149E+01 0.49536424863E+01 0.46544822601E+01 0.45546065946E+01
 0.46544814895E+01 0.49536556992E+01 0.54577407138E+01 0.61912597408E+01 0.72000911376E+01
 0.85328098265E+01 0.11286999168E+02 0.13503475888E+02 0.15756231657E+02 0.17727196595E+02
 0.19132872388E+02 0.19904505694E+02 0.20198339223E+02 0.20198366660E+02 0.19904564156E+02
 0.19132917576E+02 0.17727206101E+02 0.15756211269E+02 0.13503443255E+02 0.11286976196E+02
 0.93023059015E+01 0.76584037971E+01 0.63901280909E+01 0.54577278377E+01 0.48022013300E+01
 0.43795041028E+01 0.41700839991E+01 0.41700852576E+01 0.43795145463E+01 0.48022226977E+01
 0.54577403630E+01 0.63901154737E+01 0.76583811849E+01 0.93023023171E+01 0.12276466947E+02
 0.14682219742E+02 0.16970798494E+02 0.18780862205E+02 0.19904505694E+02 0.20414114696E+02
 0.20542560950E+02 0.20414175301E+02 0.19904573790E+02 0.18780890768E+02 0.16970784723E+02
 0.14682187891E+02 0.12276441010E+02 0.10049045538E+02 0.81402386667E+01 0.66258493389E+01
 0.54944029012E+01 0.46857918629E+01 0.41402728239E+01 0.38213707076E+01 0.37157814708E+01
 0.38213769181E+01 0.41402893210E+01 0.46858078074E+01 0.54943983978E+01 0.66258247140E+01
 0.81402182921E+01 0.10049049281E+02 0.13076933620E+02 0.15542367161E+02 0.17730641108E+02
 0.19313862427E+02 0.20198339223E+02 0.20542560950E+02 0.20542571204E+02 0.20198356607E+02
 0.19313866890E+02 0.17730632703E+02 0.15542359214E+02 0.13076932550E+02 0.10691139311E+02
 0.85922778839E+01 0.68722919498E+01 0.55587353673E+01 0.46042645498E+01 0.39420274985E+01
 0.35204212228E+01 0.33134549773E+01 0.33134567325E+01 0.35204294041E+01 0.39420405611E+01
 0.46042687909E+01 0.55587215439E+01 0.68722695846E+01 0.85922618773E+01 0.10691133103E+02
 0.13624094823E+02 0.16042455148E+02 0.18074205807E+02 0.19465436183E+02 0.20198366660E+02
 0.20414175301E+02 0.20198356607E+02 0.19465417344E+02 0.18074187440E+02 0.16042449293E+02
 0.13624102667E+02 0.11176368870E+02 0.89634316472E+01 0.70979057514E+01 0.56356987070E+01
 0.45526312768E+01 0.37846962897E+01 0.32709797557E+01 0.29730418470E+01 0.28748765594E+01
 0.29730430553E+01 0.32709845946E+01 0.37847008268E+01 0.45526275273E+01 0.56356863535E+01
 0.70978917215E+01 0.89634188248E+01 0.11176356073E+02 0.13896307098E+02 0.16202914057E+02
 0.18074180030E+02 0.19313848744E+02 0.19904564156E+02 0.19904573790E+02 0.19313866890E+02
 0.18074187440E+02 0.16202904822E+02 0.13896292446E+02 0.11474487902E+02 0.92204113439E+01
 0.72751477106E+01 0.57088845674E+01 0.45235576028E+01 0.36657881052E+01 0.30726360096E+01
 0.26967630458E+01 0.25131253452E+01 0.25131247673E+01 0.26967622832E+01 0.30726360606E+01
 0.36657874694E+01 0.45235532997E+01 0.57088755541E+01 0.72751372634E+01 0.92204065011E+01
 0.11474494446E+02 0.13896320542E+02 0.16042442578E+02 0.17730587799E+02 0.18780847088E+02
 0.19132917576E+02 0.18780890768E+02 0.17730632703E+02 0.16042449293E+02 0.13896292446E+02
 0.11574395075E+02 0.93506384970E+01 0.73864893380E+01 0.57647268179E+01 0.45094068721E+01
 0.35818568844E+01 0.29234066695E+01 0.24829989397E+01 0.22283216793E+01 0.21446667909E+01
 0.22283213757E+01 0.24829973522E+01 0.29234062955E+01 0.35818593323E+01 0.45094046432E+01
 0.57647111432E+01 0.73864688805E+01 0.93506370899E+01 0.11574421411E+02 0.13624124727E+02
 0.15542358898E+02 0.16970765188E+02 0.17727194434E+02 0.17727206101E+02 0.16970784723E+02
 0.15542359214E+02 0.13624102667E+02 0.11474487902E+02 0.93506384970E+01 0.74242127239E+01
 0.57945864398E+01 0.45037441326E+01 0.35290470156E+01 0.28205323781E+01 0.23284447304E+01
 0.20165647027E+01 0.18646472472E+01 0.18646487671E+01 0.20165656184E+01 0.23284438352E+01
 0.28205377409E+01 0.35290590583E+01 0.45037437508E+01 0.57945581921E+01 0.74241731087E+01
 0.93506217526E+01 0.11474503803E+02 0.13076957149E+02 0.14682228275E+02 0.15756241683E+02
 0.16133669647E+02 0.15756211269E+02 0.14682187891E+02 0.13076932550E+02 0.11176368870E+02
 0.92204113439E+01 0.73864893380E+01 0.57945864398E+01 0.45023445557E+01 0.35037640786E+01
 0.27607571305E+01 0.22289867536E+01 0.18720410559E+01 0.16660457862E+01 0.15986114676E+01
 0.16660494854E+01 0.18720403213E+01 0.22289852094E+01 0.27607685743E+01 0.35037858986E+01
 0.45023514340E+01 0.57945598822E+01 0.73864415432E+01 0.92203727937E+01 0.11176361292E+02
 0.12276469166E+02 0.13503495068E+02 0.14175255226E+02 0.14175229112E+02 0.13503443255E+02
 0.12276441010E+02 0.10691139311E+02 0.89634316472E+01 0.72751477106E+01 0.57647268179E+01
 0.45037441326E+01 0.35037640786E+01 0.27412201136E+01 0.21805672801E+01 0.17885865288E+01
 0.15403044600E+01 0.14199205533E+01 0.14199239638E+01 0.15403072915E+01 0.17885805173E+01
 0.21805608002E+01 0.27412286310E+01 0.35037877141E+01 0.45037644404E+01 0.57647237896E+01
 0.72751168768E+01 0.89633913708E+01 0.10691123060E+02 0.11286987423E+02 0.12124786194E+02
 0.12421816438E+02 0.12124766664E+02 0.11286976196E+02 0.10049045538E+02 0.85922778839E+01
 0.70979057514E+01 0.57088845674E+01 0.45094068721E+01 0.35290470156E+01 0.27607571305E+01
 0.21805672801E+01 0.17613822155E+01 0.14797239114E+01 0.13180255159E+01 0.12653716119E+01
 0.13180311577E+01 0.14797256073E+01 0.17613739776E+01 0.21805547359E+01 0.27607523571E+01
 0.35290585566E+01 0.45094315874E+01 0.57089055238E+01 0.70979049313E+01 0.85922582514E+01
 0.10049032694E+02 0.10199694430E+02 0.10690472342E+02 0.10690472815E+02 0.10199697491E+02
 0.93023059015E+01 0.81402386667E+01 0.68722919498E+01 0.56356987070E+01 0.45235576028E+01
 0.35818568844E+01 0.28205323781E+01 0.22289867536E+01 0.17885865288E+01 0.14797239114E+01
 0.12850356543E+01 0.11913167328E+01 0.11913193685E+01 0.12850419154E+01 0.14797296301E+01
 0.17885863329E+01 0.22289767528E+01 0.28205158972E+01 0.35818464778E+01 0.45235644969E+01
 0.56357187634E+01 0.68723086944E+01 0.81402421620E+01 0.93023015893E+01 0.91223310681E+01
 0.93308127081E+01 0.91223264074E+01 0.85328185081E+01 0.76584037971E+01 0.66258493389E+01
 0.55587353673E+01 0.45526312768E+01 0.36657881052E+01 0.29234066695E+01 0.23284447304E+01
 0.18720410559E+01 0.15403044600E+01 0.13180255159E+01 0.11913167328E+01 0.11502823372E+01
 0.11913164918E+01 0.13180289995E+01 0.15403151612E+01 0.18720551796E+01 0.23284503045E+01
 0.29233942217E+01 0.36657628194E+01 0.45526103810E+01 0.55587319430E+01 0.66258614370E+01
 0.76584198815E+01 0.85328296406E+01 0.81578202017E+01 0.81578113021E+01 0.78202358952E+01
 0.72000989551E+01 0.63901280909E+01 0.54944029012E+01 0.46042645498E+01 0.37846962897E+01
 0.30726360096E+01 0.24829989397E+01 0.20165647027E+01 0.16660457862E+01 0.14199205533E+01
 0.12653716119E+01 0.11913193685E+01 0.11913164918E+01 0.12653643792E+01 0.14199148135E+01
 0.16660508741E+01 0.20165841147E+01 0.24830218502E+01 0.30726434485E+01 0.37846788594E+01
 0.46042326457E+01 0.54943780478E+01 0.63901248753E+01 0.72001149823E+01 0.78202561892E+01
 0.73575329548E+01 0.72133870570E+01 0.68039956785E+01 0.61912477059E+01 0.54577278377E+01
 0.46857918629E+01 0.39420274985E+01 0.32709797557E+01 0.26967630458E+01 0.22283216793E+01
 0.18646472472E+01 0.15986114676E+01 0.14199239638E+01 0.13180311577E+01 0.12850419154E+01
 0.13180289995E+01 0.14199148135E+01 0.15985953974E+01 0.18646351547E+01 0.22283272530E+01
 0.26967874902E+01 0.32710064758E+01 0.39420351044E+01 0.46857741864E+01 0.54577003712E+01
 0.61912325394E+01 0.68039998537E+01 0.72133973918E+01 0.67253106503E+01 0.64856018333E+01
 0.60424613208E+01 0.54577165149E+01 0.48022013300E+01 0.41402728239E+01 0.35204212228E+01
 0.29730418470E+01 0.25131253452E+01 0.21446667909E+01 0.18646487671E+01 0.16660494854E+01
 0.15403072915E+01 0.14797256073E+01 0.14797296301E+01 0.15403151612E+01 0.16660508741E+01
 0.18646351547E+01 0.21446421486E+01 0.25131077274E+01 0.29730483179E+01 0.35204488655E+01
 0.41402988278E+01 0.48022052993E+01 0.54576999301E+01 0.60424416566E+01 0.64855913941E+01
 0.67253082831E+01 0.62402156154E+01 0.59425449519E+01 0.54943842140E+01 0.49536424863E+01
 0.43795041028E+01 0.38213707076E+01 0.33134549773E+01 0.28748765594E+01 0.25131247673E+01
 0.22283213757E+01 0.20165656184E+01 0.18720403213E+01 0.17885805173E+01 0.17613739776E+01
 0.17885863329E+01 0.18720551796E+01 0.20165841147E+01 0.22283272530E+01 0.25131077274E+01
 0.28748480521E+01 0.33134397028E+01 0.38213810232E+01 0.43795274814E+01 0.49536560029E+01
 0.54943773709E+01 0.59425261265E+01 0.62402008287E+01 0.63446893540E+01 0.58801545360E+01
 0.55587368157E+01 0.51331341340E+01 0.46544822601E+01 0.41700839991E+01 0.37157814708E+01
 0.33134567325E+01 0.29730430553E+01 0.26967622832E+01 0.24829973522E+01 0.23284438352E+01
 0.22289852094E+01 0.21805608002E+01 0.21805547359E+01 0.22289767528E+01 0.23284503045E+01
 0.24830218502E+01 0.26967874902E+01 0.29730483179E+01 0.33134397028E+01 0.37157604265E+01
 0.41700783847E+01 0.46544927912E+01 0.51331439328E+01 0.55587316213E+01 0.58801389584E+01
 0.60535489554E+01 0.60535573627E+01 0.56357265357E+01 0.53257434863E+01 0.49514685175E+01
 0.45546065946E+01 0.41700852576E+01 0.38213769181E+01 0.35204294041E+01 0.32709845946E+01
 0.30726360606E+01 0.29234062955E+01 0.28205377409E+01 0.27607685743E+01 0.27412286310E+01
 0.27607523571E+01 0.28205158972E+01 0.29233942217E+01 0.30726434485E+01 0.32710064758E+01
 0.35204488655E+01 0.38213810232E+01 0.41700783847E+01 0.45546035074E+01 0.49514741008E+01
 0.53257466813E+01 0.56357180869E+01 0.58412780844E+01 0.59133477548E+01 0.58412898712E+01
 0.55103073414E+01 0.52470043254E+01 0.49514615921E+01 0.46544814895E+01 0.43795145463E+01
 0.41402893210E+01 0.39420405611E+01 0.37847008268E+01 0.36657874694E+01 0.35818593323E+01
 0.35290590583E+01 0.35037858986E+01 0.35037877141E+01 0.35290585566E+01 0.35818464778E+01
 0.36657628194E+01 0.37846788594E+01 0.39420351044E+01 0.41402988278E+01 0.43795274814E+01
 0.46544927912E+01 0.49514741008E+01 0.52470154120E+01 0.55103076783E+01 0.57089040573E+01
 0.58158396673E+01 0.58158462353E+01 0.57089143420E+01 0.55102892071E+01 0.53257225848E+01
 0.51331284561E+01 0.49536556992E+01 0.48022226977E+01 0.46858078074E+01 0.46042687909E+01
 0.45526275273E+01 0.45235532997E+01 0.45094046432E+01 0.45037437508E+01 0.45023514340E+01
 0.45037644404E+01 0.45094315874E+01 0.45235644969E+01 0.45526103810E+01 0.46042326457E+01
 0.46857741864E+01 0.48022052993E+01 0.49536560029E+01 0.51331439328E+01 0.53257466813E+01
 0.55103076783E+01 0.56635005000E+01 0.57647227762E+01 0.58000895476E+01 0.57647293715E+01
 0.56634982611E+01 0.56356904551E+01 0.55587250384E+01 0.54944000905E+01 0.54577407138E+01
 0.54577403630E+01 0.54943983978E+01 0.55587215439E+01 0.56356863535E+01 0.57088755541E+01
 0.57647111432E+01 0.57945581921E+01 0.57945598822E+01 0.57647237896E+01 0.57089055238E+01
 0.56357187634E+01 0.55587319430E+01 0.54943780478E+01 0.54577003712E+01 0.54576999301E+01
 0.54943773709E+01 0.55587316213E+01 0.56357180869E+01 0.57089040573E+01 0.57647227762E+01
 0.57945605990E+01 0.57945602435E+01 0.57647137185E+01 0.57088788814E+01 0.58801380917E+01
 0.59425641155E+01 0.60424914185E+01 0.61912597408E+01 0.63901154737E+01 0.66258247140E+01
 0.68722695846E+01 0.70978917215E+01 0.72751372634E+01 0.73864688805E+01 0.74241731087E+01
 0.73864415432E+01 0.72751168768E+01 0.70979049313E+01 0.68723086944E+01 0.66258614370E+01
 0.63901248753E+01 0.61912325394E+01 0.60424416566E+01 0.59425261265E+01 0.58801389584E+01
 0.58412780844E+01 0.58158396673E+01 0.58000895476E+01 0.57945602435E+01 0.58000725716E+01
 0.58158057333E+01 0.58412456930E+01 0.62402391622E+01 0.64856413036E+01 0.68040174784E+01
 0.72000911376E+01 0.76583811849E+01 0.81402182921E+01 0.85922618773E+01 0.89634188248E+01
 0.92204065011E+01 0.93506370899E+01 0.93506217526E+01 0.92203727937E+01 0.89633913708E+01
 0.85922582514E+01 0.81402421620E+01 0.76584198815E+01 0.72001149823E+01 0.68039998537E+01
 0.64855913941E+01 0.62402008287E+01 0.60535489554E+01 0.59133477548E+01 0.58158462353E+01
 0.57647293715E+01 0.57647137185E+01 0.58158057333E+01 0.59133068440E+01 0.60535425021E+01
 0.67253574800E+01 0.72134215868E+01 0.78202439097E+01 0.85328098265E+01 0.93023023171E+01
 0.10049049281E+02 0.10691133103E+02 0.11176356073E+02 0.11474494446E+02 0.11574421411E+02
 0.11474503803E+02 0.11176361292E+02 0.10691123060E+02 0.10049032694E+02 0.93023015893E+01
 0.85328296406E+01 0.78202561892E+01 0.72133973918E+01 0.67253082831E+01 0.63446893540E+01
 0.60535573627E+01 0.58412898712E+01 0.57089143420E+01 0.56634982611E+01 0.57088788814E+01
 0.58412456930E+01 0.60535425021E+01 0.63447199461E+01 0.66812036533E+01 0.76268291785E+01
 0.87401029558E+01 0.99590261345E+01 0.11175472258E+02 0.12276449091E+02 0.13151910943E+02
 0.13711606963E+02 0.13903452387E+02 0.13711628272E+02 0.13151938228E+02 0.12276464622E+02
 0.11175467986E+02 0.99590081982E+01 0.87400888536E+01 0.76268336283E+01 0.66812198154E+01
 0.59176488761E+01 0.53217854077E+01 0.48718264674E+01 0.45526077203E+01 0.43595784385E+01
 0.42946690207E+01 0.43595804165E+01 0.45526270849E+01 0.48718618782E+01 0.53218109025E+01
 0.59176466837E+01 0.76268291785E+01 0.89392800955E+01 0.10435538480E+02 0.12001350187E+02
 0.13503477765E+02 0.14784465288E+02 0.15704167182E+02 0.16179238254E+02 0.16179231334E+02
 0.15704154573E+02 0.14784463318E+02 0.13503491719E+02 0.12001364820E+02 0.10435537517E+02
 0.89392721693E+01 0.76268364334E+01 0.65506265715E+01 0.57075221419E+01 0.50685865693E+01
 0.46042322489E+01 0.42972026237E+01 0.41430784321E+01 0.41430836662E+01 0.42972242289E+01
 0.46042689366E+01 0.50686131967E+01 0.57075179079E+01 0.65506062064E+01 0.87401029558E+01
 0.10435538480E+02 0.12294079874E+02 0.14175241058E+02 0.15880449951E+02 0.17208948112E+02
 0.18033061162E+02 0.18309311241E+02 0.18033040578E+02 0.17208923559E+02 0.15880442551E+02
 0.14175253976E+02 0.12294093187E+02 0.10435538511E+02 0.87401052128E+01 0.73115843209E+01
 0.61792821492E+01 0.53180903921E+01 0.46857812222E+01 0.42480615505E+01 0.39877554936E+01
 0.39009233398E+01 0.39877721424E+01 0.42480936072E+01 0.46858082497E+01 0.53180863163E+01
 0.61792521060E+01 0.73115609201E+01 0.99590261345E+01 0.12001350187E+02 0.14175241058E+02
 0.16266410084E+02 0.18014914228E+02 0.19227969764E+02 0.19833766221E+02 0.19833778383E+02
 0.19227992131E+02 0.18014924718E+02 0.16266404993E+02 0.14175228616E+02 0.12001335640E+02
 0.99590183026E+01 0.81765424672E+01 0.67317933619E+01 0.56222812356E+01 0.48022223502E+01
 0.42211564745E+01 0.38447055884E+01 0.36580476593E+01 0.36580548273E+01 0.38447261446E+01
 0.42211785804E+01 0.48022225520E+01 0.56222519357E+01 0.67317581341E+01 0.81765283749E+01
 0.11175472258E+02 0.13503477765E+02 0.15880449951E+02 0.18014914228E+02 0.19637958106E+02
 0.20614226990E+02 0.20934196238E+02 0.20614286098E+02 0.19638019259E+02 0.18014929962E+02
 0.15880424533E+02 0.13503443164E+02 0.11175451296E+02 0.90866534303E+01 0.73395917478E+01
 0.59733088322E+01 0.49536722769E+01 0.42211749690E+01 0.37243628711E+01 0.34333029070E+01
 0.33369403329E+01 0.34333119028E+01 0.37243760017E+01 0.42211786346E+01 0.49536552569E+01
 0.59732787689E+01 0.73395693871E+01 0.90866523838E+01 0.12276449091E+02 0.14784465288E+02
 0.17208948112E+02 0.19227969764E+02 0.20614226990E+02 0.21298601822E+02 0.21298626096E+02
 0.20614273229E+02 0.19227992490E+02 0.17208936492E+02 0.14784444937E+02 0.12276442848E+02
 0.99546350735E+01 0.79550938433E+01 0.63498514386E+01 0.51331414740E+01 0.42481002297E+01
 0.36315658684E+01 0.32380252997E+01 0.30447905746E+01 0.30447929668E+01 0.32380306180E+01
 0.36315686540E+01 0.42480950032E+01 0.51331286018E+01 0.63498359967E+01 0.79550797490E+01
 0.99546269077E+01 0.13151910943E+02 0.15704167182E+02 0.18033061162E+02 0.19833766221E+02
 0.20934196238E+02 0.21298626096E+02 0.20934188602E+02 0.19833749446E+02 0.18033043800E+02
 0.15704166654E+02 0.13151934365E+02 0.10691143247E+02 0.85166405474E+01 0.67182503283E+01
 0.53257211550E+01 0.42972284071E+01 0.35667816634E+01 0.30771421390E+01 0.27930855029E+01
 0.26995607154E+01 0.27930868499E+01 0.30771416557E+01 0.35667791719E+01 0.42972280199E+01
 0.53257230272E+01 0.67182448902E+01 0.85166181305E+01 0.10691109974E+02 0.13711606963E+02
 0.16179238254E+02 0.18309311241E+02 0.19833778383E+02 0.20614286098E+02 0.20614273229E+02
 0.19833749446E+02 0.18309287556E+02 0.16179237374E+02 0.13711631783E+02 0.11225947791E+02
 0.89634356032E+01 0.70389219839E+01 0.55102769186E+01 0.43595748713E+01 0.35273487009E+01
 0.29513545511E+01 0.25863528471E+01 0.24082151159E+01 0.24082153899E+01 0.25863506359E+01
 0.29513486397E+01 0.35273473165E+01 0.43595848148E+01 0.55102890614E+01 0.70389178117E+01
 0.89634083101E+01 0.11225910828E+02 0.13903452387E+02 0.16179231334E+02 0.18033040578E+02
 0.19227992131E+02 0.19638019259E+02 0.19227992490E+02 0.18033043800E+02 0.16179237374E+02
 0.13903460386E+02 0.11506830665E+02 0.92492277165E+01 0.72751505956E+01 0.56634867874E+01
 0.44230674172E+01 0.35081924622E+01 0.28588640468E+01 0.24247415222E+01 0.21740199192E+01
 0.20917665460E+01 0.21740193977E+01 0.24247348179E+01 0.28588560876E+01 0.35081965392E+01
 0.44230834302E+01 0.56634978187E+01 0.72751455691E+01 0.92492136910E+01 0.11506818713E+02
 0.13711628272E+02 0.15704154573E+02 0.17208923559E+02 0.18014924718E+02 0.18014929962E+02
 0.17208936492E+02 0.15704166654E+02 0.13711631783E+02 0.11506830665E+02 0.93474560514E+01
 0.74001159098E+01 0.57647295389E+01 0.44747679093E+01 0.35024732111E+01 0.27961528530E+01
 0.23059028773E+01 0.19955682201E+01 0.18446168764E+01 0.18446186296E+01 0.19955670035E+01
 0.23058943846E+01 0.27961492618E+01 0.35024845576E+01 0.44747822036E+01 0.57647295173E+01
 0.74001049612E+01 0.93474497997E+01 0.11506831343E+02 0.13151938228E+02 0.14784463318E+02
 0.15880442551E+02 0.16266404993E+02 0.15880424533E+02 0.14784444937E+02 0.13151934365E+02
 0.11225947791E+02 0.92492277165E+01 0.74001159098E+01 0.58001007620E+01 0.45037466263E+01
 0.35028991466E+01 0.27585169847E+01 0.22259956467E+01 0.18688206003E+01 0.16628960165E+01
 0.15955336949E+01 0.16629006424E+01 0.18688186015E+01 0.22259892130E+01 0.27585222563E+01
 0.35029178206E+01 0.45037583140E+01 0.58000899899E+01 0.74000899166E+01 0.92492030828E+01
 0.11225935015E+02 0.12276464622E+02 0.13503491719E+02 0.14175253976E+02 0.14175228616E+02
 0.13503443164E+02 0.12276442848E+02 0.10691143247E+02 0.89634356032E+01 0.72751505956E+01
 0.57647295389E+01 0.45037466263E+01 0.35037646498E+01 0.27412186578E+01 0.21805659593E+01
 0.17885862946E+01 0.15403039926E+01 0.14199194341E+01 0.14199236683E+01 0.15403081749E+01
 0.17885810485E+01 0.21805606796E+01 0.27412294532E+01 0.35037896229E+01 0.45037653082E+01
 0.57647226304E+01 0.72751149711E+01 0.89633892379E+01 0.10691119587E+02 0.11175467986E+02
 0.12001364820E+02 0.12294093187E+02 0.12001335640E+02 0.11175451296E+02 0.99546350735E+01
 0.85166405474E+01 0.70389219839E+01 0.56634867874E+01 0.44747679093E+01 0.35028991466E+01
 0.27412186578E+01 0.21659088613E+01 0.17499754177E+01 0.14701750174E+01 0.13093303742E+01
 0.12569079161E+01 0.13093353461E+01 0.14701744332E+01 0.17499650006E+01 0.21658991225E+01
 0.27412245724E+01 0.35029249910E+01 0.44748002804E+01 0.56635000577E+01 0.70388993060E+01
 0.85165974033E+01 0.99546116638E+01 0.99590081982E+01 0.10435537517E+02 0.10435538511E+02
 0.99590183026E+01 0.90866534303E+01 0.79550938433E+01 0.67182503283E+01 0.55102769186E+01
 0.44230674172E+01 0.35024732111E+01 0.27585169847E+01 0.21805659593E+01 0.17499754177E+01
 0.14474329444E+01 0.12562448148E+01 0.11640058243E+01 0.11640077515E+01 0.12562477563E+01
 0.14474308248E+01 0.17499643935E+01 0.21805499052E+01 0.27585091463E+01 0.35024876254E+01
 0.44231019584E+01 0.55103078240E+01 0.67182533266E+01 0.79550708992E+01 0.90866288310E+01
 0.87400888536E+01 0.89392721693E+01 0.87401052128E+01 0.81765424672E+01 0.73395917478E+01
 0.63498514386E+01 0.53257211550E+01 0.43595748713E+01 0.35081924622E+01 0.27961528530E+01
 0.22259956467E+01 0.17885862946E+01 0.14701750174E+01 0.12562448148E+01 0.11339330867E+01
 0.10942459202E+01 0.11339338267E+01 0.12562483451E+01 0.14701796427E+01 0.17885843800E+01
 0.22259816794E+01 0.27961339547E+01 0.35081856597E+01 0.43595896797E+01 0.53257471236E+01
 0.63498672165E+01 0.73395858707E+01 0.81765225796E+01 0.76268336283E+01 0.76268364334E+01
 0.73115843209E+01 0.67317933619E+01 0.59733088322E+01 0.51331414740E+01 0.42972284071E+01
 0.35273487009E+01 0.28588640468E+01 0.23059028773E+01 0.18688206003E+01 0.15403039926E+01
 0.13093303742E+01 0.11640058243E+01 0.10942459202E+01 0.10942441625E+01 0.11640036607E+01
 0.13093339194E+01 0.15403151149E+01 0.18688322985E+01 0.23059037336E+01 0.28588496242E+01
 0.35273279730E+01 0.42972162083E+01 0.51331437871E+01 0.59733176018E+01 0.67317969961E+01
 0.73115809164E+01 0.66812198154E+01 0.65506265715E+01 0.61792821492E+01 0.56222812356E+01
 0.49536722769E+01 0.42481002297E+01 0.35667816634E+01 0.29513545511E+01 0.24247415222E+01
 0.19955682201E+01 0.16628960165E+01 0.14199194341E+01 0.12569079161E+01 0.11640077515E+01
 0.11339338267E+01 0.11640036607E+01 0.12569009981E+01 0.14199148926E+01 0.16629012572E+01
 0.19955847596E+01 0.24247596775E+01 0.29513599903E+01 0.35667689087E+01 0.42480782076E+01
 0.49536555606E+01 0.56222771637E+01 0.61792870615E+01 0.65506319819E+01 0.59176488761E+01
 0.57075221419E+01 0.53180903921E+01 0.48022223502E+01 0.42211749690E+01 0.36315658684E+01
 0.30771421390E+01 0.25863528471E+01 0.21740199192E+01 0.18446168764E+01 0.15955336949E+01
 0.14199236683E+01 0.13093353461E+01 0.12562477563E+01 0.12562483451E+01 0.13093339194E+01
 0.14199148926E+01 0.15955185044E+01 0.18446055365E+01 0.21740242180E+01 0.25863736295E+01
 0.30771658351E+01 0.36315757526E+01 0.42211663369E+01 0.48022054451E+01 0.53180785217E+01
 0.57075190652E+01 0.59176491585E+01 0.53217854077E+01 0.50685865693E+01 0.46857812222E+01
 0.42211564745E+01 0.37243628711E+01 0.32380252997E+01 0.27930855029E+01 0.24082151159E+01
 0.20917665460E+01 0.18446186296E+01 0.16629006424E+01 0.15403081749E+01 0.14701744332E+01
 0.14474308248E+01 0.14701796427E+01 0.15403151149E+01 0.16629012572E+01 0.18446055365E+01
 0.20917432460E+01 0.24081976491E+01 0.27930889070E+01 0.32380481449E+01 0.37243879576E+01
 0.42211670747E+01 0.46857746287E+01 0.50685724604E+01 0.53217752463E+01 0.54104604416E+01
 0.48718264674E+01 0.46042322489E+01 0.42480615505E+01 0.38447055884E+01 0.34333029070E+01
 0.30447905746E+01 0.26995607154E+01 0.24082153899E+01 0.21740193977E+01 0.19955670035E+01
 0.18688186015E+01 0.17885810485E+01 0.17499650006E+01 0.17499643935E+01 0.17885843800E+01
 0.18688322985E+01 0.19955847596E+01 0.21740242180E+01 0.24081976491E+01 0.26995309444E+01
 0.30447713339E+01 0.34333078392E+01 0.38447271347E+01 0.42480791811E+01 0.46042324999E+01
 0.48718148481E+01 0.50157353979E+01 0.50157422189E+01 0.45526077203E+01 0.42972026237E+01
 0.39877554936E+01 0.36580476593E+01 0.33369403329E+01 0.30447929668E+01 0.27930868499E+01
 0.25863506359E+01 0.24247348179E+01 0.23058943846E+01 0.22259892130E+01 0.21805606796E+01
 0.21658991225E+01 0.21805499052E+01 0.22259816794E+01 0.23059037336E+01 0.24247596775E+01
 0.25863736295E+01 0.27930889070E+01 0.30447713339E+01 0.33369130576E+01 0.36580369756E+01
 0.39877652863E+01 0.42972162335E+01 0.45526099387E+01 0.47216321726E+01 0.47808382893E+01
 0.47216374519E+01 0.43595784385E+01 0.41430784321E+01 0.39009233398E+01 0.36580548273E+01
 0.34333119028E+01 0.32380306180E+01 0.30771416557E+01 0.29513486397E+01 0.28588560876E+01
 0.27961492618E+01 0.27585222563E+01 0.27412294532E+01 0.27412245724E+01 0.27585091463E+01
 0.27961339547E+01 0.28588496242E+01 0.29513599903E+01 0.30771658351E+01 0.32380481449E+01
 0.34333078392E+01 0.36580369756E+01 0.39009132037E+01 0.41430847873E+01 0.43595900596E+01
 0.45235646426E+01 0.46121424334E+01 0.46121420365E+01 0.45235594114E+01 0.42946690207E+01
 0.41430836662E+01 0.39877721424E+01 0.38447261446E+01 0.37243760017E+01 0.36315686540E+01
 0.35667791719E+01 0.35273473165E+01 0.35081965392E+01 0.35024845576E+01 0.35029178206E+01
 0.35037896229E+01 0.35029249910E+01 0.35024876254E+01 0.35081856597E+01 0.35273279730E+01
 0.35667689087E+01 0.36315757526E+01 0.37243879576E+01 0.38447271347E+01 0.39877652863E+01
 0.41430847873E+01 0.42946830999E+01 0.44231037216E+01 0.45094320297E+01 0.45398873939E+01
 0.45094228696E+01 0.44230871485E+01 0.43595804165E+01 0.42972242289E+01 0.42480936072E+01
 0.42211785804E+01 0.42211786346E+01 0.42480950032E+01 0.42972280199E+01 0.43595848148E+01
 0.44230834302E+01 0.44747822036E+01 0.45037583140E+01 0.45037653082E+01 0.44748002804E+01
 0.44231019584E+01 0.43595896797E+01 0.42972162083E+01 0.42480782076E+01 0.42211663369E+01
 0.42211670747E+01 0.42480791811E+01 0.42972162335E+01 0.43595900596E+01 0.44231037216E+01
 0.44748015905E+01 0.45037642947E+01 0.45037559660E+01 0.44747799250E+01 0.44230803995E+01
 0.45526270849E+01 0.46042689366E+01 0.46858082497E+01 0.48022225520E+01 0.49536552569E+01
 0.51331286018E+01 0.53257230272E+01 0.55102890614E+01 0.56634978187E+01 0.57647295173E+01
 0.58000899899E+01 0.57647226304E+01 0.56635000577E+01 0.55103078240E+01 0.53257471236E+01
 0.51331437871E+01 0.49536555606E+01 0.48022054451E+01 0.46857746287E+01 0.46042324999E+01
 0.45526099387E+01 0.45235646426E+01 0.45094320297E+01 0.45037642947E+01 0.45023509917E+01
 0.45037438965E+01 0.45094050855E+01 0.45235531540E+01 0.48718618782E+01 0.50686131967E+01
 0.53180863163E+01 0.56222519357E+01 0.59732787689E+01 0.63498359967E+01 0.67182448902E+01
 0.70389178117E+01 0.72751455691E+01 0.74001049612E+01 0.74000899166E+01 0.72751149711E+01
 0.70388993060E+01 0.67182533266E+01 0.63498672165E+01 0.59733176018E+01 0.56222771637E+01
 0.53180785217E+01 0.50685724604E+01 0.48718148481E+01 0.47216321726E+01 0.46121424334E+01
 0.45398873939E+01 0.45037559660E+01 0.45037438965E+01 0.45398624354E+01 0.46121308269E+01
 0.47216537696E+01 0.53218109025E+01 0.57075179079E+01 0.61792521060E+01 0.67317581341E+01
 0.73395693871E+01 0.79550797490E+01 0.85166181305E+01 0.89634083101E+01 0.92492136910E+01
 0.93474497997E+01 0.92492030828E+01 0.89633892379E+01 0.85165974033E+01 0.79550708992E+01
 0.73395858707E+01 0.67317969961E+01 0.61792870615E+01 0.57075190652E+01 0.53217752463E+01
 0.50157353979E+01 0.47808382893E+01 0.46121420365E+01 0.45094228696E+01 0.44747799250E+01
 0.45094050855E+01 0.46121308269E+01 0.47808568430E+01 0.50157787556E+01 0.59176466837E+01
 0.65506062064E+01 0.73115609201E+01 0.81765283749E+01 0.90866523838E+01 0.99546269077E+01
 0.10691109974E+02 0.11225910828E+02 0.11506818713E+02 0.11506831343E+02 0.11225935015E+02
 0.10691119587E+02 0.99546116638E+01 0.90866288310E+01 0.81765225796E+01 0.73115809164E+01
 0.65506319819E+01 0.59176491585E+01 0.54104604416E+01 0.50157422189E+01 0.47216374519E+01
 0.45235594114E+01 0.44230871485E+01 0.44230803995E+01 0.45235531540E+01 0.47216537696E+01
 0.50157787556E+01 0.54104889145E+01 0.62845518506E+01 0.73611313608E+01 0.86102043349E+01
 0.99590144010E+01 0.11286975245E+02 0.12458836569E+02 0.13337629093E+02 0.13808831647E+02
 0.13808839309E+02 0.13337645734E+02 0.12458851856E+02 0.11286983245E+02 0.99590085645E+01
 0.86101812056E+01 0.73611075054E+01 0.62845564180E+01 0.54033623789E+01 0.47073893163E+01
 0.41743577070E+01 0.37846735173E+01 0.35273163441E+01 0.33987324367E+01 0.33987423532E+01
 0.35273432845E+01 0.37847007507E+01 0.41743572116E+01 0.47073547820E+01 0.54033257266E+01
 0.73611313608E+01 0.88062128111E+01 0.10435526742E+02 0.12124769821E+02 0.13719624714E+02
 0.15036401053E+02 0.15903483888E+02 0.16205680083E+02 0.15903471321E+02 0.15036385682E+02
 0.13719622853E+02 0.12124785472E+02 0.10435540143E+02 0.88062063111E+01 0.73611200330E+01
 0.61614950271E+01 0.52108067884E+01 0.44819461078E+01 0.39420363864E+01 0.35667546275E+01
 0.33438731549E+01 0.32697258674E+01 0.33438899795E+01 0.35667780069E+01 0.39420433328E+01
 0.44819224817E+01 0.52107720481E+01 0.61614822496E+01 0.86102043349E+01 0.10435526742E+02
 0.12421804371E+02 0.14411347590E+02 0.16185675316E+02 0.17514849855E+02 0.18223822152E+02
 0.18223818369E+02 0.17514837198E+02 0.16185659354E+02 0.14411344493E+02 0.12421819267E+02
 0.10435542591E+02 0.86102077263E+01 0.70567548290E+01 0.58113991832E+01 0.48535421847E+01
 0.41403075286E+01 0.36315653491E+01 0.33013134271E+01 0.31378174055E+01 0.31378229833E+01
 0.33013259015E+01 0.36315713375E+01 0.41402938429E+01 0.48535147484E+01 0.58113799520E+01
 0.70567518088E+01 0.99590144010E+01 0.12124769821E+02 0.14411347590E+02 0.16592337565E+02
 0.18390726694E+02 0.19567009707E+02 0.19974700478E+02 0.19567034017E+02 0.18390745418E+02
 0.16592333972E+02 0.14411336796E+02 0.12124769888E+02 0.99590220234E+01 0.80554799815E+01
 0.64967559264E+01 0.52858649037E+01 0.43795355225E+01 0.37243912340E+01 0.32782585842E+01
 0.30168804201E+01 0.29304753576E+01 0.30168821981E+01 0.32782563612E+01 0.37243796683E+01
 0.43795181215E+01 0.52858520467E+01 0.64967509031E+01 0.80554750279E+01 0.11286975245E+02
 0.13719624714E+02 0.16185675316E+02 0.18390726694E+02 0.20037269275E+02 0.20911495239E+02
 0.20911515597E+02 0.20037307488E+02 0.18390744292E+02 0.16185665640E+02 0.13719613169E+02
 0.11286979373E+02 0.90866566981E+01 0.72313321461E+01 0.57637677741E+01 0.46544852102E+01
 0.38447420091E+01 0.32782701312E+01 0.29162182152E+01 0.27386798528E+01 0.27386782984E+01
 0.29162109008E+01 0.32782559624E+01 0.38447294666E+01 0.46544843150E+01 0.57637747563E+01
 0.72313324575E+01 0.90866470124E+01 0.12458836569E+02 0.15036401053E+02 0.17514849855E+02
 0.19567009707E+02 0.20911495239E+02 0.21377673136E+02 0.20911496314E+02 0.19567006943E+02
 0.17514844878E+02 0.15036405942E+02 0.12458859104E+02 0.10049051003E+02 0.79550974698E+01
 0.62562885478E+01 0.49514446635E+01 0.39877738353E+01 0.33013398092E+01 0.28404077879E+01
 0.25732613495E+01 0.24854557665E+01 0.25732566696E+01 0.28403950074E+01 0.33013268445E+01
 0.39877771650E+01 0.49514653643E+01 0.62563044021E+01 0.79550882912E+01 0.10049023325E+02
 0.13337629093E+02 0.15903483888E+02 0.18223822152E+02 0.19974700478E+02 0.20911515597E+02
 0.20911496314E+02 0.19974661735E+02 0.18223800754E+02 0.15903499440E+02 0.13337672899E+02
 0.10834116957E+02 0.85922848998E+01 0.67182534074E+01 0.52469766649E+01 0.41430698332E+01
 0.33438969922E+01 0.27900458469E+01 0.24393300356E+01 0.22685390493E+01 0.22685387324E+01
 0.24393241701E+01 0.27900334987E+01 0.33438942236E+01 0.41430905364E+01 0.52470078468E+01
 0.67182651698E+01 0.85922617352E+01 0.10834070225E+02 0.13808831647E+02 0.16205680083E+02
 0.18223818369E+02 0.19567034017E+02 0.20037307488E+02 0.19567006943E+02 0.18223800754E+02
 0.16205698038E+02 0.13808874124E+02 0.11349432212E+02 0.90672766410E+01 0.70979105267E+01
 0.55102777379E+01 0.42946471316E+01 0.33987417999E+01 0.27625735743E+01 0.23375668920E+01
 0.20926928262E+01 0.20125345357E+01 0.20926935620E+01 0.23375593809E+01 0.27625629004E+01
 0.33987472045E+01 0.42946742382E+01 0.55103080150E+01 0.70979216888E+01 0.90672600966E+01
 0.11349393217E+02 0.13808839309E+02 0.15903471321E+02 0.17514837198E+02 0.18390745418E+02
 0.18390744292E+02 0.17514844878E+02 0.15903499440E+02 0.13808874124E+02 0.11529184511E+02
 0.93207802820E+01 0.73478184267E+01 0.57088862786E+01 0.44230662434E+01 0.34555358138E+01
 0.27528673500E+01 0.22655858473E+01 0.19578519840E+01 0.18085802120E+01 0.18085829968E+01
 0.19578519455E+01 0.22655750013E+01 0.27528572067E+01 0.34555426119E+01 0.44230890054E+01
 0.57089127259E+01 0.73478394481E+01 0.93207869383E+01 0.11529167249E+02 0.13337645734E+02
 0.15036385682E+02 0.16185659354E+02 0.16592333972E+02 0.16185665640E+02 0.15036405942E+02
 0.13337672899E+02 0.11349432212E+02 0.93207802820E+01 0.74350334169E+01 0.58158232582E+01
 0.45094079623E+01 0.35024715804E+01 0.27539728698E+01 0.22189814608E+01 0.18608865392E+01
 0.16550065360E+01 0.15877968564E+01 0.16550121174E+01 0.18608843182E+01 0.22189691756E+01
 0.27539644880E+01 0.35024767152E+01 0.45094235175E+01 0.58158447503E+01 0.74350562841E+01
 0.93207912941E+01 0.11349419594E+02 0.12458851856E+02 0.13719622853E+02 0.14411344493E+02
 0.14411336796E+02 0.13719613169E+02 0.12458859104E+02 0.10834116957E+02 0.90672766410E+01
 0.73478184267E+01 0.58158232582E+01 0.45398737206E+01 0.35290475728E+01 0.27585150482E+01
 0.21923317859E+01 0.17970637662E+01 0.15472532831E+01 0.14263802478E+01 0.14263851038E+01
 0.15472594947E+01 0.17970600340E+01 0.21923216540E+01 0.27585107077E+01 0.35290541304E+01
 0.45398878054E+01 0.58158381731E+01 0.73478239388E+01 0.90672651609E+01 0.10834097414E+02
 0.11286983245E+02 0.12124785472E+02 0.12421819267E+02 0.12124769888E+02 0.11286979373E+02
 0.10049051003E+02 0.85922848998E+01 0.70979105267E+01 0.57088862786E+01 0.45094079623E+01
 0.35290475728E+01 0.27607548695E+01 0.21805631272E+01 0.17613799321E+01 0.14797239362E+01
 0.13180248854E+01 0.12653700097E+01 0.13180312365E+01 0.14797273180E+01 0.17613744789E+01
 0.21805539992E+01 0.27607529852E+01 0.35290599559E+01 0.45094302110E+01 0.57089010794E+01
 0.70979006361E+01 0.85922549408E+01 0.10049028501E+02 0.99590085645E+01 0.10435540143E+02
 0.10435542591E+02 0.99590220234E+01 0.90866566981E+01 0.79550974698E+01 0.67182534074E+01
 0.55102777379E+01 0.44230662434E+01 0.35024715804E+01 0.27585150482E+01 0.21805631272E+01
 0.17499727206E+01 0.14474319819E+01 0.12562450738E+01 0.11640056612E+01 0.11640072686E+01
 0.12562481305E+01 0.14474316520E+01 0.17499643636E+01 0.21805492891E+01 0.27585089523E+01
 0.35024871159E+01 0.44230997143E+01 0.55103045388E+01 0.67182509371E+01 0.79550697216E+01
 0.90866281102E+01 0.86101812056E+01 0.88062063111E+01 0.86102077263E+01 0.80554799815E+01
 0.72313321461E+01 0.62562885478E+01 0.52469766649E+01 0.42946471316E+01 0.34555358138E+01
 0.27539728698E+01 0.21923317859E+01 0.17613799321E+01 0.14474319819E+01 0.12362411945E+01
 0.11153377271E+01 0.10760735109E+01 0.11153370485E+01 0.12362426973E+01 0.14474327774E+01
 0.17613710549E+01 0.21923116304E+01 0.27539564270E+01 0.34555429625E+01 0.42946803742E+01
 0.52470145951E+01 0.62563038521E+01 0.72313152087E+01 0.80554453892E+01 0.73611075054E+01
 0.73611200330E+01 0.70567548290E+01 0.64967559264E+01 0.57637677741E+01 0.49514446635E+01
 0.41430698332E+01 0.33987417999E+01 0.27528673500E+01 0.22189814608E+01 0.17970637662E+01
 0.14797239362E+01 0.12562450738E+01 0.11153377271E+01 0.10475744941E+01 0.10475726831E+01
 0.11153365116E+01 0.12562500601E+01 0.14797312514E+01 0.17970615552E+01 0.22189635835E+01
 0.27528434506E+01 0.33987314595E+01 0.41430846664E+01 0.49514748021E+01 0.57637880136E+01
 0.64967495187E+01 0.70567317767E+01 0.62845564180E+01 0.61614950271E+01 0.58113991832E+01
 0.52858649037E+01 0.46544852102E+01 0.39877738353E+01 0.33438969922E+01 0.27625735743E+01
 0.22655858473E+01 0.18608865392E+01 0.15472532831E+01 0.13180248854E+01 0.11640056612E+01
 0.10760735109E+01 0.10475726831E+01 0.10760706615E+01 0.11640046455E+01 0.13180305165E+01
 0.15472648859E+01 0.18608959718E+01 0.22655826872E+01 0.27625556097E+01 0.33438757005E+01
 0.39877650981E+01 0.46544924824E+01 0.52858757428E+01 0.58114014305E+01 0.61614912339E+01
 0.54033623789E+01 0.52108067884E+01 0.48535421847E+01 0.43795355225E+01 0.38447420091E+01
 0.33013398092E+01 0.27900458469E+01 0.23375668920E+01 0.19578519840E+01 0.16550065360E+01
 0.14263802478E+01 0.12653700097E+01 0.11640072686E+01 0.11153370485E+01 0.11153365116E+01
 0.11640046455E+01 0.12653651090E+01 0.14263776267E+01 0.16550127834E+01 0.19578670708E+01
 0.23375805853E+01 0.27900464881E+01 0.33013266152E+01 0.38447256782E+01 0.43795265561E+01
 0.48535418307E+01 0.52108097090E+01 0.54033638431E+01 0.47073893163E+01 0.44819461078E+01
 0.41403075286E+01 0.37243912340E+01 0.32782701312E+01 0.28404077879E+01 0.24393300356E+01
 0.20926928262E+01 0.18085802120E+01 0.15877968564E+01 0.14263851038E+01 0.13180312365E+01
 0.12562481305E+01 0.12362426973E+01 0.12562500601E+01 0.13180305165E+01 0.14263776267E+01
 0.15877849724E+01 0.18085730192E+01 0.20926983798E+01 0.24393467005E+01 0.28404247973E+01
 0.32782773908E+01 0.37243875940E+01 0.41402993477E+01 0.44819397349E+01 0.47073865784E+01
 0.47862464403E+01 0.41743577070E+01 0.39420363864E+01 0.36315653491E+01 0.32782585842E+01
 0.29162182152E+01 0.25732613495E+01 0.22685390493E+01 0.20125345357E+01 0.18085829968E+01
 0.16550121174E+01 0.15472594947E+01 0.14797273180E+01 0.14474316520E+01 0.14474327774E+01
 0.14797312514E+01 0.15472648859E+01 0.16550127834E+01 0.18085730192E+01 0.20125168091E+01
 0.22685255090E+01 0.25732627630E+01 0.29162343183E+01 0.32782785816E+01 0.36315773176E+01
 0.39420363740E+01 0.41743513536E+01 0.42989728655E+01 0.42989764201E+01 0.37846735173E+01
 0.35667546275E+01 0.33013134271E+01 0.30168804201E+01 0.27386798528E+01 0.24854557665E+01
 0.22685387324E+01 0.20926935620E+01 0.19578519455E+01 0.18608843182E+01 0.17970600340E+01
 0.17613744789E+01 0.17499643636E+01 0.17613710549E+01 0.17970615552E+01 0.18608959718E+01
 0.19578670708E+01 0.20926983798E+01 0.22685255090E+01 0.24854312740E+01 0.27386609295E+01
 0.30168797113E+01 0.33013280417E+01 0.35667698523E+01 0.37846786837E+01 0.39283236168E+01
 0.39785347571E+01 0.39283253854E+01 0.35273163441E+01 0.33438731549E+01 0.31378174055E+01
 0.29304753576E+01 0.27386782984E+01 0.25732566696E+01 0.24393241701E+01 0.23375593809E+01
 0.22655750013E+01 0.22189691756E+01 0.21923216540E+01 0.21805539992E+01 0.21805492891E+01
 0.21923116304E+01 0.22189635835E+01 0.22655826872E+01 0.23375805853E+01 0.24393467005E+01
 0.25732627630E+01 0.27386609295E+01 0.29304476255E+01 0.31378006138E+01 0.33438752726E+01
 0.35273273820E+01 0.36657617609E+01 0.37403668764E+01 0.37403647336E+01 0.36657539293E+01
 0.33987324367E+01 0.32697258674E+01 0.31378229833E+01 0.30168821981E+01 0.29162109008E+01
 0.28403950074E+01 0.27900334987E+01 0.27625629004E+01 0.27528572067E+01 0.27539644880E+01
 0.27585107077E+01 0.27607529852E+01 0.27585089523E+01 0.27539564270E+01 0.27528434506E+01
 0.27625556097E+01 0.27900464881E+01 0.28404247973E+01 0.29162343183E+01 0.30168797113E+01
 0.31378006138E+01 0.32697070166E+01 0.33987313864E+01 0.35081858455E+01 0.35818464295E+01
 0.36078485144E+01 0.35818367359E+01 0.35081747404E+01 0.33987423532E+01 0.33438899795E+01
 0.33013259015E+01 0.32782563612E+01 0.32782559624E+01 0.33013268445E+01 0.33438942236E+01
 0.33987472045E+01 0.34555426119E+01 0.35024767152E+01 0.35290541304E+01 0.35290599559E+01
 0.35024871159E+01 0.34555429625E+01 0.33987314595E+01 0.33438757005E+01 0.33013266152E+01
 0.32782773908E+01 0.32782785816E+01 0.33013280417E+01 0.33438752726E+01 0.33987313864E+01
 0.34555451786E+01 0.35024888790E+01 0.35290584894E+01 0.35290513293E+01 0.35024748896E+01
 0.34555400343E+01 0.35273432845E+01 0.35667780069E+01 0.36315713375E+01 0.37243796683E+01
 0.38447294666E+01 0.39877771650E+01 0.41430905364E+01 0.42946742382E+01 0.44230890054E+01
 0.45094235175E+01 0.45398878054E+01 0.45094302110E+01 0.44230997143E+01 0.42946803742E+01
 0.41430846664E+01 0.39877650981E+01 0.38447256782E+01 0.37243875940E+01 0.36315773176E+01
 0.35667698523E+01 0.35273273820E+01 0.35081858455E+01 0.35024888790E+01 0.35029240569E+01
 0.35037853242E+01 0.35029130830E+01 0.35024811013E+01 0.35081927877E+01 0.37847007507E+01
 0.39420433328E+01 0.41402938429E+01 0.43795181215E+01 0.46544843150E+01 0.49514653643E+01
 0.52470078468E+01 0.55103080150E+01 0.57089127259E+01 0.58158447503E+01 0.58158381731E+01
 0.57089010794E+01 0.55103045388E+01 0.52470145951E+01 0.49514748021E+01 0.46544924824E+01
 0.43795265561E+01 0.41402993477E+01 0.39420363740E+01 0.37846786837E+01 0.36657617609E+01
 0.35818464295E+01 0.35290584894E+01 0.35037853242E+01 0.35037821710E+01 0.35290568145E+01
 0.35818585970E+01 0.36657866030E+01 0.41743572116E+01 0.44819224817E+01 0.48535147484E+01
 0.52858520467E+01 0.57637747563E+01 0.62563044021E+01 0.67182651698E+01 0.70979216888E+01
 0.73478394481E+01 0.74350562841E+01 0.73478239388E+01 0.70979006361E+01 0.67182509371E+01
 0.62563038521E+01 0.57637880136E+01 0.52858757428E+01 0.48535418307E+01 0.44819397349E+01
 0.41743513536E+01 0.39283236168E+01 0.37403668764E+01 0.36078485144E+01 0.35290513293E+01
 0.35029130830E+01 0.35290568145E+01 0.36078681479E+01 0.37403996473E+01 0.39283518439E+01
 0.47073547820E+01 0.52107720481E+01 0.58113799520E+01 0.64967509031E+01 0.72313324575E+01
 0.79550882912E+01 0.85922617352E+01 0.90672600966E+01 0.93207869383E+01 0.93207912941E+01
 0.90672651609E+01 0.85922549408E+01 0.79550697216E+01 0.72313152087E+01 0.64967495187E+01
 0.58114014305E+01 0.52108097090E+01 0.47073865784E+01 0.42989728655E+01 0.39785347571E+01
 0.37403647336E+01 0.35818367359E+01 0.35024748896E+01 0.35024811013E+01 0.35818585970E+01
 0.37403996473E+01 0.39785620048E+01 0.42989700324E+01 0.54033257266E+01 0.61614822496E+01
 0.70567518088E+01 0.80554750279E+01 0.90866470124E+01 0.10049023325E+02 0.10834070225E+02
 0.11349393217E+02 0.11529167249E+02 0.11349419594E+02 0.10834097414E+02 0.10049028501E+02
 0.90866281102E+01 0.80554453892E+01 0.70567317767E+01 0.61614912339E+01 0.54033638431E+01
 0.47862464403E+01 0.42989764201E+01 0.39283253854E+01 0.36657539293E+01 0.35081747404E+01
 0.34555400343E+01 0.35081927877E+01 0.36657866030E+01 0.39283518439E+01 0.42989700324E+01
 0.47862080345E+01 0.61525669372E+01 0.73611194852E+01 0.87400785692E+01 0.10199677686E+02
 0.11597894754E+02 0.12768468540E+02 0.13551843900E+02 0.13827850107E+02 0.13551843229E+02
 0.12768466185E+02 0.11597898453E+02 0.10199693648E+02 0.87400926154E+01 0.73611109009E+01
 0.61525421385E+01 0.51499363588E+01 0.43500328570E+01 0.37314837350E+01 0.32710065279E+01
 0.29513517905E+01 0.27625600323E+01 0.27000514552E+01 0.27625614446E+01 0.29513480032E+01
 0.32709879141E+01 0.37314534147E+01 0.43500139174E+01 0.51499466858E+01 0.73611194852E+01
 0.89392462593E+01 0.10690442957E+02 0.12468371641E+02 0.14083695198E+02 0.15324042170E+02
 0.15999674655E+02 0.15999665079E+02 0.15324017970E+02 0.14083673559E+02 0.12468375686E+02
 0.10690475176E+02 0.89392783522E+01 0.73611235898E+01 0.60319331931E+01 0.49657090288E+01
 0.41399437242E+01 0.35204551340E+01 0.30771603127E+01 0.27900414101E+01 0.26485454928E+01
 0.26485429934E+01 0.27900328115E+01 0.30771440475E+01 0.35204357327E+01 0.41399353173E+01
 0.49657210954E+01 0.60319512621E+01 0.87400785692E+01 0.10690442957E+02 0.12777180273E+02
 0.14807299241E+02 0.16531976363E+02 0.17694468400E+02 0.18105073851E+02 0.17694460999E+02
 0.16531960799E+02 0.14807287339E+02 0.12777191411E+02 0.10690478043E+02 0.87401116912E+01
 0.70567572278E+01 0.56887800524E+01 0.46238145591E+01 0.38213861490E+01 0.32380527413E+01
 0.28404140350E+01 0.26081762948E+01 0.25316597427E+01 0.26081668414E+01 0.28403964632E+01
 0.32380357003E+01 0.38213838388E+01 0.46238312063E+01 0.56887981360E+01 0.70567514545E+01
 0.10199677686E+02 0.12468371641E+02 0.14807299241E+02 0.16961398853E+02 0.18626334864E+02
 0.19535401441E+02 0.19535409256E+02 0.18626348524E+02 0.16961403454E+02 0.14807297291E+02
 0.12468380022E+02 0.10199701004E+02 0.81765464765E+01 0.64967562148E+01 0.51735976138E+01
 0.41700715673E+01 0.34333221440E+01 0.29162312897E+01 0.25861303622E+01 0.24248252077E+01
 0.24248201809E+01 0.25861148266E+01 0.29162115880E+01 0.34333158578E+01 0.41700891212E+01
 0.51736235915E+01 0.64967632482E+01 0.81765279485E+01 0.11597894754E+02 0.14083695198E+02
 0.16531976363E+02 0.18626334864E+02 0.20042547953E+02 0.20543342663E+02 0.20042554962E+02
 0.18626343834E+02 0.16531981893E+02 0.14083699252E+02 0.11597904675E+02 0.93023080209E+01
 0.73395939587E+01 0.57637667171E+01 0.45545801513E+01 0.36580487424E+01 0.30168940403E+01
 0.25861292444E+01 0.23371844553E+01 0.22556099699E+01 0.23371772771E+01 0.25861130824E+01
 0.30168807424E+01 0.36580570924E+01 0.45546083631E+01 0.57637896936E+01 0.73395943591E+01
 0.93022948185E+01 0.12768468540E+02 0.15324042170E+02 0.17694468400E+02 0.19535401441E+02
 0.20543342663E+02 0.20543330217E+02 0.19535380286E+02 0.17694464426E+02 0.15324058998E+02
 0.12768491060E+02 0.10312966182E+02 0.81402425014E+01 0.63498534348E+01 0.49514430332E+01
 0.39009096475E+01 0.31378258690E+01 0.26081751005E+01 0.22734303394E+01 0.21110015135E+01
 0.21110019187E+01 0.22734259642E+01 0.26081637553E+01 0.31378222960E+01 0.39009267321E+01
 0.49514706594E+01 0.63498708487E+01 0.81402414759E+01 0.10312950849E+02 0.13551843900E+02
 0.15999674655E+02 0.18105073851E+02 0.19535409256E+02 0.20042554962E+02 0.19535380286E+02
 0.18105058129E+02 0.15999696805E+02 0.13551882087E+02 0.11079045898E+02 0.88060691228E+01
 0.68722961774E+01 0.53257214458E+01 0.41430670449E+01 0.32697267081E+01 0.26485479248E+01
 0.22340152972E+01 0.19960221774E+01 0.19183616782E+01 0.19960275426E+01 0.22340145910E+01
 0.26485408924E+01 0.32697273232E+01 0.41430825139E+01 0.53257442195E+01 0.68723149548E+01
 0.88060728212E+01 0.11079024574E+02 0.13827850107E+02 0.15999665079E+02 0.17694461000E+02
 0.18626348524E+02 0.18626343834E+02 0.17694464426E+02 0.15999696805E+02 0.13827891695E+02
 0.11492912876E+02 0.92483986686E+01 0.72670653109E+01 0.56356993183E+01 0.43595715265E+01
 0.33987376358E+01 0.27000576936E+01 0.22158508289E+01 0.19110296081E+01 0.17637457986E+01
 0.17637514385E+01 0.19110376804E+01 0.22158491184E+01 0.27000487469E+01 0.33987331239E+01
 0.43595794920E+01 0.56357230452E+01 0.72670994259E+01 0.92484206112E+01 0.11492898778E+02
 0.13551843229E+02 0.15324017970E+02 0.16531960799E+02 0.16961403454E+02 0.16531981893E+02
 0.15324058998E+02 0.13551882087E+02 0.11492912876E+02 0.94035468559E+01 0.74799744978E+01
 0.58412535292E+01 0.45235552806E+01 0.35081872549E+01 0.27528633166E+01 0.22132285152E+01
 0.18529963603E+01 0.16467249165E+01 0.15795921324E+01 0.16467341819E+01 0.18530019386E+01
 0.22132216895E+01 0.27528476908E+01 0.35081732846E+01 0.45235572348E+01 0.58412842216E+01
 0.74800269116E+01 0.94035870591E+01 0.11492910069E+02 0.12768466185E+02 0.14083673559E+02
 0.14807287339E+02 0.14807297291E+02 0.14083699252E+02 0.12768491060E+02 0.11079045898E+02
 0.92483986686E+01 0.74799744978E+01 0.59133121726E+01 0.46121401843E+01 0.35818554618E+01
 0.27961487094E+01 0.22189789479E+01 0.18168950980E+01 0.15637159948E+01 0.14416538948E+01
 0.14416589519E+01 0.15637252410E+01 0.18168975207E+01 0.22189687683E+01 0.27961283694E+01
 0.35818360487E+01 0.46121401716E+01 0.59133437570E+01 0.74800248687E+01 0.92484350120E+01
 0.11079046848E+02 0.11597898453E+02 0.12468375686E+02 0.12777191411E+02 0.12468380022E+02
 0.11597904675E+02 0.10312966182E+02 0.88060691228E+01 0.72670653109E+01 0.58412535292E+01
 0.46121401843E+01 0.36078665342E+01 0.28205315901E+01 0.22259923649E+01 0.17970624210E+01
 0.15097000577E+01 0.13452869858E+01 0.12918709091E+01 0.13452937669E+01 0.15097086391E+01
 0.17970650496E+01 0.22259830371E+01 0.28205123009E+01 0.36078499702E+01 0.46121414996E+01
 0.58412752450E+01 0.72670928161E+01 0.88060849707E+01 0.10312966573E+02 0.10199693648E+02
 0.10690475176E+02 0.10690478043E+02 0.10199701004E+02 0.93023080209E+01 0.81402425014E+01
 0.68722961774E+01 0.56356993183E+01 0.45235552806E+01 0.35818554618E+01 0.28205315901E+01
 0.22289837133E+01 0.17885826832E+01 0.14797231569E+01 0.12850370617E+01 0.11913163617E+01
 0.11913177371E+01 0.12850424977E+01 0.14797316058E+01 0.17885860948E+01 0.22289749883E+01
 0.28205159112E+01 0.35818471167E+01 0.45235620447E+01 0.56357143297E+01 0.68723065130E+01
 0.81402421327E+01 0.93023006605E+01 0.87400926154E+01 0.89392783522E+01 0.87401116912E+01
 0.81765464765E+01 0.73395939587E+01 0.63498534348E+01 0.53257214458E+01 0.43595715265E+01
 0.35081872549E+01 0.27961487094E+01 0.22259923649E+01 0.17885826832E+01 0.14701726275E+01
 0.12562453811E+01 0.11339347283E+01 0.10942460164E+01 0.11339333145E+01 0.12562492229E+01
 0.14701807350E+01 0.17885836108E+01 0.22259800354E+01 0.27961331465E+01 0.35081843897E+01
 0.43595863597E+01 0.53257438491E+01 0.63498669408E+01 0.73395879743E+01 0.81765251238E+01
 0.73611109009E+01 0.73611235898E+01 0.70567572278E+01 0.64967562148E+01 0.57637667171E+01
 0.49514430332E+01 0.41430670449E+01 0.33987376358E+01 0.27528633166E+01 0.22189789479E+01
 0.17970624210E+01 0.14797231569E+01 0.12562453811E+01 0.11153392560E+01 0.10475758767E+01
 0.10475729425E+01 0.11153364823E+01 0.12562505636E+01 0.14797315164E+01 0.17970608159E+01
 0.22189625557E+01 0.27528428365E+01 0.33987306991E+01 0.41430835905E+01 0.49514748128E+01
 0.57637901274E+01 0.64967528000E+01 0.70567350416E+01 0.61525421385E+01 0.60319331931E+01
 0.56887800524E+01 0.51735976138E+01 0.45545801513E+01 0.39009096475E+01 0.32697267081E+01
 0.27000576936E+01 0.22132285152E+01 0.18168950980E+01 0.15097000577E+01 0.12850370617E+01
 0.11339347283E+01 0.10475758767E+01 0.10195647192E+01 0.10475721946E+01 0.11339345069E+01
 0.12850447454E+01 0.15097106172E+01 0.18168975455E+01 0.22132153154E+01 0.27000333230E+01
 0.32697084723E+01 0.39009144654E+01 0.45546055914E+01 0.51736213743E+01 0.56887848892E+01
 0.60319266303E+01 0.51499363588E+01 0.49657090288E+01 0.46238145591E+01 0.41700715673E+01
 0.36580487424E+01 0.31378258690E+01 0.26485479248E+01 0.22158508289E+01 0.18529963603E+01
 0.15637159948E+01 0.13452869858E+01 0.11913163617E+01 0.10942460164E+01 0.10475729425E+01
 0.10475721946E+01 0.10942445292E+01 0.11913167148E+01 0.13452929731E+01 0.15637285426E+01
 0.18530083747E+01 0.22158498293E+01 0.26485291294E+01 0.31378013010E+01 0.36580370468E+01
 0.41700783353E+01 0.46238286401E+01 0.49657183085E+01 0.51499388875E+01 0.43500328570E+01
 0.41399437242E+01 0.38213861490E+01 0.34333221440E+01 0.30168940403E+01 0.26081751005E+01
 0.22340152972E+01 0.19110296081E+01 0.16467249165E+01 0.14416538948E+01 0.12918709091E+01
 0.11913177371E+01 0.11339333145E+01 0.11153364823E+01 0.11339345069E+01 0.11913167148E+01
 0.12918669944E+01 0.14416529608E+01 0.16467338443E+01 0.19110462728E+01 0.22340274109E+01
 0.26081720179E+01 0.30168782555E+01 0.34333063535E+01 0.38213800687E+01 0.41399465058E+01
 0.43500371705E+01 0.44234962182E+01 0.37314837350E+01 0.35204551340E+01 0.32380527413E+01
 0.29162312897E+01 0.25861292444E+01 0.22734303394E+01 0.19960221774E+01 0.17637457986E+01
 0.15795921324E+01 0.14416589519E+01 0.13452937669E+01 0.12850424977E+01 0.12562492229E+01
 0.12562505636E+01 0.12850447454E+01 0.13452929731E+01 0.14416529608E+01 0.15795844475E+01
 0.17637440975E+01 0.19960309020E+01 0.22734451746E+01 0.25861406835E+01 0.29162336310E+01
 0.32380482849E+01 0.35204498889E+01 0.37314810696E+01 0.38445722748E+01 0.38445728580E+01
 0.32710065279E+01 0.30771603127E+01 0.28404140350E+01 0.25861303622E+01 0.23371844553E+01
 0.21110015135E+01 0.19183616782E+01 0.17637514385E+01 0.16467341819E+01 0.15637252410E+01
 0.15097086391E+01 0.14797316058E+01 0.14701807350E+01 0.14797315164E+01 0.15097106172E+01
 0.15637285426E+01 0.16467338443E+01 0.17637440975E+01 0.19183509196E+01 0.21109953882E+01
 0.23371880482E+01 0.25861416357E+01 0.28404262530E+01 0.30771676651E+01 0.32710080104E+01
 0.33985128352E+01 0.34430281075E+01 0.33985138981E+01 0.29513517905E+01 0.27900414101E+01
 0.26081762948E+01 0.24248252077E+01 0.22556099699E+01 0.21110019187E+01 0.19960275426E+01
 0.19110376804E+01 0.18530019386E+01 0.18168975207E+01 0.17970650496E+01 0.17885860948E+01
 0.17885836108E+01 0.17970608159E+01 0.18168975455E+01 0.18530083747E+01 0.19110462728E+01
 0.19960309020E+01 0.21109953882E+01 0.22555959938E+01 0.24248124659E+01 0.26081727344E+01
 0.27900471754E+01 0.29513601946E+01 0.30726425336E+01 0.31378358051E+01 0.31378343401E+01
 0.30726372653E+01 0.27625600323E+01 0.26485454928E+01 0.25316597427E+01 0.24248201809E+01
 0.23371772771E+01 0.22734259642E+01 0.22340145910E+01 0.22158491184E+01 0.22132216895E+01
 0.22189687683E+01 0.22259830371E+01 0.22289749883E+01 0.22259800354E+01 0.22189625557E+01
 0.22132153154E+01 0.22158498293E+01 0.22340274109E+01 0.22734451746E+01 0.23371880482E+01
 0.24248124659E+01 0.25316391667E+01 0.26485274143E+01 0.27625541539E+01 0.28588480054E+01
 0.29233921355E+01 0.29461257094E+01 0.29233873118E+01 0.28588442805E+01 0.27000514552E+01
 0.26485429934E+01 0.26081668414E+01 0.25861148266E+01 0.25861130824E+01 0.26081637553E+01
 0.26485408924E+01 0.27000487469E+01 0.27528476908E+01 0.27961283694E+01 0.28205123009E+01
 0.28205159112E+01 0.27961331465E+01 0.27528428365E+01 0.27000333230E+01 0.26485291294E+01
 0.26081720179E+01 0.25861406835E+01 0.25861416357E+01 0.26081727344E+01 0.26485274143E+01
 0.27000312531E+01 0.27528427634E+01 0.27961335264E+01 0.28205152347E+01 0.28205129589E+01
 0.27961323380E+01 0.27528524115E+01 0.27625614446E+01 0.27900328115E+01 0.28403964632E+01
 0.29162115880E+01 0.30168807424E+01 0.31378222960E+01 0.32697273232E+01 0.33987331239E+01
 0.35081732846E+01 0.35818360487E+01 0.36078499702E+01 0.35818471167E+01 0.35081843897E+01
 0.33987306991E+01 0.32697084723E+01 0.31378013010E+01 0.30168782555E+01 0.29162336310E+01
 0.28404262530E+01 0.27900471754E+01 0.27625541539E+01 0.27528427634E+01 0.27539578828E+01
 0.27585096395E+01 0.27607515294E+01 0.27585100204E+01 0.27539659438E+01 0.27528578940E+01
 0.29513480032E+01 0.30771440475E+01 0.32380357003E+01 0.34333158578E+01 0.36580570924E+01
 0.39009267321E+01 0.41430825139E+01 0.43595794920E+01 0.45235572348E+01 0.46121401716E+01
 0.46121414996E+01 0.45235620447E+01 0.43595863597E+01 0.41430835905E+01 0.39009144654E+01
 0.36580370468E+01 0.34333063535E+01 0.32380482849E+01 0.30771676651E+01 0.29513601946E+01
 0.28588480054E+01 0.27961335264E+01 0.27585096395E+01 0.27412225625E+01 0.27412251653E+01
 0.27585196325E+01 0.27961490868E+01 0.28588556010E+01 0.32709879141E+01 0.35204357327E+01
 0.38213838388E+01 0.41700891212E+01 0.45546083631E+01 0.49514706594E+01 0.53257442195E+01
 0.56357230452E+01 0.58412842216E+01 0.59133437570E+01 0.58412752450E+01 0.56357143297E+01
 0.53257438491E+01 0.49514748128E+01 0.45546055914E+01 0.41700783353E+01 0.38213800687E+01
 0.35204498889E+01 0.32710080104E+01 0.30726425336E+01 0.29233921355E+01 0.28205152347E+01
 0.27607515294E+01 0.27412251653E+01 0.27607648576E+01 0.28205376108E+01 0.29234088415E+01
 0.30726384591E+01 0.37314534147E+01 0.41399353173E+01 0.46238312063E+01 0.51736235915E+01
 0.57637896936E+01 0.63498708487E+01 0.68723149548E+01 0.72670994259E+01 0.74800269116E+01
 0.74800248687E+01 0.72670928161E+01 0.68723065130E+01 0.63498669408E+01 0.57637901274E+01
 0.51736213743E+01 0.46238286401E+01 0.41399465058E+01 0.37314810696E+01 0.33985128352E+01
 0.31378358051E+01 0.29461257094E+01 0.28205129589E+01 0.27585100204E+01 0.27585196325E+01
 0.28205376108E+01 0.29461497731E+01 0.31378381766E+01 0.33984895987E+01 0.43500139174E+01
 0.49657210954E+01 0.56887981360E+01 0.64967632482E+01 0.73395943591E+01 0.81402414759E+01
 0.88060728212E+01 0.92484206112E+01 0.94035870591E+01 0.92484350120E+01 0.88060849707E+01
 0.81402421327E+01 0.73395879743E+01 0.64967528000E+01 0.56887848892E+01 0.49657183085E+01
 0.43500371705E+01 0.38445722748E+01 0.34430281075E+01 0.31378343401E+01 0.29233873118E+01
 0.27961323380E+01 0.27539659438E+01 0.27961490868E+01 0.29234088415E+01 0.31378381766E+01
 0.34430014426E+01 0.38445320444E+01 0.51499466858E+01 0.60319512621E+01 0.70567514545E+01
 0.81765279485E+01 0.93022948185E+01 0.10312950849E+02 0.11079024574E+02 0.11492898778E+02
 0.11492910069E+02 0.11079046848E+02 0.10312966573E+02 0.93023006605E+01 0.81765251238E+01
 0.70567350416E+01 0.60319266303E+01 0.51499388875E+01 0.44234962182E+01 0.38445728580E+01
 0.33985138981E+01 0.30726372653E+01 0.28588442805E+01 0.27528524115E+01 0.27528578940E+01
 0.28588556010E+01 0.30726384591E+01 0.33984895987E+01 0.38445320444E+01 0.44234707130E+01
 0.62845497843E+01 0.76268064012E+01 0.91223052719E+01 0.10657176841E+02 0.12063146628E+02
 0.13147285393E+02 0.13739651622E+02 0.13739644963E+02 0.13147267721E+02 0.12063128793E+02
 0.10657176659E+02 0.91223292143E+01 0.76268363185E+01 0.62845587419E+01 0.51499352871E+01
 0.42318531214E+01 0.35142093118E+01 0.29730550374E+01 0.25863719689E+01 0.23375783542E+01
 0.22158592952E+01 0.22158507550E+01 0.23375568535E+01 0.25863489278E+01 0.29730453031E+01
 0.35142220537E+01 0.42318807459E+01 0.51499541722E+01 0.76268064012E+01 0.93307813730E+01
 0.11174311156E+02 0.12982008438E+02 0.14525613161E+02 0.15573170809E+02 0.15945014097E+02
 0.15573151125E+02 0.14525585033E+02 0.12981990512E+02 0.11174318990E+02 0.93308135233E+01
 0.76268405973E+01 0.61614965650E+01 0.49657070099E+01 0.40267528005E+01 0.33134464433E+01
 0.27930960576E+01 0.24393409340E+01 0.22340285453E+01 0.21667203250E+01 0.22340146731E+01
 0.24393214639E+01 0.27930872228E+01 0.33134610421E+01 0.40267835897E+01 0.49657279023E+01
 0.61614869050E+01 0.91223052719E+01 0.11174311156E+02 0.13308244971E+02 0.15285526258E+02
 0.16828647703E+02 0.17678734191E+02 0.17678731304E+02 0.16828640620E+02 0.15285518154E+02
 0.13308240740E+02 0.11174318942E+02 0.91223282612E+01 0.73115874252E+01 0.58113982079E+01
 0.46238111849E+01 0.37157589337E+01 0.30447865349E+01 0.25732632225E+01 0.22734360915E+01
 0.21277336848E+01 0.21277298357E+01 0.22734256761E+01 0.25732547512E+01 0.30447946749E+01
 0.37157850173E+01 0.46238336015E+01 0.58113951923E+01 0.73115631507E+01 0.10657176841E+02
 0.12982008438E+02 0.15285526258E+02 0.17276315333E+02 0.18638056146E+02 0.19123176099E+02
 0.18638062798E+02 0.17276326947E+02 0.15285533236E+02 0.12982003075E+02 0.10657168020E+02
 0.85328176929E+01 0.67317930431E+01 0.52858608642E+01 0.41700672393E+01 0.33369280276E+01
 0.27386745032E+01 0.23371775658E+01 0.21062472780E+01 0.20308920801E+01 0.21062474432E+01
 0.23371746933E+01 0.27386746577E+01 0.33369399599E+01 0.41700835346E+01 0.52858651426E+01
 0.67317860355E+01 0.85328161701E+01 0.12063146628E+02 0.14525613161E+02 0.16828647703E+02
 0.18638056146E+02 0.19638509852E+02 0.19638507035E+02 0.18638056205E+02 0.16828656952E+02
 0.14525616666E+02 0.12063129961E+02 0.97135051614E+01 0.76584019433E+01 0.59733070699E+01
 0.46544801800E+01 0.36580447692E+01 0.29304706686E+01 0.24248129526E+01 0.21062389295E+01
 0.19523857401E+01 0.19523904041E+01 0.21062460538E+01 0.24248144634E+01 0.29304699287E+01
 0.36580459512E+01 0.46544800554E+01 0.59733080515E+01 0.76584156432E+01 0.97135305808E+01
 0.13147285393E+02 0.15573170809E+02 0.17678734191E+02 0.19123176099E+02 0.19638507035E+02
 0.19123158684E+02 0.17678726621E+02 0.15573179788E+02 0.13147284759E+02 0.10710971684E+02
 0.84950805088E+01 0.66258501542E+01 0.51331404509E+01 0.39877691856E+01 0.31378228496E+01
 0.25316531108E+01 0.21277156660E+01 0.18968147515E+01 0.18217503959E+01 0.18968274207E+01
 0.21277271044E+01 0.25316536373E+01 0.31378136988E+01 0.39877558665E+01 0.51331332565E+01
 0.66258632382E+01 0.84951128216E+01 0.10710997844E+02 0.13739651622E+02 0.15945014097E+02
 0.17678731304E+02 0.18638062798E+02 0.18638056205E+02 0.17678726621E+02 0.15945027519E+02
 0.13739665204E+02 0.11381585248E+02 0.91340809730E+01 0.71696846396E+01 0.55587372212E+01
 0.42972263242E+01 0.33438918302E+01 0.26485455511E+01 0.21667067537E+01 0.18644346197E+01
 0.17190254650E+01 0.17190338637E+01 0.18644519361E+01 0.21667178691E+01 0.26485410181E+01
 0.33438722370E+01 0.42972043318E+01 0.55587351751E+01 0.71697138932E+01 0.91341207343E+01
 0.11381600770E+02 0.13739644963E+02 0.15573151125E+02 0.16828640620E+02 0.17276326947E+02
 0.16828656952E+02 0.15573179788E+02 0.13739665204E+02 0.11618327151E+02 0.94811587939E+01
 0.75321212936E+01 0.58801403444E+01 0.45526304616E+01 0.35273439297E+01 0.27625679838E+01
 0.22158494024E+01 0.18518172403E+01 0.16442856464E+01 0.15769707446E+01 0.16442981953E+01
 0.18518333197E+01 0.22158562321E+01 0.27625558975E+01 0.35273156049E+01 0.45526073473E+01
 0.58801496190E+01 0.75321655759E+01 0.94812057826E+01 0.11618341423E+02 0.13147267721E+02
 0.14525585033E+02 0.15285518154E+02 0.15285533236E+02 0.14525616666E+02 0.13147284759E+02
 0.11381585248E+02 0.94811587939E+01 0.76595285605E+01 0.60535354201E+01 0.47216566844E+01
 0.36657862514E+01 0.28588593080E+01 0.22655822822E+01 0.18529968287E+01 0.15942307822E+01
 0.14699804147E+01 0.14699844175E+01 0.15942417242E+01 0.18530090349E+01 0.22655837693E+01
 0.28588400282E+01 0.36657529420E+01 0.47216357437E+01 0.60535521816E+01 0.76595802766E+01
 0.94812125977E+01 0.11381606741E+02 0.12063128793E+02 0.12981990512E+02 0.13308240740E+02
 0.12982003075E+02 0.12063129961E+02 0.10710971684E+02 0.91340809730E+01 0.75321212936E+01
 0.60535354201E+01 0.47808594254E+01 0.37403995852E+01 0.29234074847E+01 0.23059009716E+01
 0.18608862642E+01 0.15637182327E+01 0.13943905189E+01 0.13395314141E+01 0.13943935129E+01
 0.15637274461E+01 0.18608973078E+01 0.23059000012E+01 0.29233855810E+01 0.37403662842E+01
 0.47808386622E+01 0.60535471954E+01 0.75321646166E+01 0.91341318491E+01 0.10711000925E+02
 0.10657176659E+02 0.11174318990E+02 0.11174318942E+02 0.10657168020E+02 0.97135051614E+01
 0.84950805088E+01 0.71696846396E+01 0.58801403444E+01 0.47216566844E+01 0.37403995852E+01
 0.29461461022E+01 0.23284465842E+01 0.18688199605E+01 0.15472545797E+01 0.13452896277E+01
 0.12483790810E+01 0.12483778904E+01 0.13452917060E+01 0.15472660183E+01 0.18688332637E+01
 0.23284468701E+01 0.29461276933E+01 0.37403709741E+01 0.47216338807E+01 0.58801387609E+01
 0.71697092204E+01 0.84951178307E+01 0.97135326634E+01 0.91223292143E+01 0.93308135233E+01
 0.91223282612E+01 0.85328176929E+01 0.76584019433E+01 0.66258501542E+01 0.55587372212E+01
 0.45526304616E+01 0.36657862514E+01 0.29234074847E+01 0.23284465842E+01 0.18720402407E+01
 0.15403026062E+01 0.13180263311E+01 0.11913185867E+01 0.11502815220E+01 0.11913146379E+01
 0.13180298147E+01 0.15403170150E+01 0.18720543643E+01 0.23284484507E+01 0.29233950370E+01
 0.36657646732E+01 0.45526095657E+01 0.55587300892E+01 0.66258622523E+01 0.76584217354E+01
 0.85328288253E+01 0.76268363185E+01 0.76268405973E+01 0.73115874252E+01 0.67317930431E+01
 0.59733070699E+01 0.51331404509E+01 0.42972263242E+01 0.35273439297E+01 0.28588593080E+01
 0.23059009716E+01 0.18688199605E+01 0.15403026062E+01 0.13093299762E+01 0.11640079603E+01
 0.10942480082E+01 0.10942438147E+01 0.11640029261E+01 0.13093350301E+01 0.15403160853E+01
 0.18688309521E+01 0.23059020003E+01 0.28588496172E+01 0.35273279180E+01 0.42972145253E+01
 0.51331430924E+01 0.59733203227E+01 0.67318009829E+01 0.73115835741E+01 0.62845587419E+01
 0.61614965650E+01 0.58113982079E+01 0.52858608642E+01 0.46544801800E+01 0.39877691856E+01
 0.33438918302E+01 0.27625679838E+01 0.22655822822E+01 0.18608862642E+01 0.15472545797E+01
 0.13180263311E+01 0.11640079603E+01 0.10760766096E+01 0.10475745122E+01 0.10760704767E+01
 0.11640043938E+01 0.13180312530E+01 0.15472650290E+01 0.18608946553E+01 0.22655815700E+01
 0.27625557968E+01 0.33438761550E+01 0.39877656592E+01 0.46544950730E+01 0.52858808533E+01
 0.58114065950E+01 0.61614946124E+01 0.51499352871E+01 0.49657070099E+01 0.46238111849E+01
 0.41700672393E+01 0.36580447692E+01 0.31378228496E+01 0.26485455511E+01 0.22158494024E+01
 0.18529968287E+01 0.15637182327E+01 0.13452896277E+01 0.11913185867E+01 0.10942480082E+01
 0.10475745122E+01 0.10475726410E+01 0.10942440851E+01 0.11913164923E+01 0.13452932061E+01
 0.15637284208E+01 0.18530077975E+01 0.22158497399E+01 0.26485299306E+01 0.31378025160E+01
 0.36580386838E+01 0.41700809151E+01 0.46238316368E+01 0.49657201916E+01 0.51499390011E+01
 0.42318531214E+01 0.40267528005E+01 0.37157589337E+01 0.33369280276E+01 0.29304706686E+01
 0.25316531108E+01 0.21667067537E+01 0.18518172403E+01 0.15942307822E+01 0.13943905189E+01
 0.12483790810E+01 0.11502815220E+01 0.10942438147E+01 0.10760704767E+01 0.10942440851E+01
 0.11502796789E+01 0.12483757681E+01 0.13943920345E+01 0.15942423923E+01 0.18518334091E+01
 0.21667127946E+01 0.25316404377E+01 0.29304478687E+01 0.33369126846E+01 0.37157599330E+01
 0.40267641177E+01 0.42318626984E+01 0.43035726362E+01 0.35142093118E+01 0.33134464433E+01
 0.30447865349E+01 0.27386745032E+01 0.24248129526E+01 0.21277156660E+01 0.18644346197E+01
 0.16442856464E+01 0.14699804147E+01 0.13395314141E+01 0.12483778904E+01 0.11913146379E+01
 0.11640029261E+01 0.11640043938E+01 0.11913164923E+01 0.12483757681E+01 0.13395256517E+01
 0.14699781774E+01 0.16442942383E+01 0.18644518723E+01 0.21277292305E+01 0.24248115269E+01
 0.27386592513E+01 0.30447696257E+01 0.33134385258E+01 0.35142101511E+01 0.36217966757E+01
 0.36217948895E+01 0.29730550374E+01 0.27930960576E+01 0.25732632225E+01 0.23371775658E+01
 0.21062389295E+01 0.18968147515E+01 0.17190254650E+01 0.15769707446E+01 0.14699844175E+01
 0.13943935129E+01 0.13452917060E+01 0.13180298147E+01 0.13093350301E+01 0.13180312530E+01
 0.13452932061E+01 0.13943920345E+01 0.14699781774E+01 0.15769635952E+01 0.17190254618E+01
 0.18968257107E+01 0.21062546956E+01 0.23371873289E+01 0.25732623087E+01 0.27930892799E+01
 0.29730495743E+01 0.30913913612E+01 0.31326990793E+01 0.30913933005E+01 0.25863719689E+01
 0.24393409340E+01 0.22734360915E+01 0.21062472780E+01 0.19523857401E+01 0.18217503959E+01
 0.17190338637E+01 0.16442981953E+01 0.15942417242E+01 0.15637274461E+01 0.15472660183E+01
 0.15403170150E+01 0.15403160853E+01 0.15472650290E+01 0.15637284208E+01 0.15942423923E+01
 0.16442942383E+01 0.17190254618E+01 0.18217436535E+01 0.19523865276E+01 0.21062552930E+01
 0.22734460049E+01 0.24393480344E+01 0.25863753377E+01 0.26967889029E+01 0.27560848937E+01
 0.27560846623E+01 0.26967877858E+01 0.23375783542E+01 0.22340285453E+01 0.21277336848E+01
 0.20308920801E+01 0.19523904041E+01 0.18968274207E+01 0.18644519361E+01 0.18518333197E+01
 0.18530090349E+01 0.18608973078E+01 0.18688332637E+01 0.18720543643E+01 0.18688309521E+01
 0.18608946553E+01 0.18530077975E+01 0.18518334091E+01 0.18644518723E+01 0.18968257107E+01
 0.19523865276E+01 0.20308869859E+01 0.21277295922E+01 0.22340275502E+01 0.23375806953E+01
 0.24247593045E+01 0.24830203581E+01 0.25035059628E+01 0.24830176516E+01 0.24247555081E+01
 0.22158592952E+01 0.21667203250E+01 0.21277298357E+01 0.21062474432E+01 0.21062460538E+01
 0.21277271044E+01 0.21667178691E+01 0.22158562321E+01 0.22655837693E+01 0.23059000012E+01
 0.23284468701E+01 0.23284484507E+01 0.23059020003E+01 0.22655815700E+01 0.22158497399E+01
 0.21667127946E+01 0.21277292305E+01 0.21062546956E+01 0.21062552930E+01 0.21277295922E+01
 0.21667114343E+01 0.22158480248E+01 0.22655811421E+01 0.23059020254E+01 0.23284481289E+01
 0.23284478829E+01 0.23059036150E+01 0.22655881352E+01 0.22158507550E+01 0.22340146731E+01
 0.22734256761E+01 0.23371746933E+01 0.24248144634E+01 0.25316536373E+01 0.26485410181E+01
 0.27625558975E+01 0.28588400282E+01 0.29233855810E+01 0.29461276933E+01 0.29233950370E+01
 0.28588496172E+01 0.27625557968E+01 0.26485299306E+01 0.25316404377E+01 0.24248115269E+01
 0.23371873289E+01 0.22734460049E+01 0.22340275502E+01 0.22158480248E+01 0.22132140467E+01
 0.22189636975E+01 0.22259820523E+01 0.22289768915E+01 0.22259866918E+01 0.22189746200E+01
 0.22132265239E+01 0.23375568535E+01 0.24393214639E+01 0.25732547512E+01 0.27386746577E+01
 0.29304699287E+01 0.31378136988E+01 0.33438722370E+01 0.35273156049E+01 0.36657529420E+01
 0.37403662842E+01 0.37403709741E+01 0.36657646732E+01 0.35273279180E+01 0.33438761550E+01
 0.31378025160E+01 0.29304478687E+01 0.27386592513E+01 0.25732623087E+01 0.24393480344E+01
 0.23375806953E+01 0.22655811421E+01 0.22189636975E+01 0.21923143011E+01 0.21805516133E+01
 0.21805551233E+01 0.21923239635E+01 0.22189725145E+01 0.22655758022E+01 0.25863489278E+01
 0.27930872228E+01 0.30447946749E+01 0.33369399599E+01 0.36580459512E+01 0.39877558665E+01
 0.42972043318E+01 0.45526073473E+01 0.47216357437E+01 0.47808386622E+01 0.47216338807E+01
 0.45526095657E+01 0.42972145253E+01 0.39877656592E+01 0.36580386838E+01 0.33369126846E+01
 0.30447696257E+01 0.27930892799E+01 0.25863753377E+01 0.24247593045E+01 0.23059020254E+01
 0.22259820523E+01 0.21805516133E+01 0.21658987496E+01 0.21805589715E+01 0.22259895859E+01
 0.23058960928E+01 0.24247344450E+01 0.29730453031E+01 0.33134610421E+01 0.37157850173E+01
 0.41700835346E+01 0.46544800554E+01 0.51331332565E+01 0.55587351751E+01 0.58801496190E+01
 0.60535521816E+01 0.60535471954E+01 0.58801387609E+01 0.55587300892E+01 0.51331430924E+01
 0.46544950730E+01 0.41700809151E+01 0.37157599330E+01 0.33134385258E+01 0.29730495743E+01
 0.26967889029E+01 0.24830203581E+01 0.23284481289E+01 0.22289768915E+01 0.21805551233E+01
 0.21805589715E+01 0.22289840724E+01 0.23284467018E+01 0.24830017813E+01 0.26967647952E+01
 0.35142220537E+01 0.40267835897E+01 0.46238336015E+01 0.52858651426E+01 0.59733080515E+01
 0.66258632382E+01 0.71697138932E+01 0.75321655759E+01 0.76595802766E+01 0.75321646166E+01
 0.71697092204E+01 0.66258622523E+01 0.59733203227E+01 0.52858808533E+01 0.46238316368E+01
 0.40267641177E+01 0.35142101511E+01 0.30913913612E+01 0.27560848937E+01 0.25035059628E+01
 0.23284478829E+01 0.22259866918E+01 0.21923239635E+01 0.22259895859E+01 0.23284467018E+01
 0.25034920898E+01 0.27560622048E+01 0.30913797762E+01 0.42318807459E+01 0.49657279023E+01
 0.58113951923E+01 0.67317860355E+01 0.76584156432E+01 0.84951128216E+01 0.91341207343E+01
 0.94812057826E+01 0.94812125977E+01 0.91341318491E+01 0.84951178307E+01 0.76584217354E+01
 0.67318009829E+01 0.58114065950E+01 0.49657201916E+01 0.42318626984E+01 0.36217966757E+01
 0.31326990793E+01 0.27560846623E+01 0.24830176516E+01 0.23059036150E+01 0.22189746200E+01
 0.22189725145E+01 0.23058960928E+01 0.24830017813E+01 0.27560622048E+01 0.31326834108E+01
 0.36218015098E+01 0.51499541722E+01 0.61614869050E+01 0.73115631507E+01 0.85328161701E+01
 0.97135305808E+01 0.10710997844E+02 0.11381600770E+02 0.11618341423E+02 0.11381606741E+02
 0.10711000925E+02 0.97135326634E+01 0.85328288253E+01 0.73115835741E+01 0.61614946124E+01
 0.51499390011E+01 0.43035726362E+01 0.36217948895E+01 0.30913933005E+01 0.26967877858E+01
 0.24247555081E+01 0.22655881352E+01 0.22132265239E+01 0.22655758022E+01 0.24247344450E+01
 0.26967647952E+01 0.30913797762E+01 0.36218015098E+01 0.43035946753E+01 0.66812045045E+01
 0.81578175896E+01 0.97534567558E+01 0.11323379926E+02 0.12670534465E+02 0.13586938790E+02
 0.13912491269E+02 0.13586925532E+02 0.12670514860E+02 0.11323359734E+02 0.97534408400E+01
 0.81578147189E+01 0.66812188766E+01 0.54033610739E+01 0.43500281564E+01 0.35142056828E+01
 0.28748559437E+01 0.24082036341E+01 0.20926923767E+01 0.19110416272E+01 0.18518327538E+01
 0.19110356880E+01 0.20926874056E+01 0.24082100528E+01 0.28748751783E+01 0.35142223844E+01
 0.43500253857E+01 0.54033423372E+01 0.81578175896E+01 0.99776104867E+01 0.11878426151E+02
 0.13649820573E+02 0.15035741560E+02 0.15799968481E+02 0.15799961778E+02 0.15035727788E+02
 0.13649806491E+02 0.11878408163E+02 0.99775894808E+01 0.81578092288E+01 0.65506278469E+01
 0.52108054378E+01 0.41399388167E+01 0.33134435547E+01 0.26995439002E+01 0.22685251131E+01
 0.19960204600E+01 0.18644497597E+01 0.18644515034E+01 0.19960247361E+01 0.22685331377E+01
 0.26995581998E+01 0.33134563984E+01 0.41399350568E+01 0.52107856977E+01 0.65506142338E+01
 0.97534567558E+01 0.11878426151E+02 0.13998366414E+02 0.15836429223E+02 0.17095475196E+02
 0.17544482823E+02 0.17095478056E+02 0.15836437692E+02 0.13998368408E+02 0.11878405058E+02
 0.97534224825E+01 0.78202355836E+01 0.61792830880E+01 0.48535390439E+01 0.38213806094E+01
 0.30447843695E+01 0.24854395239E+01 0.21109844471E+01 0.18968159773E+01 0.18272462289E+01
 0.18968279866E+01 0.21109994652E+01 0.24854516827E+01 0.30447901174E+01 0.38213720887E+01
 0.48535169236E+01 0.61792695317E+01 0.78202517472E+01 0.11323379926E+02 0.13649820573E+02
 0.15836429223E+02 0.17557980485E+02 0.18511743065E+02 0.18511746447E+02 0.17557993962E+02
 0.15836446556E+02 0.13649815801E+02 0.11323339848E+02 0.91203627342E+01 0.72000971832E+01
 0.56222799602E+01 0.43795305263E+01 0.34333168593E+01 0.27386735465E+01 0.22555908903E+01
 0.19523702759E+01 0.18066497625E+01 0.18066596016E+01 0.19523908368E+01 0.22556064294E+01
 0.27386752553E+01 0.34333015774E+01 0.43795026817E+01 0.56222615645E+01 0.72001145309E+01
 0.91204108741E+01 0.12670534465E+02 0.15035741560E+02 0.17095475196E+02 0.18511743065E+02
 0.19017927871E+02 0.18511739796E+02 0.17095478222E+02 0.15035741532E+02 0.12670506950E+02
 0.10313117522E+02 0.81834225013E+01 0.63901270606E+01 0.49536713381E+01 0.38447378025E+01
 0.30168908906E+01 0.24248137761E+01 0.20308713339E+01 0.18066423243E+01 0.17340058708E+01
 0.18066599924E+01 0.20308915142E+01 0.24248203138E+01 0.30168758146E+01 0.38447047038E+01
 0.49536411052E+01 0.63901298939E+01 0.81834663443E+01 0.10313171544E+02 0.13586938790E+02
 0.15799968481E+02 0.17544482823E+02 0.18511746447E+02 0.18511739796E+02 0.17544471448E+02
 0.15799960268E+02 0.13586921669E+02 0.11235948279E+02 0.90135902936E+01 0.70800242474E+01
 0.54944060150E+01 0.42481015051E+01 0.33013374580E+01 0.26081743797E+01 0.21277179646E+01
 0.18272296763E+01 0.16832443363E+01 0.16832522870E+01 0.18272479615E+01 0.21277332520E+01
 0.26081724879E+01 0.33013120190E+01 0.42480642220E+01 0.54943856351E+01 0.70800421067E+01
 0.90136349448E+01 0.11235987013E+02 0.13912491269E+02 0.15799961778E+02 0.17095478056E+02
 0.17557993962E+02 0.17095478222E+02 0.15799960268E+02 0.13912480642E+02 0.11741448522E+02
 0.95721864654E+01 0.76056107332E+01 0.59425595055E+01 0.46042694253E+01 0.35667826022E+01
 0.27900437066E+01 0.22340159452E+01 0.18644376414E+01 0.16544993369E+01 0.15865941112E+01
 0.16545080811E+01 0.18644532142E+01 0.22340291111E+01 0.27900399570E+01 0.35667567313E+01
 0.46042369788E+01 0.59425463331E+01 0.76056278100E+01 0.95722193985E+01 0.11741474663E+02
 0.13586925532E+02 0.15035727788E+02 0.15836437692E+02 0.15836446556E+02 0.15035741532E+02
 0.13586921669E+02 0.11741448522E+02 0.97695532490E+01 0.78908156360E+01 0.62402284123E+01
 0.48718587239E+01 0.37846989702E+01 0.29513532757E+01 0.23375647973E+01 0.19110316775E+01
 0.16442891422E+01 0.15166148448E+01 0.15166149184E+01 0.16442940569E+01 0.19110456889E+01
 0.23375787870E+01 0.29513511516E+01 0.37846762739E+01 0.48718295903E+01 0.62402141943E+01
 0.78908278794E+01 0.97695839591E+01 0.11741474894E+02 0.12670514860E+02 0.13649806491E+02
 0.13998368408E+02 0.13649815801E+02 0.12670506950E+02 0.11235948279E+02 0.95721864654E+01
 0.78908156360E+01 0.63447074604E+01 0.50157757563E+01 0.39283496444E+01 0.30726379558E+01
 0.24247405834E+01 0.19578522190E+01 0.16467291849E+01 0.14699842147E+01 0.14128430122E+01
 0.14699788697E+01 0.16467310771E+01 0.19578662835E+01 0.24247549422E+01 0.30726368130E+01
 0.39283281981E+01 0.50157443108E+01 0.63446879729E+01 0.78908278978E+01 0.95722260974E+01
 0.11235984329E+02 0.11323359734E+02 0.11878408163E+02 0.11878405058E+02 0.11323339848E+02
 0.10313117522E+02 0.90135902936E+01 0.76056107332E+01 0.62402284123E+01 0.50157757563E+01
 0.39785609792E+01 0.31378356466E+01 0.24830029361E+01 0.19955694955E+01 0.16550094421E+01
 0.14416593138E+01 0.13395345952E+01 0.13395285562E+01 0.14416505495E+01 0.16550123963E+01
 0.19955844307E+01 0.24830172189E+01 0.31378357905E+01 0.39785394888E+01 0.50157389520E+01
 0.62402022498E+01 0.76056223617E+01 0.90136354780E+01 0.10313161893E+02 0.97534408400E+01
 0.99775894808E+01 0.97534224825E+01 0.91203627342E+01 0.81834225013E+01 0.70800242474E+01
 0.59425595055E+01 0.48718587239E+01 0.39283496444E+01 0.31378356466E+01 0.25034908584E+01
 0.20165681352E+01 0.16628969553E+01 0.14263831231E+01 0.12918751297E+01 0.12483794691E+01
 0.12918649742E+01 0.14263766861E+01 0.16629034053E+01 0.20165838460E+01 0.25035065287E+01
 0.31378393677E+01 0.39283292931E+01 0.48718181349E+01 0.59425275076E+01 0.70800288973E+01
 0.81834583039E+01 0.91203994377E+01 0.81578147189E+01 0.81578092288E+01 0.78202355836E+01
 0.72000971832E+01 0.63901270606E+01 0.54944060150E+01 0.46042694253E+01 0.37846989702E+01
 0.30726379558E+01 0.24830029361E+01 0.20165681352E+01 0.16660450819E+01 0.14199181587E+01
 0.12653715665E+01 0.11913200731E+01 0.11913147489E+01 0.12653623212E+01 0.14199157935E+01
 0.16660526964E+01 0.20165833705E+01 0.24830207908E+01 0.30726455461E+01 0.37846817070E+01
 0.46042322380E+01 0.54943759498E+01 0.63901242450E+01 0.72001137882E+01 0.78202514408E+01
 0.66812188766E+01 0.65506278469E+01 0.61792830880E+01 0.56222799602E+01 0.49536713381E+01
 0.42481015051E+01 0.35667826022E+01 0.29513532757E+01 0.24247405834E+01 0.19955694955E+01
 0.16628969553E+01 0.14199181587E+01 0.12569069773E+01 0.11640090269E+01 0.11339347655E+01
 0.11640023853E+01 0.12569000593E+01 0.14199161680E+01 0.16629021960E+01 0.19955834842E+01
 0.24247587387E+01 0.29513612657E+01 0.35667698475E+01 0.42480769322E+01 0.49536546218E+01
 0.56222784391E+01 0.61792880003E+01 0.65506307065E+01 0.54033610739E+01 0.52108054378E+01
 0.48535390439E+01 0.43795305263E+01 0.38447378025E+01 0.33013374580E+01 0.27900437066E+01
 0.23375647973E+01 0.19578522190E+01 0.16550094421E+01 0.14263831231E+01 0.12653715665E+01
 0.11640090269E+01 0.11153392865E+01 0.11153371914E+01 0.11640035332E+01 0.12653646531E+01
 0.14263785279E+01 0.16550128949E+01 0.19578658253E+01 0.23375802626E+01 0.27900479576E+01
 0.33013280635E+01 0.38447266470E+01 0.43795289025E+01 0.48535454956E+01 0.52108118255E+01
 0.54033632885E+01 0.43500281564E+01 0.41399388167E+01 0.38213806094E+01 0.34333168593E+01
 0.30168908906E+01 0.26081743797E+01 0.22340159452E+01 0.19110316775E+01 0.16467291849E+01
 0.14416593138E+01 0.12918751297E+01 0.11913200731E+01 0.11339347655E+01 0.11153371914E+01
 0.11339338041E+01 0.11913153431E+01 0.12918665678E+01 0.14416533584E+01 0.16467336908E+01
 0.19110457666E+01 0.22340281161E+01 0.26081741015E+01 0.30168804643E+01 0.34333083981E+01
 0.38213824043E+01 0.41399480569E+01 0.43500360056E+01 0.44234923986E+01 0.35142056828E+01
 0.33134435547E+01 0.30447843695E+01 0.27386735465E+01 0.24248137761E+01 0.21277179646E+01
 0.18644376414E+01 0.16442891422E+01 0.14699842147E+01 0.13395345952E+01 0.12483794691E+01
 0.11913147489E+01 0.11640023853E+01 0.11640035332E+01 0.11913153431E+01 0.12483748405E+01
 0.13395254476E+01 0.14699783421E+01 0.16442942068E+01 0.18644519433E+01 0.21277300250E+01
 0.24248128093E+01 0.27386602450E+01 0.30447700333E+01 0.33134382817E+01 0.35142087056E+01
 0.36217936277E+01 0.36217909563E+01 0.28748559437E+01 0.26995439002E+01 0.24854395239E+01
 0.22555908903E+01 0.20308713339E+01 0.18272296763E+01 0.16544993369E+01 0.15166148448E+01
 0.14128430122E+01 0.13395285562E+01 0.12918649742E+01 0.12653623212E+01 0.12569000593E+01
 0.12653646531E+01 0.12918665678E+01 0.13395254476E+01 0.14128347301E+01 0.15166074056E+01
 0.16545013861E+01 0.18272430303E+01 0.20308864200E+01 0.22555948507E+01 0.24854293917E+01
 0.26995290321E+01 0.28748466709E+01 0.29901526659E+01 0.30304030765E+01 0.29901551529E+01
 0.24082036341E+01 0.22685251131E+01 0.21109844471E+01 0.19523702759E+01 0.18066423243E+01
 0.16832443363E+01 0.15865941112E+01 0.15166149184E+01 0.14699788697E+01 0.14416505495E+01
 0.14263766861E+01 0.14199157935E+01 0.14199161680E+01 0.14263785279E+01 0.14416533584E+01
 0.14699783421E+01 0.15166074056E+01 0.15865836765E+01 0.16832411939E+01 0.18066518808E+01
 0.19523860948E+01 0.21109948336E+01 0.22685252194E+01 0.24081981868E+01 0.25131091485E+01
 0.25694534103E+01 0.25694548522E+01 0.25131136686E+01 0.20926923767E+01 0.19960204600E+01
 0.18968159773E+01 0.18066497625E+01 0.17340058708E+01 0.16832522870E+01 0.16545080811E+01
 0.16442940569E+01 0.16467310771E+01 0.16550123963E+01 0.16629034053E+01 0.16660526964E+01
 0.16629021960E+01 0.16550128949E+01 0.16467336908E+01 0.16442942068E+01 0.16545013861E+01
 0.16832411939E+01 0.17339986282E+01 0.18066522820E+01 0.18968262766E+01 0.19960317008E+01
 0.20926996822E+01 0.21740258946E+01 0.22283286342E+01 0.22474124314E+01 0.22283277619E+01
 0.21740227807E+01 0.19110416272E+01 0.18644497597E+01 0.18272462289E+01 0.18066596016E+01
 0.18066599924E+01 0.18272479615E+01 0.18644532142E+01 0.19110456889E+01 0.19578662835E+01
 0.19955844307E+01 0.20165838460E+01 0.20165833705E+01 0.19955834842E+01 0.19578658253E+01
 0.19110457666E+01 0.18644519433E+01 0.18272430303E+01 0.18066518808E+01 0.18066522820E+01
 0.18272436672E+01 0.18644523050E+01 0.19110464831E+01 0.19578672519E+01 0.19955844577E+01
 0.20165826936E+01 0.20165818346E+01 0.19955818155E+01 0.19578629162E+01 0.18518327538E+01
 0.18644515034E+01 0.18968279866E+01 0.19523908368E+01 0.20308915142E+01 0.21277332520E+01
 0.22340291111E+01 0.23375787870E+01 0.24247549422E+01 0.24830172189E+01 0.25035065287E+01
 0.24830207908E+01 0.24247587387E+01 0.23375802626E+01 0.22340281161E+01 0.21277300250E+01
 0.20308864200E+01 0.19523860948E+01 0.18968262766E+01 0.18644523050E+01 0.18518328432E+01
 0.18530073648E+01 0.18608952212E+01 0.18688313848E+01 0.18720537985E+01 0.18688328309E+01
 0.18608978736E+01 0.18530094676E+01 0.19110356880E+01 0.19960247361E+01 0.21109994652E+01
 0.22556064294E+01 0.24248203138E+01 0.26081724879E+01 0.27900399570E+01 0.29513511516E+01
 0.30726368130E+01 0.31378357905E+01 0.31378393677E+01 0.30726455461E+01 0.29513612657E+01
 0.27900479576E+01 0.26081741015E+01 0.24248128093E+01 0.22555948507E+01 0.21109948336E+01
 0.19960317008E+01 0.19110464831E+01 0.18530073648E+01 0.18168975592E+01 0.17970629515E+01
 0.17885860353E+01 0.17885877540E+01 0.17970672588E+01 0.18169003245E+01 0.18530028397E+01
 0.20926874056E+01 0.22685331377E+01 0.24854516827E+01 0.27386752553E+01 0.30168758146E+01
 0.33013120190E+01 0.35667567313E+01 0.37846762739E+01 0.39283281981E+01 0.39785394888E+01
 0.39283292931E+01 0.37846817070E+01 0.35667698475E+01 0.33013280635E+01 0.30168804643E+01
 0.27386602450E+01 0.24854293917E+01 0.22685252194E+01 0.20926996822E+01 0.19578672519E+01
 0.18608952212E+01 0.17970629515E+01 0.17613747194E+01 0.17499670955E+01 0.17613753588E+01
 0.17970608979E+01 0.18608846091E+01 0.19578488132E+01 0.24082100528E+01 0.26995581998E+01
 0.30447901174E+01 0.34333015774E+01 0.38447047038E+01 0.42480642220E+01 0.46042369788E+01
 0.48718295903E+01 0.50157443108E+01 0.50157389520E+01 0.48718181349E+01 0.46042322380E+01
 0.42480769322E+01 0.38447266470E+01 0.34333083981E+01 0.30447700333E+01 0.26995290321E+01
 0.24081981868E+01 0.21740258946E+01 0.19955844577E+01 0.18688313848E+01 0.17885860353E+01
 0.17499670955E+01 0.17499650353E+01 0.17885790962E+01 0.18688175289E+01 0.19955656637E+01
 0.21740150916E+01 0.28748751783E+01 0.33134563984E+01 0.38213720887E+01 0.43795026817E+01
 0.49536411052E+01 0.54943856351E+01 0.59425463331E+01 0.62402141943E+01 0.63446879729E+01
 0.62402022498E+01 0.59425275076E+01 0.54943759498E+01 0.49536546218E+01 0.43795289025E+01
 0.38213824043E+01 0.33134382817E+01 0.28748466709E+01 0.25131091485E+01 0.22283286342E+01
 0.20165826936E+01 0.18720537985E+01 0.17885877540E+01 0.17613753588E+01 0.17885790962E+01
 0.18720389402E+01 0.20165670395E+01 0.22283227568E+01 0.25131233462E+01 0.35142223844E+01
 0.41399350568E+01 0.48535169236E+01 0.56222615645E+01 0.63901298939E+01 0.70800421067E+01
 0.76056278100E+01 0.78908278794E+01 0.78908278978E+01 0.76056223617E+01 0.70800288973E+01
 0.63901242450E+01 0.56222784391E+01 0.48535454956E+01 0.41399480569E+01 0.35142087056E+01
 0.29901526659E+01 0.25694534103E+01 0.22474124314E+01 0.20165818346E+01 0.18688328309E+01
 0.17970672588E+01 0.17970608979E+01 0.18688175289E+01 0.20165670395E+01 0.22474092123E+01
 0.25694680343E+01 0.29901775424E+01 0.43500253857E+01 0.52107856977E+01 0.61792695317E+01
 0.72001145309E+01 0.81834663443E+01 0.90136349448E+01 0.95722193985E+01 0.97695839591E+01
 0.95722260974E+01 0.90136354780E+01 0.81834583039E+01 0.72001137882E+01 0.61792880003E+01
 0.52108118255E+01 0.43500360056E+01 0.36217936277E+01 0.30304030765E+01 0.25694548522E+01
 0.22283277619E+01 0.19955818155E+01 0.18608978736E+01 0.18169003245E+01 0.18608846091E+01
 0.19955656637E+01 0.22283227568E+01 0.25694680343E+01 0.30304262529E+01 0.36218068564E+01
 0.54033423372E+01 0.65506142338E+01 0.78202517472E+01 0.91204108741E+01 0.10313171544E+02
 0.11235987013E+02 0.11741474663E+02 0.11741474894E+02 0.11235984329E+02 0.10313161893E+02
 0.91203994377E+01 0.78202514408E+01 0.65506307065E+01 0.54033632885E+01 0.44234923986E+01
 0.36217909563E+01 0.29901551529E+01 0.25131136686E+01 0.21740227807E+01 0.19578629162E+01
 0.18530094676E+01 0.18530028397E+01 0.19578488132E+01 0.21740150916E+01 0.25131233462E+01
 0.29901775424E+01 0.36218068564E+01 0.44234869284E+01 0.73575714763E+01 0.89783511680E+01
 0.10666093835E+02 0.12237760714E+02 0.13468154462E+02 0.14147218784E+02 0.14147215049E+02
 0.13468150552E+02 0.12237759526E+02 0.10666077597E+02 0.89783093535E+01 0.73575286213E+01
 0.59176490866E+01 0.47073891606E+01 0.37314801837E+01 0.29730525578E+01 0.24082047835E+01
 0.20125138449E+01 0.17637336019E+01 0.16442911446E+01 0.16442987788E+01 0.17637505956E+01
 0.20125295287E+01 0.24082109281E+01 0.29730416153E+01 0.37314522607E+01 0.47073656571E+01
 0.59176590069E+01 0.89783511680E+01 0.10913962888E+02 0.12845525058E+02 0.14523261029E+02
 0.15674754265E+02 0.16085758562E+02 0.15674753572E+02 0.14523268091E+02 0.12845528331E+02
 0.10913937096E+02 0.89782994786E+01 0.72133875155E+01 0.57075259491E+01 0.44819472889E+01
 0.35204527582E+01 0.27930957008E+01 0.22685276449E+01 0.19183408094E+01 0.17190178175E+01
 0.16545071584E+01 0.17190359627E+01 0.19183614035E+01 0.22685359863E+01 0.27930855191E+01
 0.35204251757E+01 0.44819182624E+01 0.57075249411E+01 0.72134267867E+01 0.10666093835E+02
 0.12845525058E+02 0.14899537064E+02 0.16521525670E+02 0.17421408576E+02 0.17421413078E+02
 0.16521542370E+02 0.14899559650E+02 0.12845526825E+02 0.10666058334E+02 0.86042660122E+01
 0.68039986634E+01 0.53180946274E+01 0.41403076843E+01 0.32380504982E+01 0.25732643535E+01
 0.21109877436E+01 0.18217320656E+01 0.16832430341E+01 0.16832538508E+01 0.18217542583E+01
 0.21110023565E+01 0.25732605622E+01 0.32380281389E+01 0.41402775015E+01 0.53180808533E+01
 0.68040223241E+01 0.86043154738E+01 0.12237760714E+02 0.14523261029E+02 0.16521525670E+02
 0.17899075140E+02 0.18391860913E+02 0.17899083546E+02 0.16521542472E+02 0.14523272185E+02
 0.12237746201E+02 0.99672088416E+01 0.79186223260E+01 0.61912497491E+01 0.48022248900E+01
 0.37243900530E+01 0.29162298202E+01 0.23371804243E+01 0.19523740911E+01 0.17339949341E+01
 0.16634220676E+01 0.17340092952E+01 0.19523899880E+01 0.23371847300E+01 0.29162174330E+01
 0.37243653567E+01 0.48022037241E+01 0.61912531198E+01 0.79186547274E+01 0.99672466336E+01
 0.13468154462E+02 0.15674754265E+02 0.17421408576E+02 0.18391860913E+02 0.18391857949E+02
 0.17421402226E+02 0.15674746485E+02 0.13468141191E+02 0.11134532374E+02 0.89361233376E+01
 0.70259635348E+01 0.54577308583E+01 0.42211780811E+01 0.32782699755E+01 0.25861301457E+01
 0.21062438039E+01 0.18066463753E+01 0.16634194061E+01 0.16634226941E+01 0.18066542042E+01
 0.21062507630E+01 0.25861295193E+01 0.32782580297E+01 0.42211596408E+01 0.54577191846E+01
 0.70259694591E+01 0.89361436874E+01 0.11134553542E+02 0.14147218784E+02 0.16085758562E+02
 0.17421413078E+02 0.17899083546E+02 0.17421402226E+02 0.16085737976E+02 0.14147195471E+02
 0.11928132804E+02 0.97210598962E+01 0.77268202231E+01 0.60424801180E+01 0.46857985089E+01
 0.36315706760E+01 0.28404089690E+01 0.22734331508E+01 0.18968205823E+01 0.16832478685E+01
 0.16142583484E+01 0.16832450025E+01 0.18968212422E+01 0.22734391910E+01 0.28404137603E+01
 0.36315674732E+01 0.46857874259E+01 0.60424662741E+01 0.77268103685E+01 0.97210610430E+01
 0.11928147936E+02 0.14147215049E+02 0.15674753572E+02 0.16521542370E+02 0.16521542472E+02
 0.15674746485E+02 0.14147195471E+02 0.12210042807E+02 0.10150406883E+02 0.81967963040E+01
 0.64856345295E+01 0.50686054536E+01 0.39420346700E+01 0.30771453738E+01 0.24393301913E+01
 0.19960251215E+01 0.17190307827E+01 0.15865964072E+01 0.15865901691E+01 0.17190210362E+01
 0.19960262105E+01 0.24393437959E+01 0.30771611556E+01 0.39420407862E+01 0.50685935952E+01
 0.64856055105E+01 0.81967669038E+01 0.10150399172E+02 0.12210059066E+02 0.13468150552E+02
 0.14523268091E+02 0.14899559650E+02 0.14523272185E+02 0.13468141191E+02 0.11928132804E+02
 0.10150406883E+02 0.83625827397E+01 0.67253544756E+01 0.53218109314E+01 0.41743529785E+01
 0.32709833499E+01 0.25863524853E+01 0.20926916451E+01 0.17637487816E+01 0.15769751540E+01
 0.15166158321E+01 0.15769606108E+01 0.17637374279E+01 0.20926973520E+01 0.25863733152E+01
 0.32710068026E+01 0.41743613772E+01 0.53217894442E+01 0.67253101428E+01 0.83625481223E+01
 0.10150406309E+02 0.11928152170E+02 0.12237759526E+02 0.12845528331E+02 0.12845526825E+02
 0.12237746201E+02 0.11134532374E+02 0.97210598962E+01 0.81967963040E+01 0.67253544756E+01
 0.54104930019E+01 0.42989739510E+01 0.33984879744E+01 0.26967646013E+01 0.21740185897E+01
 0.18085800563E+01 0.15795960101E+01 0.14699878268E+01 0.14699784790E+01 0.15795776605E+01
 0.18085701155E+01 0.21740257572E+01 0.26967868293E+01 0.33985130551E+01 0.42989788421E+01
 0.54104621428E+01 0.67253065113E+01 0.81967722264E+01 0.97210749058E+01 0.11134560106E+02
 0.10666077597E+02 0.10913937096E+02 0.10666058334E+02 0.99672088416E+01 0.89361233376E+01
 0.77268202231E+01 0.64856345295E+01 0.53218109314E+01 0.42989739510E+01 0.34430028540E+01
 0.27560616050E+01 0.22283239505E+01 0.18446164268E+01 0.15877980375E+01 0.14416626458E+01
 0.13943949689E+01 0.14416488244E+01 0.15877812436E+01 0.18446071606E+01 0.22283286521E+01
 0.27560825045E+01 0.34430278328E+01 0.42989758722E+01 0.53217770753E+01 0.64855910902E+01
 0.77268068270E+01 0.89361469851E+01 0.99672423302E+01 0.89783093535E+01 0.89782994786E+01
 0.86042660122E+01 0.79186223260E+01 0.70259635348E+01 0.60424801180E+01 0.50686054536E+01
 0.41743529785E+01 0.33984879744E+01 0.27560616050E+01 0.22474093302E+01 0.18646479601E+01
 0.15955319141E+01 0.14263852596E+01 0.13452952679E+01 0.13452905651E+01 0.14263739665E+01
 0.15955187524E+01 0.18646379042E+01 0.22474117232E+01 0.27560827400E+01 0.33985136781E+01
 0.41743543104E+01 0.50685730276E+01 0.60424403182E+01 0.70259490867E+01 0.79186371558E+01
 0.86042886769E+01 0.73575286213E+01 0.72133875155E+01 0.68039986634E+01 0.61912497491E+01
 0.54577308583E+01 0.46857985089E+01 0.39420346700E+01 0.32709833499E+01 0.26967646013E+01
 0.22283239505E+01 0.18646479601E+01 0.15986080255E+01 0.14199196551E+01 0.13180300554E+01
 0.12850420959E+01 0.13180271879E+01 0.14199130556E+01 0.15985966573E+01 0.18646370211E+01
 0.22283265732E+01 0.26967865978E+01 0.32710082851E+01 0.39420366594E+01 0.46857716289E+01
 0.54576957711E+01 0.61912294253E+01 0.68039966988E+01 0.72133920169E+01 0.59176490866E+01
 0.57075259491E+01 0.53180946274E+01 0.48022248900E+01 0.42211780811E+01 0.36315706760E+01
 0.30771453738E+01 0.25863524853E+01 0.21740185897E+01 0.18446164268E+01 0.15955319141E+01
 0.14199196551E+01 0.13093324932E+01 0.12562479748E+01 0.12562487598E+01 0.13093325753E+01
 0.14199142539E+01 0.15955200597E+01 0.18446065195E+01 0.21740230070E+01 0.25863728577E+01
 0.30771668222E+01 0.36315753987E+01 0.42211629117E+01 0.48022020041E+01 0.53180773132E+01
 0.57075180432E+01 0.59176472567E+01 0.47073891606E+01 0.44819472889E+01 0.41403076843E+01
 0.37243900530E+01 0.32782699755E+01 0.28404089690E+01 0.24393301913E+01 0.20926916451E+01
 0.18085800563E+01 0.15877980375E+01 0.14263852596E+01 0.13180300554E+01 0.12562479748E+01
 0.12362438784E+01 0.12562502158E+01 0.13180293354E+01 0.14263774710E+01 0.15877861535E+01
 0.18085731749E+01 0.20926971987E+01 0.24393465448E+01 0.28404259783E+01 0.32782775466E+01
 0.37243864130E+01 0.41402991920E+01 0.44819409160E+01 0.47073867341E+01 0.47862452592E+01
 0.37314801837E+01 0.35204527582E+01 0.32380504982E+01 0.29162298202E+01 0.25861301457E+01
 0.22734331508E+01 0.19960251215E+01 0.17637487816E+01 0.15795960101E+01 0.14416626458E+01
 0.13452952679E+01 0.12850420959E+01 0.12562487598E+01 0.12562502158E+01 0.12850435184E+01
 0.13452915327E+01 0.14416528343E+01 0.15795851250E+01 0.17637439883E+01 0.19960304602E+01
 0.22734460467E+01 0.25861424787E+01 0.29162345471E+01 0.32380481796E+01 0.35204497225E+01
 0.37314801368E+01 0.38445691491E+01 0.38445684120E+01 0.29730525578E+01 0.27930957008E+01
 0.25732643535E+01 0.23371804243E+01 0.21062438039E+01 0.18968205823E+01 0.17190307827E+01
 0.15769751540E+01 0.14699878268E+01 0.13943949689E+01 0.13452905651E+01 0.13180271879E+01
 0.13093325753E+01 0.13180293354E+01 0.13452915327E+01 0.13943910382E+01 0.14699782734E+01
 0.15769640398E+01 0.17190254744E+01 0.18968258461E+01 0.21062556570E+01 0.23371883229E+01
 0.25732620098E+01 0.27930875377E+01 0.29730468281E+01 0.30913874318E+01 0.31326940706E+01
 0.30913887409E+01 0.24082047835E+01 0.22685276449E+01 0.21109877436E+01 0.19523740911E+01
 0.18066463753E+01 0.16832478685E+01 0.15865964072E+01 0.15166158321E+01 0.14699784790E+01
 0.14416488244E+01 0.14263739665E+01 0.14199130556E+01 0.14199142539E+01 0.14263774710E+01
 0.14416528343E+01 0.14699782734E+01 0.15166077057E+01 0.15865839564E+01 0.16832412380E+01
 0.18066519452E+01 0.19523862618E+01 0.21109945452E+01 0.22685239267E+01 0.24081960369E+01
 0.25131066464E+01 0.25694509264E+01 0.25694528914E+01 0.25131130422E+01 0.20125138449E+01
 0.19183408094E+01 0.18217320656E+01 0.17339949341E+01 0.16634194061E+01 0.16142583484E+01
 0.15865901691E+01 0.15769606108E+01 0.15795776605E+01 0.15877812436E+01 0.15955187524E+01
 0.15985966573E+01 0.15955200597E+01 0.15877861535E+01 0.15795851250E+01 0.15769640398E+01
 0.15865839564E+01 0.16142458993E+01 0.16634114266E+01 0.17339985069E+01 0.18217435006E+01
 0.19183506449E+01 0.20125167994E+01 0.20917440635E+01 0.21446438496E+01 0.21632348607E+01
 0.21446461913E+01 0.20917460351E+01 0.17637336019E+01 0.17190178175E+01 0.16832430341E+01
 0.16634220676E+01 0.16634226941E+01 0.16832450025E+01 0.17190210362E+01 0.17637374279E+01
 0.18085701155E+01 0.18446071606E+01 0.18646379042E+01 0.18646370211E+01 0.18446065195E+01
 0.18085731749E+01 0.17637439883E+01 0.17190254744E+01 0.16832412380E+01 0.16634114266E+01
 0.16634115921E+01 0.16832416392E+01 0.17190260718E+01 0.17637449405E+01 0.18085743657E+01
 0.18446072572E+01 0.18646365800E+01 0.18646361286E+01 0.18446043097E+01 0.18085665124E+01
 0.16442911446E+01 0.16545071584E+01 0.16832538508E+01 0.17340092952E+01 0.18066542042E+01
 0.18968212422E+01 0.19960262105E+01 0.20926973520E+01 0.21740257572E+01 0.22283286521E+01
 0.22474117232E+01 0.22283265732E+01 0.21740230070E+01 0.20926971987E+01 0.19960304602E+01
 0.18968258461E+01 0.18066519452E+01 0.17339985069E+01 0.16832416392E+01 0.16545020874E+01
 0.16442947355E+01 0.16467341190E+01 0.16550130288E+01 0.16629010197E+01 0.16660495174E+01
 0.16628989100E+01 0.16550078203E+01 0.16467270833E+01 0.16442987788E+01 0.17190359627E+01
 0.18217542583E+01 0.19523899880E+01 0.21062507630E+01 0.22734391910E+01 0.24393437959E+01
 0.25863733152E+01 0.26967868293E+01 0.27560825045E+01 0.27560827400E+01 0.26967865978E+01
 0.25863728577E+01 0.24393465448E+01 0.22734460467E+01 0.21062556570E+01 0.19523862618E+01
 0.18217435006E+01 0.17190260718E+01 0.16442947355E+01 0.15942419934E+01 0.15637276996E+01
 0.15472643022E+01 0.15403143682E+01 0.15403139470E+01 0.15472631017E+01 0.15637260512E+01
 0.15942415305E+01 0.17637505956E+01 0.19183614035E+01 0.21110023565E+01 0.23371847300E+01
 0.25861295193E+01 0.28404137603E+01 0.30771611556E+01 0.32710068026E+01 0.33985130551E+01
 0.34430278328E+01 0.33985136781E+01 0.32710082851E+01 0.30771668222E+01 0.28404259783E+01
 0.25861424787E+01 0.23371883229E+01 0.21109945452E+01 0.19183506449E+01 0.17637449405E+01
 0.16467341190E+01 0.15637276996E+01 0.15097103425E+01 0.14797323594E+01 0.14701810097E+01
 0.14797307628E+01 0.15097083644E+01 0.15637260840E+01 0.16467344566E+01 0.20125295287E+01
 0.22685359863E+01 0.25732605622E+01 0.29162174330E+01 0.32782580297E+01 0.36315674732E+01
 0.39420407862E+01 0.41743613772E+01 0.42989788421E+01 0.42989758722E+01 0.41743543104E+01
 0.39420366594E+01 0.36315753987E+01 0.32782775466E+01 0.29162345471E+01 0.25732620098E+01
 0.22685239267E+01 0.20125167994E+01 0.18085743657E+01 0.16550130288E+01 0.15472643022E+01
 0.14797323594E+01 0.14474351493E+01 0.14474322341E+01 0.14797256957E+01 0.15472578747E+01
 0.16550104475E+01 0.18085792380E+01 0.24082109281E+01 0.27930855191E+01 0.32380281389E+01
 0.37243653567E+01 0.42211596408E+01 0.46857874259E+01 0.50685935952E+01 0.53217894442E+01
 0.54104621428E+01 0.53217770753E+01 0.50685730276E+01 0.46857716289E+01 0.42211629117E+01
 0.37243864130E+01 0.32380481796E+01 0.27930875377E+01 0.24081960369E+01 0.20917440635E+01
 0.18446072572E+01 0.16629010197E+01 0.15403143682E+01 0.14701810097E+01 0.14474322341E+01
 0.14701723181E+01 0.15403037205E+01 0.16628970859E+01 0.18446153290E+01 0.20917616134E+01
 0.29730416153E+01 0.35204251757E+01 0.41402775015E+01 0.48022037241E+01 0.54577191846E+01
 0.60424662741E+01 0.64856055105E+01 0.67253101428E+01 0.67253065113E+01 0.64855910902E+01
 0.60424403182E+01 0.54576957711E+01 0.48022020041E+01 0.41402991920E+01 0.35204497225E+01
 0.29730468281E+01 0.25131066464E+01 0.21446438496E+01 0.18646365800E+01 0.16660495174E+01
 0.15403139470E+01 0.14797307628E+01 0.14797256957E+01 0.15403037205E+01 0.16660456021E+01
 0.18646477043E+01 0.21446662113E+01 0.25131232977E+01 0.37314522607E+01 0.44819182624E+01
 0.53180808533E+01 0.61912531198E+01 0.70259694591E+01 0.77268103685E+01 0.81967669038E+01
 0.83625481223E+01 0.81967722264E+01 0.77268068270E+01 0.70259490867E+01 0.61912294253E+01
 0.53180773132E+01 0.44819409160E+01 0.37314801368E+01 0.30913874318E+01 0.25694509264E+01
 0.21632348607E+01 0.18646361286E+01 0.16628989100E+01 0.15472631017E+01 0.15097083644E+01
 0.15472578747E+01 0.16628970859E+01 0.18646477043E+01 0.21632583178E+01 0.25694683340E+01
 0.30913802979E+01 0.47073656571E+01 0.57075249411E+01 0.68040223241E+01 0.79186547274E+01
 0.89361436874E+01 0.97210610430E+01 0.10150399172E+02 0.10150406309E+02 0.97210749058E+01
 0.89361469851E+01 0.79186371558E+01 0.68039966988E+01 0.57075180432E+01 0.47073867341E+01
 0.38445691491E+01 0.31326940706E+01 0.25694528914E+01 0.21446461913E+01 0.18446043097E+01
 0.16550078203E+01 0.15637260512E+01 0.15637260840E+01 0.16550104475E+01 0.18446153290E+01
 0.21446662113E+01 0.25694683340E+01 0.31326869082E+01 0.38445416459E+01 0.59176590069E+01
 0.72134267867E+01 0.86043154738E+01 0.99672466336E+01 0.11134553542E+02 0.11928147936E+02
 0.12210059066E+02 0.11928152170E+02 0.11134560106E+02 0.99672423302E+01 0.86042886769E+01
 0.72133920169E+01 0.59176472567E+01 0.47862452592E+01 0.38445684120E+01 0.30913887409E+01
 0.25131130422E+01 0.20917460351E+01 0.18085665124E+01 0.16467270833E+01 0.15942415305E+01
 0.16467344566E+01 0.18085792380E+01 0.20917616134E+01 0.25131232977E+01 0.30913802979E+01
 0.38445416459E+01 0.47862254477E+01 0.83625827397E+01 0.10150406883E+02 0.11928132804E+02
 0.13468141191E+02 0.14523272185E+02 0.14899559650E+02 0.14523268091E+02 0.13468150552E+02
 0.11928152170E+02 0.10150406309E+02 0.83625481223E+01 0.67253101428E+01 0.53217894442E+01
 0.41743613772E+01 0.32710068026E+01 0.25863733152E+01 0.20926973520E+01 0.17637374279E+01
 0.15769606108E+01 0.15166158321E+01 0.15769751540E+01 0.17637487816E+01 0.20926916451E+01
 0.25863524853E+01 0.32709833499E+01 0.41743529785E+01 0.53218109314E+01 0.67253544756E+01
 0.10150406883E+02 0.12210042807E+02 0.14147195471E+02 0.15674746485E+02 0.16521542472E+02
 0.16521542370E+02 0.15674753572E+02 0.14147215049E+02 0.12210059066E+02 0.10150399172E+02
 0.81967669038E+01 0.64856055105E+01 0.50685935952E+01 0.39420407862E+01 0.30771611556E+01
 0.24393437959E+01 0.19960262105E+01 0.17190210362E+01 0.15865901691E+01 0.15865964072E+01
 0.17190307827E+01 0.19960251215E+01 0.24393301913E+01 0.30771453738E+01 0.39420346700E+01
 0.50686054536E+01 0.64856345295E+01 0.81967963040E+01 0.11928132804E+02 0.14147195471E+02
 0.16085737976E+02 0.17421402226E+02 0.17899083546E+02 0.17421413078E+02 0.16085758562E+02
 0.14147218784E+02 0.11928147936E+02 0.97210610430E+01 0.77268103685E+01 0.60424662741E+01
 0.46857874259E+01 0.36315674732E+01 0.28404137603E+01 0.22734391910E+01 0.18968212422E+01
 0.16832450025E+01 0.16142583484E+01 0.16832478685E+01 0.18968205823E+01 0.22734331508E+01
 0.28404089690E+01 0.36315706760E+01 0.46857985089E+01 0.60424801180E+01 0.77268202231E+01
 0.97210598962E+01 0.13468141191E+02 0.15674746485E+02 0.17421402226E+02 0.18391857949E+02
 0.18391860913E+02 0.17421408576E+02 0.15674754265E+02 0.13468154462E+02 0.11134553542E+02
 0.89361436874E+01 0.70259694591E+01 0.54577191846E+01 0.42211596408E+01 0.32782580297E+01
 0.25861295193E+01 0.21062507630E+01 0.18066542042E+01 0.16634226941E+01 0.16634194061E+01
 0.18066463753E+01 0.21062438039E+01 0.25861301457E+01 0.32782699755E+01 0.42211780811E+01
 0.54577308583E+01 0.70259635348E+01 0.89361233376E+01 0.11134532374E+02 0.14523272185E+02
 0.16521542472E+02 0.17899083546E+02 0.18391860913E+02 0.17899075140E+02 0.16521525670E+02
 0.14523261029E+02 0.12237760714E+02 0.99672466336E+01 0.79186547274E+01 0.61912531198E+01
 0.48022037241E+01 0.37243653567E+01 0.29162174330E+01 0.23371847300E+01 0.19523899880E+01
 0.17340092952E+01 0.16634220676E+01 0.17339949341E+01 0.19523740911E+01 0.23371804243E+01
 0.29162298202E+01 0.37243900530E+01 0.48022248900E+01 0.61912497491E+01 0.79186223260E+01
 0.99672088416E+01 0.12237746201E+02 0.14899559650E+02 0.16521542370E+02 0.17421413078E+02
 0.17421408576E+02 0.16521525670E+02 0.14899537064E+02 0.12845525058E+02 0.10666093835E+02
 0.86043154738E+01 0.68040223241E+01 0.53180808533E+01 0.41402775015E+01 0.32380281389E+01
 0.25732605622E+01 0.21110023565E+01 0.18217542583E+01 0.16832538508E+01 0.16832430341E+01
 0.18217320656E+01 0.21109877436E+01 0.25732643535E+01 0.32380504982E+01 0.41403076843E+01
 0.53180946274E+01 0.68039986634E+01 0.86042660122E+01 0.10666058334E+02 0.12845526825E+02
 0.14523268091E+02 0.15674753572E+02 0.16085758562E+02 0.15674754265E+02 0.14523261029E+02
 0.12845525058E+02 0.10913962888E+02 0.89783511680E+01 0.72134267867E+01 0.57075249411E+01
 0.44819182624E+01 0.35204251757E+01 0.27930855191E+01 0.22685359863E+01 0.19183614035E+01
 0.17190359627E+01 0.16545071584E+01 0.17190178175E+01 0.19183408094E+01 0.22685276449E+01
 0.27930957008E+01 0.35204527582E+01 0.44819472889E+01 0.57075259491E+01 0.72133875155E+01
 0.89782994786E+01 0.10913937096E+02 0.12845528331E+02 0.13468150552E+02 0.14147215049E+02
 0.14147218784E+02 0.13468154462E+02 0.12237760714E+02 0.10666093835E+02 0.89783511680E+01
 0.73575714763E+01 0.59176590069E+01 0.47073656571E+01 0.37314522607E+01 0.29730416153E+01
 0.24082109281E+01 0.20125295287E+01 0.17637505956E+01 0.16442987788E+01 0.16442911446E+01
 0.17637336019E+01 0.20125138449E+01 0.24082047835E+01 0.29730525578E+01 0.37314801837E+01
 0.47073891606E+01 0.59176490866E+01 0.73575286213E+01 0.89783093535E+01 0.10666077597E+02
 0.12237759526E+02 0.11928152170E+02 0.12210059066E+02 0.11928147936E+02 0.11134553542E+02
 0.99672466336E+01 0.86043154738E+01 0.72134267867E+01 0.59176590069E+01 0.47862254477E+01
 0.38445416459E+01 0.30913802979E+01 0.25131232977E+01 0.20917616134E+01 0.18085792380E+01
 0.16467344566E+01 0.15942415305E+01 0.16467270833E+01 0.18085665124E+01 0.20917460351E+01
 0.25131130422E+01 0.30913887409E+01 0.38445684120E+01 0.47862452592E+01 0.59176472567E+01
 0.72133920169E+01 0.86042886769E+01 0.99672423302E+01 0.11134560106E+02 0.10150406309E+02
 0.10150399172E+02 0.97210610430E+01 0.89361436874E+01 0.79186547274E+01 0.68040223241E+01
 0.57075249411E+01 0.47073656571E+01 0.38445416459E+01 0.31326869082E+01 0.25694683340E+01
 0.21446662113E+01 0.18446153290E+01 0.16550104475E+01 0.15637260840E+01 0.15637260512E+01
 0.16550078203E+01 0.18446043097E+01 0.21446461913E+01 0.25694528914E+01 0.31326940706E+01
 0.38445691491E+01 0.47073867341E+01 0.57075180432E+01 0.68039966988E+01 0.79186371558E+01
 0.89361469851E+01 0.97210749058E+01 0.83625481223E+01 0.81967669038E+01 0.77268103685E+01
 0.70259694591E+01 0.61912531198E+01 0.53180808533E+01 0.44819182624E+01 0.37314522607E+01
 0.30913802979E+01 0.25694683340E+01 0.21632583178E+01 0.18646477043E+01 0.16628970859E+01
 0.15472578747E+01 0.15097083644E+01 0.15472631017E+01 0.16628989100E+01 0.18646361286E+01
 0.21632348607E+01 0.25694509264E+01 0.30913874318E+01 0.37314801368E+01 0.44819409160E+01
 0.53180773132E+01 0.61912294253E+01 0.70259490867E+01 0.77268068270E+01 0.81967722264E+01
 0.67253101428E+01 0.64856055105E+01 0.60424662741E+01 0.54577191846E+01 0.48022037241E+01
 0.41402775015E+01 0.35204251757E+01 0.29730416153E+01 0.25131232977E+01 0.21446662113E+01
 0.18646477043E+01 0.16660456021E+01 0.15403037205E+01 0.14797256957E+01 0.14797307628E+01
 0.15403139470E+01 0.16660495174E+01 0.18646365800E+01 0.21446438496E+01 0.25131066464E+01
 0.29730468281E+01 0.35204497225E+01 0.41402991920E+01 0.48022020041E+01 0.54576957711E+01
 0.60424403182E+01 0.64855910902E+01 0.67253065113E+01 0.53217894442E+01 0.50685935952E+01
 0.46857874259E+01 0.42211596408E+01 0.37243653567E+01 0.32380281389E+01 0.27930855191E+01
 0.24082109281E+01 0.20917616134E+01 0.18446153290E+01 0.16628970859E+01 0.15403037205E+01
 0.14701723181E+01 0.14474322341E+01 0.14701810097E+01 0.15403143682E+01 0.16629010197E+01
 0.18446072572E+01 0.20917440635E+01 0.24081960369E+01 0.27930875377E+01 0.32380481796E+01
 0.37243864130E+01 0.42211629117E+01 0.46857716289E+01 0.50685730276E+01 0.53217770753E+01
 0.54104621428E+01 0.41743613772E+01 0.39420407862E+01 0.36315674732E+01 0.32782580297E+01
 0.29162174330E+01 0.25732605622E+01 0.22685359863E+01 0.20125295287E+01 0.18085792380E+01
 0.16550104475E+01 0.15472578747E+01 0.14797256957E+01 0.14474322341E+01 0.14474351493E+01
 0.14797323594E+01 0.15472643022E+01 0.16550130288E+01 0.18085743657E+01 0.20125167994E+01
 0.22685239267E+01 0.25732620098E+01 0.29162345471E+01 0.32782775466E+01 0.36315753987E+01
 0.39420366594E+01 0.41743543104E+01 0.42989758722E+01 0.42989788421E+01 0.32710068026E+01
 0.30771611556E+01 0.28404137603E+01 0.25861295193E+01 0.23371847300E+01 0.21110023565E+01
 0.19183614035E+01 0.17637505956E+01 0.16467344566E+01 0.15637260840E+01 0.15097083644E+01
 0.14797307628E+01 0.14701810097E+01 0.14797323594E+01 0.15097103425E+01 0.15637276996E+01
 0.16467341190E+01 0.17637449405E+01 0.19183506449E+01 0.21109945452E+01 0.23371883229E+01
 0.25861424787E+01 0.28404259783E+01 0.30771668222E+01 0.32710082851E+01 0.33985136781E+01
 0.34430278328E+01 0.33985130551E+01 0.25863733152E+01 0.24393437959E+01 0.22734391910E+01
 0.21062507630E+01 0.19523899880E+01 0.18217542583E+01 0.17190359627E+01 0.16442987788E+01
 0.15942415305E+01 0.15637260512E+01 0.15472631017E+01 0.15403139470E+01 0.15403143682E+01
 0.15472643022E+01 0.15637276996E+01 0.15942419934E+01 0.16442947355E+01 0.17190260718E+01
 0.18217435006E+01 0.19523862618E+01 0.21062556570E+01 0.22734460467E+01 0.24393465448E+01
 0.25863728577E+01 0.26967865978E+01 0.27560827400E+01 0.27560825045E+01 0.26967868293E+01
 0.20926973520E+01 0.19960262105E+01 0.18968212422E+01 0.18066542042E+01 0.17340092952E+01
 0.16832538508E+01 0.16545071584E+01 0.16442911446E+01 0.16467270833E+01 0.16550078203E+01
 0.16628989100E+01 0.16660495174E+01 0.16629010197E+01 0.16550130288E+01 0.16467341190E+01
 0.16442947355E+01 0.16545020874E+01 0.16832416392E+01 0.17339985069E+01 0.18066519452E+01
 0.18968258461E+01 0.19960304602E+01 0.20926971987E+01 0.21740230070E+01 0.22283265732E+01
 0.22474117232E+01 0.22283286521E+01 0.21740257572E+01 0.17637374279E+01 0.17190210362E+01
 0.16832450025E+01 0.16634226941E+01 0.16634220676E+01 0.16832430341E+01 0.17190178175E+01
 0.17637336019E+01 0.18085665124E+01 0.18446043097E+01 0.18646361286E+01 0.18646365800E+01
 0.18446072572E+01 0.18085743657E+01 0.17637449405E+01 0.17190260718E+01 0.16832416392E+01
 0.16634115921E+01 0.16634114266E+01 0.16832412380E+01 0.17190254744E+01 0.17637439883E+01
 0.18085731749E+01 0.18446065195E+01 0.18646370211E+01 0.18646379042E+01 0.18446071606E+01
 0.18085701155E+01 0.15769606108E+01 0.15865901691E+01 0.16142583484E+01 0.16634194061E+01
 0.17339949341E+01 0.18217320656E+01 0.19183408094E+01 0.20125138449E+01 0.20917460351E+01
 0.21446461913E+01 0.21632348607E+01 0.21446438496E+01 0.20917440635E+01 0.20125167994E+01
 0.19183506449E+01 0.18217435006E+01 0.17339985069E+01 0.16634114266E+01 0.16142458993E+01
 0.15865839564E+01 0.15769640398E+01 0.15795851250E+01 0.15877861535E+01 0.15955200597E+01
 0.15985966573E+01 0.15955187524E+01 0.15877812436E+01 0.15795776605E+01 0.15166158321E+01
 0.15865964072E+01 0.16832478685E+01 0.18066463753E+01 0.19523740911E+01 0.21109877436E+01
 0.22685276449E+01 0.24082047835E+01 0.25131130422E+01 0.25694528914E+01 0.25694509264E+01
 0.25131066464E+01 0.24081960369E+01 0.22685239267E+01 0.21109945452E+01 0.19523862618E+01
 0.18066519452E+01 0.16832412380E+01 0.15865839564E+01 0.15166077057E+01 0.14699782734E+01
 0.14416528343E+01 0.14263774710E+01 0.14199142539E+01 0.14199130556E+01 0.14263739665E+01
 0.14416488244E+01 0.14699784790E+01 0.15769751540E+01 0.17190307827E+01 0.18968205823E+01
 0.21062438039E+01 0.23371804243E+01 0.25732643535E+01 0.27930957008E+01 0.29730525578E+01
 0.30913887409E+01 0.31326940706E+01 0.30913874318E+01 0.29730468281E+01 0.27930875377E+01
 0.25732620098E+01 0.23371883229E+01 0.21062556570E+01 0.18968258461E+01 0.17190254744E+01
 0.15769640398E+01 0.14699782734E+01 0.13943910382E+01 0.13452915327E+01 0.13180293354E+01
 0.13093325753E+01 0.13180271879E+01 0.13452905651E+01 0.13943949689E+01 0.14699878268E+01
 0.17637487816E+01 0.19960251215E+01 0.22734331508E+01 0.25861301457E+01 0.29162298202E+01
 0.32380504982E+01 0.35204527582E+01 0.37314801837E+01 0.38445684120E+01 0.38445691491E+01
 0.37314801368E+01 0.35204497225E+01 0.32380481796E+01 0.29162345471E+01 0.25861424787E+01
 0.22734460467E+01 0.19960304602E+01 0.17637439883E+01 0.15795851250E+01 0.14416528343E+01
 0.13452915327E+01 0.12850435184E+01 0.12562502158E+01 0.12562487598E+01 0.12850420959E+01
 0.13452952679E+01 0.14416626458E+01 0.15795960101E+01 0.20926916451E+01 0.24393301913E+01
 0.28404089690E+01 0.32782699755E+01 0.37243900530E+01 0.41403076843E+01 0.44819472889E+01
 0.47073891606E+01 0.47862452592E+01 0.47073867341E+01 0.44819409160E+01 0.41402991920E+01
 0.37243864130E+01 0.32782775466E+01 0.28404259783E+01 0.24393465448E+01 0.20926971987E+01
 0.18085731749E+01 0.15877861535E+01 0.14263774710E+01 0.13180293354E+01 0.12562502158E+01
 0.12362438784E+01 0.12562479748E+01 0.13180300554E+01 0.14263852596E+01 0.15877980375E+01
 0.18085800563E+01 0.25863524853E+01 0.30771453738E+01 0.36315706760E+01 0.42211780811E+01
 0.48022248900E+01 0.53180946274E+01 0.57075259491E+01 0.59176490866E+01 0.59176472567E+01
 0.57075180432E+01 0.53180773132E+01 0.48022020041E+01 0.42211629117E+01 0.36315753987E+01
 0.30771668222E+01 0.25863728577E+01 0.21740230070E+01 0.18446065195E+01 0.15955200597E+01
 0.14199142539E+01 0.13093325753E+01 0.12562487598E+01 0.12562479748E+01 0.13093324932E+01
 0.14199196551E+01 0.15955319141E+01 0.18446164268E+01 0.21740185897E+01 0.32709833499E+01
 0.39420346700E+01 0.46857985089E+01 0.54577308583E+01 0.61912497491E+01 0.68039986634E+01
 0.72133875155E+01 0.73575286213E+01 0.72133920169E+01 0.68039966988E+01 0.61912294253E+01
 0.54576957711E+01 0.46857716289E+01 0.39420366594E+01 0.32710082851E+01 0.26967865978E+01
 0.22283265732E+01 0.18646370211E+01 0.15985966573E+01 0.14199130556E+01 0.13180271879E+01
 0.12850420959E+01 0.13180300554E+01 0.14199196551E+01 0.15986080255E+01 0.18646479601E+01
 0.22283239505E+01 0.26967646013E+01 0.41743529785E+01 0.50686054536E+01 0.60424801180E+01
 0.70259635348E+01 0.79186223260E+01 0.86042660122E+01 0.89782994786E+01 0.89783093535E+01
 0.86042886769E+01 0.79186371558E+01 0.70259490867E+01 0.60424403182E+01 0.50685730276E+01
 0.41743543104E+01 0.33985136781E+01 0.27560827400E+01 0.22474117232E+01 0.18646379042E+01
 0.15955187524E+01 0.14263739665E+01 0.13452905651E+01 0.13452952679E+01 0.14263852596E+01
 0.15955319141E+01 0.18646479601E+01 0.22474093302E+01 0.27560616050E+01 0.33984879744E+01
 0.53218109314E+01 0.64856345295E+01 0.77268202231E+01 0.89361233376E+01 0.99672088416E+01
 0.10666058334E+02 0.10913937096E+02 0.10666077597E+02 0.99672423302E+01 0.89361469851E+01
 0.77268068270E+01 0.64855910902E+01 0.53217770753E+01 0.42989758722E+01 0.34430278328E+01
 0.27560825045E+01 0.22283286521E+01 0.18446071606E+01 0.15877812436E+01 0.14416488244E+01
 0.13943949689E+01 0.14416626458E+01 0.15877980375E+01 0.18446164268E+01 0.22283239505E+01
 0.27560616050E+01 0.34430028540E+01 0.42989739510E+01 0.67253544756E+01 0.81967963040E+01
 0.97210598962E+01 0.11134532374E+02 0.12237746201E+02 0.12845526825E+02 0.12845528331E+02
 0.12237759526E+02 0.11134560106E+02 0.97210749058E+01 0.81967722264E+01 0.67253065113E+01
 0.54104621428E+01 0.42989788421E+01 0.33985130551E+01 0.26967868293E+01 0.21740257572E+01
 0.18085701155E+01 0.15795776605E+01 0.14699784790E+01 0.14699878268E+01 0.15795960101E+01
 0.18085800563E+01 0.21740185897E+01 0.26967646013E+01 0.33984879744E+01 0.42989739510E+01
 0.54104930019E+01 0.97695532490E+01 0.11741448522E+02 0.13586921669E+02 0.15035741532E+02
 0.15836446556E+02 0.15836437692E+02 0.15035727788E+02 0.13586925532E+02 0.11741474894E+02
 0.97695839591E+01 0.78908278794E+01 0.62402141943E+01 0.48718295903E+01 0.37846762739E+01
 0.29513511516E+01 0.23375787870E+01 0.19110456889E+01 0.16442940569E+01 0.15166149184E+01
 0.15166148448E+01 0.16442891422E+01 0.19110316775E+01 0.23375647973E+01 0.29513532757E+01
 0.37846989702E+01 0.48718587239E+01 0.62402284123E+01 0.78908156360E+01 0.11741448522E+02
 0.13912480642E+02 0.15799960268E+02 0.17095478222E+02 0.17557993962E+02 0.17095478056E+02
 0.15799961778E+02 0.13912491269E+02 0.11741474663E+02 0.95722193985E+01 0.76056278100E+01
 0.59425463331E+01 0.46042369788E+01 0.35667567313E+01 0.27900399570E+01 0.22340291111E+01
 0.18644532142E+01 0.16545080811E+01 0.15865941112E+01 0.16544993369E+01 0.18644376414E+01
 0.22340159452E+01 0.27900437066E+01 0.35667826022E+01 0.46042694253E+01 0.59425595055E+01
 0.76056107332E+01 0.95721864654E+01 0.13586921669E+02 0.15799960268E+02 0.17544471448E+02
 0.18511739796E+02 0.18511746447E+02 0.17544482823E+02 0.15799968481E+02 0.13586938790E+02
 0.11235987013E+02 0.90136349448E+01 0.70800421067E+01 0.54943856351E+01 0.42480642220E+01
 0.33013120190E+01 0.26081724879E+01 0.21277332520E+01 0.18272479615E+01 0.16832522870E+01
 0.16832443363E+01 0.18272296763E+01 0.21277179646E+01 0.26081743797E+01 0.33013374580E+01
 0.42481015051E+01 0.54944060150E+01 0.70800242474E+01 0.90135902936E+01 0.11235948279E+02
 0.15035741532E+02 0.17095478222E+02 0.18511739796E+02 0.19017927871E+02 0.18511743065E+02
 0.17095475196E+02 0.15035741560E+02 0.12670534465E+02 0.10313171544E+02 0.81834663443E+01
 0.63901298939E+01 0.49536411052E+01 0.38447047038E+01 0.30168758146E+01 0.24248203138E+01
 0.20308915142E+01 0.18066599924E+01 0.17340058708E+01 0.18066423243E+01 0.20308713339E+01
 0.24248137761E+01 0.30168908906E+01 0.38447378025E+01 0.49536713381E+01 0.63901270606E+01
 0.81834225013E+01 0.10313117522E+02 0.12670506950E+02 0.15836446556E+02 0.17557993962E+02
 0.18511746447E+02 0.18511743065E+02 0.17557980485E+02 0.15836429223E+02 0.13649820573E+02
 0.11323379926E+02 0.91204108741E+01 0.72001145309E+01 0.56222615645E+01 0.43795026817E+01
 0.34333015774E+01 0.27386752553E+01 0.22556064294E+01 0.19523908368E+01 0.18066596016E+01
 0.18066497625E+01 0.19523702759E+01 0.22555908903E+01 0.27386735465E+01 0.34333168593E+01
 0.43795305263E+01 0.56222799602E+01 0.72000971832E+01 0.91203627342E+01 0.11323339848E+02
 0.13649815801E+02 0.15836437692E+02 0.17095478056E+02 0.17544482823E+02 0.17095475196E+02
 0.15836429223E+02 0.13998366414E+02 0.11878426151E+02 0.97534567558E+01 0.78202517472E+01
 0.61792695317E+01 0.48535169236E+01 0.38213720887E+01 0.30447901174E+01 0.24854516827E+01
 0.21109994652E+01 0.18968279866E+01 0.18272462289E+01 0.18968159773E+01 0.21109844471E+01
 0.24854395239E+01 0.30447843695E+01 0.38213806094E+01 0.48535390439E+01 0.61792830880E+01
 0.78202355836E+01 0.97534224825E+01 0.11878405058E+02 0.13998368408E+02 0.15035727788E+02
 0.15799961778E+02 0.15799968481E+02 0.15035741560E+02 0.13649820573E+02 0.11878426151E+02
 0.99776104867E+01 0.81578175896E+01 0.65506142338E+01 0.52107856977E+01 0.41399350568E+01
 0.33134563984E+01 0.26995581998E+01 0.22685331377E+01 0.19960247361E+01 0.18644515034E+01
 0.18644497597E+01 0.19960204600E+01 0.22685251131E+01 0.26995439002E+01 0.33134435547E+01
 0.41399388167E+01 0.52108054378E+01 0.65506278469E+01 0.81578092288E+01 0.99775894808E+01
 0.11878408163E+02 0.13649806491E+02 0.13586925532E+02 0.13912491269E+02 0.13586938790E+02
 0.12670534465E+02 0.11323379926E+02 0.97534567558E+01 0.81578175896E+01 0.66812045045E+01
 0.54033423372E+01 0.43500253857E+01 0.35142223844E+01 0.28748751783E+01 0.24082100528E+01
 0.20926874056E+01 0.19110356880E+01 0.18518327538E+01 0.19110416272E+01 0.20926923767E+01
 0.24082036341E+01 0.28748559437E+01 0.35142056828E+01 0.43500281564E+01 0.54033610739E+01
 0.66812188766E+01 0.81578147189E+01 0.97534408400E+01 0.11323359734E+02 0.12670514860E+02
 0.11741474894E+02 0.11741474663E+02 0.11235987013E+02 0.10313171544E+02 0.91204108741E+01
 0.78202517472E+01 0.65506142338E+01 0.54033423372E+01 0.44234869284E+01 0.36218068564E+01
 0.29901775424E+01 0.25131233462E+01 0.21740150916E+01 0.19578488132E+01 0.18530028397E+01
 0.18530094676E+01 0.19578629162E+01 0.21740227807E+01 0.25131136686E+01 0.29901551529E+01
 0.36217909563E+01 0.44234923986E+01 0.54033632885E+01 0.65506307065E+01 0.78202514408E+01
 0.91203994377E+01 0.10313161893E+02 0.11235984329E+02 0.97695839591E+01 0.95722193985E+01
 0.90136349448E+01 0.81834663443E+01 0.72001145309E+01 0.61792695317E+01 0.52107856977E+01
 0.43500253857E+01 0.36218068564E+01 0.30304262529E+01 0.25694680343E+01 0.22283227568E+01
 0.19955656637E+01 0.18608846091E+01 0.18169003245E+01 0.18608978736E+01 0.19955818155E+01
 0.22283277619E+01 0.25694548522E+01 0.30304030765E+01 0.36217936277E+01 0.43500360056E+01
 0.52108118255E+01 0.61792880003E+01 0.72001137882E+01 0.81834583039E+01 0.90136354780E+01
 0.95722260974E+01 0.78908278794E+01 0.76056278100E+01 0.70800421067E+01 0.63901298939E+01
 0.56222615645E+01 0.48535169236E+01 0.41399350568E+01 0.35142223844E+01 0.29901775424E+01
 0.25694680343E+01 0.22474092123E+01 0.20165670395E+01 0.18688175289E+01 0.17970608979E+01
 0.17970672588E+01 0.18688328309E+01 0.20165818346E+01 0.22474124314E+01 0.25694534103E+01
 0.29901526659E+01 0.35142087056E+01 0.41399480569E+01 0.48535454956E+01 0.56222784391E+01
 0.63901242450E+01 0.70800288973E+01 0.76056223617E+01 0.78908278978E+01 0.62402141943E+01
 0.59425463331E+01 0.54943856351E+01 0.49536411052E+01 0.43795026817E+01 0.38213720887E+01
 0.33134563984E+01 0.28748751783E+01 0.25131233462E+01 0.22283227568E+01 0.20165670395E+01
 0.18720389402E+01 0.17885790962E+01 0.17613753588E+01 0.17885877540E+01 0.18720537985E+01
 0.20165826936E+01 0.22283286342E+01 0.25131091485E+01 0.28748466709E+01 0.33134382817E+01
 0.38213824043E+01 0.43795289025E+01 0.49536546218E+01 0.54943759498E+01 0.59425275076E+01
 0.62402022498E+01 0.63446879729E+01 0.48718295903E+01 0.46042369788E+01 0.42480642220E+01
 0.38447047038E+01 0.34333015774E+01 0.30447901174E+01 0.26995581998E+01 0.24082100528E+01
 0.21740150916E+01 0.19955656637E+01 0.18688175289E+01 0.17885790962E+01 0.17499650353E+01
 0.17499670955E+01 0.17885860353E+01 0.18688313848E+01 0.19955844577E+01 0.21740258946E+01
 0.24081981868E+01 0.26995290321E+01 0.30447700333E+01 0.34333083981E+01 0.38447266470E+01
 0.42480769322E+01 0.46042322380E+01 0.48718181349E+01 0.50157389520E+01 0.50157443108E+01
 0.37846762739E+01 0.35667567313E+01 0.33013120190E+01 0.30168758146E+01 0.27386752553E+01
 0.24854516827E+01 0.22685331377E+01 0.20926874056E+01 0.19578488132E+01 0.18608846091E+01
 0.17970608979E+01 0.17613753588E+01 0.17499670955E+01 0.17613747194E+01 0.17970629515E+01
 0.18608952212E+01 0.19578672519E+01 0.20926996822E+01 0.22685252194E+01 0.24854293917E+01
 0.27386602450E+01 0.30168804643E+01 0.33013280635E+01 0.35667698475E+01 0.37846817070E+01
 0.39283292931E+01 0.39785394888E+01 0.39283281981E+01 0.29513511516E+01 0.27900399570E+01
 0.26081724879E+01 0.24248203138E+01 0.22556064294E+01 0.21109994652E+01 0.19960247361E+01
 0.19110356880E+01 0.18530028397E+01 0.18169003245E+01 0.17970672588E+01 0.17885877540E+01
 0.17885860353E+01 0.17970629515E+01 0.18168975592E+01 0.18530073648E+01 0.19110464831E+01
 0.19960317008E+01 0.21109948336E+01 0.22555948507E+01 0.24248128093E+01 0.26081741015E+01
 0.27900479576E+01 0.29513612657E+01 0.30726455461E+01 0.31378393677E+01 0.31378357905E+01
 0.30726368130E+01 0.23375787870E+01 0.22340291111E+01 0.21277332520E+01 0.20308915142E+01
 0.19523908368E+01 0.18968279866E+01 0.18644515034E+01 0.18518327538E+01 0.18530094676E+01
 0.18608978736E+01 0.18688328309E+01 0.18720537985E+01 0.18688313848E+01 0.18608952212E+01
 0.18530073648E+01 0.18518328432E+01 0.18644523050E+01 0.18968262766E+01 0.19523860948E+01
 0.20308864200E+01 0.21277300250E+01 0.22340281161E+01 0.23375802626E+01 0.24247587387E+01
 0.24830207908E+01 0.25035065287E+01 0.24830172189E+01 0.24247549422E+01 0.19110456889E+01
 0.18644532142E+01 0.18272479615E+01 0.18066599924E+01 0.18066596016E+01 0.18272462289E+01
 0.18644497597E+01 0.19110416272E+01 0.19578629162E+01 0.19955818155E+01 0.20165818346E+01
 0.20165826936E+01 0.19955844577E+01 0.19578672519E+01 0.19110464831E+01 0.18644523050E+01
 0.18272436672E+01 0.18066522820E+01 0.18066518808E+01 0.18272430303E+01 0.18644519433E+01
 0.19110457666E+01 0.19578658253E+01 0.19955834842E+01 0.20165833705E+01 0.20165838460E+01
 0.19955844307E+01 0.19578662835E+01 0.16442940569E+01 0.16545080811E+01 0.16832522870E+01
 0.17340058708E+01 0.18066497625E+01 0.18968159773E+01 0.19960204600E+01 0.20926923767E+01
 0.21740227807E+01 0.22283277619E+01 0.22474124314E+01 0.22283286342E+01 0.21740258946E+01
 0.20926996822E+01 0.19960317008E+01 0.18968262766E+01 0.18066522820E+01 0.17339986282E+01
 0.16832411939E+01 0.16545013861E+01 0.16442942068E+01 0.16467336908E+01 0.16550128949E+01
 0.16629021960E+01 0.16660526964E+01 0.16629034053E+01 0.16550123963E+01 0.16467310771E+01
 0.15166149184E+01 0.15865941112E+01 0.16832443363E+01 0.18066423243E+01 0.19523702759E+01
 0.21109844471E+01 0.22685251131E+01 0.24082036341E+01 0.25131136686E+01 0.25694548522E+01
 0.25694534103E+01 0.25131091485E+01 0.24081981868E+01 0.22685252194E+01 0.21109948336E+01
 0.19523860948E+01 0.18066518808E+01 0.16832411939E+01 0.15865836765E+01 0.15166074056E+01
 0.14699783421E+01 0.14416533584E+01 0.14263785279E+01 0.14199161680E+01 0.14199157935E+01
 0.14263766861E+01 0.14416505495E+01 0.14699788697E+01 0.15166148448E+01 0.16544993369E+01
 0.18272296763E+01 0.20308713339E+01 0.22555908903E+01 0.24854395239E+01 0.26995439002E+01
 0.28748559437E+01 0.29901551529E+01 0.30304030765E+01 0.29901526659E+01 0.28748466709E+01
 0.26995290321E+01 0.24854293917E+01 0.22555948507E+01 0.20308864200E+01 0.18272430303E+01
 0.16545013861E+01 0.15166074056E+01 0.14128347301E+01 0.13395254476E+01 0.12918665678E+01
 0.12653646531E+01 0.12569000593E+01 0.12653623212E+01 0.12918649742E+01 0.13395285562E+01
 0.14128430122E+01 0.16442891422E+01 0.18644376414E+01 0.21277179646E+01 0.24248137761E+01
 0.27386735465E+01 0.30447843695E+01 0.33134435547E+01 0.35142056828E+01 0.36217909563E+01
 0.36217936277E+01 0.35142087056E+01 0.33134382817E+01 0.30447700333E+01 0.27386602450E+01
 0.24248128093E+01 0.21277300250E+01 0.18644519433E+01 0.16442942068E+01 0.14699783421E+01
 0.13395254476E+01 0.12483748405E+01 0.11913153431E+01 0.11640035332E+01 0.11640023853E+01
 0.11913147489E+01 0.12483794691E+01 0.13395345952E+01 0.14699842147E+01 0.19110316775E+01
 0.22340159452E+01 0.26081743797E+01 0.30168908906E+01 0.34333168593E+01 0.38213806094E+01
 0.41399388167E+01 0.43500281564E+01 0.44234923986E+01 0.43500360056E+01 0.41399480569E+01
 0.38213824043E+01 0.34333083981E+01 0.30168804643E+01 0.26081741015E+01 0.22340281161E+01
 0.19110457666E+01 0.16467336908E+01 0.14416533584E+01 0.12918665678E+01 0.11913153431E+01
 0.11339338041E+01 0.11153371914E+01 0.11339347655E+01 0.11913200731E+01 0.12918751297E+01
 0.14416593138E+01 0.16467291849E+01 0.23375647973E+01 0.27900437066E+01 0.33013374580E+01
 0.38447378025E+01 0.43795305263E+01 0.48535390439E+01 0.52108054378E+01 0.54033610739E+01
 0.54033632885E+01 0.52108118255E+01 0.48535454956E+01 0.43795289025E+01 0.38447266470E+01
 0.33013280635E+01 0.27900479576E+01 0.23375802626E+01 0.19578658253E+01 0.16550128949E+01
 0.14263785279E+01 0.12653646531E+01 0.11640035332E+01 0.11153371914E+01 0.11153392865E+01
 0.11640090269E+01 0.12653715665E+01 0.14263831231E+01 0.16550094421E+01 0.19578522190E+01
 0.29513532757E+01 0.35667826022E+01 0.42481015051E+01 0.49536713381E+01 0.56222799602E+01
 0.61792830880E+01 0.65506278469E+01 0.66812188766E+01 0.65506307065E+01 0.61792880003E+01
 0.56222784391E+01 0.49536546218E+01 0.42480769322E+01 0.35667698475E+01 0.29513612657E+01
 0.24247587387E+01 0.19955834842E+01 0.16629021960E+01 0.14199161680E+01 0.12569000593E+01
 0.11640023853E+01 0.11339347655E+01 0.11640090269E+01 0.12569069773E+01 0.14199181587E+01
 0.16628969553E+01 0.19955694955E+01 0.24247405834E+01 0.37846989702E+01 0.46042694253E+01
 0.54944060150E+01 0.63901270606E+01 0.72000971832E+01 0.78202355836E+01 0.81578092288E+01
 0.81578147189E+01 0.78202514408E+01 0.72001137882E+01 0.63901242450E+01 0.54943759498E+01
 0.46042322380E+01 0.37846817070E+01 0.30726455461E+01 0.24830207908E+01 0.20165833705E+01
 0.16660526964E+01 0.14199157935E+01 0.12653623212E+01 0.11913147489E+01 0.11913200731E+01
 0.12653715665E+01 0.14199181587E+01 0.16660450819E+01 0.20165681352E+01 0.24830029361E+01
 0.30726379558E+01 0.48718587239E+01 0.59425595055E+01 0.70800242474E+01 0.81834225013E+01
 0.91203627342E+01 0.97534224825E+01 0.99775894808E+01 0.97534408400E+01 0.91203994377E+01
 0.81834583039E+01 0.70800288973E+01 0.59425275076E+01 0.48718181349E+01 0.39283292931E+01
 0.31378393677E+01 0.25035065287E+01 0.20165838460E+01 0.16629034053E+01 0.14263766861E+01
 0.12918649742E+01 0.12483794691E+01 0.12918751297E+01 0.14263831231E+01 0.16628969553E+01
 0.20165681352E+01 0.25034908584E+01 0.31378356466E+01 0.39283496444E+01 0.62402284123E+01
 0.76056107332E+01 0.90135902936E+01 0.10313117522E+02 0.11323339848E+02 0.11878405058E+02
 0.11878408163E+02 0.11323359734E+02 0.10313161893E+02 0.90136354780E+01 0.76056223617E+01
 0.62402022498E+01 0.50157389520E+01 0.39785394888E+01 0.31378357905E+01 0.24830172189E+01
 0.19955844307E+01 0.16550123963E+01 0.14416505495E+01 0.13395285562E+01 0.13395345952E+01
 0.14416593138E+01 0.16550094421E+01 0.19955694955E+01 0.24830029361E+01 0.31378356466E+01
 0.39785609792E+01 0.50157757563E+01 0.78908156360E+01 0.95721864654E+01 0.11235948279E+02
 0.12670506950E+02 0.13649815801E+02 0.13998368408E+02 0.13649806491E+02 0.12670514860E+02
 0.11235984329E+02 0.95722260974E+01 0.78908278978E+01 0.63446879729E+01 0.50157443108E+01
 0.39283281981E+01 0.30726368130E+01 0.24247549422E+01 0.19578662835E+01 0.16467310771E+01
 0.14699788697E+01 0.14128430122E+01 0.14699842147E+01 0.16467291849E+01 0.19578522190E+01
 0.24247405834E+01 0.30726379558E+01 0.39283496444E+01 0.50157757563E+01 0.63447074604E+01
 0.11618327151E+02 0.13739665204E+02 0.15573179788E+02 0.16828656952E+02 0.17276326947E+02
 0.16828640620E+02 0.15573151125E+02 0.13739644963E+02 0.11618341423E+02 0.94812057826E+01
 0.75321655759E+01 0.58801496190E+01 0.45526073473E+01 0.35273156049E+01 0.27625558975E+01
 0.22158562321E+01 0.18518333197E+01 0.16442981953E+01 0.15769707446E+01 0.16442856464E+01
 0.18518172403E+01 0.22158494024E+01 0.27625679838E+01 0.35273439297E+01 0.45526304616E+01
 0.58801403444E+01 0.75321212936E+01 0.94811587939E+01 0.13739665204E+02 0.15945027519E+02
 0.17678726621E+02 0.18638056205E+02 0.18638062798E+02 0.17678731304E+02 0.15945014097E+02
 0.13739651622E+02 0.11381600770E+02 0.91341207343E+01 0.71697138932E+01 0.55587351751E+01
 0.42972043318E+01 0.33438722370E+01 0.26485410181E+01 0.21667178691E+01 0.18644519361E+01
 0.17190338637E+01 0.17190254650E+01 0.18644346197E+01 0.21667067537E+01 0.26485455511E+01
 0.33438918302E+01 0.42972263242E+01 0.55587372212E+01 0.71696846396E+01 0.91340809730E+01
 0.11381585248E+02 0.15573179788E+02 0.17678726621E+02 0.19123158684E+02 0.19638507035E+02
 0.19123176099E+02 0.17678734191E+02 0.15573170809E+02 0.13147285393E+02 0.10710997844E+02
 0.84951128216E+01 0.66258632382E+01 0.51331332565E+01 0.39877558665E+01 0.31378136988E+01
 0.25316536373E+01 0.21277271044E+01 0.18968274207E+01 0.18217503959E+01 0.18968147515E+01
 0.21277156660E+01 0.25316531108E+01 0.31378228496E+01 0.39877691856E+01 0.51331404509E+01
 0.66258501542E+01 0.84950805088E+01 0.10710971684E+02 0.13147284759E+02 0.16828656952E+02
 0.18638056205E+02 0.19638507035E+02 0.19638509852E+02 0.18638056146E+02 0.16828647703E+02
 0.14525613161E+02 0.12063146628E+02 0.97135305808E+01 0.76584156432E+01 0.59733080515E+01
 0.46544800554E+01 0.36580459512E+01 0.29304699287E+01 0.24248144634E+01 0.21062460538E+01
 0.19523904041E+01 0.19523857401E+01 0.21062389295E+01 0.24248129526E+01 0.29304706686E+01
 0.36580447692E+01 0.46544801800E+01 0.59733070699E+01 0.76584019433E+01 0.97135051614E+01
 0.12063129961E+02 0.14525616666E+02 0.17276326947E+02 0.18638062798E+02 0.19123176099E+02
 0.18638056146E+02 0.17276315333E+02 0.15285526258E+02 0.12982008438E+02 0.10657176841E+02
 0.85328161701E+01 0.67317860355E+01 0.52858651426E+01 0.41700835346E+01 0.33369399599E+01
 0.27386746577E+01 0.23371746933E+01 0.21062474432E+01 0.20308920801E+01 0.21062472780E+01
 0.23371775658E+01 0.27386745032E+01 0.33369280276E+01 0.41700672393E+01 0.52858608642E+01
 0.67317930431E+01 0.85328176929E+01 0.10657168020E+02 0.12982003075E+02 0.15285533236E+02
 0.16828640620E+02 0.17678731304E+02 0.17678734191E+02 0.16828647703E+02 0.15285526258E+02
 0.13308244971E+02 0.11174311156E+02 0.91223052719E+01 0.73115631507E+01 0.58113951923E+01
 0.46238336015E+01 0.37157850173E+01 0.30447946749E+01 0.25732547512E+01 0.22734256761E+01
 0.21277298357E+01 0.21277336848E+01 0.22734360915E+01 0.25732632225E+01 0.30447865349E+01
 0.37157589337E+01 0.46238111849E+01 0.58113982079E+01 0.73115874252E+01 0.91223282612E+01
 0.11174318942E+02 0.13308240740E+02 0.15285518154E+02 0.15573151125E+02 0.15945014097E+02
 0.15573170809E+02 0.14525613161E+02 0.12982008438E+02 0.11174311156E+02 0.93307813730E+01
 0.76268064012E+01 0.61614869050E+01 0.49657279023E+01 0.40267835897E+01 0.33134610421E+01
 0.27930872228E+01 0.24393214639E+01 0.22340146731E+01 0.21667203250E+01 0.22340285453E+01
 0.24393409340E+01 0.27930960576E+01 0.33134464433E+01 0.40267528005E+01 0.49657070099E+01
 0.61614965650E+01 0.76268405973E+01 0.93308135233E+01 0.11174318990E+02 0.12981990512E+02
 0.14525585033E+02 0.13739644963E+02 0.13739651622E+02 0.13147285393E+02 0.12063146628E+02
 0.10657176841E+02 0.91223052719E+01 0.76268064012E+01 0.62845497843E+01 0.51499541722E+01
 0.42318807459E+01 0.35142220537E+01 0.29730453031E+01 0.25863489278E+01 0.23375568535E+01
 0.22158507550E+01 0.22158592952E+01 0.23375783542E+01 0.25863719689E+01 0.29730550374E+01
 0.35142093118E+01 0.42318531214E+01 0.51499352871E+01 0.62845587419E+01 0.76268363185E+01
 0.91223292143E+01 0.10657176659E+02 0.12063128793E+02 0.13147267721E+02 0.11618341423E+02
 0.11381600770E+02 0.10710997844E+02 0.97135305808E+01 0.85328161701E+01 0.73115631507E+01
 0.61614869050E+01 0.51499541722E+01 0.43035946753E+01 0.36218015098E+01 0.30913797762E+01
 0.26967647952E+01 0.24247344450E+01 0.22655758022E+01 0.22132265239E+01 0.22655881352E+01
 0.24247555081E+01 0.26967877858E+01 0.30913933005E+01 0.36217948895E+01 0.43035726362E+01
 0.51499390011E+01 0.61614946124E+01 0.73115835741E+01 0.85328288253E+01 0.97135326634E+01
 0.10711000925E+02 0.11381606741E+02 0.94812057826E+01 0.91341207343E+01 0.84951128216E+01
 0.76584156432E+01 0.67317860355E+01 0.58113951923E+01 0.49657279023E+01 0.42318807459E+01
 0.36218015098E+01 0.31326834108E+01 0.27560622048E+01 0.24830017813E+01 0.23058960928E+01
 0.22189725145E+01 0.22189746200E+01 0.23059036150E+01 0.24830176516E+01 0.27560846623E+01
 0.31326990793E+01 0.36217966757E+01 0.42318626984E+01 0.49657201916E+01 0.58114065950E+01
 0.67318009829E+01 0.76584217354E+01 0.84951178307E+01 0.91341318491E+01 0.94812125977E+01
 0.75321655759E+01 0.71697138932E+01 0.66258632382E+01 0.59733080515E+01 0.52858651426E+01
 0.46238336015E+01 0.40267835897E+01 0.35142220537E+01 0.30913797762E+01 0.27560622048E+01
 0.25034920898E+01 0.23284467018E+01 0.22259895859E+01 0.21923239635E+01 0.22259866918E+01
 0.23284478829E+01 0.25035059628E+01 0.27560848937E+01 0.30913913612E+01 0.35142101511E+01
 0.40267641177E+01 0.46238316368E+01 0.52858808533E+01 0.59733203227E+01 0.66258622523E+01
 0.71697092204E+01 0.75321646166E+01 0.76595802766E+01 0.58801496190E+01 0.55587351751E+01
 0.51331332565E+01 0.46544800554E+01 0.41700835346E+01 0.37157850173E+01 0.33134610421E+01
 0.29730453031E+01 0.26967647952E+01 0.24830017813E+01 0.23284467018E+01 0.22289840724E+01
 0.21805589715E+01 0.21805551233E+01 0.22289768915E+01 0.23284481289E+01 0.24830203581E+01
 0.26967889029E+01 0.29730495743E+01 0.33134385258E+01 0.37157599330E+01 0.41700809151E+01
 0.46544950730E+01 0.51331430924E+01 0.55587300892E+01 0.58801387609E+01 0.60535471954E+01
 0.60535521816E+01 0.45526073473E+01 0.42972043318E+01 0.39877558665E+01 0.36580459512E+01
 0.33369399599E+01 0.30447946749E+01 0.27930872228E+01 0.25863489278E+01 0.24247344450E+01
 0.23058960928E+01 0.22259895859E+01 0.21805589715E+01 0.21658987496E+01 0.21805516133E+01
 0.22259820523E+01 0.23059020254E+01 0.24247593045E+01 0.25863753377E+01 0.27930892799E+01
 0.30447696257E+01 0.33369126846E+01 0.36580386838E+01 0.39877656592E+01 0.42972145253E+01
 0.45526095657E+01 0.47216338807E+01 0.47808386622E+01 0.47216357437E+01 0.35273156049E+01
 0.33438722370E+01 0.31378136988E+01 0.29304699287E+01 0.27386746577E+01 0.25732547512E+01
 0.24393214639E+01 0.23375568535E+01 0.22655758022E+01 0.22189725145E+01 0.21923239635E+01
 0.21805551233E+01 0.21805516133E+01 0.21923143011E+01 0.22189636975E+01 0.22655811421E+01
 0.23375806953E+01 0.24393480344E+01 0.25732623087E+01 0.27386592513E+01 0.29304478687E+01
 0.31378025160E+01 0.33438761550E+01 0.35273279180E+01 0.36657646732E+01 0.37403709741E+01
 0.37403662842E+01 0.36657529420E+01 0.27625558975E+01 0.26485410181E+01 0.25316536373E+01
 0.24248144634E+01 0.23371746933E+01 0.22734256761E+01 0.22340146731E+01 0.22158507550E+01
 0.22132265239E+01 0.22189746200E+01 0.22259866918E+01 0.22289768915E+01 0.22259820523E+01
 0.22189636975E+01 0.22132140467E+01 0.22158480248E+01 0.22340275502E+01 0.22734460049E+01
 0.23371873289E+01 0.24248115269E+01 0.25316404377E+01 0.26485299306E+01 0.27625557968E+01
 0.28588496172E+01 0.29233950370E+01 0.29461276933E+01 0.29233855810E+01 0.28588400282E+01
 0.22158562321E+01 0.21667178691E+01 0.21277271044E+01 0.21062460538E+01 0.21062474432E+01
 0.21277298357E+01 0.21667203250E+01 0.22158592952E+01 0.22655881352E+01 0.23059036150E+01
 0.23284478829E+01 0.23284481289E+01 0.23059020254E+01 0.22655811421E+01 0.22158480248E+01
 0.21667114343E+01 0.21277295922E+01 0.21062552930E+01 0.21062546956E+01 0.21277292305E+01
 0.21667127946E+01 0.22158497399E+01 0.22655815700E+01 0.23059020003E+01 0.23284484507E+01
 0.23284468701E+01 0.23059000012E+01 0.22655837693E+01 0.18518333197E+01 0.18644519361E+01
 0.18968274207E+01 0.19523904041E+01 0.20308920801E+01 0.21277336848E+01 0.22340285453E+01
 0.23375783542E+01 0.24247555081E+01 0.24830176516E+01 0.25035059628E+01 0.24830203581E+01
 0.24247593045E+01 0.23375806953E+01 0.22340275502E+01 0.21277295922E+01 0.20308869859E+01
 0.19523865276E+01 0.18968257107E+01 0.18644518723E+01 0.18518334091E+01 0.18530077975E+01
 0.18608946553E+01 0.18688309521E+01 0.18720543643E+01 0.18688332637E+01 0.18608973078E+01
 0.18530090349E+01 0.16442981953E+01 0.17190338637E+01 0.18217503959E+01 0.19523857401E+01
 0.21062472780E+01 0.22734360915E+01 0.24393409340E+01 0.25863719689E+01 0.26967877858E+01
 0.27560846623E+01 0.27560848937E+01 0.26967889029E+01 0.25863753377E+01 0.24393480344E+01
 0.22734460049E+01 0.21062552930E+01 0.19523865276E+01 0.18217436535E+01 0.17190254618E+01
 0.16442942383E+01 0.15942423923E+01 0.15637284208E+01 0.15472650290E+01 0.15403160853E+01
 0.15403170150E+01 0.15472660183E+01 0.15637274461E+01 0.15942417242E+01 0.15769707446E+01
 0.17190254650E+01 0.18968147515E+01 0.21062389295E+01 0.23371775658E+01 0.25732632225E+01
 0.27930960576E+01 0.29730550374E+01 0.30913933005E+01 0.31326990793E+01 0.30913913612E+01
 0.29730495743E+01 0.27930892799E+01 0.25732623087E+01 0.23371873289E+01 0.21062546956E+01
 0.18968257107E+01 0.17190254618E+01 0.15769635952E+01 0.14699781774E+01 0.13943920345E+01
 0.13452932061E+01 0.13180312530E+01 0.13093350301E+01 0.13180298147E+01 0.13452917060E+01
 0.13943935129E+01 0.14699844175E+01 0.16442856464E+01 0.18644346197E+01 0.21277156660E+01
 0.24248129526E+01 0.27386745032E+01 0.30447865349E+01 0.33134464433E+01 0.35142093118E+01
 0.36217948895E+01 0.36217966757E+01 0.35142101511E+01 0.33134385258E+01 0.30447696257E+01
 0.27386592513E+01 0.24248115269E+01 0.21277292305E+01 0.18644518723E+01 0.16442942383E+01
 0.14699781774E+01 0.13395256517E+01 0.12483757681E+01 0.11913164923E+01 0.11640043938E+01
 0.11640029261E+01 0.11913146379E+01 0.12483778904E+01 0.13395314141E+01 0.14699804147E+01
 0.18518172403E+01 0.21667067537E+01 0.25316531108E+01 0.29304706686E+01 0.33369280276E+01
 0.37157589337E+01 0.40267528005E+01 0.42318531214E+01 0.43035726362E+01 0.42318626984E+01
 0.40267641177E+01 0.37157599330E+01 0.33369126846E+01 0.29304478687E+01 0.25316404377E+01
 0.21667127946E+01 0.18518334091E+01 0.15942423923E+01 0.13943920345E+01 0.12483757681E+01
 0.11502796789E+01 0.10942440851E+01 0.10760704767E+01 0.10942438147E+01 0.11502815220E+01
 0.12483790810E+01 0.13943905189E+01 0.15942307822E+01 0.22158494024E+01 0.26485455511E+01
 0.31378228496E+01 0.36580447692E+01 0.41700672393E+01 0.46238111849E+01 0.49657070099E+01
 0.51499352871E+01 0.51499390011E+01 0.49657201916E+01 0.46238316368E+01 0.41700809151E+01
 0.36580386838E+01 0.31378025160E+01 0.26485299306E+01 0.22158497399E+01 0.18530077975E+01
 0.15637284208E+01 0.13452932061E+01 0.11913164923E+01 0.10942440851E+01 0.10475726410E+01
 0.10475745122E+01 0.10942480082E+01 0.11913185867E+01 0.13452896277E+01 0.15637182327E+01
 0.18529968287E+01 0.27625679838E+01 0.33438918302E+01 0.39877691856E+01 0.46544801800E+01
 0.52858608642E+01 0.58113982079E+01 0.61614965650E+01 0.62845587419E+01 0.61614946124E+01
 0.58114065950E+01 0.52858808533E+01 0.46544950730E+01 0.39877656592E+01 0.33438761550E+01
 0.27625557968E+01 0.22655815700E+01 0.18608946553E+01 0.15472650290E+01 0.13180312530E+01
 0.11640043938E+01 0.10760704767E+01 0.10475745122E+01 0.10760766096E+01 0.11640079603E+01
 0.13180263311E+01 0.15472545797E+01 0.18608862642E+01 0.22655822822E+01 0.35273439297E+01
 0.42972263242E+01 0.51331404509E+01 0.59733070699E+01 0.67317930431E+01 0.73115874252E+01
 0.76268405973E+01 0.76268363185E+01 0.73115835741E+01 0.67318009829E+01 0.59733203227E+01
 0.51331430924E+01 0.42972145253E+01 0.35273279180E+01 0.28588496172E+01 0.23059020003E+01
 0.18688309521E+01 0.15403160853E+01 0.13093350301E+01 0.11640029261E+01 0.10942438147E+01
 0.10942480082E+01 0.11640079603E+01 0.13093299762E+01 0.15403026062E+01 0.18688199605E+01
 0.23059009716E+01 0.28588593080E+01 0.45526304616E+01 0.55587372212E+01 0.66258501542E+01
 0.76584019433E+01 0.85328176929E+01 0.91223282612E+01 0.93308135233E+01 0.91223292143E+01
 0.85328288253E+01 0.76584217354E+01 0.66258622523E+01 0.55587300892E+01 0.45526095657E+01
 0.36657646732E+01 0.29233950370E+01 0.23284484507E+01 0.18720543643E+01 0.15403170150E+01
 0.13180298147E+01 0.11913146379E+01 0.11502815220E+01 0.11913185867E+01 0.13180263311E+01
 0.15403026062E+01 0.18720402407E+01 0.23284465842E+01 0.29234074847E+01 0.36657862514E+01
 0.58801403444E+01 0.71696846396E+01 0.84950805088E+01 0.97135051614E+01 0.10657168020E+02
 0.11174318942E+02 0.11174318990E+02 0.10657176659E+02 0.97135326634E+01 0.84951178307E+01
 0.71697092204E+01 0.58801387609E+01 0.47216338807E+01 0.37403709741E+01 0.29461276933E+01
 0.23284468701E+01 0.18688332637E+01 0.15472660183E+01 0.13452917060E+01 0.12483778904E+01
 0.12483790810E+01 0.13452896277E+01 0.15472545797E+01 0.18688199605E+01 0.23284465842E+01
 0.29461461022E+01 0.37403995852E+01 0.47216566844E+01 0.75321212936E+01 0.91340809730E+01
 0.10710971684E+02 0.12063129961E+02 0.12982003075E+02 0.13308240740E+02 0.12981990512E+02
 0.12063128793E+02 0.10711000925E+02 0.91341318491E+01 0.75321646166E+01 0.60535471954E+01
 0.47808386622E+01 0.37403662842E+01 0.29233855810E+01 0.23059000012E+01 0.18608973078E+01
 0.15637274461E+01 0.13943935129E+01 0.13395314141E+01 0.13943905189E+01 0.15637182327E+01
 0.18608862642E+01 0.23059009716E+01 0.29234074847E+01 0.37403995852E+01 0.47808594254E+01
 0.60535354201E+01 0.94811587939E+01 0.11381585248E+02 0.13147284759E+02 0.14525616666E+02
 0.15285533236E+02 0.15285518154E+02 0.14525585033E+02 0.13147267721E+02 0.11381606741E+02
 0.94812125977E+01 0.76595802766E+01 0.60535521816E+01 0.47216357437E+01 0.36657529420E+01
 0.28588400282E+01 0.22655837693E+01 0.18530090349E+01 0.15942417242E+01 0.14699844175E+01
 0.14699804147E+01 0.15942307822E+01 0.18529968287E+01 0.22655822822E+01 0.28588593080E+01
 0.36657862514E+01 0.47216566844E+01 0.60535354201E+01 0.76595285605E+01 0.13827891695E+02
 0.15999696805E+02 0.17694464426E+02 0.18626343834E+02 0.18626348524E+02 0.17694461000E+02
 0.15999665079E+02 0.13827850107E+02 0.11492898778E+02 0.92484206112E+01 0.72670994259E+01
 0.56357230452E+01 0.43595794920E+01 0.33987331239E+01 0.27000487469E+01 0.22158491184E+01
 0.19110376804E+01 0.17637514385E+01 0.17637457986E+01 0.19110296081E+01 0.22158508289E+01
 0.27000576936E+01 0.33987376358E+01 0.43595715265E+01 0.56356993183E+01 0.72670653109E+01
 0.92483986686E+01 0.11492912876E+02 0.15999696805E+02 0.18105058129E+02 0.19535380286E+02
 0.20042554962E+02 0.19535409256E+02 0.18105073851E+02 0.15999674655E+02 0.13551843900E+02
 0.11079024574E+02 0.88060728212E+01 0.68723149548E+01 0.53257442195E+01 0.41430825139E+01
 0.32697273232E+01 0.26485408924E+01 0.22340145910E+01 0.19960275426E+01 0.19183616782E+01
 0.19960221774E+01 0.22340152972E+01 0.26485479248E+01 0.32697267081E+01 0.41430670449E+01
 0.53257214458E+01 0.68722961774E+01 0.88060691228E+01 0.11079045898E+02 0.13551882087E+02
 0.17694464426E+02 0.19535380286E+02 0.20543330217E+02 0.20543342663E+02 0.19535401441E+02
 0.17694468400E+02 0.15324042170E+02 0.12768468540E+02 0.10312950849E+02 0.81402414759E+01
 0.63498708487E+01 0.49514706594E+01 0.39009267321E+01 0.31378222960E+01 0.26081637553E+01
 0.22734259642E+01 0.21110019187E+01 0.21110015135E+01 0.22734303394E+01 0.26081751005E+01
 0.31378258690E+01 0.39009096475E+01 0.49514430332E+01 0.63498534348E+01 0.81402425014E+01
 0.10312966182E+02 0.12768491060E+02 0.15324058998E+02 0.18626343834E+02 0.20042554962E+02
 0.20543342663E+02 0.20042547953E+02 0.18626334864E+02 0.16531976363E+02 0.14083695198E+02
 0.11597894754E+02 0.93022948185E+01 0.73395943591E+01 0.57637896936E+01 0.45546083631E+01
 0.36580570924E+01 0.30168807424E+01 0.25861130824E+01 0.23371772771E+01 0.22556099699E+01
 0.23371844553E+01 0.25861292444E+01 0.30168940403E+01 0.36580487424E+01 0.45545801513E+01
 0.57637667171E+01 0.73395939587E+01 0.93023080209E+01 0.11597904675E+02 0.14083699252E+02
 0.16531981893E+02 0.18626348524E+02 0.19535409256E+02 0.19535401441E+02 0.18626334864E+02
 0.16961398853E+02 0.14807299241E+02 0.12468371641E+02 0.10199677686E+02 0.81765279485E+01
 0.64967632482E+01 0.51736235915E+01 0.41700891212E+01 0.34333158578E+01 0.29162115880E+01
 0.25861148266E+01 0.24248201809E+01 0.24248252077E+01 0.25861303622E+01 0.29162312897E+01
 0.34333221440E+01 0.41700715673E+01 0.51735976138E+01 0.64967562148E+01 0.81765464765E+01
 0.10199701004E+02 0.12468380022E+02 0.14807297291E+02 0.16961403454E+02 0.17694460999E+02
 0.18105073851E+02 0.17694468400E+02 0.16531976363E+02 0.14807299241E+02 0.12777180273E+02
 0.10690442957E+02 0.87400785692E+01 0.70567514545E+01 0.56887981360E+01 0.46238312063E+01
 0.38213838388E+01 0.32380357003E+01 0.28403964632E+01 0.26081668414E+01 0.25316597427E+01
 0.26081762948E+01 0.28404140350E+01 0.32380527413E+01 0.38213861490E+01 0.46238145591E+01
 0.56887800524E+01 0.70567572278E+01 0.87401116912E+01 0.10690478043E+02 0.12777191411E+02
 0.14807287339E+02 0.16531960799E+02 0.15999665079E+02 0.15999674655E+02 0.15324042170E+02
 0.14083695198E+02 0.12468371641E+02 0.10690442957E+02 0.89392462593E+01 0.73611194852E+01
 0.60319512621E+01 0.49657210954E+01 0.41399353173E+01 0.35204357327E+01 0.30771440475E+01
 0.27900328115E+01 0.26485429934E+01 0.26485454928E+01 0.27900414101E+01 0.30771603127E+01
 0.35204551340E+01 0.41399437242E+01 0.49657090288E+01 0.60319331931E+01 0.73611235898E+01
 0.89392783522E+01 0.10690475176E+02 0.12468375686E+02 0.14083673559E+02 0.15324017970E+02
 0.13827850107E+02 0.13551843900E+02 0.12768468540E+02 0.11597894754E+02 0.10199677686E+02
 0.87400785692E+01 0.73611194852E+01 0.61525669372E+01 0.51499466858E+01 0.43500139174E+01
 0.37314534147E+01 0.32709879141E+01 0.29513480032E+01 0.27625614446E+01 0.27000514552E+01
 0.27625600323E+01 0.29513517905E+01 0.32710065279E+01 0.37314837350E+01 0.43500328570E+01
 0.51499363588E+01 0.61525421385E+01 0.73611109009E+01 0.87400926154E+01 0.10199693648E+02
 0.11597898453E+02 0.12768466185E+02 0.13551843229E+02 0.11492898778E+02 0.11079024574E+02
 0.10312950849E+02 0.93022948185E+01 0.81765279485E+01 0.70567514545E+01 0.60319512621E+01
 0.51499466858E+01 0.44234707130E+01 0.38445320444E+01 0.33984895987E+01 0.30726384591E+01
 0.28588556010E+01 0.27528578940E+01 0.27528524115E+01 0.28588442805E+01 0.30726372653E+01
 0.33985138981E+01 0.38445728580E+01 0.44234962182E+01 0.51499388875E+01 0.60319266303E+01
 0.70567350416E+01 0.81765251238E+01 0.93023006605E+01 0.10312966573E+02 0.11079046848E+02
 0.11492910069E+02 0.92484206112E+01 0.88060728212E+01 0.81402414759E+01 0.73395943591E+01
 0.64967632482E+01 0.56887981360E+01 0.49657210954E+01 0.43500139174E+01 0.38445320444E+01
 0.34430014426E+01 0.31378381766E+01 0.29234088415E+01 0.27961490868E+01 0.27539659438E+01
 0.27961323380E+01 0.29233873118E+01 0.31378343401E+01 0.34430281075E+01 0.38445722748E+01
 0.43500371705E+01 0.49657183085E+01 0.56887848892E+01 0.64967528000E+01 0.73395879743E+01
 0.81402421327E+01 0.88060849707E+01 0.92484350120E+01 0.94035870591E+01 0.72670994259E+01
 0.68723149548E+01 0.63498708487E+01 0.57637896936E+01 0.51736235915E+01 0.46238312063E+01
 0.41399353173E+01 0.37314534147E+01 0.33984895987E+01 0.31378381766E+01 0.29461497731E+01
 0.28205376108E+01 0.27585196325E+01 0.27585100204E+01 0.28205129589E+01 0.29461257094E+01
 0.31378358051E+01 0.33985128352E+01 0.37314810696E+01 0.41399465058E+01 0.46238286401E+01
 0.51736213743E+01 0.57637901274E+01 0.63498669408E+01 0.68723065130E+01 0.72670928161E+01
 0.74800248687E+01 0.74800269116E+01 0.56357230452E+01 0.53257442195E+01 0.49514706594E+01
 0.45546083631E+01 0.41700891212E+01 0.38213838388E+01 0.35204357327E+01 0.32709879141E+01
 0.30726384591E+01 0.29234088415E+01 0.28205376108E+01 0.27607648576E+01 0.27412251653E+01
 0.27607515294E+01 0.28205152347E+01 0.29233921355E+01 0.30726425336E+01 0.32710080104E+01
 0.35204498889E+01 0.38213800687E+01 0.41700783353E+01 0.45546055914E+01 0.49514748128E+01
 0.53257438491E+01 0.56357143297E+01 0.58412752450E+01 0.59133437570E+01 0.58412842216E+01
 0.43595794920E+01 0.41430825139E+01 0.39009267321E+01 0.36580570924E+01 0.34333158578E+01
 0.32380357003E+01 0.30771440475E+01 0.29513480032E+01 0.28588556010E+01 0.27961490868E+01
 0.27585196325E+01 0.27412251653E+01 0.27412225625E+01 0.27585096395E+01 0.27961335264E+01
 0.28588480054E+01 0.29513601946E+01 0.30771676651E+01 0.32380482849E+01 0.34333063535E+01
 0.36580370468E+01 0.39009144654E+01 0.41430835905E+01 0.43595863597E+01 0.45235620447E+01
 0.46121414996E+01 0.46121401716E+01 0.45235572348E+01 0.33987331239E+01 0.32697273232E+01
 0.31378222960E+01 0.30168807424E+01 0.29162115880E+01 0.28403964632E+01 0.27900328115E+01
 0.27625614446E+01 0.27528578940E+01 0.27539659438E+01 0.27585100204E+01 0.27607515294E+01
 0.27585096395E+01 0.27539578828E+01 0.27528427634E+01 0.27625541539E+01 0.27900471754E+01
 0.28404262530E+01 0.29162336310E+01 0.30168782555E+01 0.31378013010E+01 0.32697084723E+01
 0.33987306991E+01 0.35081843897E+01 0.35818471167E+01 0.36078499702E+01 0.35818360487E+01
 0.35081732846E+01 0.27000487469E+01 0.26485408924E+01 0.26081637553E+01 0.25861130824E+01
 0.25861148266E+01 0.26081668414E+01 0.26485429934E+01 0.27000514552E+01 0.27528524115E+01
 0.27961323380E+01 0.28205129589E+01 0.28205152347E+01 0.27961335264E+01 0.27528427634E+01
 0.27000312531E+01 0.26485274143E+01 0.26081727344E+01 0.25861416357E+01 0.25861406835E+01
 0.26081720179E+01 0.26485291294E+01 0.27000333230E+01 0.27528428365E+01 0.27961331465E+01
 0.28205159112E+01 0.28205123009E+01 0.27961283694E+01 0.27528476908E+01 0.22158491184E+01
 0.22340145910E+01 0.22734259642E+01 0.23371772771E+01 0.24248201809E+01 0.25316597427E+01
 0.26485454928E+01 0.27625600323E+01 0.28588442805E+01 0.29233873118E+01 0.29461257094E+01
 0.29233921355E+01 0.28588480054E+01 0.27625541539E+01 0.26485274143E+01 0.25316391667E+01
 0.24248124659E+01 0.23371880482E+01 0.22734451746E+01 0.22340274109E+01 0.22158498293E+01
 0.22132153154E+01 0.22189625557E+01 0.22259800354E+01 0.22289749883E+01 0.22259830371E+01
 0.22189687683E+01 0.22132216895E+01 0.19110376804E+01 0.19960275426E+01 0.21110019187E+01
 0.22556099699E+01 0.24248252077E+01 0.26081762948E+01 0.27900414101E+01 0.29513517905E+01
 0.30726372653E+01 0.31378343401E+01 0.31378358051E+01 0.30726425336E+01 0.29513601946E+01
 0.27900471754E+01 0.26081727344E+01 0.24248124659E+01 0.22555959938E+01 0.21109953882E+01
 0.19960309020E+01 0.19110462728E+01 0.18530083747E+01 0.18168975455E+01 0.17970608159E+01
 0.17885836108E+01 0.17885860948E+01 0.17970650496E+01 0.18168975207E+01 0.18530019386E+01
 0.17637514385E+01 0.19183616782E+01 0.21110015135E+01 0.23371844553E+01 0.25861303622E+01
 0.28404140350E+01 0.30771603127E+01 0.32710065279E+01 0.33985138981E+01 0.34430281075E+01
 0.33985128352E+01 0.32710080104E+01 0.30771676651E+01 0.28404262530E+01 0.25861416357E+01
 0.23371880482E+01 0.21109953882E+01 0.19183509196E+01 0.17637440975E+01 0.16467338443E+01
 0.15637285426E+01 0.15097106172E+01 0.14797315164E+01 0.14701807350E+01 0.14797316058E+01
 0.15097086391E+01 0.15637252410E+01 0.16467341819E+01 0.17637457986E+01 0.19960221774E+01
 0.22734303394E+01 0.25861292444E+01 0.29162312897E+01 0.32380527413E+01 0.35204551340E+01
 0.37314837350E+01 0.38445728580E+01 0.38445722748E+01 0.37314810696E+01 0.35204498889E+01
 0.32380482849E+01 0.29162336310E+01 0.25861406835E+01 0.22734451746E+01 0.19960309020E+01
 0.17637440975E+01 0.15795844475E+01 0.14416529608E+01 0.13452929731E+01 0.12850447454E+01
 0.12562505636E+01 0.12562492229E+01 0.12850424977E+01 0.13452937669E+01 0.14416589519E+01
 0.15795921324E+01 0.19110296081E+01 0.22340152972E+01 0.26081751005E+01 0.30168940403E+01
 0.34333221440E+01 0.38213861490E+01 0.41399437242E+01 0.43500328570E+01 0.44234962182E+01
 0.43500371705E+01 0.41399465058E+01 0.38213800687E+01 0.34333063535E+01 0.30168782555E+01
 0.26081720179E+01 0.22340274109E+01 0.19110462728E+01 0.16467338443E+01 0.14416529608E+01
 0.12918669944E+01 0.11913167148E+01 0.11339345069E+01 0.11153364823E+01 0.11339333145E+01
 0.11913177371E+01 0.12918709091E+01 0.14416538948E+01 0.16467249165E+01 0.22158508289E+01
 0.26485479248E+01 0.31378258690E+01 0.36580487424E+01 0.41700715673E+01 0.46238145591E+01
 0.49657090288E+01 0.51499363588E+01 0.51499388875E+01 0.49657183085E+01 0.46238286401E+01
 0.41700783353E+01 0.36580370468E+01 0.31378013010E+01 0.26485291294E+01 0.22158498293E+01
 0.18530083747E+01 0.15637285426E+01 0.13452929731E+01 0.11913167148E+01 0.10942445292E+01
 0.10475721946E+01 0.10475729425E+01 0.10942460164E+01 0.11913163617E+01 0.13452869858E+01
 0.15637159948E+01 0.18529963603E+01 0.27000576936E+01 0.32697267081E+01 0.39009096475E+01
 0.45545801513E+01 0.51735976138E+01 0.56887800524E+01 0.60319331931E+01 0.61525421385E+01
 0.60319266303E+01 0.56887848892E+01 0.51736213743E+01 0.45546055914E+01 0.39009144654E+01
 0.32697084723E+01 0.27000333230E+01 0.22132153154E+01 0.18168975455E+01 0.15097106172E+01
 0.12850447454E+01 0.11339345069E+01 0.10475721946E+01 0.10195647192E+01 0.10475758767E+01
 0.11339347283E+01 0.12850370617E+01 0.15097000577E+01 0.18168950980E+01 0.22132285152E+01
 0.33987376358E+01 0.41430670449E+01 0.49514430332E+01 0.57637667171E+01 0.64967562148E+01
 0.70567572278E+01 0.73611235898E+01 0.73611109009E+01 0.70567350416E+01 0.64967528000E+01
 0.57637901274E+01 0.49514748128E+01 0.41430835905E+01 0.33987306991E+01 0.27528428365E+01
 0.22189625557E+01 0.17970608159E+01 0.14797315164E+01 0.12562505636E+01 0.11153364823E+01
 0.10475729425E+01 0.10475758767E+01 0.11153392560E+01 0.12562453811E+01 0.14797231569E+01
 0.17970624210E+01 0.22189789479E+01 0.27528633166E+01 0.43595715265E+01 0.53257214458E+01
 0.63498534348E+01 0.73395939587E+01 0.81765464765E+01 0.87401116912E+01 0.89392783522E+01
 0.87400926154E+01 0.81765251238E+01 0.73395879743E+01 0.63498669408E+01 0.53257438491E+01
 0.43595863597E+01 0.35081843897E+01 0.27961331465E+01 0.22259800354E+01 0.17885836108E+01
 0.14701807350E+01 0.12562492229E+01 0.11339333145E+01 0.10942460164E+01 0.11339347283E+01
 0.12562453811E+01 0.14701726275E+01 0.17885826832E+01 0.22259923649E+01 0.27961487094E+01
 0.35081872549E+01 0.56356993183E+01 0.68722961774E+01 0.81402425014E+01 0.93023080209E+01
 0.10199701004E+02 0.10690478043E+02 0.10690475176E+02 0.10199693648E+02 0.93023006605E+01
 0.81402421327E+01 0.68723065130E+01 0.56357143297E+01 0.45235620447E+01 0.35818471167E+01
 0.28205159112E+01 0.22289749883E+01 0.17885860948E+01 0.14797316058E+01 0.12850424977E+01
 0.11913177371E+01 0.11913163617E+01 0.12850370617E+01 0.14797231569E+01 0.17885826832E+01
 0.22289837133E+01 0.28205315901E+01 0.35818554618E+01 0.45235552806E+01 0.72670653109E+01
 0.88060691228E+01 0.10312966182E+02 0.11597904675E+02 0.12468380022E+02 0.12777191411E+02
 0.12468375686E+02 0.11597898453E+02 0.10312966573E+02 0.88060849707E+01 0.72670928161E+01
 0.58412752450E+01 0.46121414996E+01 0.36078499702E+01 0.28205123009E+01 0.22259830371E+01
 0.17970650496E+01 0.15097086391E+01 0.13452937669E+01 0.12918709091E+01 0.13452869858E+01
 0.15097000577E+01 0.17970624210E+01 0.22259923649E+01 0.28205315901E+01 0.36078665342E+01
 0.46121401843E+01 0.58412535292E+01 0.92483986686E+01 0.11079045898E+02 0.12768491060E+02
 0.14083699252E+02 0.14807297291E+02 0.14807287339E+02 0.14083673559E+02 0.12768466185E+02
 0.11079046848E+02 0.92484350120E+01 0.74800248687E+01 0.59133437570E+01 0.46121401716E+01
 0.35818360487E+01 0.27961283694E+01 0.22189687683E+01 0.18168975207E+01 0.15637252410E+01
 0.14416589519E+01 0.14416538948E+01 0.15637159948E+01 0.18168950980E+01 0.22189789479E+01
 0.27961487094E+01 0.35818554618E+01 0.46121401843E+01 0.59133121726E+01 0.74799744978E+01
 0.11492912876E+02 0.13551882087E+02 0.15324058998E+02 0.16531981893E+02 0.16961403454E+02
 0.16531960799E+02 0.15324017970E+02 0.13551843229E+02 0.11492910069E+02 0.94035870591E+01
 0.74800269116E+01 0.58412842216E+01 0.45235572348E+01 0.35081732846E+01 0.27528476908E+01
 0.22132216895E+01 0.18530019386E+01 0.16467341819E+01 0.15795921324E+01 0.16467249165E+01
 0.18529963603E+01 0.22132285152E+01 0.27528633166E+01 0.35081872549E+01 0.45235552806E+01
 0.58412535292E+01 0.74799744978E+01 0.94035468559E+01 0.16205698038E+02 0.18223800754E+02
 0.19567006943E+02 0.20037307488E+02 0.19567034017E+02 0.18223818369E+02 0.16205680083E+02
 0.13808831647E+02 0.11349393217E+02 0.90672600966E+01 0.70979216888E+01 0.55103080150E+01
 0.42946742382E+01 0.33987472045E+01 0.27625629004E+01 0.23375593809E+01 0.20926935620E+01
 0.20125345357E+01 0.20926928262E+01 0.23375668920E+01 0.27625735743E+01 0.33987417999E+01
 0.42946471316E+01 0.55102777379E+01 0.70979105267E+01 0.90672766410E+01 0.11349432212E+02
 0.13808874124E+02 0.18223800754E+02 0.19974661735E+02 0.20911496314E+02 0.20911515597E+02
 0.19974700478E+02 0.18223822152E+02 0.15903483888E+02 0.13337629093E+02 0.10834070225E+02
 0.85922617352E+01 0.67182651698E+01 0.52470078468E+01 0.41430905364E+01 0.33438942236E+01
 0.27900334987E+01 0.24393241701E+01 0.22685387324E+01 0.22685390493E+01 0.24393300356E+01
 0.27900458469E+01 0.33438969922E+01 0.41430698332E+01 0.52469766649E+01 0.67182534074E+01
 0.85922848998E+01 0.10834116957E+02 0.13337672899E+02 0.15903499440E+02 0.19567006943E+02
 0.20911496314E+02 0.21377673136E+02 0.20911495239E+02 0.19567009707E+02 0.17514849855E+02
 0.15036401053E+02 0.12458836569E+02 0.10049023325E+02 0.79550882912E+01 0.62563044021E+01
 0.49514653643E+01 0.39877771650E+01 0.33013268445E+01 0.28403950074E+01 0.25732566696E+01
 0.24854557665E+01 0.25732613495E+01 0.28404077879E+01 0.33013398092E+01 0.39877738353E+01
 0.49514446635E+01 0.62562885478E+01 0.79550974698E+01 0.10049051003E+02 0.12458859104E+02
 0.15036405942E+02 0.17514844878E+02 0.20037307488E+02 0.20911515597E+02 0.20911495239E+02
 0.20037269275E+02 0.18390726694E+02 0.16185675316E+02 0.13719624714E+02 0.11286975245E+02
 0.90866470124E+01 0.72313324575E+01 0.57637747563E+01 0.46544843150E+01 0.38447294666E+01
 0.32782559624E+01 0.29162109008E+01 0.27386782984E+01 0.27386798528E+01 0.29162182152E+01
 0.32782701312E+01 0.38447420091E+01 0.46544852102E+01 0.57637677741E+01 0.72313321461E+01
 0.90866566981E+01 0.11286979373E+02 0.13719613169E+02 0.16185665640E+02 0.18390744292E+02
 0.19567034017E+02 0.19974700478E+02 0.19567009707E+02 0.18390726694E+02 0.16592337565E+02
 0.14411347590E+02 0.12124769821E+02 0.99590144010E+01 0.80554750279E+01 0.64967509031E+01
 0.52858520467E+01 0.43795181215E+01 0.37243796683E+01 0.32782563612E+01 0.30168821981E+01
 0.29304753576E+01 0.30168804201E+01 0.32782585842E+01 0.37243912340E+01 0.43795355225E+01
 0.52858649037E+01 0.64967559264E+01 0.80554799815E+01 0.99590220234E+01 0.12124769888E+02
 0.14411336796E+02 0.16592333972E+02 0.18390745418E+02 0.18223818369E+02 0.18223822152E+02
 0.17514849855E+02 0.16185675316E+02 0.14411347590E+02 0.12421804371E+02 0.10435526742E+02
 0.86102043349E+01 0.70567518088E+01 0.58113799520E+01 0.48535147484E+01 0.41402938429E+01
 0.36315713375E+01 0.33013259015E+01 0.31378229833E+01 0.31378174055E+01 0.33013134271E+01
 0.36315653491E+01 0.41403075286E+01 0.48535421847E+01 0.58113991832E+01 0.70567548290E+01
 0.86102077263E+01 0.10435542591E+02 0.12421819267E+02 0.14411344493E+02 0.16185659354E+02
 0.17514837198E+02 0.16205680083E+02 0.15903483888E+02 0.15036401053E+02 0.13719624714E+02
 0.12124769821E+02 0.10435526742E+02 0.88062128111E+01 0.73611313608E+01 0.61614822496E+01
 0.52107720481E+01 0.44819224817E+01 0.39420433328E+01 0.35667780069E+01 0.33438899795E+01
 0.32697258674E+01 0.33438731549E+01 0.35667546275E+01 0.39420363864E+01 0.44819461078E+01
 0.52108067884E+01 0.61614950271E+01 0.73611200330E+01 0.88062063111E+01 0.10435540143E+02
 0.12124785472E+02 0.13719622853E+02 0.15036385682E+02 0.15903471321E+02 0.13808831647E+02
 0.13337629093E+02 0.12458836569E+02 0.11286975245E+02 0.99590144010E+01 0.86102043349E+01
 0.73611313608E+01 0.62845518506E+01 0.54033257266E+01 0.47073547820E+01 0.41743572116E+01
 0.37847007507E+01 0.35273432845E+01 0.33987423532E+01 0.33987324367E+01 0.35273163441E+01
 0.37846735173E+01 0.41743577070E+01 0.47073893163E+01 0.54033623789E+01 0.62845564180E+01
 0.73611075054E+01 0.86101812056E+01 0.99590085645E+01 0.11286983245E+02 0.12458851856E+02
 0.13337645734E+02 0.13808839309E+02 0.11349393217E+02 0.10834070225E+02 0.10049023325E+02
 0.90866470124E+01 0.80554750279E+01 0.70567518088E+01 0.61614822496E+01 0.54033257266E+01
 0.47862080345E+01 0.42989700324E+01 0.39283518439E+01 0.36657866030E+01 0.35081927877E+01
 0.34555400343E+01 0.35081747404E+01 0.36657539293E+01 0.39283253854E+01 0.42989764201E+01
 0.47862464403E+01 0.54033638431E+01 0.61614912339E+01 0.70567317767E+01 0.80554453892E+01
 0.90866281102E+01 0.10049028501E+02 0.10834097414E+02 0.11349419594E+02 0.11529167249E+02
 0.90672600966E+01 0.85922617352E+01 0.79550882912E+01 0.72313324575E+01 0.64967509031E+01
 0.58113799520E+01 0.52107720481E+01 0.47073547820E+01 0.42989700324E+01 0.39785620048E+01
 0.37403996473E+01 0.35818585970E+01 0.35024811013E+01 0.35024748896E+01 0.35818367359E+01
 0.37403647336E+01 0.39785347571E+01 0.42989728655E+01 0.47073865784E+01 0.52108097090E+01
 0.58114014305E+01 0.64967495187E+01 0.72313152087E+01 0.79550697216E+01 0.85922549408E+01
 0.90672651609E+01 0.93207912941E+01 0.93207869383E+01 0.70979216888E+01 0.67182651698E+01
 0.62563044021E+01 0.57637747563E+01 0.52858520467E+01 0.48535147484E+01 0.44819224817E+01
 0.41743572116E+01 0.39283518439E+01 0.37403996473E+01 0.36078681479E+01 0.35290568145E+01
 0.35029130830E+01 0.35290513293E+01 0.36078485144E+01 0.37403668764E+01 0.39283236168E+01
 0.41743513536E+01 0.44819397349E+01 0.48535418307E+01 0.52858757428E+01 0.57637880136E+01
 0.62563038521E+01 0.67182509371E+01 0.70979006361E+01 0.73478239388E+01 0.74350562841E+01
 0.73478394481E+01 0.55103080150E+01 0.52470078468E+01 0.49514653643E+01 0.46544843150E+01
 0.43795181215E+01 0.41402938429E+01 0.39420433328E+01 0.37847007507E+01 0.36657866030E+01
 0.35818585970E+01 0.35290568145E+01 0.35037821710E+01 0.35037853242E+01 0.35290584894E+01
 0.35818464295E+01 0.36657617609E+01 0.37846786837E+01 0.39420363740E+01 0.41402993477E+01
 0.43795265561E+01 0.46544924824E+01 0.49514748021E+01 0.52470145951E+01 0.55103045388E+01
 0.57089010794E+01 0.58158381731E+01 0.58158447503E+01 0.57089127259E+01 0.42946742382E+01
 0.41430905364E+01 0.39877771650E+01 0.38447294666E+01 0.37243796683E+01 0.36315713375E+01
 0.35667780069E+01 0.35273432845E+01 0.35081927877E+01 0.35024811013E+01 0.35029130830E+01
 0.35037853242E+01 0.35029240569E+01 0.35024888790E+01 0.35081858455E+01 0.35273273820E+01
 0.35667698523E+01 0.36315773176E+01 0.37243875940E+01 0.38447256782E+01 0.39877650981E+01
 0.41430846664E+01 0.42946803742E+01 0.44230997143E+01 0.45094302110E+01 0.45398878054E+01
 0.45094235175E+01 0.44230890054E+01 0.33987472045E+01 0.33438942236E+01 0.33013268445E+01
 0.32782559624E+01 0.32782563612E+01 0.33013259015E+01 0.33438899795E+01 0.33987423532E+01
 0.34555400343E+01 0.35024748896E+01 0.35290513293E+01 0.35290584894E+01 0.35024888790E+01
 0.34555451786E+01 0.33987313864E+01 0.33438752726E+01 0.33013280417E+01 0.32782785816E+01
 0.32782773908E+01 0.33013266152E+01 0.33438757005E+01 0.33987314595E+01 0.34555429625E+01
 0.35024871159E+01 0.35290599559E+01 0.35290541304E+01 0.35024767152E+01 0.34555426119E+01
 0.27625629004E+01 0.27900334987E+01 0.28403950074E+01 0.29162109008E+01 0.30168821981E+01
 0.31378229833E+01 0.32697258674E+01 0.33987324367E+01 0.35081747404E+01 0.35818367359E+01
 0.36078485144E+01 0.35818464295E+01 0.35081858455E+01 0.33987313864E+01 0.32697070166E+01
 0.31378006138E+01 0.30168797113E+01 0.29162343183E+01 0.28404247973E+01 0.27900464881E+01
 0.27625556097E+01 0.27528434506E+01 0.27539564270E+01 0.27585089523E+01 0.27607529852E+01
 0.27585107077E+01 0.27539644880E+01 0.27528572067E+01 0.23375593809E+01 0.24393241701E+01
 0.25732566696E+01 0.27386782984E+01 0.29304753576E+01 0.31378174055E+01 0.33438731549E+01
 0.35273163441E+01 0.36657539293E+01 0.37403647336E+01 0.37403668764E+01 0.36657617609E+01
 0.35273273820E+01 0.33438752726E+01 0.31378006138E+01 0.29304476255E+01 0.27386609295E+01
 0.25732627630E+01 0.24393467005E+01 0.23375805853E+01 0.22655826872E+01 0.22189635835E+01
 0.21923116304E+01 0.21805492891E+01 0.21805539992E+01 0.21923216540E+01 0.22189691756E+01
 0.22655750013E+01 0.20926935620E+01 0.22685387324E+01 0.24854557665E+01 0.27386798528E+01
 0.30168804201E+01 0.33013134271E+01 0.35667546275E+01 0.37846735173E+01 0.39283253854E+01
 0.39785347571E+01 0.39283236168E+01 0.37846786837E+01 0.35667698523E+01 0.33013280417E+01
 0.30168797113E+01 0.27386609295E+01 0.24854312740E+01 0.22685255090E+01 0.20926983798E+01
 0.19578670708E+01 0.18608959718E+01 0.17970615552E+01 0.17613710549E+01 0.17499643636E+01
 0.17613744789E+01 0.17970600340E+01 0.18608843182E+01 0.19578519455E+01 0.20125345357E+01
 0.22685390493E+01 0.25732613495E+01 0.29162182152E+01 0.32782585842E+01 0.36315653491E+01
 0.39420363864E+01 0.41743577070E+01 0.42989764201E+01 0.42989728655E+01 0.41743513536E+01
 0.39420363740E+01 0.36315773176E+01 0.32782785816E+01 0.29162343183E+01 0.25732627630E+01
 0.22685255090E+01 0.20125168091E+01 0.18085730192E+01 0.16550127834E+01 0.15472648859E+01
 0.14797312514E+01 0.14474327774E+01 0.14474316520E+01 0.14797273180E+01 0.15472594947E+01
 0.16550121174E+01 0.18085829968E+01 0.20926928262E+01 0.24393300356E+01 0.28404077879E+01
 0.32782701312E+01 0.37243912340E+01 0.41403075286E+01 0.44819461078E+01 0.47073893163E+01
 0.47862464403E+01 0.47073865784E+01 0.44819397349E+01 0.41402993477E+01 0.37243875940E+01
 0.32782773908E+01 0.28404247973E+01 0.24393467005E+01 0.20926983798E+01 0.18085730192E+01
 0.15877849724E+01 0.14263776267E+01 0.13180305165E+01 0.12562500601E+01 0.12362426973E+01
 0.12562481305E+01 0.13180312365E+01 0.14263851038E+01 0.15877968564E+01 0.18085802120E+01
 0.23375668920E+01 0.27900458469E+01 0.33013398092E+01 0.38447420091E+01 0.43795355225E+01
 0.48535421847E+01 0.52108067884E+01 0.54033623789E+01 0.54033638431E+01 0.52108097090E+01
 0.48535418307E+01 0.43795265561E+01 0.38447256782E+01 0.33013266152E+01 0.27900464881E+01
 0.23375805853E+01 0.19578670708E+01 0.16550127834E+01 0.14263776267E+01 0.12653651090E+01
 0.11640046455E+01 0.11153365116E+01 0.11153370485E+01 0.11640072686E+01 0.12653700097E+01
 0.14263802478E+01 0.16550065360E+01 0.19578519840E+01 0.27625735743E+01 0.33438969922E+01
 0.39877738353E+01 0.46544852102E+01 0.52858649037E+01 0.58113991832E+01 0.61614950271E+01
 0.62845564180E+01 0.61614912339E+01 0.58114014305E+01 0.52858757428E+01 0.46544924824E+01
 0.39877650981E+01 0.33438757005E+01 0.27625556097E+01 0.22655826872E+01 0.18608959718E+01
 0.15472648859E+01 0.13180305165E+01 0.11640046455E+01 0.10760706615E+01 0.10475726831E+01
 0.10760735109E+01 0.11640056612E+01 0.13180248854E+01 0.15472532831E+01 0.18608865392E+01
 0.22655858473E+01 0.33987417999E+01 0.41430698332E+01 0.49514446635E+01 0.57637677741E+01
 0.64967559264E+01 0.70567548290E+01 0.73611200330E+01 0.73611075054E+01 0.70567317767E+01
 0.64967495187E+01 0.57637880136E+01 0.49514748021E+01 0.41430846664E+01 0.33987314595E+01
 0.27528434506E+01 0.22189635835E+01 0.17970615552E+01 0.14797312514E+01 0.12562500601E+01
 0.11153365116E+01 0.10475726831E+01 0.10475744941E+01 0.11153377271E+01 0.12562450738E+01
 0.14797239362E+01 0.17970637662E+01 0.22189814608E+01 0.27528673500E+01 0.42946471316E+01
 0.52469766649E+01 0.62562885478E+01 0.72313321461E+01 0.80554799815E+01 0.86102077263E+01
 0.88062063111E+01 0.86101812056E+01 0.80554453892E+01 0.72313152087E+01 0.62563038521E+01
 0.52470145951E+01 0.42946803742E+01 0.34555429625E+01 0.27539564270E+01 0.21923116304E+01
 0.17613710549E+01 0.14474327774E+01 0.12362426973E+01 0.11153370485E+01 0.10760735109E+01
 0.11153377271E+01 0.12362411945E+01 0.14474319819E+01 0.17613799321E+01 0.21923317859E+01
 0.27539728698E+01 0.34555358138E+01 0.55102777379E+01 0.67182534074E+01 0.79550974698E+01
 0.90866566981E+01 0.99590220234E+01 0.10435542591E+02 0.10435540143E+02 0.99590085645E+01
 0.90866281102E+01 0.79550697216E+01 0.67182509371E+01 0.55103045388E+01 0.44230997143E+01
 0.35024871159E+01 0.27585089523E+01 0.21805492891E+01 0.17499643636E+01 0.14474316520E+01
 0.12562481305E+01 0.11640072686E+01 0.11640056612E+01 0.12562450738E+01 0.14474319819E+01
 0.17499727206E+01 0.21805631272E+01 0.27585150482E+01 0.35024715804E+01 0.44230662434E+01
 0.70979105267E+01 0.85922848998E+01 0.10049051003E+02 0.11286979373E+02 0.12124769888E+02
 0.12421819267E+02 0.12124785472E+02 0.11286983245E+02 0.10049028501E+02 0.85922549408E+01
 0.70979006361E+01 0.57089010794E+01 0.45094302110E+01 0.35290599559E+01 0.27607529852E+01
 0.21805539992E+01 0.17613744789E+01 0.14797273180E+01 0.13180312365E+01 0.12653700097E+01
 0.13180248854E+01 0.14797239362E+01 0.17613799321E+01 0.21805631272E+01 0.27607548695E+01
 0.35290475728E+01 0.45094079623E+01 0.57088862786E+01 0.90672766410E+01 0.10834116957E+02
 0.12458859104E+02 0.13719613169E+02 0.14411336796E+02 0.14411344493E+02 0.13719622853E+02
 0.12458851856E+02 0.10834097414E+02 0.90672651609E+01 0.73478239388E+01 0.58158381731E+01
 0.45398878054E+01 0.35290541304E+01 0.27585107077E+01 0.21923216540E+01 0.17970600340E+01
 0.15472594947E+01 0.14263851038E+01 0.14263802478E+01 0.15472532831E+01 0.17970637662E+01
 0.21923317859E+01 0.27585150482E+01 0.35290475728E+01 0.45398737206E+01 0.58158232582E+01
 0.73478184267E+01 0.11349432212E+02 0.13337672899E+02 0.15036405942E+02 0.16185665640E+02
 0.16592333972E+02 0.16185659354E+02 0.15036385682E+02 0.13337645734E+02 0.11349419594E+02
 0.93207912941E+01 0.74350562841E+01 0.58158447503E+01 0.45094235175E+01 0.35024767152E+01
 0.27539644880E+01 0.22189691756E+01 0.18608843182E+01 0.16550121174E+01 0.15877968564E+01
 0.16550065360E+01 0.18608865392E+01 0.22189814608E+01 0.27539728698E+01 0.35024715804E+01
 0.45094079623E+01 0.58158232582E+01 0.74350334169E+01 0.93207802820E+01 0.13808874124E+02
 0.15903499440E+02 0.17514844878E+02 0.18390744292E+02 0.18390745418E+02 0.17514837198E+02
 0.15903471321E+02 0.13808839309E+02 0.11529167249E+02 0.93207869383E+01 0.73478394481E+01
 0.57089127259E+01 0.44230890054E+01 0.34555426119E+01 0.27528572067E+01 0.22655750013E+01
 0.19578519455E+01 0.18085829968E+01 0.18085802120E+01 0.19578519840E+01 0.22655858473E+01
 0.27528673500E+01 0.34555358138E+01 0.44230662434E+01 0.57088862786E+01 0.73478184267E+01
 0.93207802820E+01 0.11529184511E+02 0.18309287556E+02 0.19833749446E+02 0.20614273229E+02
 0.20614286098E+02 0.19833778383E+02 0.18309311241E+02 0.16179238254E+02 0.13711606963E+02
 0.11225910828E+02 0.89634083101E+01 0.70389178117E+01 0.55102890614E+01 0.43595848148E+01
 0.35273473165E+01 0.29513486397E+01 0.25863506359E+01 0.24082153899E+01 0.24082151159E+01
 0.25863528471E+01 0.29513545511E+01 0.35273487009E+01 0.43595748713E+01 0.55102769186E+01
 0.70389219839E+01 0.89634356032E+01 0.11225947791E+02 0.13711631783E+02 0.16179237374E+02
 0.19833749446E+02 0.20934188602E+02 0.21298626096E+02 0.20934196238E+02 0.19833766221E+02
 0.18033061162E+02 0.15704167182E+02 0.13151910943E+02 0.10691109974E+02 0.85166181305E+01
 0.67182448902E+01 0.53257230272E+01 0.42972280199E+01 0.35667791719E+01 0.30771416557E+01
 0.27930868499E+01 0.26995607154E+01 0.27930855029E+01 0.30771421390E+01 0.35667816634E+01
 0.42972284071E+01 0.53257211550E+01 0.67182503283E+01 0.85166405474E+01 0.10691143247E+02
 0.13151934365E+02 0.15704166654E+02 0.18033043800E+02 0.20614273229E+02 0.21298626096E+02
 0.21298601822E+02 0.20614226990E+02 0.19227969764E+02 0.17208948112E+02 0.14784465288E+02
 0.12276449091E+02 0.99546269077E+01 0.79550797490E+01 0.63498359967E+01 0.51331286018E+01
 0.42480950032E+01 0.36315686540E+01 0.32380306180E+01 0.30447929668E+01 0.30447905746E+01
 0.32380252997E+01 0.36315658684E+01 0.42481002297E+01 0.51331414740E+01 0.63498514386E+01
 0.79550938433E+01 0.99546350735E+01 0.12276442848E+02 0.14784444937E+02 0.17208936492E+02
 0.19227992490E+02 0.20614286098E+02 0.20934196238E+02 0.20614226990E+02 0.19637958106E+02
 0.18014914228E+02 0.15880449951E+02 0.13503477765E+02 0.11175472258E+02 0.90866523838E+01
 0.73395693871E+01 0.59732787689E+01 0.49536552569E+01 0.42211786346E+01 0.37243760017E+01
 0.34333119028E+01 0.33369403329E+01 0.34333029070E+01 0.37243628711E+01 0.42211749690E+01
 0.49536722769E+01 0.59733088322E+01 0.73395917478E+01 0.90866534303E+01 0.11175451296E+02
 0.13503443164E+02 0.15880424533E+02 0.18014929962E+02 0.19638019259E+02 0.19833778383E+02
 0.19833766221E+02 0.19227969764E+02 0.18014914228E+02 0.16266410084E+02 0.14175241058E+02
 0.12001350187E+02 0.99590261345E+01 0.81765283749E+01 0.67317581341E+01 0.56222519357E+01
 0.48022225520E+01 0.42211785804E+01 0.38447261446E+01 0.36580548273E+01 0.36580476593E+01
 0.38447055884E+01 0.42211564745E+01 0.48022223502E+01 0.56222812356E+01 0.67317933619E+01
 0.81765424672E+01 0.99590183026E+01 0.12001335640E+02 0.14175228616E+02 0.16266404993E+02
 0.18014924718E+02 0.19227992131E+02 0.18309311241E+02 0.18033061162E+02 0.17208948112E+02
 0.15880449951E+02 0.14175241058E+02 0.12294079874E+02 0.10435538480E+02 0.87401029558E+01
 0.73115609201E+01 0.61792521060E+01 0.53180863163E+01 0.46858082497E+01 0.42480936072E+01
 0.39877721424E+01 0.39009233398E+01 0.39877554936E+01 0.42480615505E+01 0.46857812222E+01
 0.53180903921E+01 0.61792821492E+01 0.73115843209E+01 0.87401052128E+01 0.10435538511E+02
 0.12294093187E+02 0.14175253976E+02 0.15880442551E+02 0.17208923559E+02 0.18033040578E+02
 0.16179238254E+02 0.15704167182E+02 0.14784465288E+02 0.13503477765E+02 0.12001350187E+02
 0.10435538480E+02 0.89392800955E+01 0.76268291785E+01 0.65506062064E+01 0.57075179079E+01
 0.50686131967E+01 0.46042689366E+01 0.42972242289E+01 0.41430836662E+01 0.41430784321E+01
 0.42972026237E+01 0.46042322489E+01 0.50685865693E+01 0.57075221419E+01 0.65506265715E+01
 0.76268364334E+01 0.89392721693E+01 0.10435537517E+02 0.12001364820E+02 0.13503491719E+02
 0.14784463318E+02 0.15704154573E+02 0.16179231334E+02 0.13711606963E+02 0.13151910943E+02
 0.12276449091E+02 0.11175472258E+02 0.99590261345E+01 0.87401029558E+01 0.76268291785E+01
 0.66812036533E+01 0.59176466837E+01 0.53218109025E+01 0.48718618782E+01 0.45526270849E+01
 0.43595804165E+01 0.42946690207E+01 0.43595784385E+01 0.45526077203E+01 0.48718264674E+01
 0.53217854077E+01 0.59176488761E+01 0.66812198154E+01 0.76268336283E+01 0.87400888536E+01
 0.99590081982E+01 0.11175467986E+02 0.12276464622E+02 0.13151938228E+02 0.13711628272E+02
 0.13903452387E+02 0.11225910828E+02 0.10691109974E+02 0.99546269077E+01 0.90866523838E+01
 0.81765283749E+01 0.73115609201E+01 0.65506062064E+01 0.59176466837E+01 0.54104889145E+01
 0.50157787556E+01 0.47216537696E+01 0.45235531540E+01 0.44230803995E+01 0.44230871485E+01
 0.45235594114E+01 0.47216374519E+01 0.50157422189E+01 0.54104604416E+01 0.59176491585E+01
 0.65506319819E+01 0.73115809164E+01 0.81765225796E+01 0.90866288310E+01 0.99546116638E+01
 0.10691119587E+02 0.11225935015E+02 0.11506831343E+02 0.11506818713E+02 0.89634083101E+01
 0.85166181305E+01 0.79550797490E+01 0.73395693871E+01 0.67317581341E+01 0.61792521060E+01
 0.57075179079E+01 0.53218109025E+01 0.50157787556E+01 0.47808568430E+01 0.46121308269E+01
 0.45094050855E+01 0.44747799250E+01 0.45094228696E+01 0.46121420365E+01 0.47808382893E+01
 0.50157353979E+01 0.53217752463E+01 0.57075190652E+01 0.61792870615E+01 0.67317969961E+01
 0.73395858707E+01 0.79550708992E+01 0.85165974033E+01 0.89633892379E+01 0.92492030828E+01
 0.93474497997E+01 0.92492136910E+01 0.70389178117E+01 0.67182448902E+01 0.63498359967E+01
 0.59732787689E+01 0.56222519357E+01 0.53180863163E+01 0.50686131967E+01 0.48718618782E+01
 0.47216537696E+01 0.46121308269E+01 0.45398624354E+01 0.45037438965E+01 0.45037559660E+01
 0.45398873939E+01 0.46121424334E+01 0.47216321726E+01 0.48718148481E+01 0.50685724604E+01
 0.53180785217E+01 0.56222771637E+01 0.59733176018E+01 0.63498672165E+01 0.67182533266E+01
 0.70388993060E+01 0.72751149711E+01 0.74000899166E+01 0.74001049612E+01 0.72751455691E+01
 0.55102890614E+01 0.53257230272E+01 0.51331286018E+01 0.49536552569E+01 0.48022225520E+01
 0.46858082497E+01 0.46042689366E+01 0.45526270849E+01 0.45235531540E+01 0.45094050855E+01
 0.45037438965E+01 0.45023509917E+01 0.45037642947E+01 0.45094320297E+01 0.45235646426E+01
 0.45526099387E+01 0.46042324999E+01 0.46857746287E+01 0.48022054451E+01 0.49536555606E+01
 0.51331437871E+01 0.53257471236E+01 0.55103078240E+01 0.56635000577E+01 0.57647226304E+01
 0.58000899899E+01 0.57647295173E+01 0.56634978187E+01 0.43595848148E+01 0.42972280199E+01
 0.42480950032E+01 0.42211786346E+01 0.42211785804E+01 0.42480936072E+01 0.42972242289E+01
 0.43595804165E+01 0.44230803995E+01 0.44747799250E+01 0.45037559660E+01 0.45037642947E+01
 0.44748015905E+01 0.44231037216E+01 0.43595900596E+01 0.42972162335E+01 0.42480791811E+01
 0.42211670747E+01 0.42211663369E+01 0.42480782076E+01 0.42972162083E+01 0.43595896797E+01
 0.44231019584E+01 0.44748002804E+01 0.45037653082E+01 0.45037583140E+01 0.44747822036E+01
 0.44230834302E+01 0.35273473165E+01 0.35667791719E+01 0.36315686540E+01 0.37243760017E+01
 0.38447261446E+01 0.39877721424E+01 0.41430836662E+01 0.42946690207E+01 0.44230871485E+01
 0.45094228696E+01 0.45398873939E+01 0.45094320297E+01 0.44231037216E+01 0.42946830999E+01
 0.41430847873E+01 0.39877652863E+01 0.38447271347E+01 0.37243879576E+01 0.36315757526E+01
 0.35667689087E+01 0.35273279730E+01 0.35081856597E+01 0.35024876254E+01 0.35029249910E+01
 0.35037896229E+01 0.35029178206E+01 0.35024845576E+01 0.35081965392E+01 0.29513486397E+01
 0.30771416557E+01 0.32380306180E+01 0.34333119028E+01 0.36580548273E+01 0.39009233398E+01
 0.41430784321E+01 0.43595784385E+01 0.45235594114E+01 0.46121420365E+01 0.46121424334E+01
 0.45235646426E+01 0.43595900596E+01 0.41430847873E+01 0.39009132037E+01 0.36580369756E+01
 0.34333078392E+01 0.32380481449E+01 0.30771658351E+01 0.29513599903E+01 0.28588496242E+01
 0.27961339547E+01 0.27585091463E+01 0.27412245724E+01 0.27412294532E+01 0.27585222563E+01
 0.27961492618E+01 0.28588560876E+01 0.25863506359E+01 0.27930868499E+01 0.30447929668E+01
 0.33369403329E+01 0.36580476593E+01 0.39877554936E+01 0.42972026237E+01 0.45526077203E+01
 0.47216374519E+01 0.47808382893E+01 0.47216321726E+01 0.45526099387E+01 0.42972162335E+01
 0.39877652863E+01 0.36580369756E+01 0.33369130576E+01 0.30447713339E+01 0.27930889070E+01
 0.25863736295E+01 0.24247596775E+01 0.23059037336E+01 0.22259816794E+01 0.21805499052E+01
 0.21658991225E+01 0.21805606796E+01 0.22259892130E+01 0.23058943846E+01 0.24247348179E+01
 0.24082153899E+01 0.26995607154E+01 0.30447905746E+01 0.34333029070E+01 0.38447055884E+01
 0.42480615505E+01 0.46042322489E+01 0.48718264674E+01 0.50157422189E+01 0.50157353979E+01
 0.48718148481E+01 0.46042324999E+01 0.42480791811E+01 0.38447271347E+01 0.34333078392E+01
 0.30447713339E+01 0.26995309444E+01 0.24081976491E+01 0.21740242180E+01 0.19955847596E+01
 0.18688322985E+01 0.17885843800E+01 0.17499643935E+01 0.17499650006E+01 0.17885810485E+01
 0.18688186015E+01 0.19955670035E+01 0.21740193977E+01 0.24082151159E+01 0.27930855029E+01
 0.32380252997E+01 0.37243628711E+01 0.42211564745E+01 0.46857812222E+01 0.50685865693E+01
 0.53217854077E+01 0.54104604416E+01 0.53217752463E+01 0.50685724604E+01 0.46857746287E+01
 0.42211670747E+01 0.37243879576E+01 0.32380481449E+01 0.27930889070E+01 0.24081976491E+01
 0.20917432460E+01 0.18446055365E+01 0.16629012572E+01 0.15403151149E+01 0.14701796427E+01
 0.14474308248E+01 0.14701744332E+01 0.15403081749E+01 0.16629006424E+01 0.18446186296E+01
 0.20917665460E+01 0.25863528471E+01 0.30771421390E+01 0.36315658684E+01 0.42211749690E+01
 0.48022223502E+01 0.53180903921E+01 0.57075221419E+01 0.59176488761E+01 0.59176491585E+01
 0.57075190652E+01 0.53180785217E+01 0.48022054451E+01 0.42211663369E+01 0.36315757526E+01
 0.30771658351E+01 0.25863736295E+01 0.21740242180E+01 0.18446055365E+01 0.15955185044E+01
 0.14199148926E+01 0.13093339194E+01 0.12562483451E+01 0.12562477563E+01 0.13093353461E+01
 0.14199236683E+01 0.15955336949E+01 0.18446168764E+01 0.21740199192E+01 0.29513545511E+01
 0.35667816634E+01 0.42481002297E+01 0.49536722769E+01 0.56222812356E+01 0.61792821492E+01
 0.65506265715E+01 0.66812198154E+01 0.65506319819E+01 0.61792870615E+01 0.56222771637E+01
 0.49536555606E+01 0.42480782076E+01 0.35667689087E+01 0.29513599903E+01 0.24247596775E+01
 0.19955847596E+01 0.16629012572E+01 0.14199148926E+01 0.12569009981E+01 0.11640036607E+01
 0.11339338267E+01 0.11640077515E+01 0.12569079161E+01 0.14199194341E+01 0.16628960165E+01
 0.19955682201E+01 0.24247415222E+01 0.35273487009E+01 0.42972284071E+01 0.51331414740E+01
 0.59733088322E+01 0.67317933619E+01 0.73115843209E+01 0.76268364334E+01 0.76268336283E+01
 0.73115809164E+01 0.67317969961E+01 0.59733176018E+01 0.51331437871E+01 0.42972162083E+01
 0.35273279730E+01 0.28588496242E+01 0.23059037336E+01 0.18688322985E+01 0.15403151149E+01
 0.13093339194E+01 0.11640036607E+01 0.10942441625E+01 0.10942459202E+01 0.11640058243E+01
 0.13093303742E+01 0.15403039926E+01 0.18688206003E+01 0.23059028773E+01 0.28588640468E+01
 0.43595748713E+01 0.53257211550E+01 0.63498514386E+01 0.73395917478E+01 0.81765424672E+01
 0.87401052128E+01 0.89392721693E+01 0.87400888536E+01 0.81765225796E+01 0.73395858707E+01
 0.63498672165E+01 0.53257471236E+01 0.43595896797E+01 0.35081856597E+01 0.27961339547E+01
 0.22259816794E+01 0.17885843800E+01 0.14701796427E+01 0.12562483451E+01 0.11339338267E+01
 0.10942459202E+01 0.11339330867E+01 0.12562448148E+01 0.14701750174E+01 0.17885862946E+01
 0.22259956467E+01 0.27961528530E+01 0.35081924622E+01 0.55102769186E+01 0.67182503283E+01
 0.79550938433E+01 0.90866534303E+01 0.99590183026E+01 0.10435538511E+02 0.10435537517E+02
 0.99590081982E+01 0.90866288310E+01 0.79550708992E+01 0.67182533266E+01 0.55103078240E+01
 0.44231019584E+01 0.35024876254E+01 0.27585091463E+01 0.21805499052E+01 0.17499643935E+01
 0.14474308248E+01 0.12562477563E+01 0.11640077515E+01 0.11640058243E+01 0.12562448148E+01
 0.14474329444E+01 0.17499754177E+01 0.21805659593E+01 0.27585169847E+01 0.35024732111E+01
 0.44230674172E+01 0.70389219839E+01 0.85166405474E+01 0.99546350735E+01 0.11175451296E+02
 0.12001335640E+02 0.12294093187E+02 0.12001364820E+02 0.11175467986E+02 0.99546116638E+01
 0.85165974033E+01 0.70388993060E+01 0.56635000577E+01 0.44748002804E+01 0.35029249910E+01
 0.27412245724E+01 0.21658991225E+01 0.17499650006E+01 0.14701744332E+01 0.13093353461E+01
 0.12569079161E+01 0.13093303742E+01 0.14701750174E+01 0.17499754177E+01 0.21659088613E+01
 0.27412186578E+01 0.35028991466E+01 0.44747679093E+01 0.56634867874E+01 0.89634356032E+01
 0.10691143247E+02 0.12276442848E+02 0.13503443164E+02 0.14175228616E+02 0.14175253976E+02
 0.13503491719E+02 0.12276464622E+02 0.10691119587E+02 0.89633892379E+01 0.72751149711E+01
 0.57647226304E+01 0.45037653082E+01 0.35037896229E+01 0.27412294532E+01 0.21805606796E+01
 0.17885810485E+01 0.15403081749E+01 0.14199236683E+01 0.14199194341E+01 0.15403039926E+01
 0.17885862946E+01 0.21805659593E+01 0.27412186578E+01 0.35037646498E+01 0.45037466263E+01
 0.57647295389E+01 0.72751505956E+01 0.11225947791E+02 0.13151934365E+02 0.14784444937E+02
 0.15880424533E+02 0.16266404993E+02 0.15880442551E+02 0.14784463318E+02 0.13151938228E+02
 0.11225935015E+02 0.92492030828E+01 0.74000899166E+01 0.58000899899E+01 0.45037583140E+01
 0.35029178206E+01 0.27585222563E+01 0.22259892130E+01 0.18688186015E+01 0.16629006424E+01
 0.15955336949E+01 0.16628960165E+01 0.18688206003E+01 0.22259956467E+01 0.27585169847E+01
 0.35028991466E+01 0.45037466263E+01 0.58001007620E+01 0.74001159098E+01 0.92492277165E+01
 0.13711631783E+02 0.15704166654E+02 0.17208936492E+02 0.18014929962E+02 0.18014924718E+02
 0.17208923559E+02 0.15704154573E+02 0.13711628272E+02 0.11506831343E+02 0.93474497997E+01
 0.74001049612E+01 0.57647295173E+01 0.44747822036E+01 0.35024845576E+01 0.27961492618E+01
 0.23058943846E+01 0.19955670035E+01 0.18446186296E+01 0.18446168764E+01 0.19955682201E+01
 0.23059028773E+01 0.27961528530E+01 0.35024732111E+01 0.44747679093E+01 0.57647295389E+01
 0.74001159098E+01 0.93474560514E+01 0.11506830665E+02 0.16179237374E+02 0.18033043800E+02
 0.19227992490E+02 0.19638019259E+02 0.19227992131E+02 0.18033040578E+02 0.16179231334E+02
 0.13903452387E+02 0.11506818713E+02 0.92492136910E+01 0.72751455691E+01 0.56634978187E+01
 0.44230834302E+01 0.35081965392E+01 0.28588560876E+01 0.24247348179E+01 0.21740193977E+01
 0.20917665460E+01 0.21740199192E+01 0.24247415222E+01 0.28588640468E+01 0.35081924622E+01
 0.44230674172E+01 0.56634867874E+01 0.72751505956E+01 0.92492277165E+01 0.11506830665E+02
 0.13903460386E+02 0.19465417344E+02 0.20198356607E+02 0.20414175301E+02 0.20198366660E+02
 0.19465436183E+02 0.18074205807E+02 0.16042455148E+02 0.13624094823E+02 0.11176356073E+02
 0.89634188248E+01 0.70978917215E+01 0.56356863535E+01 0.45526275273E+01 0.37847008268E+01
 0.32709845946E+01 0.29730430553E+01 0.28748765594E+01 0.29730418470E+01 0.32709797557E+01
 0.37846962897E+01 0.45526312768E+01 0.56356987070E+01 0.70979057514E+01 0.89634316472E+01
 0.11176368870E+02 0.13624102667E+02 0.16042449293E+02 0.18074187440E+02 0.20198356607E+02
 0.20542571204E+02 0.20542560950E+02 0.20198339223E+02 0.19313862427E+02 0.17730641108E+02
 0.15542367161E+02 0.13076933620E+02 0.10691133103E+02 0.85922618773E+01 0.68722695846E+01
 0.55587215439E+01 0.46042687909E+01 0.39420405611E+01 0.35204294041E+01 0.33134567325E+01
 0.33134549773E+01 0.35204212228E+01 0.39420274985E+01 0.46042645498E+01 0.55587353673E+01
 0.68722919498E+01 0.85922778839E+01 0.10691139311E+02 0.13076932550E+02 0.15542359214E+02
 0.17730632703E+02 0.19313866890E+02 0.20414175301E+02 0.20542560950E+02 0.20414114696E+02
 0.19904505694E+02 0.18780862205E+02 0.16970798494E+02 0.14682219742E+02 0.12276466947E+02
 0.10049049281E+02 0.81402182921E+01 0.66258247140E+01 0.54943983978E+01 0.46858078074E+01
 0.41402893210E+01 0.38213769181E+01 0.37157814708E+01 0.38213707076E+01 0.41402728239E+01
 0.46857918629E+01 0.54944029012E+01 0.66258493389E+01 0.81402386667E+01 0.10049045538E+02
 0.12276441010E+02 0.14682187891E+02 0.16970784723E+02 0.18780890768E+02 0.19904573790E+02
 0.20198366660E+02 0.20198339223E+02 0.19904505694E+02 0.19132872388E+02 0.17727196595E+02
 0.15756231657E+02 0.13503475888E+02 0.11286999168E+02 0.93023023171E+01 0.76583811849E+01
 0.63901154737E+01 0.54577403630E+01 0.48022226977E+01 0.43795145463E+01 0.41700852576E+01
 0.41700839991E+01 0.43795041028E+01 0.48022013300E+01 0.54577278377E+01 0.63901280909E+01
 0.76584037971E+01 0.93023059015E+01 0.11286976196E+02 0.13503443255E+02 0.15756211269E+02
 0.17727206101E+02 0.19132917576E+02 0.19904564156E+02 0.19465436183E+02 0.19313862427E+02
 0.18780862205E+02 0.17727196595E+02 0.16133658964E+02 0.14175221674E+02 0.12124771213E+02
 0.10199701249E+02 0.85328098265E+01 0.72000911376E+01 0.61912597408E+01 0.54577407138E+01
 0.49536556992E+01 0.46544814895E+01 0.45546065946E+01 0.46544822601E+01 0.49536424863E+01
 0.54577165149E+01 0.61912477059E+01 0.72000989551E+01 0.85328185081E+01 0.10199697491E+02
 0.12124766664E+02 0.14175229112E+02 0.16133669647E+02 0.17727194434E+02 0.18780847088E+02
 0.19313848744E+02 0.18074205807E+02 0.17730641108E+02 0.16970798494E+02 0.15756231657E+02
 0.14175221674E+02 0.12421792680E+02 0.10690468193E+02 0.91223294751E+01 0.78202439097E+01
 0.68040174784E+01 0.60424914185E+01 0.54944000905E+01 0.51331284561E+01 0.49514615921E+01
 0.49514685175E+01 0.51331341340E+01 0.54943842140E+01 0.60424613208E+01 0.68039956785E+01
 0.78202358952E+01 0.91223264074E+01 0.10690472815E+02 0.12421816438E+02 0.14175255226E+02
 0.15756241683E+02 0.16970765188E+02 0.17730587799E+02 0.18074180030E+02 0.16042455148E+02
 0.15542367161E+02 0.14682219742E+02 0.13503475888E+02 0.12124771213E+02 0.10690468193E+02
 0.93308183148E+01 0.81578294570E+01 0.72134215868E+01 0.64856413036E+01 0.59425641155E+01
 0.55587250384E+01 0.53257225848E+01 0.52470043254E+01 0.53257434863E+01 0.55587368157E+01
 0.59425449519E+01 0.64856018333E+01 0.72133870570E+01 0.81578113021E+01 0.93308127081E+01
 0.10690472342E+02 0.12124786194E+02 0.13503495068E+02 0.14682228275E+02 0.15542358898E+02
 0.16042442578E+02 0.16202914057E+02 0.13624094823E+02 0.13076933620E+02 0.12276466947E+02
 0.11286999168E+02 0.10199701249E+02 0.91223294751E+01 0.81578294570E+01 0.73575685114E+01
 0.67253574800E+01 0.62402391622E+01 0.58801380917E+01 0.56356904551E+01 0.55102892071E+01
 0.55103073414E+01 0.56357265357E+01 0.58801545360E+01 0.62402156154E+01 0.67253106503E+01
 0.73575329548E+01 0.81578202017E+01 0.91223310681E+01 0.10199694430E+02 0.11286987423E+02
 0.12276469166E+02 0.13076957149E+02 0.13624124727E+02 0.13896320542E+02 0.13896307098E+02
 0.11176356073E+02 0.10691133103E+02 0.10049049281E+02 0.93023023171E+01 0.85328098265E+01
 0.78202439097E+01 0.72134215868E+01 0.67253574800E+01 0.63447199461E+01 0.60535425021E+01
 0.58412456930E+01 0.57088788814E+01 0.56634982611E+01 0.57089143420E+01 0.58412898712E+01
 0.60535573627E+01 0.63446893540E+01 0.67253082831E+01 0.72133973918E+01 0.78202561892E+01
 0.85328296406E+01 0.93023015893E+01 0.10049032694E+02 0.10691123060E+02 0.11176361292E+02
 0.11474503803E+02 0.11574421411E+02 0.11474494446E+02 0.89634188248E+01 0.85922618773E+01
 0.81402182921E+01 0.76583811849E+01 0.72000911376E+01 0.68040174784E+01 0.64856413036E+01
 0.62402391622E+01 0.60535425021E+01 0.59133068440E+01 0.58158057333E+01 0.57647137185E+01
 0.57647293715E+01 0.58158462353E+01 0.59133477548E+01 0.60535489554E+01 0.62402008287E+01
 0.64855913941E+01 0.68039998537E+01 0.72001149823E+01 0.76584198815E+01 0.81402421620E+01
 0.85922582514E+01 0.89633913708E+01 0.92203727937E+01 0.93506217526E+01 0.93506370899E+01
 0.92204065011E+01 0.70978917215E+01 0.68722695846E+01 0.66258247140E+01 0.63901154737E+01
 0.61912597408E+01 0.60424914185E+01 0.59425641155E+01 0.58801380917E+01 0.58412456930E+01
 0.58158057333E+01 0.58000725716E+01 0.57945602435E+01 0.58000895476E+01 0.58158396673E+01
 0.58412780844E+01 0.58801389584E+01 0.59425261265E+01 0.60424416566E+01 0.61912325394E+01
 0.63901248753E+01 0.66258614370E+01 0.68723086944E+01 0.70979049313E+01 0.72751168768E+01
 0.73864415432E+01 0.74241731087E+01 0.73864688805E+01 0.72751372634E+01 0.56356863535E+01
 0.55587215439E+01 0.54943983978E+01 0.54577403630E+01 0.54577407138E+01 0.54944000905E+01
 0.55587250384E+01 0.56356904551E+01 0.57088788814E+01 0.57647137185E+01 0.57945602435E+01
 0.57945605990E+01 0.57647227762E+01 0.57089040573E+01 0.56357180869E+01 0.55587316213E+01
 0.54943773709E+01 0.54576999301E+01 0.54577003712E+01 0.54943780478E+01 0.55587319430E+01
 0.56357187634E+01 0.57089055238E+01 0.57647237896E+01 0.57945598822E+01 0.57945581921E+01
 0.57647111432E+01 0.57088755541E+01 0.45526275273E+01 0.46042687909E+01 0.46858078074E+01
 0.48022226977E+01 0.49536556992E+01 0.51331284561E+01 0.53257225848E+01 0.55102892071E+01
 0.56634982611E+01 0.57647293715E+01 0.58000895476E+01 0.57647227762E+01 0.56635005000E+01
 0.55103076783E+01 0.53257466813E+01 0.51331439328E+01 0.49536560029E+01 0.48022052993E+01
 0.46857741864E+01 0.46042326457E+01 0.45526103810E+01 0.45235644969E+01 0.45094315874E+01
 0.45037644404E+01 0.45023514340E+01 0.45037437508E+01 0.45094046432E+01 0.45235532997E+01
 0.37847008268E+01 0.39420405611E+01 0.41402893210E+01 0.43795145463E+01 0.46544814895E+01
 0.49514615921E+01 0.52470043254E+01 0.55103073414E+01 0.57089143420E+01 0.58158462353E+01
 0.58158396673E+01 0.57089040573E+01 0.55103076783E+01 0.52470154120E+01 0.49514741008E+01
 0.46544927912E+01 0.43795274814E+01 0.41402988278E+01 0.39420351044E+01 0.37846788594E+01
 0.36657628194E+01 0.35818464778E+01 0.35290585566E+01 0.35037877141E+01 0.35037858986E+01
 0.35290590583E+01 0.35818593323E+01 0.36657874694E+01 0.32709845946E+01 0.35204294041E+01
 0.38213769181E+01 0.41700852576E+01 0.45546065946E+01 0.49514685175E+01 0.53257434863E+01
 0.56357265357E+01 0.58412898712E+01 0.59133477548E+01 0.58412780844E+01 0.56357180869E+01
 0.53257466813E+01 0.49514741008E+01 0.45546035074E+01 0.41700783847E+01 0.38213810232E+01
 0.35204488655E+01 0.32710064758E+01 0.30726434485E+01 0.29233942217E+01 0.28205158972E+01
 0.27607523571E+01 0.27412286310E+01 0.27607685743E+01 0.28205377409E+01 0.29234062955E+01
 0.30726360606E+01 0.29730430553E+01 0.33134567325E+01 0.37157814708E+01 0.41700839991E+01
 0.46544822601E+01 0.51331341340E+01 0.55587368157E+01 0.58801545360E+01 0.60535573627E+01
 0.60535489554E+01 0.58801389584E+01 0.55587316213E+01 0.51331439328E+01 0.46544927912E+01
 0.41700783847E+01 0.37157604265E+01 0.33134397028E+01 0.29730483179E+01 0.26967874902E+01
 0.24830218502E+01 0.23284503045E+01 0.22289767528E+01 0.21805547359E+01 0.21805608002E+01
 0.22289852094E+01 0.23284438352E+01 0.24829973522E+01 0.26967622832E+01 0.28748765594E+01
 0.33134549773E+01 0.38213707076E+01 0.43795041028E+01 0.49536424863E+01 0.54943842140E+01
 0.59425449519E+01 0.62402156154E+01 0.63446893540E+01 0.62402008287E+01 0.59425261265E+01
 0.54943773709E+01 0.49536560029E+01 0.43795274814E+01 0.38213810232E+01 0.33134397028E+01
 0.28748480521E+01 0.25131077274E+01 0.22283272530E+01 0.20165841147E+01 0.18720551796E+01
 0.17885863329E+01 0.17613739776E+01 0.17885805173E+01 0.18720403213E+01 0.20165656184E+01
 0.22283213757E+01 0.25131247673E+01 0.29730418470E+01 0.35204212228E+01 0.41402728239E+01
 0.48022013300E+01 0.54577165149E+01 0.60424613208E+01 0.64856018333E+01 0.67253106503E+01
 0.67253082831E+01 0.64855913941E+01 0.60424416566E+01 0.54576999301E+01 0.48022052993E+01
 0.41402988278E+01 0.35204488655E+01 0.29730483179E+01 0.25131077274E+01 0.21446421486E+01
 0.18646351547E+01 0.16660508741E+01 0.15403151612E+01 0.14797296301E+01 0.14797256073E+01
 0.15403072915E+01 0.16660494854E+01 0.18646487671E+01 0.21446667909E+01 0.25131253452E+01
 0.32709797557E+01 0.39420274985E+01 0.46857918629E+01 0.54577278377E+01 0.61912477059E+01
 0.68039956785E+01 0.72133870570E+01 0.73575329548E+01 0.72133973918E+01 0.68039998537E+01
 0.61912325394E+01 0.54577003712E+01 0.46857741864E+01 0.39420351044E+01 0.32710064758E+01
 0.26967874902E+01 0.22283272530E+01 0.18646351547E+01 0.15985953974E+01 0.14199148135E+01
 0.13180289995E+01 0.12850419154E+01 0.13180311577E+01 0.14199239638E+01 0.15986114676E+01
 0.18646472472E+01 0.22283216793E+01 0.26967630458E+01 0.37846962897E+01 0.46042645498E+01
 0.54944029012E+01 0.63901280909E+01 0.72000989551E+01 0.78202358952E+01 0.81578113021E+01
 0.81578202017E+01 0.78202561892E+01 0.72001149823E+01 0.63901248753E+01 0.54943780478E+01
 0.46042326457E+01 0.37846788594E+01 0.30726434485E+01 0.24830218502E+01 0.20165841147E+01
 0.16660508741E+01 0.14199148135E+01 0.12653643792E+01 0.11913164918E+01 0.11913193685E+01
 0.12653716119E+01 0.14199205533E+01 0.16660457862E+01 0.20165647027E+01 0.24829989397E+01
 0.30726360096E+01 0.45526312768E+01 0.55587353673E+01 0.66258493389E+01 0.76584037971E+01
 0.85328185081E+01 0.91223264074E+01 0.93308127081E+01 0.91223310681E+01 0.85328296406E+01
 0.76584198815E+01 0.66258614370E+01 0.55587319430E+01 0.45526103810E+01 0.36657628194E+01
 0.29233942217E+01 0.23284503045E+01 0.18720551796E+01 0.15403151612E+01 0.13180289995E+01
 0.11913164918E+01 0.11502823372E+01 0.11913167328E+01 0.13180255159E+01 0.15403044600E+01
 0.18720410559E+01 0.23284447304E+01 0.29234066695E+01 0.36657881052E+01 0.56356987070E+01
 0.68722919498E+01 0.81402386667E+01 0.93023059015E+01 0.10199697491E+02 0.10690472815E+02
 0.10690472342E+02 0.10199694430E+02 0.93023015893E+01 0.81402421620E+01 0.68723086944E+01
 0.56357187634E+01 0.45235644969E+01 0.35818464778E+01 0.28205158972E+01 0.22289767528E+01
 0.17885863329E+01 0.14797296301E+01 0.12850419154E+01 0.11913193685E+01 0.11913167328E+01
 0.12850356543E+01 0.14797239114E+01 0.17885865288E+01 0.22289867536E+01 0.28205323781E+01
 0.35818568844E+01 0.45235576028E+01 0.70979057514E+01 0.85922778839E+01 0.10049045538E+02
 0.11286976196E+02 0.12124766664E+02 0.12421816438E+02 0.12124786194E+02 0.11286987423E+02
 0.10049032694E+02 0.85922582514E+01 0.70979049313E+01 0.57089055238E+01 0.45094315874E+01
 0.35290585566E+01 0.27607523571E+01 0.21805547359E+01 0.17613739776E+01 0.14797256073E+01
 0.13180311577E+01 0.12653716119E+01 0.13180255159E+01 0.14797239114E+01 0.17613822155E+01
 0.21805672801E+01 0.27607571305E+01 0.35290470156E+01 0.45094068721E+01 0.57088845674E+01
 0.89634316472E+01 0.10691139311E+02 0.12276441010E+02 0.13503443255E+02 0.14175229112E+02
 0.14175255226E+02 0.13503495068E+02 0.12276469166E+02 0.10691123060E+02 0.89633913708E+01
 0.72751168768E+01 0.57647237896E+01 0.45037644404E+01 0.35037877141E+01 0.27412286310E+01
 0.21805608002E+01 0.17885805173E+01 0.15403072915E+01 0.14199239638E+01 0.14199205533E+01
 0.15403044600E+01 0.17885865288E+01 0.21805672801E+01 0.27412201136E+01 0.35037640786E+01
 0.45037441326E+01 0.57647268179E+01 0.72751477106E+01 0.11176368870E+02 0.13076932550E+02
 0.14682187891E+02 0.15756211269E+02 0.16133669647E+02 0.15756241683E+02 0.14682228275E+02
 0.13076957149E+02 0.11176361292E+02 0.92203727937E+01 0.73864415432E+01 0.57945598822E+01
 0.45023514340E+01 0.35037858986E+01 0.27607685743E+01 0.22289852094E+01 0.18720403213E+01
 0.16660494854E+01 0.15986114676E+01 0.16660457862E+01 0.18720410559E+01 0.22289867536E+01
 0.27607571305E+01 0.35037640786E+01 0.45023445557E+01 0.57945864398E+01 0.73864893380E+01
 0.92204113439E+01 0.13624102667E+02 0.15542359214E+02 0.16970784723E+02 0.17727206101E+02
 0.17727194434E+02 0.16970765188E+02 0.15542358898E+02 0.13624124727E+02 0.11474503803E+02
 0.93506217526E+01 0.74241731087E+01 0.57945581921E+01 0.45037437508E+01 0.35290590583E+01
 0.28205377409E+01 0.23284438352E+01 0.20165656184E+01 0.18646487671E+01 0.18646472472E+01
 0.20165647027E+01 0.23284447304E+01 0.28205323781E+01 0.35290470156E+01 0.45037441326E+01
 0.57945864398E+01 0.74242127239E+01 0.93506384970E+01 0.11474487902E+02 0.16042449293E+02
 0.17730632703E+02 0.18780890768E+02 0.19132917576E+02 0.18780847088E+02 0.17730587799E+02
 0.16042442578E+02 0.13896320542E+02 0.11574421411E+02 0.93506370899E+01 0.73864688805E+01
 0.57647111432E+01 0.45094046432E+01 0.35818593323E+01 0.29234062955E+01 0.24829973522E+01
 0.22283213757E+01 0.21446667909E+01 0.22283216793E+01 0.24829989397E+01 0.29234066695E+01
 0.35818568844E+01 0.45094068721E+01 0.57647268179E+01 0.73864893380E+01 0.93506384970E+01
 0.11574395075E+02 0.13896292446E+02 0.18074187440E+02 0.19313866890E+02 0.19904573790E+02
 0.19904564156E+02 0.19313848744E+02 0.18074180030E+02 0.16202914057E+02 0.13896307098E+02
 0.11474494446E+02 0.92204065011E+01 0.72751372634E+01 0.57088755541E+01 0.45235532997E+01
 0.36657874694E+01 0.30726360606E+01 0.26967622832E+01 0.25131247673E+01 0.25131253452E+01
 0.26967630458E+01 0.30726360096E+01 0.36657881052E+01 0.45235576028E+01 0.57088845674E+01
 0.72751477106E+01 0.92204113439E+01 0.11474487902E+02 0.13896292446E+02 0.16202904822E+02
 0.19178749836E+02 0.19139101820E+02 0.19139119280E+02 0.19178790576E+02 0.18875050639E+02
 0.17825406770E+02 0.15969501084E+02 0.13624094798E+02 0.11225949838E+02 0.90672751494E+01
 0.72670557117E+01 0.58801343350E+01 0.48718626655E+01 0.41743576327E+01 0.37314504402E+01
 0.35142201509E+01 0.35142241105E+01 0.37314528375E+01 0.41743497293E+01 0.48718563884E+01
 0.58801415046E+01 0.72670650447E+01 0.90672722107E+01 0.11225944180E+02 0.13624103012E+02
 0.15969514188E+02 0.17825398784E+02 0.18875014974E+02 0.19139101820E+02 0.19010743583E+02
 0.19139096905E+02 0.19268303017E+02 0.18865289953E+02 0.17587681072E+02 0.15542357903E+02
 0.13151937054E+02 0.10834117002E+02 0.88060615789E+01 0.71696771042E+01 0.59425623869E+01
 0.50686148169E+01 0.44819214758E+01 0.41399307545E+01 0.40267810459E+01 0.41399354016E+01
 0.44819160754E+01 0.50686000479E+01 0.59425563958E+01 0.71696845516E+01 0.88060666611E+01
 0.10834111707E+02 0.13151932194E+02 0.15542360980E+02 0.17587685449E+02 0.18865291218E+02
 0.19268305978E+02 0.19139119280E+02 0.19139096905E+02 0.19348309616E+02 0.19324571313E+02
 0.18577468714E+02 0.16970792964E+02 0.14784464840E+02 0.12458876804E+02 0.10312974877E+02
 0.84950837787E+01 0.70800317999E+01 0.60424938266E+01 0.53180899748E+01 0.48535143273E+01
 0.46238283864E+01 0.46238341558E+01 0.48535196433E+01 0.53180802766E+01 0.60424775728E+01
 0.70800252345E+01 0.84950837944E+01 0.10312966448E+02 0.12458857740E+02 0.14784447199E+02
 0.16970788824E+02 0.18577486472E+02 0.19324613124E+02 0.19348358482E+02 0.19178790576E+02
 0.19268303017E+02 0.19324571313E+02 0.18905391575E+02 0.17727199453E+02 0.15880426553E+02
 0.13719624465E+02 0.11597922582E+02 0.97135253127E+01 0.81834430281E+01 0.70259829550E+01
 0.61912639710E+01 0.56222566625E+01 0.52858530526E+01 0.51736243090E+01 0.52858701881E+01
 0.56222675667E+01 0.61912553068E+01 0.70259650952E+01 0.81834281127E+01 0.97135115964E+01
 0.11597907137E+02 0.13719614574E+02 0.15880429205E+02 0.17727210682E+02 0.18905403287E+02
 0.19324580209E+02 0.19268308279E+02 0.18875050639E+02 0.18865289953E+02 0.18577468714E+02
 0.17727199453E+02 0.16266378082E+02 0.14411309537E+02 0.12468375807E+02 0.10657189042E+02
 0.91203957461E+01 0.79186514489E+01 0.70259819713E+01 0.63901190711E+01 0.59732824578E+01
 0.57637751773E+01 0.57637911716E+01 0.59733135027E+01 0.63901345215E+01 0.70259700359E+01
 0.79186235293E+01 0.91203677526E+01 0.10657172082E+02 0.12468379756E+02 0.14411336818E+02
 0.16266408736E+02 0.17727197681E+02 0.18577418538E+02 0.18865221398E+02 0.18875018616E+02
 0.17825406770E+02 0.17587681072E+02 0.16970792964E+02 0.15880426553E+02 0.14411309537E+02
 0.12777169464E+02 0.11174328678E+02 0.97534593229E+01 0.86043073969E+01 0.77268319810E+01
 0.70800321581E+01 0.66258291731E+01 0.63498386174E+01 0.62563033962E+01 0.63498714731E+01
 0.66258668820E+01 0.70800434519E+01 0.77268081815E+01 0.86042657936E+01 0.97534255604E+01
 0.11174319854E+02 0.12777188949E+02 0.14411344430E+02 0.15880446568E+02 0.16970767954E+02
 0.17587615256E+02 0.17825348506E+02 0.17872924704E+02 0.15969501084E+02 0.15542357903E+02
 0.14784464840E+02 0.13719624465E+02 0.12468375807E+02 0.11174328678E+02 0.99776218035E+01
 0.89783465396E+01 0.81968005869E+01 0.76056266339E+01 0.71696819332E+01 0.68722761794E+01
 0.67182475483E+01 0.67182647488E+01 0.68723173221E+01 0.71697186341E+01 0.76056295293E+01
 0.81967663270E+01 0.89783021206E+01 0.99775946545E+01 0.11174321275E+02 0.12468375952E+02
 0.13719626676E+02 0.14784469767E+02 0.15542361999E+02 0.15969500655E+02 0.16140744868E+02
 0.16140746256E+02 0.13624094798E+02 0.13151937054E+02 0.12458876804E+02 0.11597922582E+02
 0.10657189042E+02 0.97534593229E+01 0.89783465396E+01 0.83625842313E+01 0.78908330831E+01
 0.75321370646E+01 0.72670611479E+01 0.70978975027E+01 0.70389196369E+01 0.70979226948E+01
 0.72671045959E+01 0.75321721723E+01 0.78908309801E+01 0.83625503093E+01 0.89783153665E+01
 0.97534480023E+01 0.10657180192E+02 0.11597900915E+02 0.12458857713E+02 0.13151944451E+02
 0.13624126406E+02 0.13879318007E+02 0.13956907061E+02 0.13879289814E+02 0.11225949838E+02
 0.10834117002E+02 0.10312974877E+02 0.97135253127E+01 0.91203957461E+01 0.86043073969E+01
 0.81968005869E+01 0.78908330831E+01 0.76595517496E+01 0.74799883166E+01 0.73478157310E+01
 0.72751393956E+01 0.72751448163E+01 0.73478398692E+01 0.74800313661E+01 0.76595842626E+01
 0.78908280838E+01 0.81967728032E+01 0.86042928566E+01 0.91204029911E+01 0.97135322836E+01
 0.10312966307E+02 0.10834100412E+02 0.11225937293E+02 0.11474502608E+02 0.11590710638E+02
 0.11590712303E+02 0.11474508587E+02 0.90672751494E+01 0.88060615789E+01 0.84950837787E+01
 0.81834430281E+01 0.79186514489E+01 0.77268319810E+01 0.76056266339E+01 0.75321370646E+01
 0.74799883166E+01 0.74350385654E+01 0.74001055733E+01 0.73864689648E+01 0.74001023246E+01
 0.74350552782E+01 0.74800263756E+01 0.75321638856E+01 0.76056184497E+01 0.77268046400E+01
 0.79186378198E+01 0.81834570071E+01 0.84951134859E+01 0.88060825090E+01 0.90672659805E+01
 0.92492027247E+01 0.93506192617E+01 0.93825505737E+01 0.93506556758E+01 0.92492410037E+01
 0.72670557117E+01 0.71696771042E+01 0.70800317999E+01 0.70259829550E+01 0.70259819713E+01
 0.70800321581E+01 0.71696819332E+01 0.72670611479E+01 0.73478157310E+01 0.74001055733E+01
 0.74241858753E+01 0.74241732448E+01 0.74000875590E+01 0.73478235177E+01 0.72670937403E+01
 0.71697075027E+01 0.70800256010E+01 0.70259485099E+01 0.70259502856E+01 0.70800276124E+01
 0.71697064899E+01 0.72670930823E+01 0.73478263188E+01 0.74000899070E+01 0.74241711935E+01
 0.74241824894E+01 0.74001043325E+01 0.73478137382E+01 0.58801343350E+01 0.59425623869E+01
 0.60424938266E+01 0.61912639710E+01 0.63901190711E+01 0.66258291731E+01 0.68722761794E+01
 0.70978975027E+01 0.72751393956E+01 0.73864689648E+01 0.74241732448E+01 0.73864402881E+01
 0.72751131449E+01 0.70979016420E+01 0.68723082982E+01 0.66258618124E+01 0.63901236942E+01
 0.61912316123E+01 0.60424429463E+01 0.59425276336E+01 0.58801386428E+01 0.58412777067E+01
 0.58158406455E+01 0.58000891771E+01 0.57945562202E+01 0.58000672704E+01 0.58158020016E+01
 0.58412425051E+01 0.48718626655E+01 0.50686148169E+01 0.53180899748E+01 0.56222566625E+01
 0.59732824578E+01 0.63498386174E+01 0.67182475483E+01 0.70389196369E+01 0.72751448163E+01
 0.74001023246E+01 0.74000875590E+01 0.72751131449E+01 0.70388970299E+01 0.67182513581E+01
 0.63498670545E+01 0.59733184447E+01 0.56222771018E+01 0.53180778900E+01 0.50685728666E+01
 0.48718158240E+01 0.47216319775E+01 0.46121412334E+01 0.45398864633E+01 0.45037547278E+01
 0.45037410324E+01 0.45398590400E+01 0.46121292282E+01 0.47216540548E+01 0.41743576327E+01
 0.44819214758E+01 0.48535143273E+01 0.52858530526E+01 0.57637751773E+01 0.62563033962E+01
 0.67182647488E+01 0.70979226948E+01 0.73478398692E+01 0.74350552782E+01 0.73478235177E+01
 0.70979016420E+01 0.67182513581E+01 0.62563028462E+01 0.57637875926E+01 0.52858767488E+01
 0.48535422517E+01 0.44819387290E+01 0.41743509326E+01 0.39283246227E+01 0.37403672974E+01
 0.36078475085E+01 0.35290509083E+01 0.35029140890E+01 0.35290572355E+01 0.36078671420E+01
 0.37403992263E+01 0.39283528498E+01 0.37314504402E+01 0.41399307545E+01 0.46238283864E+01
 0.51736243090E+01 0.57637911716E+01 0.63498714731E+01 0.68723173221E+01 0.72671045959E+01
 0.74800313661E+01 0.74800263756E+01 0.72670937403E+01 0.68723082982E+01 0.63498670545E+01
 0.57637875926E+01 0.51736195706E+01 0.46238293866E+01 0.41399469560E+01 0.37314795601E+01
 0.33985121491E+01 0.31378375503E+01 0.29461271583E+01 0.28205125671E+01 0.27585103598E+01
 0.27585217143E+01 0.28205380211E+01 0.29461466533E+01 0.31378344742E+01 0.33984873397E+01
 0.35142201509E+01 0.40267810459E+01 0.46238341558E+01 0.52858701881E+01 0.59733135027E+01
 0.66258668820E+01 0.71697186341E+01 0.75321721723E+01 0.76595842626E+01 0.75321638856E+01
 0.71697075027E+01 0.66258618124E+01 0.59733184447E+01 0.52858767488E+01 0.46238293866E+01
 0.40267653084E+01 0.35142108238E+01 0.30913896188E+01 0.27560843295E+01 0.25035082852E+01
 0.23284494211E+01 0.22259854988E+01 0.21923230879E+01 0.22259900307E+01 0.23284445323E+01
 0.25034859734E+01 0.27560566193E+01 0.30913774036E+01 0.35142241105E+01 0.41399354016E+01
 0.48535196433E+01 0.56222675667E+01 0.63901345215E+01 0.70800434519E+01 0.76056295293E+01
 0.78908309801E+01 0.78908280838E+01 0.76056184497E+01 0.70800256010E+01 0.63901236942E+01
 0.56222771018E+01 0.48535422517E+01 0.41399469560E+01 0.35142108238E+01 0.29901535428E+01
 0.25694515032E+01 0.22474118988E+01 0.20165840860E+01 0.18688335747E+01 0.17970647834E+01
 0.17970590285E+01 0.18688175661E+01 0.20165651141E+01 0.22474045414E+01 0.25694654967E+01
 0.29901791029E+01 0.37314528375E+01 0.44819160754E+01 0.53180802766E+01 0.61912553068E+01
 0.70259700359E+01 0.77268081815E+01 0.81967663270E+01 0.83625503093E+01 0.81967728032E+01
 0.77268046400E+01 0.70259485099E+01 0.61912316123E+01 0.53180778900E+01 0.44819387290E+01
 0.37314795601E+01 0.30913896188E+01 0.25694515032E+01 0.21632326737E+01 0.18646355518E+01
 0.16629010970E+01 0.15472636784E+01 0.15097061774E+01 0.15472572980E+01 0.16628992729E+01
 0.18646482811E+01 0.21632561308E+01 0.25694677572E+01 0.30913824849E+01 0.41743497293E+01
 0.50686000479E+01 0.60424775728E+01 0.70259650952E+01 0.79186235293E+01 0.86042657936E+01
 0.89783021206E+01 0.89783153665E+01 0.86042928566E+01 0.79186378198E+01 0.70259502856E+01
 0.60424429463E+01 0.50685728666E+01 0.41743509326E+01 0.33985121491E+01 0.27560843295E+01
 0.22474118988E+01 0.18646355518E+01 0.15955183411E+01 0.14263765547E+01 0.13452917393E+01
 0.13452940332E+01 0.14263858736E+01 0.15955348389E+01 0.18646480957E+01 0.22474053675E+01
 0.27560581773E+01 0.33984865584E+01 0.48718563884E+01 0.59425563958E+01 0.70800252345E+01
 0.81834281127E+01 0.91203677526E+01 0.97534255604E+01 0.99775946545E+01 0.97534480023E+01
 0.91204029911E+01 0.81834570071E+01 0.70800276124E+01 0.59425276336E+01 0.48718158240E+01
 0.39283246227E+01 0.31378375503E+01 0.25035082852E+01 0.20165840860E+01 0.16629010970E+01
 0.14263765547E+01 0.12918678625E+01 0.12483805745E+01 0.12918733708E+01 0.14263826803E+01
 0.16628979660E+01 0.20165655329E+01 0.25034841761E+01 0.31378304938E+01 0.39283478376E+01
 0.58801415046E+01 0.71696845516E+01 0.84950837944E+01 0.97135115964E+01 0.10657172082E+02
 0.11174319854E+02 0.11174321275E+02 0.10657180192E+02 0.97135322836E+01 0.84951134859E+01
 0.71697064899E+01 0.58801386428E+01 0.47216319775E+01 0.37403672974E+01 0.29461271583E+01
 0.23284494211E+01 0.18688335747E+01 0.15472636784E+01 0.13452917393E+01 0.12483805745E+01
 0.12483792589E+01 0.13452867196E+01 0.15472532762E+01 0.18688204304E+01 0.23284440930E+01
 0.29461409986E+01 0.37403976135E+01 0.47216586777E+01 0.72670650447E+01 0.88060666611E+01
 0.10312966448E+02 0.11597907137E+02 0.12468379756E+02 0.12777188949E+02 0.12468375952E+02
 0.11597900915E+02 0.10312966307E+02 0.88060825090E+01 0.72670930823E+01 0.58412777067E+01
 0.46121412334E+01 0.36078475085E+01 0.28205125671E+01 0.22259854988E+01 0.17970647834E+01
 0.15097061774E+01 0.13452940332E+01 0.12918733708E+01 0.13452867196E+01 0.15096975960E+01
 0.17970626872E+01 0.22259948266E+01 0.28205313239E+01 0.36078640725E+01 0.46121404505E+01
 0.58412559909E+01 0.90672722107E+01 0.10834111707E+02 0.12458857740E+02 0.13719614574E+02
 0.14411336818E+02 0.14411344430E+02 0.13719626676E+02 0.12458857713E+02 0.10834100412E+02
 0.90672659805E+01 0.73478263188E+01 0.58158406455E+01 0.45398864633E+01 0.35290509083E+01
 0.27585103598E+01 0.21923230879E+01 0.17970590285E+01 0.15472572980E+01 0.14263858736E+01
 0.14263826803E+01 0.15472532762E+01 0.17970626872E+01 0.21923335810E+01 0.27585178173E+01
 0.35290465273E+01 0.45398699136E+01 0.58158210115E+01 0.73478168550E+01 0.11225944180E+02
 0.13151932194E+02 0.14784447199E+02 0.15880429205E+02 0.16266408736E+02 0.15880446568E+02
 0.14784469767E+02 0.13151944451E+02 0.11225937293E+02 0.92492027247E+01 0.74000899070E+01
 0.58000891771E+01 0.45037547278E+01 0.35029140890E+01 0.27585217143E+01 0.22259900307E+01
 0.18688175661E+01 0.16628992729E+01 0.15955348389E+01 0.16628979660E+01 0.18688204304E+01
 0.22259948266E+01 0.27585178173E+01 0.35028992185E+01 0.45037427487E+01 0.58000950185E+01
 0.74001120325E+01 0.92492249709E+01 0.13624103012E+02 0.15542360980E+02 0.16970788824E+02
 0.17727210682E+02 0.17727197681E+02 0.16970767954E+02 0.15542361999E+02 0.13624126406E+02
 0.11474502608E+02 0.93506192617E+01 0.74241711935E+01 0.57945562202E+01 0.45037410324E+01
 0.35290572355E+01 0.28205380211E+01 0.23284445323E+01 0.20165651141E+01 0.18646482811E+01
 0.18646480957E+01 0.20165655329E+01 0.23284440930E+01 0.28205313239E+01 0.35290465273E+01
 0.45037427487E+01 0.57945831333E+01 0.74242094742E+01 0.93506373406E+01 0.11474488042E+02
 0.15969514188E+02 0.17587685449E+02 0.18577486472E+02 0.18905403287E+02 0.18577418538E+02
 0.17587615256E+02 0.15969500655E+02 0.13879318007E+02 0.11590710638E+02 0.93825505737E+01
 0.74241824894E+01 0.58000672704E+01 0.45398590400E+01 0.36078671420E+01 0.29461466533E+01
 0.25034859734E+01 0.22474045414E+01 0.21632561308E+01 0.22474053675E+01 0.25034841761E+01
 0.29461409986E+01 0.36078640725E+01 0.45398699136E+01 0.58000950185E+01 0.74242094742E+01
 0.93825481483E+01 0.11590672194E+02 0.13879280139E+02 0.17825398784E+02 0.18865291218E+02
 0.19324613124E+02 0.19324580209E+02 0.18865221398E+02 0.17825348506E+02 0.16140744868E+02
 0.13956907061E+02 0.11590712303E+02 0.93506556758E+01 0.74001043325E+01 0.58158020016E+01
 0.46121292282E+01 0.37403992263E+01 0.31378344742E+01 0.27560566193E+01 0.25694654967E+01
 0.25694677572E+01 0.27560581773E+01 0.31378304938E+01 0.37403976135E+01 0.46121404505E+01
 0.58158210115E+01 0.74001120325E+01 0.93506373406E+01 0.11590672194E+02 0.13956870390E+02
 0.16140745096E+02 0.18875014974E+02 0.19268305978E+02 0.19348358482E+02 0.19268308278E+02
 0.18875018616E+02 0.17872924704E+02 0.16140746256E+02 0.13879289814E+02 0.11474508587E+02
 0.92492410037E+01 0.73478137382E+01 0.58412425051E+01 0.47216540548E+01 0.39283528498E+01
 0.33984873397E+01 0.30913774036E+01 0.29901791029E+01 0.30913824849E+01 0.33984865584E+01
 0.39283478376E+01 0.47216586777E+01 0.58412559909E+01 0.73478168550E+01 0.92492249709E+01
 0.11474488042E+02 0.13879280139E+02 0.16140745096E+02 0.17872922944E+02 0.17648992535E+02
 0.17294678057E+02 0.17649070307E+02 0.18345626283E+02 0.18596635127E+02 0.17825392367E+02
 0.16042413631E+02 0.13711609381E+02 0.11349435561E+02 0.92484133457E+01 0.75321343719E+01
 0.62402381490E+01 0.53218144332E+01 0.47073579465E+01 0.43500136863E+01 0.42318815865E+01
 0.43500298553E+01 0.47073689774E+01 0.53218104257E+01 0.62402288202E+01 0.75321251973E+01
 0.92484011459E+01 0.11349430525E+02 0.13711630915E+02 0.16042452381E+02 0.17825401528E+02
 0.18596578755E+02 0.18345526030E+02 0.17294678057E+02 0.17294686417E+02 0.18048635238E+02
 0.18851171381E+02 0.18865301738E+02 0.17730625060E+02 0.15704149703E+02 0.13337663384E+02
 0.11079051346E+02 0.91340952039E+01 0.76056247000E+01 0.64856424701E+01 0.57075224231E+01
 0.52107739373E+01 0.49657194277E+01 0.49657282535E+01 0.52107889375E+01 0.57075256492E+01
 0.64856320188E+01 0.76056105186E+01 0.91340837801E+01 0.11079046332E+02 0.13337670544E+02
 0.15704167378E+02 0.17730637363E+02 0.18865294113E+02 0.18851148188E+02 0.18048613367E+02
 0.17649070307E+02 0.18048635238E+02 0.18875975051E+02 0.19324603638E+02 0.18780892873E+02
 0.17208938946E+02 0.15036407555E+02 0.12768501842E+02 0.10710994504E+02 0.90136146857E+01
 0.77268346737E+01 0.68040229375E+01 0.61792588155E+01 0.58113825818E+01 0.56887983670E+01
 0.58113987975E+01 0.61792753023E+01 0.68040247983E+01 0.77268207289E+01 0.90135943315E+01
 0.10710978020E+02 0.12768494377E+02 0.15036407628E+02 0.17208941805E+02 0.18780897920E+02
 0.19324616175E+02 0.18875996068E+02 0.18048653029E+02 0.18345626283E+02 0.18851171381E+02
 0.19324603638E+02 0.19132926386E+02 0.18014923883E+02 0.16185655303E+02 0.14083702557E+02
 0.12063155070E+02 0.10313151421E+02 0.89361444742E+01 0.79186533828E+01 0.72000963180E+01
 0.67317638110E+01 0.64967528592E+01 0.64967649159E+01 0.67317920312E+01 0.72001214833E+01
 0.79186578646E+01 0.89361258482E+01 0.10313124083E+02 0.12063137347E+02 0.14083702663E+02
 0.16185667995E+02 0.18014935585E+02 0.19132923108E+02 0.19324581159E+02 0.18851142403E+02
 0.18345612898E+02 0.18596635127E+02 0.18865301738E+02 0.18780892873E+02 0.18014923883E+02
 0.16592307214E+02 0.14807277426E+02 0.12982010993E+02 0.11323368740E+02 0.99672318979E+01
 0.89361408313E+01 0.81834403354E+01 0.76583830733E+01 0.73395713669E+01 0.72313311696E+01
 0.73395941281E+01 0.76584193854E+01 0.81834692630E+01 0.89361425551E+01 0.99672083359E+01
 0.11323343158E+02 0.12982005428E+02 0.14807295316E+02 0.16592332285E+02 0.18014926752E+02
 0.18780848626E+02 0.18865219689E+02 0.18596567441E+02 0.18435208308E+02 0.17825392367E+02
 0.17730625060E+02 0.17208938946E+02 0.16185655303E+02 0.14807277426E+02 0.13308241437E+02
 0.11878421919E+02 0.10666076486E+02 0.97210589878E+01 0.90136097009E+01 0.84950818448E+01
 0.81402204591E+01 0.79550800776E+01 0.79550849932E+01 0.81402398082E+01 0.84951141733E+01
 0.90136339980E+01 0.97210565640E+01 0.10666055824E+02 0.11878405844E+02 0.13308239361E+02
 0.14807282585E+02 0.16185656999E+02 0.17208925283E+02 0.17730588274E+02 0.17825346214E+02
 0.17755066663E+02 0.17755088391E+02 0.16042413631E+02 0.15704149703E+02 0.15036407555E+02
 0.14083702557E+02 0.12982010993E+02 0.11878421919E+02 0.10913946793E+02 0.10150395048E+02
 0.95721962432E+01 0.91340950015E+01 0.88060642716E+01 0.85922663358E+01 0.85166186524E+01
 0.85922591779E+01 0.88060730523E+01 0.91341233390E+01 0.95722189816E+01 0.10150396459E+02
 0.10913937602E+02 0.11878411200E+02 0.12981990661E+02 0.14083671689E+02 0.15036387369E+02
 0.15704158886E+02 0.16042443542E+02 0.16140742732E+02 0.16149114098E+02 0.16140718200E+02
 0.13711609381E+02 0.13337663384E+02 0.12768501842E+02 0.12063155070E+02 0.11323368740E+02
 0.10666076486E+02 0.10150395048E+02 0.97695572703E+01 0.94811756998E+01 0.92484125362E+01
 0.90672770833E+01 0.89634211037E+01 0.89634066331E+01 0.90672576002E+01 0.92484222789E+01
 0.94812088768E+01 0.97695835575E+01 0.10150404994E+02 0.10666080108E+02 0.11323363394E+02
 0.12063128825E+02 0.12768465144E+02 0.13337648089E+02 0.13711630993E+02 0.13896318719E+02
 0.13956903559E+02 0.13956885457E+02 0.13896281051E+02 0.11349435561E+02 0.11079051346E+02
 0.10710994504E+02 0.10313151421E+02 0.99672318979E+01 0.97210589878E+01 0.95721962432E+01
 0.94811756998E+01 0.94035683801E+01 0.93208011555E+01 0.92492383109E+01 0.92204039478E+01
 0.92492082527E+01 0.93207826738E+01 0.94035868281E+01 0.94812118982E+01 0.95722215980E+01
 0.97210707971E+01 0.99672418245E+01 0.10313160761E+02 0.10710995859E+02 0.11079041896E+02
 0.11349417907E+02 0.11506828935E+02 0.11574415530E+02 0.11590707617E+02 0.11574430857E+02
 0.11506849966E+02 0.92484133457E+01 0.91340952039E+01 0.90136146857E+01 0.89361444742E+01
 0.89361408313E+01 0.90136097009E+01 0.91340950015E+01 0.92484125362E+01 0.93208011555E+01
 0.93474808124E+01 0.93506537419E+01 0.93506339996E+01 0.93474439884E+01 0.93207871136E+01
 0.92484333443E+01 0.91341279435E+01 0.90136283913E+01 0.89361416234E+01 0.89361444744E+01
 0.90136310065E+01 0.91341243297E+01 0.92484293757E+01 0.93207889392E+01 0.93474462671E+01
 0.93506314243E+01 0.93506525012E+01 0.93474866798E+01 0.93208077749E+01 0.75321343719E+01
 0.76056247000E+01 0.77268346737E+01 0.79186533828E+01 0.81834403354E+01 0.84950818448E+01
 0.88060642716E+01 0.90672770833E+01 0.92492383109E+01 0.93506537419E+01 0.93825532664E+01
 0.93506211956E+01 0.92492000320E+01 0.90672640466E+01 0.88060852017E+01 0.84951154198E+01
 0.81834543143E+01 0.79186358859E+01 0.77268073327E+01 0.76056203836E+01 0.75321611929E+01
 0.74800244417E+01 0.74350579709E+01 0.74001042585E+01 0.73864662720E+01 0.74001036394E+01
 0.74350412581E+01 0.74799902505E+01 0.62402381490E+01 0.64856424701E+01 0.68040229375E+01
 0.72000963180E+01 0.76583830733E+01 0.81402204591E+01 0.85922663358E+01 0.89634211037E+01
 0.92204039478E+01 0.93506339996E+01 0.93506211956E+01 0.92203714211E+01 0.89633872942E+01
 0.85922558292E+01 0.81402438004E+01 0.76584211781E+01 0.72001131198E+01 0.68039987683E+01
 0.64855936008E+01 0.62402022584E+01 0.60535469598E+01 0.59133461012E+01 0.58158471053E+01
 0.57647285870E+01 0.57647090538E+01 0.58158018842E+01 0.59133070457E+01 0.60535432409E+01
 0.53218144332E+01 0.57075224231E+01 0.61792588155E+01 0.67317638110E+01 0.73395713669E+01
 0.79550800776E+01 0.85166186524E+01 0.89634066331E+01 0.92492082527E+01 0.93474439884E+01
 0.92492000320E+01 0.89633872942E+01 0.85165947825E+01 0.79550697979E+01 0.73395877433E+01
 0.67317987601E+01 0.61792863183E+01 0.57075182752E+01 0.53217765695E+01 0.50157362964E+01
 0.47808364143E+01 0.46121395606E+01 0.45094218307E+01 0.44747782727E+01 0.45094015800E+01
 0.46121288835E+01 0.47808591777E+01 0.50157829675E+01 0.47073579465E+01 0.52107739373E+01
 0.58113825818E+01 0.64967528592E+01 0.72313311696E+01 0.79550849932E+01 0.85922591779E+01
 0.90672576002E+01 0.93207826738E+01 0.93207871136E+01 0.90672640466E+01 0.85922558292E+01
 0.79550697979E+01 0.72313150699E+01 0.64967511323E+01 0.58114033576E+01 0.52108094487E+01
 0.47073854142E+01 0.42989733616E+01 0.39785356855E+01 0.37403634747E+01 0.35818344541E+01
 0.35024743603E+01 0.35024816931E+01 0.35818583767E+01 0.37404000934E+01 0.39785655172E+01
 0.42989749650E+01 0.43500136863E+01 0.49657194277E+01 0.56887983670E+01 0.64967649159E+01
 0.73395941281E+01 0.81402398082E+01 0.88060730523E+01 0.92484222789E+01 0.94035868281E+01
 0.92484333443E+01 0.88060852017E+01 0.81402438004E+01 0.73395877433E+01 0.64967511323E+01
 0.56887851202E+01 0.49657199762E+01 0.43500369395E+01 0.38445706071E+01 0.34430283385E+01
 0.31378360078E+01 0.29233870807E+01 0.27961306703E+01 0.27539661748E+01 0.27961507545E+01
 0.29234086105E+01 0.31378365090E+01 0.34430016737E+01 0.38445337121E+01 0.42318815865E+01
 0.49657282535E+01 0.58113987975E+01 0.67317920312E+01 0.76584193854E+01 0.84951141733E+01
 0.91341233390E+01 0.94812088768E+01 0.94812118982E+01 0.91341279435E+01 0.84951154198E+01
 0.76584211781E+01 0.67317987601E+01 0.58114033576E+01 0.49657199762E+01 0.42318648102E+01
 0.36217966671E+01 0.31326971787E+01 0.27560850152E+01 0.24830198965E+01 0.23059034733E+01
 0.22189721511E+01 0.22189715306E+01 0.23058961235E+01 0.24829989705E+01 0.27560575404E+01
 0.31326817588E+01 0.36218030639E+01 0.43500298553E+01 0.52107889375E+01 0.61792753023E+01
 0.72001214833E+01 0.81834692630E+01 0.90136339980E+01 0.95722189816E+01 0.97695835575E+01
 0.95722215980E+01 0.90136283913E+01 0.81834543143E+01 0.72001131198E+01 0.61792863183E+01
 0.52108094487E+01 0.43500369395E+01 0.36217966671E+01 0.30304032721E+01 0.25694527868E+01
 0.22283281464E+01 0.19955839894E+01 0.18608969375E+01 0.18168965732E+01 0.18608826314E+01
 0.19955652868E+01 0.22283201902E+01 0.25694648154E+01 0.30304276488E+01 0.36218123437E+01
 0.47073689774E+01 0.57075256492E+01 0.68040247983E+01 0.79186578646E+01 0.89361425551E+01
 0.97210565640E+01 0.10150396459E+02 0.10150404994E+02 0.97210707971E+01 0.89361416234E+01
 0.79186358859E+01 0.68039987683E+01 0.57075182752E+01 0.47073854142E+01 0.38445706071E+01
 0.31326971787E+01 0.25694527868E+01 0.21446438461E+01 0.18446046499E+01 0.16550099298E+01
 0.15637249480E+01 0.15637226211E+01 0.16550097624E+01 0.18446171019E+01 0.21446661467E+01
 0.25694675990E+01 0.31326902649E+01 0.38445477596E+01 0.53218104257E+01 0.64856320188E+01
 0.77268207289E+01 0.89361258482E+01 0.99672083359E+01 0.10666055824E+02 0.10913937602E+02
 0.10666080108E+02 0.99672418245E+01 0.89361444744E+01 0.77268073327E+01 0.64855936008E+01
 0.53217765695E+01 0.42989733616E+01 0.34430283385E+01 0.27560850152E+01 0.22283281464E+01
 0.18446046499E+01 0.15877817494E+01 0.14416513351E+01 0.13943944632E+01 0.14416601351E+01
 0.15877985433E+01 0.18446189374E+01 0.22283234448E+01 0.27560590944E+01 0.34430033597E+01
 0.42989764616E+01 0.62402288202E+01 0.76056105186E+01 0.90135943315E+01 0.10313124083E+02
 0.11323343158E+02 0.11878405844E+02 0.11878411200E+02 0.11323363394E+02 0.10313160761E+02
 0.90136310065E+01 0.76056203836E+01 0.62402022584E+01 0.50157362964E+01 0.39785356855E+01
 0.31378360078E+01 0.24830198965E+01 0.19955839894E+01 0.16550099298E+01 0.14416513351E+01
 0.13395313670E+01 0.13395340208E+01 0.14416562790E+01 0.16550088909E+01 0.19955700921E+01
 0.24829996925E+01 0.31378304163E+01 0.39785597599E+01 0.50157778763E+01 0.75321251973E+01
 0.91340837801E+01 0.10710978020E+02 0.12063137347E+02 0.12982005428E+02 0.13308239361E+02
 0.12981990661E+02 0.12063128825E+02 0.10710995859E+02 0.91341243297E+01 0.75321611929E+01
 0.60535469598E+01 0.47808364143E+01 0.37403634747E+01 0.29233870807E+01 0.23059034733E+01
 0.18608969375E+01 0.15637249480E+01 0.13943944632E+01 0.13395340208E+01 0.13943890169E+01
 0.15637140487E+01 0.18608848524E+01 0.23059010275E+01 0.29234043521E+01 0.37403959336E+01
 0.47808613872E+01 0.60535413401E+01 0.92484011459E+01 0.11079046332E+02 0.12768494377E+02
 0.14083702663E+02 0.14807295316E+02 0.14807282585E+02 0.14083671689E+02 0.12768465144E+02
 0.11079041896E+02 0.92484293757E+01 0.74800244417E+01 0.59133461012E+01 0.46121395606E+01
 0.35818344541E+01 0.27961306703E+01 0.22189721511E+01 0.18168965732E+01 0.15637226211E+01
 0.14416601351E+01 0.14416562790E+01 0.15637140487E+01 0.18168913605E+01 0.22189791058E+01
 0.27961507570E+01 0.35818545542E+01 0.46121391747E+01 0.59133163723E+01 0.74799808862E+01
 0.11349430525E+02 0.13337670544E+02 0.15036407628E+02 0.16185667995E+02 0.16592332285E+02
 0.16185656999E+02 0.15036387369E+02 0.13337648089E+02 0.11349417907E+02 0.93207889392E+01
 0.74350579709E+01 0.58158471053E+01 0.45094218307E+01 0.35024743603E+01 0.27539661748E+01
 0.22189715306E+01 0.18608826314E+01 0.16550097624E+01 0.15877985433E+01 0.16550088909E+01
 0.18608848524E+01 0.22189791058E+01 0.27539745566E+01 0.35024739354E+01 0.45094062755E+01
 0.58158209032E+01 0.74350351037E+01 0.93207826369E+01 0.13711630915E+02 0.15704167378E+02
 0.17208941805E+02 0.18014935585E+02 0.18014926752E+02 0.17208925283E+02 0.15704158886E+02
 0.13711630993E+02 0.11506828935E+02 0.93474462671E+01 0.74001042585E+01 0.57647285870E+01
 0.44747782727E+01 0.35024816931E+01 0.27961507545E+01 0.23058961235E+01 0.19955652868E+01
 0.18446171019E+01 0.18446189374E+01 0.19955700921E+01 0.23059010275E+01 0.27961507570E+01
 0.35024739354E+01 0.44747675671E+01 0.57647250199E+01 0.74001116184E+01 0.93474561074E+01
 0.11506831846E+02 0.16042452381E+02 0.17730637363E+02 0.18780897920E+02 0.19132923108E+02
 0.18780848626E+02 0.17730588274E+02 0.16042443542E+02 0.13896318719E+02 0.11574415530E+02
 0.93506314243E+01 0.73864662720E+01 0.57647090538E+01 0.45094015800E+01 0.35818583767E+01
 0.29234086105E+01 0.24829989705E+01 0.22283201902E+01 0.21446661467E+01 0.22283234448E+01
 0.24829996925E+01 0.29234043521E+01 0.35818545542E+01 0.45094062755E+01 0.57647250199E+01
 0.73864853902E+01 0.93506366993E+01 0.11574397852E+02 0.13896296512E+02 0.17825401528E+02
 0.18865294113E+02 0.19324616175E+02 0.19324581159E+02 0.18865219689E+02 0.17825346214E+02
 0.16140742732E+02 0.13956903559E+02 0.11590707617E+02 0.93506525012E+01 0.74001036394E+01
 0.58158018842E+01 0.46121288835E+01 0.37404000934E+01 0.31378365090E+01 0.27560575404E+01
 0.25694648154E+01 0.25694675990E+01 0.27560590944E+01 0.31378304163E+01 0.37403959336E+01
 0.46121391747E+01 0.58158209032E+01 0.74001116184E+01 0.93506366993E+01 0.11590673646E+02
 0.13956874323E+02 0.16140749022E+02 0.18596578755E+02 0.18851148188E+02 0.18875996068E+02
 0.18851142403E+02 0.18596567441E+02 0.17755066663E+02 0.16149114098E+02 0.13956885457E+02
 0.11574430857E+02 0.93474866798E+01 0.74350412581E+01 0.59133070457E+01 0.47808591777E+01
 0.39785655172E+01 0.34430016737E+01 0.31326817588E+01 0.30304276488E+01 0.31326902649E+01
 0.34430033597E+01 0.39785597599E+01 0.47808613872E+01 0.59133163723E+01 0.74350351037E+01
 0.93474561074E+01 0.11574397852E+02 0.13956874323E+02 0.16149124087E+02 0.17755082075E+02
 0.18345526030E+02 0.18048613367E+02 0.18048653029E+02 0.18345612898E+02 0.18435208308E+02
 0.17755088391E+02 0.16140718200E+02 0.13896281051E+02 0.11506849966E+02 0.93208077749E+01
 0.74799902505E+01 0.60535432409E+01 0.50157829675E+01 0.42989749650E+01 0.38445337121E+01
 0.36218030639E+01 0.36218123437E+01 0.38445477596E+01 0.42989764616E+01 0.50157778763E+01
 0.60535413401E+01 0.74799808862E+01 0.93207826369E+01 0.11506831846E+02 0.13896296512E+02
 0.16140749022E+02 0.17755082075E+02 0.18435141691E+02 0.15881979636E+02 0.15882020246E+02
 0.16994443419E+02 0.18345620460E+02 0.18875061270E+02 0.18074174389E+02 0.16179192494E+02
 0.13808839605E+02 0.11492909399E+02 0.94811744448E+01 0.78908283258E+01 0.67253544022E+01
 0.59176481499E+01 0.54033268265E+01 0.51499443902E+01 0.51499529483E+01 0.54033447422E+01
 0.59176602625E+01 0.67253519053E+01 0.78908139793E+01 0.94811606330E+01 0.11492913289E+02
 0.13808870372E+02 0.16179234441E+02 0.18074188464E+02 0.18875015653E+02 0.18345523966E+02
 0.16994346220E+02 0.15882020246E+02 0.16549527499E+02 0.18048603816E+02 0.19268316756E+02
 0.19313884802E+02 0.18033042408E+02 0.15903477402E+02 0.13551864108E+02 0.11381585961E+02
 0.95721943127E+01 0.81967965201E+01 0.72134206204E+01 0.65506085888E+01 0.61614820059E+01
 0.60319474616E+01 0.61614851234E+01 0.65506153408E+01 0.72134253618E+01 0.81967916604E+01
 0.95721841178E+01 0.11381585922E+02 0.13551880387E+02 0.15903494953E+02 0.18033042391E+02
 0.19313869418E+02 0.19268306740E+02 0.18048611234E+02 0.16549540578E+02 0.16994443419E+02
 0.18048603816E+02 0.19348321817E+02 0.19904571104E+02 0.19228006685E+02 0.17514850767E+02
 0.15324056844E+02 0.13147289156E+02 0.11235958238E+02 0.97210615914E+01 0.86043077084E+01
 0.78202469875E+01 0.73115652482E+01 0.70567520574E+01 0.70567493043E+01 0.73115643746E+01
 0.78202551366E+01 0.86043155667E+01 0.97210580206E+01 0.11235949935E+02 0.13147288714E+02
 0.15324059934E+02 0.17514844184E+02 0.19227995422E+02 0.19904578560E+02 0.19348359152E+02
 0.18048650647E+02 0.16994464662E+02 0.18345620460E+02 0.19268316756E+02 0.19904571104E+02
 0.19638023580E+02 0.18390743911E+02 0.16531980194E+02 0.14525621565E+02 0.12670516621E+02
 0.11134532654E+02 0.99672313267E+01 0.91203934660E+01 0.85328107929E+01 0.81765298378E+01
 0.80554727699E+01 0.81765254022E+01 0.85328179517E+01 0.91204136124E+01 0.99672455567E+01
 0.11134530671E+02 0.12670509297E+02 0.14525619837E+02 0.16531981091E+02 0.18390742433E+02
 0.19638020668E+02 0.19904565473E+02 0.19268305015E+02 0.18345608684E+02 0.17919071296E+02
 0.18875061270E+02 0.19313884802E+02 0.19228006685E+02 0.18390743911E+02 0.16961397598E+02
 0.15285530194E+02 0.13649813878E+02 0.12237735596E+02 0.11134528259E+02 0.10313142812E+02
 0.97135176538E+01 0.93022992393E+01 0.90866493975E+01 0.90866407583E+01 0.93022896214E+01
 0.97135293568E+01 0.10313169497E+02 0.11134547444E+02 0.12237740729E+02 0.13649814144E+02
 0.15285530623E+02 0.16961396512E+02 0.18390738765E+02 0.19227989199E+02 0.19313845315E+02
 0.18875011941E+02 0.18435203342E+02 0.18435226724E+02 0.18074174389E+02 0.18033042408E+02
 0.17514850767E+02 0.16531980194E+02 0.15285530194E+02 0.13998363798E+02 0.12845504213E+02
 0.11928112174E+02 0.11235952501E+02 0.10710986385E+02 0.10312969810E+02 0.10049048314E+02
 0.99546241029E+01 0.10049016894E+02 0.10312946048E+02 0.10710996063E+02 0.11235982933E+02
 0.11928140324E+02 0.12845521181E+02 0.13998366061E+02 0.15285513641E+02 0.16531952912E+02
 0.17514831710E+02 0.18033039169E+02 0.18074177371E+02 0.17872919279E+02 0.17755085258E+02
 0.17872918319E+02 0.16179192494E+02 0.15903477402E+02 0.15324056844E+02 0.14525621565E+02
 0.13649813878E+02 0.12845504213E+02 0.12210017560E+02 0.11741435418E+02 0.11381586511E+02
 0.11079049763E+02 0.10834118314E+02 0.10691136180E+02 0.10691109115E+02 0.10834066287E+02
 0.11079023425E+02 0.11381601994E+02 0.11741472865E+02 0.12210054972E+02 0.12845527456E+02
 0.13649808148E+02 0.14525583801E+02 0.15324014719E+02 0.15903471627E+02 0.16179234266E+02
 0.16202913640E+02 0.16140742739E+02 0.16140716819E+02 0.16202856684E+02 0.13808839605E+02
 0.13551864108E+02 0.13147289156E+02 0.12670516621E+02 0.12237735596E+02 0.11928112174E+02
 0.11741435418E+02 0.11618319884E+02 0.11492909342E+02 0.11349433439E+02 0.11225950459E+02
 0.11176357040E+02 0.11225907838E+02 0.11349389408E+02 0.11492899134E+02 0.11618343205E+02
 0.11741473180E+02 0.11928149542E+02 0.12237760724E+02 0.12670517208E+02 0.13147266439E+02
 0.13551840876E+02 0.13808840351E+02 0.13903453796E+02 0.13896303963E+02 0.13879285000E+02
 0.13896279738E+02 0.13903429084E+02 0.11492909399E+02 0.11381585961E+02 0.11235958238E+02
 0.11134532654E+02 0.11134528259E+02 0.11235952501E+02 0.11381586511E+02 0.11492909342E+02
 0.11529184686E+02 0.11506842822E+02 0.11474505370E+02 0.11474491368E+02 0.11506812750E+02
 0.11529162460E+02 0.11492909313E+02 0.11381605517E+02 0.11235979305E+02 0.11134555473E+02
 0.11134559076E+02 0.11235982673E+02 0.11381601151E+02 0.11492904592E+02 0.11529165038E+02
 0.11506815781E+02 0.11474488041E+02 0.11474503377E+02 0.11506849442E+02 0.11529192057E+02
 0.94811744448E+01 0.95721943127E+01 0.97210615914E+01 0.99672313267E+01 0.10313142812E+02
 0.10710986385E+02 0.11079049763E+02 0.11349433439E+02 0.11506842822E+02 0.11574427113E+02
 0.11590712493E+02 0.11574420444E+02 0.11506827656E+02 0.11349417538E+02 0.11079047304E+02
 0.10710999143E+02 0.10313156931E+02 0.99672390925E+01 0.97210745191E+01 0.95722237499E+01
 0.94812072022E+01 0.94035835468E+01 0.93207867072E+01 0.92492122823E+01 0.92204029594E+01
 0.92492399530E+01 0.93208098988E+01 0.94035752271E+01 0.78908283258E+01 0.81967965201E+01
 0.86043077084E+01 0.91203934660E+01 0.97135176538E+01 0.10312969810E+02 0.10834118314E+02
 0.11225950459E+02 0.11474505370E+02 0.11590712493E+02 0.11590716966E+02 0.11474506881E+02
 0.11225935599E+02 0.10834099934E+02 0.10312970439E+02 0.97135338874E+01 0.91203990830E+01
 0.86042910417E+01 0.81967763670E+01 0.78908295544E+01 0.76595804877E+01 0.74800301195E+01
 0.73478447698E+01 0.72751485012E+01 0.72751382898E+01 0.73478166799E+01 0.74799938854E+01
 0.76595539111E+01 0.67253544022E+01 0.72134206204E+01 0.78202469875E+01 0.85328107929E+01
 0.93022992393E+01 0.10049048314E+02 0.10691136180E+02 0.11176357040E+02 0.11474491368E+02
 0.11574420444E+02 0.11474506881E+02 0.11176362259E+02 0.10691119982E+02 0.10049031728E+02
 0.93023046671E+01 0.85328306070E+01 0.78202531114E+01 0.72133964254E+01 0.67253113609E+01
 0.63446903204E+01 0.60535542850E+01 0.58412889048E+01 0.57089174198E+01 0.56634992274E+01
 0.57088758036E+01 0.58412447266E+01 0.60535455798E+01 0.63447209125E+01 0.59176481499E+01
 0.65506085888E+01 0.73115652482E+01 0.81765298378E+01 0.90866493975E+01 0.99546241029E+01
 0.10691109115E+02 0.11225907838E+02 0.11506812750E+02 0.11506827656E+02 0.11225935599E+02
 0.10691119982E+02 0.99546100418E+01 0.90866291854E+01 0.81765258916E+01 0.73115823502E+01
 0.65506300233E+01 0.59176484876E+01 0.54104626360E+01 0.50157426542E+01 0.47216344947E+01
 0.45235576228E+01 0.44230883175E+01 0.44230804982E+01 0.45235512354E+01 0.47216547089E+01
 0.50157839664E+01 0.54104933539E+01 0.54033268265E+01 0.61614820059E+01 0.70567520574E+01
 0.80554727699E+01 0.90866407583E+01 0.10049016894E+02 0.10834066287E+02 0.11349389408E+02
 0.11529162460E+02 0.11349417538E+02 0.10834099934E+02 0.10049031728E+02 0.90866291854E+01
 0.80554467062E+01 0.70567348297E+01 0.61614928308E+01 0.54033623675E+01 0.47862453951E+01
 0.42989777872E+01 0.39283258506E+01 0.36657515882E+01 0.35081731458E+01 0.34555417128E+01
 0.35081951305E+01 0.36657879696E+01 0.39283551727E+01 0.42989764208E+01 0.47862131946E+01
 0.51499443902E+01 0.60319474616E+01 0.70567493043E+01 0.81765254022E+01 0.93022896214E+01
 0.10312946048E+02 0.11079023425E+02 0.11492899134E+02 0.11492909313E+02 0.11079047304E+02
 0.10312970439E+02 0.93023046671E+01 0.81765258916E+01 0.70567348297E+01 0.60319283006E+01
 0.51499402251E+01 0.44234947718E+01 0.38445713093E+01 0.33985150002E+01 0.30726384697E+01
 0.28588429672E+01 0.27528514310E+01 0.27528603329E+01 0.28588590196E+01 0.30726398149E+01
 0.33984908137E+01 0.38445351514E+01 0.44234726083E+01 0.51499529483E+01 0.61614851234E+01
 0.73115643746E+01 0.85328179517E+01 0.97135293568E+01 0.10710996063E+02 0.11381601994E+02
 0.11618343205E+02 0.11381605517E+02 0.10710999143E+02 0.97135338874E+01 0.85328306070E+01
 0.73115823502E+01 0.61614928308E+01 0.51499402251E+01 0.43035744179E+01 0.36217936656E+01
 0.30913915189E+01 0.26967890098E+01 0.24247572898E+01 0.22655869113E+01 0.22132247422E+01
 0.22655770261E+01 0.24247362266E+01 0.26967635713E+01 0.30913779946E+01 0.36218027338E+01
 0.43035964569E+01 0.54033447422E+01 0.65506153408E+01 0.78202551366E+01 0.91204136124E+01
 0.10313169497E+02 0.11235982933E+02 0.11741472865E+02 0.11741473180E+02 0.11235979305E+02
 0.10313156931E+02 0.91203990830E+01 0.78202531114E+01 0.65506300233E+01 0.54033623675E+01
 0.44234947718E+01 0.36217936656E+01 0.29901541332E+01 0.25131117222E+01 0.21740240362E+01
 0.19578646268E+01 0.18530074492E+01 0.18529997757E+01 0.19578490433E+01 0.21740164656E+01
 0.25131223664E+01 0.29901772063E+01 0.36218111283E+01 0.44234926433E+01 0.59176602625E+01
 0.72134253618E+01 0.86043155667E+01 0.99672455567E+01 0.11134547444E+02 0.11928140324E+02
 0.12210054972E+02 0.11928149542E+02 0.11134555473E+02 0.99672390925E+01 0.86042910417E+01
 0.72133964254E+01 0.59176484876E+01 0.47862453951E+01 0.38445713093E+01 0.30913915189E+01
 0.25131117222E+01 0.20917438088E+01 0.18085677238E+01 0.16467287296E+01 0.15942393451E+01
 0.16467316809E+01 0.18085807608E+01 0.20917651372E+01 0.25131248200E+01 0.30913824456E+01
 0.38445478786E+01 0.47862317890E+01 0.67253519053E+01 0.81967916604E+01 0.97210580206E+01
 0.11134530671E+02 0.12237740729E+02 0.12845521181E+02 0.12845527456E+02 0.12237760724E+02
 0.11134559076E+02 0.97210745191E+01 0.81967763670E+01 0.67253113609E+01 0.54104626360E+01
 0.42989777872E+01 0.33985150002E+01 0.26967890098E+01 0.21740240362E+01 0.18085677238E+01
 0.15795790373E+01 0.14699805264E+01 0.14699862389E+01 0.15795941867E+01 0.18085827699E+01
 0.21740228513E+01 0.26967656825E+01 0.33984883465E+01 0.42989773327E+01 0.54104957402E+01
 0.78908139793E+01 0.95721841178E+01 0.11235949935E+02 0.12670509297E+02 0.13649814144E+02
 0.13998366061E+02 0.13649808148E+02 0.12670517208E+02 0.11235982673E+02 0.95722237499E+01
 0.78908295544E+01 0.63446903204E+01 0.50157426542E+01 0.39283258506E+01 0.30726384697E+01
 0.24247572898E+01 0.19578646268E+01 0.16467287296E+01 0.14699805264E+01 0.14128453597E+01
 0.14699825580E+01 0.16467268374E+01 0.19578538757E+01 0.24247429310E+01 0.30726362991E+01
 0.39283472969E+01 0.50157774130E+01 0.63447098079E+01 0.94811606330E+01 0.11381585922E+02
 0.13147288714E+02 0.14525619837E+02 0.15285530623E+02 0.15285513641E+02 0.14525583801E+02
 0.13147266439E+02 0.11381601151E+02 0.94812072022E+01 0.76595804877E+01 0.60535542850E+01
 0.47216344947E+01 0.36657515882E+01 0.28588429672E+01 0.22655869113E+01 0.18530074492E+01
 0.15942393451E+01 0.14699862389E+01 0.14699825580E+01 0.15942281979E+01 0.18529933319E+01
 0.22655830783E+01 0.28588611147E+01 0.36657847057E+01 0.47216559155E+01 0.60535402579E+01
 0.76595347080E+01 0.11492913289E+02 0.13551880387E+02 0.15324059934E+02 0.16531981091E+02
 0.16961396512E+02 0.16531952912E+02 0.15324014719E+02 0.13551840876E+02 0.11492904592E+02
 0.94035835468E+01 0.74800301195E+01 0.58412889048E+01 0.45235576228E+01 0.35081731458E+01
 0.27528514310E+01 0.22132247422E+01 0.18529997757E+01 0.16467316809E+01 0.15795941867E+01
 0.16467268374E+01 0.18529933319E+01 0.22132254648E+01 0.27528656823E+01 0.35081910534E+01
 0.45235559599E+01 0.58412554023E+01 0.74799815734E+01 0.94035534718E+01 0.13808870372E+02
 0.15903494953E+02 0.17514844184E+02 0.18390742433E+02 0.18390738765E+02 0.17514831710E+02
 0.15903471627E+02 0.13808840351E+02 0.11529165038E+02 0.93207867072E+01 0.73478447698E+01
 0.57089174198E+01 0.44230883175E+01 0.34555417128E+01 0.27528603329E+01 0.22655770261E+01
 0.19578490433E+01 0.18085807608E+01 0.18085827699E+01 0.19578538757E+01 0.22655830783E+01
 0.27528656823E+01 0.34555397085E+01 0.44230703493E+01 0.57088861787E+01 0.73478189545E+01
 0.93207848448E+01 0.11529187094E+02 0.16179234441E+02 0.18033042391E+02 0.19227995422E+02
 0.19638020668E+02 0.19227989199E+02 0.18033039169E+02 0.16179234266E+02 0.13903453796E+02
 0.11506815781E+02 0.92492122823E+01 0.72751485012E+01 0.56634992274E+01 0.44230804982E+01
 0.35081951305E+01 0.28588590196E+01 0.24247362266E+01 0.21740164656E+01 0.20917651372E+01
 0.21740228513E+01 0.24247429310E+01 0.28588611147E+01 0.35081910534E+01 0.44230703493E+01
 0.56634881961E+01 0.72751476635E+01 0.92492263078E+01 0.11506833597E+02 0.13903461795E+02
 0.18074188464E+02 0.19313869418E+02 0.19904578560E+02 0.19904565473E+02 0.19313845315E+02
 0.18074177371E+02 0.16202913640E+02 0.13896303963E+02 0.11474488041E+02 0.92204029594E+01
 0.72751382898E+01 0.57088758036E+01 0.45235512354E+01 0.36657879696E+01 0.30726398149E+01
 0.26967635713E+01 0.25131223664E+01 0.25131248200E+01 0.26967656825E+01 0.30726362991E+01
 0.36657847057E+01 0.45235559599E+01 0.57088861787E+01 0.72751476635E+01 0.92204089830E+01
 0.11474488987E+02 0.13896298099E+02 0.16202909116E+02 0.18875015653E+02 0.19268306740E+02
 0.19348359152E+02 0.19268305015E+02 0.18875011941E+02 0.17872919279E+02 0.16140742739E+02
 0.13879285000E+02 0.11474503377E+02 0.92492399530E+01 0.73478166799E+01 0.58412447266E+01
 0.47216547089E+01 0.39283551727E+01 0.33984908137E+01 0.30913779946E+01 0.29901772063E+01
 0.30913824456E+01 0.33984883465E+01 0.39283472969E+01 0.47216559155E+01 0.58412554023E+01
 0.73478189545E+01 0.92492263078E+01 0.11474488987E+02 0.13879284474E+02 0.16140751905E+02
 0.17872927099E+02 0.18345523966E+02 0.18048611234E+02 0.18048650647E+02 0.18345608684E+02
 0.18435203342E+02 0.17755085258E+02 0.16140716819E+02 0.13896279738E+02 0.11506849442E+02
 0.93208098988E+01 0.74799938854E+01 0.60535455798E+01 0.50157839664E+01 0.42989764208E+01
 0.38445351514E+01 0.36218027338E+01 0.36218111283E+01 0.38445478786E+01 0.42989773327E+01
 0.50157774130E+01 0.60535402579E+01 0.74799815734E+01 0.93207848448E+01 0.11506833597E+02
 0.13896298099E+02 0.16140751905E+02 0.17755084951E+02 0.18435141919E+02 0.16994346220E+02
 0.16549540578E+02 0.16994464662E+02 0.17919071296E+02 0.18435226724E+02 0.17872918319E+02
 0.16202856684E+02 0.13903429084E+02 0.11529192057E+02 0.94035752271E+01 0.76595539111E+01
 0.63447209125E+01 0.54104933539E+01 0.47862131946E+01 0.44234726083E+01 0.43035964569E+01
 0.44234926433E+01 0.47862317890E+01 0.54104957402E+01 0.63447098079E+01 0.76595347080E+01
 0.94035534718E+01 0.11529187094E+02 0.13903461795E+02 0.16202909116E+02 0.17872927099E+02
 0.18435141919E+02 0.17918920930E+02  
augmentation occupancies   1  33
  0.2155759E+01 -0.1919617E+01 -0.7929993E-19  0.3922024E-19  0.2952582E-18
 -0.6695129E-21  0.5828213E-20 -0.4004290E-20  0.4509614E+00 -0.7726926E-19
  0.2611908E-19 -0.1178913E-18  0.2888682E-20 -0.9993094E-20  0.1889218E-19
  0.1333976E+01  0.1579929E-10 -0.1117180E-10 -0.1025638E-10  0.1117180E-10
 -0.7191256E-11  0.2225504E+00  0.2635827E-11 -0.1863813E-11 -0.1711125E-11
  0.1863813E-11 -0.1199726E-11  0.1057855E-01  0.1252894E-12 -0.8859310E-13
 -0.8133284E-13  0.8859309E-13 -0.5702631E-13
augmentation occupancies   2  33
  0.2155759E+01 -0.1919617E+01  0.6582518E-19  0.2286140E-19 -0.3875497E-18
  0.1114557E-20 -0.5282352E-20  0.3964243E-20  0.4509614E+00  0.7316392E-19
 -0.5450944E-19  0.1356040E-18 -0.5314094E-21  0.3270536E-20 -0.2093006E-19
  0.1333976E+01  0.1579929E-10 -0.1117180E-10 -0.1025654E-10  0.1117180E-10
 -0.7191257E-11  0.2225504E+00  0.2635827E-11 -0.1863813E-11 -0.1711090E-11
  0.1863813E-11 -0.1199706E-11  0.1057855E-01  0.1252894E-12 -0.8859310E-13
 -0.8133427E-13  0.8859310E-13 -0.5702685E-13
