       N       E                     dE             d eps       ncg     rms          rms(c)
DAV:   1    -0.194827584875E+01   -0.19483E+01   -0.47729E+03   816   0.889E+02
DAV:   2    -0.187462279841E+02   -0.16798E+02   -0.15830E+02  1184   0.100E+02
DAV:   3    -0.188349885520E+02   -0.88761E-01   -0.88761E-01   776   0.978E+00
DAV:   4    -0.188351096679E+02   -0.12112E-03   -0.12112E-03  1112   0.371E-01
DAV:   5    -0.188351096961E+02   -0.28211E-07   -0.28210E-07   768   0.379E-03    0.563E+00
RMM:   6    -0.183473577948E+02    0.48775E+00   -0.27873E-01   764   0.469E+00    0.335E+00
RMM:   7    -0.181831514634E+02    0.16421E+00   -0.43005E-01   837   0.618E+00    0.744E-01
RMM:   8    -0.181868553502E+02   -0.37039E-02   -0.22611E-02   786   0.178E+00    0.114E-01
RMM:   9    -0.181870605248E+02   -0.20517E-03   -0.34229E-03   832   0.624E-01    0.502E-02
RMM:  10    -0.181870883642E+02   -0.27839E-04   -0.39188E-04   784   0.218E-01    0.217E-02
RMM:  11    -0.181870905831E+02   -0.22189E-05   -0.57568E-05   842   0.813E-02    0.536E-03
RMM:  12    -0.181870916946E+02   -0.11115E-05   -0.77098E-06   753   0.318E-02    0.592E-03
RMM:  13    -0.181870918351E+02   -0.14045E-06   -0.56844E-07   535   0.831E-03
   1 F= -.18187092E+02 E0= -.18187092E+02  d E =-.452441E-10
