 vasp.6.5.1 10Mar25 (build Feb 13 2026 23:13:13) complex                        
  
 executed on             LinuxIFC date 2026.06.23  04:04:13
 running   28 mpi-ranks, with    1 threads/rank, on    1 nodes
 distrk:  each k-point on   28 cores,    1 groups
 distr:  one band on NCORE=   7 cores,    4 groups


--------------------------------------------------------------------------------------------------------


 INCAR:
   ALGO = Fast
   NELMIN = 4
   EDIFF = 1E-6
   ENCUT = 450
   PREC = Normal
   LREAL = .FALSE.
   ISMEAR = 0
   SIGMA = 0.2
   ISPIN = 1
   NSW = 0
   LWAVE = .FALSE.
   NPAR = 4
   NCORE = 7

 POTCAR:    PAW_PBE C 08Apr2002                   
 POTCAR:    PAW_PBE C 08Apr2002                   
   SHA256 =  253f7b50bb8d59471dbedb8285d89021f4a42ed1a2c5d38a03a736e69125dd95 C/POTCAR              
   COPYR  = (c) Copyright 08Apr2002 Georg Kresse                                                    
   COPYR  = This file is part of the software VASP. Any use, copying, and all other rights are regul
   COPYR  = If you do not have a valid VASP license, you may not use, copy or distribute this file. 
   VRHFIN =C: s2p2                                                                                  
   LEXCH  = PE                                                                                      
   EATOM  =   147.1560 eV,   10.8157 Ry                                                             
                                                                                                    
   TITEL  = PAW_PBE C 08Apr2002                                                                     
   LULTRA =        F    use ultrasoft PP ?                                                          
   IUNSCR =        1    unscreen: 0-lin 1-nonlin 2-no                                               
   RPACOR =    1.200    partial core radius                                                         
   POMASS =   12.011; ZVAL   =    4.000    mass and valenz                                          
   RCORE  =    1.500    outmost cutoff radius                                                       
   RWIGS  =    1.630; RWIGS  =    0.863    wigner-seitz radius (au A)                               
   ENMAX  =  400.000; ENMIN  =  300.000 eV                                                          
   ICORE  =        2    local potential                                                             
   LCOR   =        T    correct aug charges                                                         
   LPAW   =        T    paw PP                                                                      
   EAUG   =  644.873                                                                                
   DEXC   =    0.000                                                                                
   RMAX   =    1.529    core radius for proj-oper                                                   
   RAUG   =    1.300    factor for augmentation sphere                                              
   RDEP   =    1.501    radius for radial grids                                                     
   RDEPT  =    1.300    core radius for aug-charge                                                  
                                                                                                    
   Atomic configuration                                                                             
    4 entries                                                                                       
     n  l   j            E        occ.                                                              
     1  0  0.50      -273.3789   2.0000                                                             
     2  0  0.50       -13.7508   2.0000                                                             
     2  1  0.50        -5.2854   2.0000                                                             
     3  2  1.50        -5.4423   0.0000                                                             
   Description                                                                                      
     l       E           TYP  RCUT    TYP  RCUT                                                     
     0    -13.7508458     23  1.200                                                                 
     0     -8.2022199     23  1.200                                                                 
     1     -5.2854383     23  1.500                                                                 
     1     34.0145650     23  1.500                                                                 
     2     -5.4423304      7  1.500                                                                 
  local pseudopotential read in
  partial core-charges read in
  partial kinetic energy density read in
  atomic valenz-charges read in
  non local Contribution for L=           0  read in
    real space projection operators read in
  non local Contribution for L=           0  read in
    real space projection operators read in
  non local Contribution for L=           1  read in
    real space projection operators read in
  non local Contribution for L=           1  read in
    real space projection operators read in
    PAW grid and wavefunctions read in
 
   number of l-projection  operators is LMAX  =           4
   number of lm-projection operators is LMMAX =           8
 
  PAW_PBE C 08Apr2002                   :
 energy of atom  1       EATOM= -147.1560
 kinetic energy error for atom=    0.0116 (will be added to EATOM!!)
 
 
 POSCAR: C8
  positions in direct lattice
  No initial velocities read in


 exchange-correlation table for PE
   RHO(1)=    0.500       N(1)  =     2000
   RHO(2)=  100.500       N(2)  =     4000
 


--------------------------------------------------------------------------------------------------------


 ion  position               nearest neighbor table
   1  0.250  0.250  0.250-   2 1.54   2 1.54   2 1.54   2 1.54
   2  0.000  0.000  0.000-   1 1.54   1 1.54   1 1.54   1 1.54
 
  LATTYP: Found a face centered cubic cell.
 ALAT       =     3.5599999829
  
  Lattice vectors:
  
 A1 = (   2.5173001289,   0.0000000000,   0.0000000000)
 A2 = (   1.2586500645,   2.1800458606,   0.0000000000)
 A3 = (   1.2586500645,   0.7266819535,   2.0553669484)


Analysis of symmetry for initial positions (statically):
=====================================================================
 Subroutine PRICEL returns:
 Original cell was already a primitive cell.
 

 Routine SETGRP: Setting up the symmetry group for a 
 face centered cubic supercell.


 Subroutine GETGRP returns: Found 48 space group operations
 (whereof 24 operations were pure point group operations)
 out of a pool of 48 trial point group operations.


The static configuration has the point symmetry T_d .
 The point group associated with its full space group is O_h .


Analysis of symmetry for dynamics (positions and initial velocities):
=====================================================================
 Subroutine PRICEL returns:
 Original cell was already a primitive cell.
 

 Routine SETGRP: Setting up the symmetry group for a 
 face centered cubic supercell.


 Subroutine GETGRP returns: Found 48 space group operations
 (whereof 24 operations were pure point group operations)
 out of a pool of 48 trial point group operations.


The dynamic configuration has the point symmetry T_d .
 The point group associated with its full space group is O_h .


 Subroutine INISYM returns: Found 48 space group operations
 (whereof 24 operations are pure point group operations),
 and found     1 'primitive' translations


----------------------------------------------------------------------------------------

                                     Primitive cell                                     

  volume of cell :      11.2795

  direct lattice vectors                    reciprocal lattice vectors
     2.517300129  0.000000000  0.000000000     0.397251003 -0.229352973 -0.162177043
     1.258650065  2.180045861  0.000000000     0.000000000  0.458705947 -0.162177043
     1.258650065  0.726681953  2.055366948     0.000000000  0.000000000  0.486531128

  length of vectors
     2.517300129  2.517300129  2.517300129     0.486531128  0.486531128  0.486531128

  position of ions in fractional coordinates (direct lattice)
     0.250000000  0.250000000  0.250000000
     0.000000000  0.000000000  0.000000000

  ion indices of the primitive-cell ions
   primitive index   ion index
                 1           1
                 2           2

----------------------------------------------------------------------------------------

 
 
 KPOINTS: k-density: 4.0                          

Automatic generation of k-mesh.
 Grid dimensions read from file:
 generate k-points for:   10   10   10

 Generating k-lattice:

  Cartesian coordinates                     Fractional coordinates (reciprocal lattice)
     0.039725100 -0.022935297 -0.016217704     0.100000000 -0.000000000 -0.000000000
     0.000000000  0.045870595 -0.016217704     0.000000000  0.100000000 -0.000000000
     0.000000000  0.000000000  0.048653113     0.000000000  0.000000000  0.100000000

  Length of vectors
     0.048653113  0.048653113  0.048653113

  Shift w.r.t. Gamma in fractional coordinates (k-lattice)
     0.000000000  0.000000000  0.000000000

 
 Subroutine IBZKPT returns following result:
 ===========================================
 
 Found     47 irreducible k-points:
 
 Following reciprocal coordinates:
            Coordinates               Weight
  0.000000  0.000000  0.000000      1.000000
  0.100000  0.000000  0.000000      8.000000
  0.200000  0.000000  0.000000      8.000000
  0.300000  0.000000  0.000000      8.000000
  0.400000  0.000000  0.000000      8.000000
  0.500000  0.000000  0.000000      4.000000
  0.100000  0.100000  0.000000      6.000000
  0.200000  0.100000  0.000000     24.000000
  0.300000  0.100000  0.000000     24.000000
  0.400000  0.100000  0.000000     24.000000
  0.500000  0.100000  0.000000     24.000000
 -0.400000  0.100000  0.000000     24.000000
 -0.300000  0.100000  0.000000     24.000000
 -0.200000  0.100000  0.000000     24.000000
 -0.100000  0.100000  0.000000     12.000000
  0.200000  0.200000  0.000000      6.000000
  0.300000  0.200000  0.000000     24.000000
  0.400000  0.200000  0.000000     24.000000
  0.500000  0.200000  0.000000     24.000000
 -0.400000  0.200000  0.000000     24.000000
 -0.300000  0.200000  0.000000     24.000000
 -0.200000  0.200000  0.000000     12.000000
  0.300000  0.300000  0.000000      6.000000
  0.400000  0.300000  0.000000     24.000000
  0.500000  0.300000  0.000000     24.000000
 -0.400000  0.300000  0.000000     24.000000
 -0.300000  0.300000  0.000000     12.000000
  0.400000  0.400000  0.000000      6.000000
  0.500000  0.400000  0.000000     24.000000
 -0.400000  0.400000  0.000000     12.000000
  0.500000  0.500000  0.000000      3.000000
  0.300000  0.200000  0.100000     24.000000
  0.400000  0.200000  0.100000     48.000000
  0.500000  0.200000  0.100000     48.000000
 -0.400000  0.200000  0.100000     24.000000
  0.400000  0.300000  0.100000     24.000000
  0.500000  0.300000  0.100000     48.000000
 -0.400000  0.300000  0.100000     48.000000
 -0.300000  0.300000  0.100000     48.000000
 -0.200000  0.300000  0.100000     24.000000
  0.500000  0.400000  0.100000     24.000000
 -0.400000  0.400000  0.100000     48.000000
 -0.300000  0.400000  0.100000     24.000000
 -0.400000  0.500000  0.100000     12.000000
 -0.400000  0.400000  0.200000     24.000000
 -0.300000  0.400000  0.200000     24.000000
 -0.300000  0.500000  0.200000     12.000000
 
 Following cartesian coordinates:
            Coordinates               Weight
  0.000000  0.000000  0.000000      1.000000
  0.039725 -0.022935 -0.016218      8.000000
  0.079450 -0.045871 -0.032435      8.000000
  0.119175 -0.068806 -0.048653      8.000000
  0.158900 -0.091741 -0.064871      8.000000
  0.198626 -0.114676 -0.081089      4.000000
  0.039725  0.022935 -0.032435      6.000000
  0.079450 -0.000000 -0.048653     24.000000
  0.119175 -0.022935 -0.064871     24.000000
  0.158900 -0.045871 -0.081089     24.000000
  0.198626 -0.068806 -0.097306     24.000000
 -0.158900  0.137612  0.048653     24.000000
 -0.119175  0.114676  0.032435     24.000000
 -0.079450  0.091741  0.016218     24.000000
 -0.039725  0.068806  0.000000     12.000000
  0.079450  0.045871 -0.064871      6.000000
  0.119175  0.022935 -0.081089     24.000000
  0.158900 -0.000000 -0.097306     24.000000
  0.198626 -0.022935 -0.113524     24.000000
 -0.158900  0.183482  0.032435     24.000000
 -0.119175  0.160547  0.016218     24.000000
 -0.079450  0.137612  0.000000     12.000000
  0.119175  0.068806 -0.097306      6.000000
  0.158900  0.045871 -0.113524     24.000000
  0.198626  0.022935 -0.129742     24.000000
 -0.158900  0.229353  0.016218     24.000000
 -0.119175  0.206418  0.000000     12.000000
  0.158900  0.091741 -0.129742      6.000000
  0.198626  0.068806 -0.145959     24.000000
 -0.158900  0.275224  0.000000     12.000000
  0.198626  0.114676 -0.162177      3.000000
  0.119175  0.022935 -0.032435     24.000000
  0.158900 -0.000000 -0.048653     48.000000
  0.198626 -0.022935 -0.064871     48.000000
 -0.158900  0.183482  0.081089     24.000000
  0.158900  0.045871 -0.064871     24.000000
  0.198626  0.022935 -0.081089     48.000000
 -0.158900  0.229353  0.064871     48.000000
 -0.119175  0.206418  0.048653     48.000000
 -0.079450  0.183482  0.032435     24.000000
  0.198626  0.068806 -0.097306     24.000000
 -0.158900  0.275224  0.048653     48.000000
 -0.119175  0.252288  0.032435     24.000000
 -0.158900  0.321094  0.032435     12.000000
 -0.158900  0.275224  0.097306     24.000000
 -0.119175  0.252288  0.081089     24.000000
 -0.119175  0.298159  0.064871     12.000000
 


--------------------------------------------------------------------------------------------------------




 Dimension of arrays:
   k-points           NKPTS =     47   k-points in BZ     NKDIM =     47   number of bands    NBANDS=      8
   number of dos      NEDOS =    301   number of ions     NIONS =      2
   non local maximal  LDIM  =      4   non local SUM 2l+1 LMDIM =      8
   total plane-waves  NPLWV =   2744
   max r-space proj   IRMAX =      1   max aug-charges    IRDMAX=   3070
   dimension x,y,z NGX =    14 NGY =   14 NGZ =   14
   dimension x,y,z NGXF=    28 NGYF=   28 NGZF=   28
   support grid    NGXF=    28 NGYF=   28 NGZF=   28
   ions per type =               2
   NGX,Y,Z   is equivalent  to a cutoff of   9.25,  9.25,  9.25 a.u.
   NGXF,Y,Z  is equivalent  to a cutoff of  18.49, 18.49, 18.49 a.u.

 SYSTEM =  unknown system                          
 POSCAR =  C8                                      

 Startparameter for this run:
   NWRITE =      2    write-flag & timer
   PREC   = normal    normal or accurate (medium, high low for compatibility)
   ISTART =      0    job   : 0-new  1-cont  2-samecut
   ICHARG =      2    charge: 1-file 2-atom 10-const
   ISPIN  =      1    spin polarized calculation?
   LNONCOLLINEAR =      F non collinear calculations
   LSORBIT =      F    spin-orbit coupling
   INIWAV =      1    electr: 0-lowe 1-rand  2-diag
   LASPH  =      F    aspherical Exc in radial PAW
 Electronic Relaxation 1
   ENCUT  =  450.0 eV  33.07 Ry    5.75 a.u.   4.35  4.35  4.35*2*pi/ulx,y,z
   ENINI  =  450.0     initial cutoff
   ENAUG  =  644.9 eV  augmentation charge cutoff
   NELM   =     60;   NELMIN=  4; NELMDL= -5     # of ELM steps 
   EDIFF  = 0.1E-05   stopping-criterion for ELM
   LREAL  =      F    real-space projection
   NLSPLINE    = F    spline interpolate recip. space projectors
   LCOMPAT=      F    compatible to vasp.4.4
   GGA_COMPAT  = T    GGA compatible to vasp.4.4-vasp.4.6
   LMAXPAW     = -100 max onsite density
   LMAXMIX     =    2 max onsite mixed and CHGCAR
   VOSKOWN=      0    Vosko Wilk Nusair interpolation
   ROPT   =    0.00000
 Ionic relaxation
   EDIFFG = 0.1E-04   stopping-criterion for IOM
   NSW    =      0    number of steps for IOM
   NBLOCK =      1;   KBLOCK =      1    inner block; outer block 
   IBRION =     -1    ionic relax: 0-MD 1-quasi-New 2-CG
   NFREE  =      0    steps in history (QN), initial steepest desc. (CG)
   ISIF   =      2    stress and relaxation
   IWAVPR =     10    prediction:  0-non 1-charg 2-wave 3-comb
   ISYM   =      2    0-nonsym 1-usesym 2-fastsym
   LCORR  =      T    Harris-Foulkes like correction to forces

   POTIM  = 0.5000    time-step for ionic-motion
   TEIN   =    0.0    initial temperature
   TEBEG  =    0.0;   TEEND  =   0.0 temperature during run
   SMASS  =  -3.00    Nose mass-parameter (am)
   estimated Nose-frequenzy (Omega)   =  0.10E-29 period in steps = 0.13E+47 mass=  -0.145E-27a.u.
   SCALEE = 1.0000    scale energy and forces
   NPACO  =    256;   APACO  = 10.0  distance and # of slots for P.C.
   PSTRESS=    0.0 pullay stress

  Mass of Ions in am
   POMASS =  12.01
  Ionic Valenz
   ZVAL   =   4.00
  Atomic Wigner-Seitz radii
   RWIGS  =  -1.00
  virtual crystal weights 
   VCA    =   1.00
   NELECT =       8.0000    total number of electrons
   NUPDOWN=      -1.0000    fix difference up-down

 DOS related values:
   EMIN   =  10.00;   EMAX   =-10.00  energy-range for DOS
   EFERMI =   0.00;   METHOD = LEGACY      
   ISMEAR =     0;   SIGMA  =   0.20  broadening in eV -4-tet -1-fermi 0-gaus
   EFERMI_NEDOS =   21; number of points for ismear=-14 and -15

 Electronic relaxation 2 (details)
   IALGO  =     68    algorithm
   LDIAG  =      T    sub-space diagonalisation (order eigenvalues)
   LSUBROT=      F    optimize rotation matrix (better conditioning)
   LROBUST=      F    robust break criterion during scf (extrapolated energy error)
   ISEARCH=      0    line search for conjugate gradient (0, 1=use gradient)
   TURBO    =      0    0=normal 1=particle mesh
   IRESTART =      0    0=no restart 2=restart with 2 vectors
   NREBOOT  =      0    no. of reboots
   NMIN     =      0    reboot dimension
   EREF     =   0.00    reference energy to select bands
   IMIX   =      4    mixing-type and parameters
     AMIX     =   0.40;   BMIX     =  1.00
     AMIX_MAG =   1.60;   BMIX_MAG =  1.00
     AMIN     =   0.10
     WC   =   100.;   INIMIX=   1;  MIXPRE=   1;  MAXMIX= -45

 Intra band minimization:
   WEIMIN = 0.0000     energy-eigenvalue tresh-hold
   EBREAK =  0.31E-07  absolut break condition
   DEPER  =   0.30     relativ break condition  

   TIME   =   0.40     timestep for ELM

  volume/ion in A,a.u.               =       5.64        38.06
  Fermi-wavevector in a.u.,A,eV,Ry     =   1.459962  2.758928 29.000661  2.131488
  Thomas-Fermi vector in A             =   2.576467
 
 Write flags
   LWAVE        =      F    write WAVECAR
   LDOWNSAMPLE  =      F    k-point downsampling of WAVECAR
   LCHARG       =      T    write CHGCAR
   LVTOT        =      F    write LOCPOT, total local potential
   LVHAR        =      F    write LOCPOT, Hartree potential only
   WRT_POTENTIAL= false  ! write potential to hdf5 file
   LELF         =      F    write electronic localiz. function (ELF)
   LORBIT       =      0    0 simple, 1 ext, 2 COOP (PROOUT), +10 PAW based schemes


 Python interface
   PLUGINS active      =      F    recompile with -DPLUGINS to activate
 
 Dipole corrections
   LMONO      =      F    monopole corrections only (constant potential shift)
   LDIPOL     =      F    correct potential (dipole corrections)
   IDIPOL     =      0    1-x, 2-y, 3-z, 4-all directions 
   EPSILON    =  1.0000000 bulk dielectric constant
   LVACPOTAV  =      F  vacuum potentials using an averaging scheme for the charge density
   VACPOTFLAT =  0.1000000 required flatness to determine vacuum potential
 
Coulomb truncation method
  LTRUNCATE          =      F  Coulomb kernel truncation to be used

 
 Exchange correlation treatment:
   GGA     = PE    functional components
   XC_C    = 1    coefficients multiplying the functional components
   LIBXC   =     F    Libxc                    
   VOSKOWN =     0    Vosko Wilk Nusair interpolation
   LHFCALC =     F    Hartree Fock is set to
   LHFONE  =     F    Hartree Fock one center treatment
   AEXX    =    0.0000 exact exchange contribution

 Parameters of functionals:
   PE:
     No parameter
 
 Van der Waals corrections
   IVDW    =     0    specifies the selected vdW correction

 Linear response parameters
   LEPSILON=     F    determine dielectric tensor
   LRPA    =     F    only Hartree local field effects (RPA)
   LNABLA  =     F    use nabla operator in PAW spheres
   LVEL    =     F    velocity operator in full k-point grid
   CSHIFT  =0.1000    complex shift for real part using Kramers Kronig
   OMEGAMAX=  -1.0    maximum frequency
   DEG_THRESHOLD= 0.2000000E-02 threshold for treating states as degnerate
   RTIME   =   -0.100 relaxation time in fs
  (WPLASMAI=    0.000 imaginary part of plasma frequency in eV, 0.658/RTIME)
   DFIELD  = 0.0000000 0.0000000 0.0000000 field for delta impulse in time
 
  Optional k-point grid parameters
   LKPOINTS_OPT  =     F    use optional k-point grid
   KPOINTS_OPT_MODE=     1    mode for optional k-point grid
 
 Orbital magnetization related:
   ORBITALMAG=     F  switch on orbital magnetization
   LCHIMAG   =     F  perturbation theory with respect to B field
   DQ        =  0.001000  dq finite difference perturbation B field
   LLRAUG    =     F  two centre corrections for induced B field
   LBONE     =     F  B-component reconstruction in AE one-centre
   LVGVCALC  =     T  calculate vGv susceptibility
   LVGVAPPL  =     F  apply vGv susceptibility instead of pGv for G=0

 Random number generation:
   RANDOM_GENERATOR = DEFAULT
   PCG_SEED         = not used


--------------------------------------------------------------------------------------------------------


 Static calculation
 charge density and potential will be updated during run
 non-spin polarized calculation
 RMM-DIIS sequential band-by-band and
  variant of blocked Davidson during initial phase
 perform sub-space diagonalisation
    before iterative eigenvector-optimisation
 modified Broyden-mixing scheme, WC =      100.0
 initial mixing is a Kerker type mixing with AMIX =  0.4000 and BMIX =      1.0000
 Hartree-type preconditioning will be used
 using additional bands            4
 reciprocal scheme for non local part
 use partial core corrections
 calculate Harris-corrections to forces 
   (improved forces if not selfconsistent)
 use gradient corrections 
 use of overlap-Matrix (Vanderbilt PP)
 Gauss-broadening in eV      SIGMA  =   0.20


--------------------------------------------------------------------------------------------------------


  energy-cutoff  :      450.00
  volume of cell :       11.28
      direct lattice vectors                 reciprocal lattice vectors
     2.517300129  0.000000000  0.000000000     0.397251003 -0.229352973 -0.162177043
     1.258650065  2.180045861  0.000000000     0.000000000  0.458705947 -0.162177043
     1.258650065  0.726681953  2.055366948     0.000000000  0.000000000  0.486531128

  length of vectors
     2.517300129  2.517300129  2.517300129     0.486531128  0.486531128  0.486531128


 
 k-points in units of 2pi/SCALE and weight: k-density: 4.0                          
   0.00000000  0.00000000  0.00000000       0.001
   0.03972510 -0.02293530 -0.01621770       0.008
   0.07945020 -0.04587059 -0.03243541       0.008
   0.11917530 -0.06880589 -0.04865311       0.008
   0.15890040 -0.09174119 -0.06487082       0.008
   0.19862550 -0.11467649 -0.08108852       0.004
   0.03972510  0.02293530 -0.03243541       0.006
   0.07945020 -0.00000000 -0.04865311       0.024
   0.11917530 -0.02293530 -0.06487082       0.024
   0.15890040 -0.04587059 -0.08108852       0.024
   0.19862550 -0.06880589 -0.09730623       0.024
  -0.15890040  0.13761178  0.04865311       0.024
  -0.11917530  0.11467649  0.03243541       0.024
  -0.07945020  0.09174119  0.01621770       0.024
  -0.03972510  0.06880589  0.00000000       0.012
   0.07945020  0.04587059 -0.06487082       0.006
   0.11917530  0.02293530 -0.08108852       0.024
   0.15890040 -0.00000000 -0.09730623       0.024
   0.19862550 -0.02293530 -0.11352393       0.024
  -0.15890040  0.18348238  0.03243541       0.024
  -0.11917530  0.16054708  0.01621770       0.024
  -0.07945020  0.13761178  0.00000000       0.012
   0.11917530  0.06880589 -0.09730623       0.006
   0.15890040  0.04587059 -0.11352393       0.024
   0.19862550  0.02293530 -0.12974163       0.024
  -0.15890040  0.22935297  0.01621770       0.024
  -0.11917530  0.20641768  0.00000000       0.012
   0.15890040  0.09174119 -0.12974163       0.006
   0.19862550  0.06880589 -0.14595934       0.024
  -0.15890040  0.27522357  0.00000000       0.012
   0.19862550  0.11467649 -0.16217704       0.003
   0.11917530  0.02293530 -0.03243541       0.024
   0.15890040 -0.00000000 -0.04865311       0.048
   0.19862550 -0.02293530 -0.06487082       0.048
  -0.15890040  0.18348238  0.08108852       0.024
   0.15890040  0.04587059 -0.06487082       0.024
   0.19862550  0.02293530 -0.08108852       0.048
  -0.15890040  0.22935297  0.06487082       0.048
  -0.11917530  0.20641768  0.04865311       0.048
  -0.07945020  0.18348238  0.03243541       0.024
   0.19862550  0.06880589 -0.09730623       0.024
  -0.15890040  0.27522357  0.04865311       0.048
  -0.11917530  0.25228827  0.03243541       0.024
  -0.15890040  0.32109416  0.03243541       0.012
  -0.15890040  0.27522357  0.09730623       0.024
  -0.11917530  0.25228827  0.08108852       0.024
  -0.11917530  0.29815887  0.06487082       0.012
 
 k-points in reciprocal lattice and weights: k-density: 4.0                          
   0.00000000  0.00000000  0.00000000       0.001
   0.10000000  0.00000000  0.00000000       0.008
   0.20000000  0.00000000  0.00000000       0.008
   0.30000000  0.00000000  0.00000000       0.008
   0.40000000  0.00000000  0.00000000       0.008
   0.50000000  0.00000000  0.00000000       0.004
   0.10000000  0.10000000  0.00000000       0.006
   0.20000000  0.10000000  0.00000000       0.024
   0.30000000  0.10000000  0.00000000       0.024
   0.40000000  0.10000000  0.00000000       0.024
   0.50000000  0.10000000  0.00000000       0.024
  -0.40000000  0.10000000  0.00000000       0.024
  -0.30000000  0.10000000  0.00000000       0.024
  -0.20000000  0.10000000  0.00000000       0.024
  -0.10000000  0.10000000  0.00000000       0.012
   0.20000000  0.20000000  0.00000000       0.006
   0.30000000  0.20000000  0.00000000       0.024
   0.40000000  0.20000000  0.00000000       0.024
   0.50000000  0.20000000  0.00000000       0.024
  -0.40000000  0.20000000  0.00000000       0.024
  -0.30000000  0.20000000  0.00000000       0.024
  -0.20000000  0.20000000  0.00000000       0.012
   0.30000000  0.30000000  0.00000000       0.006
   0.40000000  0.30000000  0.00000000       0.024
   0.50000000  0.30000000  0.00000000       0.024
  -0.40000000  0.30000000  0.00000000       0.024
  -0.30000000  0.30000000  0.00000000       0.012
   0.40000000  0.40000000  0.00000000       0.006
   0.50000000  0.40000000  0.00000000       0.024
  -0.40000000  0.40000000  0.00000000       0.012
   0.50000000  0.50000000  0.00000000       0.003
   0.30000000  0.20000000  0.10000000       0.024
   0.40000000  0.20000000  0.10000000       0.048
   0.50000000  0.20000000  0.10000000       0.048
  -0.40000000  0.20000000  0.10000000       0.024
   0.40000000  0.30000000  0.10000000       0.024
   0.50000000  0.30000000  0.10000000       0.048
  -0.40000000  0.30000000  0.10000000       0.048
  -0.30000000  0.30000000  0.10000000       0.048
  -0.20000000  0.30000000  0.10000000       0.024
   0.50000000  0.40000000  0.10000000       0.024
  -0.40000000  0.40000000  0.10000000       0.048
  -0.30000000  0.40000000  0.10000000       0.024
  -0.40000000  0.50000000  0.10000000       0.012
  -0.40000000  0.40000000  0.20000000       0.024
  -0.30000000  0.40000000  0.20000000       0.024
  -0.30000000  0.50000000  0.20000000       0.012
 
 position of ions in fractional coordinates (direct lattice) 
   0.25000000  0.25000000  0.25000000
   0.00000000  0.00000000  0.00000000
 
 position of ions in cartesian coordinates  (Angst):
   1.25865006  0.72668195  0.51384174
   0.00000000  0.00000000  0.00000000
 


--------------------------------------------------------------------------------------------------------


 k-point     1 :   0.0000 0.0000 0.0000  plane waves:     259
 k-point     2 :   0.1000 0.0000 0.0000  plane waves:     256
 k-point     3 :   0.2000 0.0000 0.0000  plane waves:     244
 k-point     4 :   0.3000 0.0000 0.0000  plane waves:     253
 k-point     5 :   0.4000 0.0000 0.0000  plane waves:     247
 k-point     6 :   0.5000 0.0000 0.0000  plane waves:     242
 k-point     7 :   0.1000 0.1000 0.0000  plane waves:     262
 k-point     8 :   0.2000 0.1000 0.0000  plane waves:     251
 k-point     9 :   0.3000 0.1000 0.0000  plane waves:     249
 k-point    10 :   0.4000 0.1000 0.0000  plane waves:     242
 k-point    11 :   0.5000 0.1000 0.0000  plane waves:     246
 k-point    12 :  -0.4000 0.1000 0.0000  plane waves:     249
 k-point    13 :  -0.3000 0.1000 0.0000  plane waves:     248
 k-point    14 :  -0.2000 0.1000 0.0000  plane waves:     249
 k-point    15 :  -0.1000 0.1000 0.0000  plane waves:     253
 k-point    16 :   0.2000 0.2000 0.0000  plane waves:     246
 k-point    17 :   0.3000 0.2000 0.0000  plane waves:     243
 k-point    18 :   0.4000 0.2000 0.0000  plane waves:     245
 k-point    19 :   0.5000 0.2000 0.0000  plane waves:     242
 k-point    20 :  -0.4000 0.2000 0.0000  plane waves:     246
 k-point    21 :  -0.3000 0.2000 0.0000  plane waves:     249
 k-point    22 :  -0.2000 0.2000 0.0000  plane waves:     242
 k-point    23 :   0.3000 0.3000 0.0000  plane waves:     242
 k-point    24 :   0.4000 0.3000 0.0000  plane waves:     243
 k-point    25 :   0.5000 0.3000 0.0000  plane waves:     240
 k-point    26 :  -0.4000 0.3000 0.0000  plane waves:     243
 k-point    27 :  -0.3000 0.3000 0.0000  plane waves:     240
 k-point    28 :   0.4000 0.4000 0.0000  plane waves:     242
 k-point    29 :   0.5000 0.4000 0.0000  plane waves:     236
 k-point    30 :  -0.4000 0.4000 0.0000  plane waves:     242
 k-point    31 :   0.5000 0.5000 0.0000  plane waves:     230
 k-point    32 :   0.3000 0.2000 0.1000  plane waves:     242
 k-point    33 :   0.4000 0.2000 0.1000  plane waves:     244
 k-point    34 :   0.5000 0.2000 0.1000  plane waves:     243
 k-point    35 :  -0.4000 0.2000 0.1000  plane waves:     246
 k-point    36 :   0.4000 0.3000 0.1000  plane waves:     241
 k-point    37 :   0.5000 0.3000 0.1000  plane waves:     247
 k-point    38 :  -0.4000 0.3000 0.1000  plane waves:     247
 k-point    39 :  -0.3000 0.3000 0.1000  plane waves:     242
 k-point    40 :  -0.2000 0.3000 0.1000  plane waves:     243
 k-point    41 :   0.5000 0.4000 0.1000  plane waves:     241
 k-point    42 :  -0.4000 0.4000 0.1000  plane waves:     243
 k-point    43 :  -0.3000 0.4000 0.1000  plane waves:     244
 k-point    44 :  -0.4000 0.5000 0.1000  plane waves:     240
 k-point    45 :  -0.4000 0.4000 0.2000  plane waves:     245
 k-point    46 :  -0.3000 0.4000 0.2000  plane waves:     244
 k-point    47 :  -0.3000 0.5000 0.2000  plane waves:     242

 maximum and minimum number of plane-waves per node :        41       30

 maximum number of plane-waves:       262
 maximum index in each direction: 
   IXMAX=    4   IYMAX=    4   IZMAX=    4
   IXMIN=   -4   IYMIN=   -4   IZMIN=   -4


 parallel 3D FFT for wavefunctions:
    minimum data exchange during FFTs selected (reduces bandwidth)
 parallel 3D FFT for charge:
    minimum data exchange during FFTs selected (reduces bandwidth)


 total amount of memory used by VASP MPI-rank0    30290. kBytes
=======================================================================

   base                                    :      30000. kBytes
   nonl-proj                               :        121. kBytes
   fftplans                                :         39. kBytes
   grid                                    :         55. kBytes
   one-center                              :          3. kBytes
   wavefun                                 :         72. kBytes
 
     INWAV:  cpu time      0.0000: real time      0.0004
 Broyden mixing: mesh for mixing (old mesh)
   NGX =  9   NGY =  9   NGZ =  9
  (NGX  = 28   NGY  = 28   NGZ  = 28)
  gives a total of    729 points

 initial charge density was supplied:
 charge density of overlapping atoms calculated
 number of electron       8.0000000 magnetization 
 keeping initial charge density in first step


--------------------------------------------------------------------------------------------------------


 Maximum index for augmentation-charges          211 (set IRDMAX)


--------------------------------------------------------------------------------------------------------


 First call to EWALD:  gamma=   0.790
 Maximum number of real-space cells   3x   3x   3
 Maximum number of reciprocal cells   3x   3x   3

    FEWALD:  cpu time      0.0009: real time      0.0009


--------------------------------------- Ionic step        1  -------------------------------------------




--------------------------------------- Iteration      1(   1)  ---------------------------------------


    POTLOK:  cpu time      0.0041: real time      0.0352
    SETDIJ:  cpu time      0.0014: real time      0.0014
     EDDAV:  cpu time      0.0562: real time      0.0566
       DOS:  cpu time      0.0008: real time      0.0008
    --------------------------------------------
      LOOP:  cpu time      0.0625: real time      0.0940

 eigenvalue-minimisations  :   816
 total energy-change (2. order) :-0.1948276E+01  (-0.4772890E+03)
 number of electron       8.0000000 magnetization 
 augmentation part        8.0000000 magnetization 

 Free energy of the ion-electron system (eV)
  ---------------------------------------------------
  alpha Z        PSCENC =        29.13132251
  Ewald energy   TEWEN  =      -348.62358043
  -Hartree energ DENC   =       -17.48913657
  -exchange      EXHF   =         0.00000000
  -V(xc)+E(xc)   XCENC  =        27.44127174
  PAW double counting   =       217.04409276     -218.18290438
  entropy T*S    EENTRO =        -0.00353114
  eigenvalues    EBANDS =        14.44543269
  atomic energy  EATOM  =       294.28875697
  Solvation  Ediel_sol  =         0.00000000
  ---------------------------------------------------
  free energy    TOTEN  =        -1.94827585 eV

  energy without entropy =       -1.94474471  energy(sigma->0) =       -1.94651028


--------------------------------------------------------------------------------------------------------




--------------------------------------- Iteration      1(   2)  ---------------------------------------


     EDDAV:  cpu time      0.0746: real time      0.0759
       DOS:  cpu time      0.0002: real time      0.0002
    --------------------------------------------
      LOOP:  cpu time      0.0748: real time      0.0761

 eigenvalue-minimisations  :  1184
 total energy-change (2. order) :-0.1679795E+02  (-0.1582991E+02)
 number of electron       8.0000000 magnetization 
 augmentation part        8.0000000 magnetization 

 Free energy of the ion-electron system (eV)
  ---------------------------------------------------
  alpha Z        PSCENC =        29.13132251
  Ewald energy   TEWEN  =      -348.62358043
  -Hartree energ DENC   =       -17.48913657
  -exchange      EXHF   =         0.00000000
  -V(xc)+E(xc)   XCENC  =        27.44127174
  PAW double counting   =       217.04409276     -218.18290438
  entropy T*S    EENTRO =        -0.00000000
  eigenvalues    EBANDS =        -2.35605058
  atomic energy  EATOM  =       294.28875697
  Solvation  Ediel_sol  =         0.00000000
  ---------------------------------------------------
  free energy    TOTEN  =       -18.74622798 eV

  energy without entropy =      -18.74622798  energy(sigma->0) =      -18.74622798


--------------------------------------------------------------------------------------------------------




--------------------------------------- Iteration      1(   3)  ---------------------------------------


     EDDAV:  cpu time      0.0467: real time      0.0472
       DOS:  cpu time      0.0002: real time      0.0002
    --------------------------------------------
      LOOP:  cpu time      0.0469: real time      0.0474

 eigenvalue-minimisations  :   776
 total energy-change (2. order) :-0.8876057E-01  (-0.8876057E-01)
 number of electron       8.0000000 magnetization 
 augmentation part        8.0000000 magnetization 

 Free energy of the ion-electron system (eV)
  ---------------------------------------------------
  alpha Z        PSCENC =        29.13132251
  Ewald energy   TEWEN  =      -348.62358043
  -Hartree energ DENC   =       -17.48913657
  -exchange      EXHF   =         0.00000000
  -V(xc)+E(xc)   XCENC  =        27.44127174
  PAW double counting   =       217.04409276     -218.18290438
  entropy T*S    EENTRO =        -0.00000000
  eigenvalues    EBANDS =        -2.44481115
  atomic energy  EATOM  =       294.28875697
  Solvation  Ediel_sol  =         0.00000000
  ---------------------------------------------------
  free energy    TOTEN  =       -18.83498855 eV

  energy without entropy =      -18.83498855  energy(sigma->0) =      -18.83498855


--------------------------------------------------------------------------------------------------------




--------------------------------------- Iteration      1(   4)  ---------------------------------------


     EDDAV:  cpu time      0.0666: real time      0.0671
       DOS:  cpu time      0.0002: real time      0.0002
    --------------------------------------------
      LOOP:  cpu time      0.0668: real time      0.0673

 eigenvalue-minimisations  :  1112
 total energy-change (2. order) :-0.1211159E-03  (-0.1211158E-03)
 number of electron       8.0000000 magnetization 
 augmentation part        8.0000000 magnetization 

 Free energy of the ion-electron system (eV)
  ---------------------------------------------------
  alpha Z        PSCENC =        29.13132251
  Ewald energy   TEWEN  =      -348.62358043
  -Hartree energ DENC   =       -17.48913657
  -exchange      EXHF   =         0.00000000
  -V(xc)+E(xc)   XCENC  =        27.44127174
  PAW double counting   =       217.04409276     -218.18290438
  entropy T*S    EENTRO =        -0.00000000
  eigenvalues    EBANDS =        -2.44493227
  atomic energy  EATOM  =       294.28875697
  Solvation  Ediel_sol  =         0.00000000
  ---------------------------------------------------
  free energy    TOTEN  =       -18.83510967 eV

  energy without entropy =      -18.83510967  energy(sigma->0) =      -18.83510967


--------------------------------------------------------------------------------------------------------




--------------------------------------- Iteration      1(   5)  ---------------------------------------


     EDDAV:  cpu time      0.0459: real time      0.0463
       DOS:  cpu time      0.0002: real time      0.0002
    CHARGE:  cpu time      0.0023: real time      0.0023
    MIXING:  cpu time      0.0002: real time      0.0002
    --------------------------------------------
      LOOP:  cpu time      0.0486: real time      0.0490

 eigenvalue-minimisations  :   768
 total energy-change (2. order) :-0.2821139E-07  (-0.2821029E-07)
 number of electron       7.9999999 magnetization 
 augmentation part        0.2005039 magnetization 

 Broyden mixing:
  rms(total) = 0.56330E+00    rms(broyden)= 0.56325E+00
  rms(prec ) = 0.18717E+01
  weight for this iteration     100.00

 Free energy of the ion-electron system (eV)
  ---------------------------------------------------
  alpha Z        PSCENC =        29.13132251
  Ewald energy   TEWEN  =      -348.62358043
  -Hartree energ DENC   =       -17.48913657
  -exchange      EXHF   =         0.00000000
  -V(xc)+E(xc)   XCENC  =        27.44127174
  PAW double counting   =       217.04409276     -218.18290438
  entropy T*S    EENTRO =        -0.00000000
  eigenvalues    EBANDS =        -2.44493229
  atomic energy  EATOM  =       294.28875697
  Solvation  Ediel_sol  =         0.00000000
  ---------------------------------------------------
  free energy    TOTEN  =       -18.83510970 eV

  energy without entropy =      -18.83510970  energy(sigma->0) =      -18.83510970


--------------------------------------------------------------------------------------------------------




--------------------------------------- Iteration      1(   6)  ---------------------------------------


    POTLOK:  cpu time      0.0019: real time      0.0020
    SETDIJ:  cpu time      0.0011: real time      0.0011
    EDDIAG:  cpu time      0.0454: real time      0.0458
  RMM-DIIS:  cpu time      0.0168: real time      0.0169
    ORTHCH:  cpu time      0.0024: real time      0.0024
       DOS:  cpu time      0.0002: real time      0.0002
    CHARGE:  cpu time      0.0019: real time      0.0019
    MIXING:  cpu time      0.0002: real time      0.0002
    --------------------------------------------
      LOOP:  cpu time      0.0698: real time      0.0705

 eigenvalue-minimisations  :   764
 total energy-change (2. order) : 0.4877519E+00  (-0.2787257E-01)
 number of electron       7.9999999 magnetization 
 augmentation part        0.1976368 magnetization 

 Broyden mixing:
  rms(total) = 0.33472E+00    rms(broyden)= 0.33472E+00
  rms(prec ) = 0.10243E+01
  weight for this iteration     100.00

 eigenvalues of (default mixing * dielectric matrix)
  average eigenvalue GAMMA=   2.3589
  2.3589

 Free energy of the ion-electron system (eV)
  ---------------------------------------------------
  alpha Z        PSCENC =        29.13132251
  Ewald energy   TEWEN  =      -348.62358043
  -Hartree energ DENC   =       -21.31778318
  -exchange      EXHF   =         0.00000000
  -V(xc)+E(xc)   XCENC  =        27.78408549
  PAW double counting   =       382.09414393     -383.35167062
  entropy T*S    EENTRO =        -0.00000000
  eigenvalues    EBANDS =         1.64736753
  atomic energy  EATOM  =       294.28875697
  Solvation  Ediel_sol  =         0.00000000
  ---------------------------------------------------
  free energy    TOTEN  =       -18.34735779 eV

  energy without entropy =      -18.34735779  energy(sigma->0) =      -18.34735779


--------------------------------------------------------------------------------------------------------




--------------------------------------- Iteration      1(   7)  ---------------------------------------


    POTLOK:  cpu time      0.0015: real time      0.0016
    SETDIJ:  cpu time      0.0010: real time      0.0010
    EDDIAG:  cpu time      0.0330: real time      0.0333
  RMM-DIIS:  cpu time      0.0184: real time      0.0185
    ORTHCH:  cpu time      0.0024: real time      0.0024
       DOS:  cpu time      0.0002: real time      0.0002
    CHARGE:  cpu time      0.0018: real time      0.0018
    MIXING:  cpu time      0.0002: real time      0.0002
    --------------------------------------------
      LOOP:  cpu time      0.0585: real time      0.0590

 eigenvalue-minimisations  :   837
 total energy-change (2. order) : 0.1642063E+00  (-0.4300467E-01)
 number of electron       7.9999999 magnetization 
 augmentation part        0.1925328 magnetization 

 Broyden mixing:
  rms(total) = 0.74360E-01    rms(broyden)= 0.74351E-01
  rms(prec ) = 0.11290E+00
  weight for this iteration     100.00

 eigenvalues of (default mixing * dielectric matrix)
  average eigenvalue GAMMA=   2.5567
  2.2554  2.8581

 Free energy of the ion-electron system (eV)
  ---------------------------------------------------
  alpha Z        PSCENC =        29.13132251
  Ewald energy   TEWEN  =      -348.62358043
  -Hartree energ DENC   =       -26.35134225
  -exchange      EXHF   =         0.00000000
  -V(xc)+E(xc)   XCENC  =        28.24486370
  PAW double counting   =       690.98511400     -692.36591111
  entropy T*S    EENTRO =        -0.00000000
  eigenvalues    EBANDS =         6.50762514
  atomic energy  EATOM  =       294.28875697
  Solvation  Ediel_sol  =         0.00000000
  ---------------------------------------------------
  free energy    TOTEN  =       -18.18315146 eV

  energy without entropy =      -18.18315146  energy(sigma->0) =      -18.18315146


--------------------------------------------------------------------------------------------------------




--------------------------------------- Iteration      1(   8)  ---------------------------------------


    POTLOK:  cpu time      0.0014: real time      0.0016
    SETDIJ:  cpu time      0.0010: real time      0.0010
    EDDIAG:  cpu time      0.0310: real time      0.0312
  RMM-DIIS:  cpu time      0.0180: real time      0.0181
    ORTHCH:  cpu time      0.0024: real time      0.0024
       DOS:  cpu time      0.0002: real time      0.0002
    CHARGE:  cpu time      0.0017: real time      0.0017
    MIXING:  cpu time      0.0002: real time      0.0002
    --------------------------------------------
      LOOP:  cpu time      0.0558: real time      0.0564

 eigenvalue-minimisations  :   786
 total energy-change (2. order) :-0.3703887E-02  (-0.2261140E-02)
 number of electron       7.9999999 magnetization 
 augmentation part        0.1912512 magnetization 

 Broyden mixing:
  rms(total) = 0.11357E-01    rms(broyden)= 0.11350E-01
  rms(prec ) = 0.26382E-01
  weight for this iteration     100.00

 eigenvalues of (default mixing * dielectric matrix)
  average eigenvalue GAMMA=   2.0444
  2.5746  1.7793  1.7793

 Free energy of the ion-electron system (eV)
  ---------------------------------------------------
  alpha Z        PSCENC =        29.13132251
  Ewald energy   TEWEN  =      -348.62358043
  -Hartree energ DENC   =       -26.22817884
  -exchange      EXHF   =         0.00000000
  -V(xc)+E(xc)   XCENC  =        28.24007942
  PAW double counting   =       790.44282518     -791.78206703
  entropy T*S    EENTRO =        -0.00000000
  eigenvalues    EBANDS =         6.34398687
  atomic energy  EATOM  =       294.28875697
  Solvation  Ediel_sol  =         0.00000000
  ---------------------------------------------------
  free energy    TOTEN  =       -18.18685535 eV

  energy without entropy =      -18.18685535  energy(sigma->0) =      -18.18685535


--------------------------------------------------------------------------------------------------------




--------------------------------------- Iteration      1(   9)  ---------------------------------------


    POTLOK:  cpu time      0.0014: real time      0.0015
    SETDIJ:  cpu time      0.0010: real time      0.0010
    EDDIAG:  cpu time      0.0299: real time      0.0302
  RMM-DIIS:  cpu time      0.0193: real time      0.0194
    ORTHCH:  cpu time      0.0024: real time      0.0024
       DOS:  cpu time      0.0002: real time      0.0002
    CHARGE:  cpu time      0.0017: real time      0.0017
    MIXING:  cpu time      0.0002: real time      0.0002
    --------------------------------------------
      LOOP:  cpu time      0.0561: real time      0.0566

 eigenvalue-minimisations  :   832
 total energy-change (2. order) :-0.2051746E-03  (-0.3422880E-03)
 number of electron       7.9999999 magnetization 
 augmentation part        0.1908421 magnetization 

 Broyden mixing:
  rms(total) = 0.50239E-02    rms(broyden)= 0.50202E-02
  rms(prec ) = 0.12985E-01
  weight for this iteration     100.00

 eigenvalues of (default mixing * dielectric matrix)
  average eigenvalue GAMMA=   1.6084
  2.5905  1.8208  1.8208  0.2015

 Free energy of the ion-electron system (eV)
  ---------------------------------------------------
  alpha Z        PSCENC =        29.13132251
  Ewald energy   TEWEN  =      -348.62358043
  -Hartree energ DENC   =       -26.36054207
  -exchange      EXHF   =         0.00000000
  -V(xc)+E(xc)   XCENC  =        28.25157134
  PAW double counting   =       781.28858699     -782.63436655
  entropy T*S    EENTRO =        -0.00000000
  eigenvalues    EBANDS =         6.47119072
  atomic energy  EATOM  =       294.28875697
  Solvation  Ediel_sol  =         0.00000000
  ---------------------------------------------------
  free energy    TOTEN  =       -18.18706052 eV

  energy without entropy =      -18.18706052  energy(sigma->0) =      -18.18706052


--------------------------------------------------------------------------------------------------------




--------------------------------------- Iteration      1(  10)  ---------------------------------------


    POTLOK:  cpu time      0.0014: real time      0.0015
    SETDIJ:  cpu time      0.0010: real time      0.0010
    EDDIAG:  cpu time      0.0294: real time      0.0296
  RMM-DIIS:  cpu time      0.0172: real time      0.0173
    ORTHCH:  cpu time      0.0024: real time      0.0024
       DOS:  cpu time      0.0002: real time      0.0002
    CHARGE:  cpu time      0.0017: real time      0.0017
    MIXING:  cpu time      0.0002: real time      0.0002
    --------------------------------------------
      LOOP:  cpu time      0.0534: real time      0.0538

 eigenvalue-minimisations  :   784
 total energy-change (2. order) :-0.2783944E-04  (-0.3918807E-04)
 number of electron       7.9999999 magnetization 
 augmentation part        0.1907646 magnetization 

 Broyden mixing:
  rms(total) = 0.21720E-02    rms(broyden)= 0.21716E-02
  rms(prec ) = 0.58415E-02
  weight for this iteration     100.00

 eigenvalues of (default mixing * dielectric matrix)
  average eigenvalue GAMMA=   1.9258
  3.0652  2.4341  2.1430  0.9935  0.9935

 Free energy of the ion-electron system (eV)
  ---------------------------------------------------
  alpha Z        PSCENC =        29.13132251
  Ewald energy   TEWEN  =      -348.62358043
  -Hartree energ DENC   =       -26.29375515
  -exchange      EXHF   =         0.00000000
  -V(xc)+E(xc)   XCENC  =        28.24628370
  PAW double counting   =       784.35466522     -785.69302465
  entropy T*S    EENTRO =        -0.00000000
  eigenvalues    EBANDS =         6.40224346
  atomic energy  EATOM  =       294.28875697
  Solvation  Ediel_sol  =         0.00000000
  ---------------------------------------------------
  free energy    TOTEN  =       -18.18708836 eV

  energy without entropy =      -18.18708836  energy(sigma->0) =      -18.18708836


--------------------------------------------------------------------------------------------------------




--------------------------------------- Iteration      1(  11)  ---------------------------------------


    POTLOK:  cpu time      0.0014: real time      0.0015
    SETDIJ:  cpu time      0.0010: real time      0.0010
    EDDIAG:  cpu time      0.0290: real time      0.0292
  RMM-DIIS:  cpu time      0.0189: real time      0.0190
    ORTHCH:  cpu time      0.0024: real time      0.0024
       DOS:  cpu time      0.0002: real time      0.0002
    CHARGE:  cpu time      0.0017: real time      0.0017
    MIXING:  cpu time      0.0002: real time      0.0002
    --------------------------------------------
      LOOP:  cpu time      0.0546: real time      0.0551

 eigenvalue-minimisations  :   842
 total energy-change (2. order) :-0.2218871E-05  (-0.5756842E-05)
 number of electron       7.9999999 magnetization 
 augmentation part        0.1907380 magnetization 

 Broyden mixing:
  rms(total) = 0.53646E-03    rms(broyden)= 0.53617E-03
  rms(prec ) = 0.68655E-03
  weight for this iteration     100.00

 eigenvalues of (default mixing * dielectric matrix)
  average eigenvalue GAMMA=   2.6391
  6.0440  3.3260  2.5346  2.0330  0.9918  0.9053

 Free energy of the ion-electron system (eV)
  ---------------------------------------------------
  alpha Z        PSCENC =        29.13132251
  Ewald energy   TEWEN  =      -348.62358043
  -Hartree energ DENC   =       -26.32138350
  -exchange      EXHF   =         0.00000000
  -V(xc)+E(xc)   XCENC  =        28.24875503
  PAW double counting   =       782.66773468     -784.00696185
  entropy T*S    EENTRO =        -0.00000000
  eigenvalues    EBANDS =         6.42826601
  atomic energy  EATOM  =       294.28875697
  Solvation  Ediel_sol  =         0.00000000
  ---------------------------------------------------
  free energy    TOTEN  =       -18.18709058 eV

  energy without entropy =      -18.18709058  energy(sigma->0) =      -18.18709058


--------------------------------------------------------------------------------------------------------




--------------------------------------- Iteration      1(  12)  ---------------------------------------


    POTLOK:  cpu time      0.0013: real time      0.0015
    SETDIJ:  cpu time      0.0010: real time      0.0010
    EDDIAG:  cpu time      0.0287: real time      0.0289
  RMM-DIIS:  cpu time      0.0174: real time      0.0174
    ORTHCH:  cpu time      0.0024: real time      0.0024
       DOS:  cpu time      0.0002: real time      0.0002
    CHARGE:  cpu time      0.0017: real time      0.0017
    MIXING:  cpu time      0.0002: real time      0.0002
    --------------------------------------------
      LOOP:  cpu time      0.0529: real time      0.0533

 eigenvalue-minimisations  :   753
 total energy-change (2. order) :-0.1111527E-05  (-0.7709755E-06)
 number of electron       7.9999999 magnetization 
 augmentation part        0.1907189 magnetization 

 Broyden mixing:
  rms(total) = 0.59166E-03    rms(broyden)= 0.59161E-03
  rms(prec ) = 0.10759E-02
  weight for this iteration     100.00

 eigenvalues of (default mixing * dielectric matrix)
  average eigenvalue GAMMA=   2.0715
  4.2396  2.4782  2.4782  2.1768  1.1726  1.0639  0.8914

 Free energy of the ion-electron system (eV)
  ---------------------------------------------------
  alpha Z        PSCENC =        29.13132251
  Ewald energy   TEWEN  =      -348.62358043
  -Hartree energ DENC   =       -26.32384226
  -exchange      EXHF   =         0.00000000
  -V(xc)+E(xc)   XCENC  =        28.24895934
  PAW double counting   =       783.00565641     -784.34509289
  entropy T*S    EENTRO =        -0.00000000
  eigenvalues    EBANDS =         6.43072865
  atomic energy  EATOM  =       294.28875697
  Solvation  Ediel_sol  =         0.00000000
  ---------------------------------------------------
  free energy    TOTEN  =       -18.18709169 eV

  energy without entropy =      -18.18709169  energy(sigma->0) =      -18.18709169


--------------------------------------------------------------------------------------------------------




--------------------------------------- Iteration      1(  13)  ---------------------------------------


    POTLOK:  cpu time      0.0013: real time      0.0015
    SETDIJ:  cpu time      0.0010: real time      0.0010
    EDDIAG:  cpu time      0.0288: real time      0.0290
  RMM-DIIS:  cpu time      0.0128: real time      0.0129
    ORTHCH:  cpu time      0.0024: real time      0.0024
       DOS:  cpu time      0.0002: real time      0.0002
    --------------------------------------------
      LOOP:  cpu time      0.0465: real time      0.0469

 eigenvalue-minimisations  :   535
 total energy-change (2. order) :-0.1404545E-06  (-0.5684418E-07)
 number of electron       7.9999999 magnetization 
 augmentation part        0.1907189 magnetization 

 Free energy of the ion-electron system (eV)
  ---------------------------------------------------
  alpha Z        PSCENC =        29.13132251
  Ewald energy   TEWEN  =      -348.62358043
  -Hartree energ DENC   =       -26.32081157
  -exchange      EXHF   =         0.00000000
  -V(xc)+E(xc)   XCENC  =        28.24874173
  PAW double counting   =       783.76301052     -785.10197451
  entropy T*S    EENTRO =        -0.00000000
  eigenvalues    EBANDS =         6.42744295
  atomic energy  EATOM  =       294.28875697
  Solvation  Ediel_sol  =         0.00000000
  ---------------------------------------------------
  free energy    TOTEN  =       -18.18709184 eV

  energy without entropy =      -18.18709184  energy(sigma->0) =      -18.18709184


--------------------------------------------------------------------------------------------------------




 average (electrostatic) potential at core
  the test charge radii are     0.6991
  (the norm of the test charge is              1.0000)
       1 -45.3040       2 -45.3040
 
 
 
 E-fermi :  10.6068     XC(G=0): -13.2791     alpha+bet :-17.7709

 val. band max:        9.8111370658   @ k =   0.0000   0.0000   0.0000
 cond. band min:      13.9948874654   @ k =   0.4000   0.4000   0.0000
 fundamental gap:      4.1837503997
 Fermi energy:        10.6068108011

 k-point     1 :       0.0000    0.0000    0.0000
  band No.  band energies     occupation 
      1     -11.7414      2.00000
      2       9.8111      2.00000
      3       9.8111      2.00000
      4       9.8111      2.00000
      5      15.4214      0.00000
      6      15.4215      0.00000
      7      15.4215      0.00000
      8      23.2728      0.00000

 k-point     2 :       0.1000    0.0000    0.0000
  band No.  band energies     occupation 
      1     -11.4635      2.00000
      2       8.1297      2.00000
      3       9.3622      2.00000
      4       9.3623      2.00000
      5      16.0119      0.00000
      6      16.0119      0.00000
      7      16.3757      0.00000
      8      23.5047      0.00000

 k-point     3 :       0.2000    0.0000    0.0000
  band No.  band energies     occupation 
      1     -10.6348      2.00000
      2       4.9119      2.00000
      3       8.4827      2.00000
      4       8.4828      2.00000
      5      17.1494      0.00000
      6      17.1495      0.00000
      7      17.6033      0.00000
      8      24.1533      0.00000

 k-point     4 :       0.3000    0.0000    0.0000
  band No.  band energies     occupation 
      1      -9.2754      2.00000
      2       1.4990      2.00000
      3       7.6876      2.00000
      4       7.6876      2.00000
      5      17.9709      0.00000
      6      17.9709      0.00000
      7      18.3069      0.00000
      8      24.9381      0.00000

 k-point     5 :       0.4000    0.0000    0.0000
  band No.  band energies     occupation 
      1      -7.4563      2.00000
      2      -1.6455      2.00000
      3       7.1740      2.00000
      4       7.1741      2.00000
      5      18.2608      0.00000
      6      18.2608      0.00000
      7      18.6389      0.00000
      8      25.4404      0.00000

 k-point     6 :       0.5000    0.0000    0.0000
  band No.  band energies     occupation 
      1      -5.9334      2.00000
      2      -3.6231      2.00000
      3       6.9992      2.00000
      4       6.9992      2.00000
      5      18.2979      0.00000
      6      18.2979      0.00000
      7      18.7367      0.00000
      8      25.5759      0.00000

 k-point     7 :       0.1000    0.1000    0.0000
  band No.  band energies     occupation 
      1     -11.3710      2.00000
      2       8.5774      2.00000
      3       8.5774      2.00000
      4       8.9414      2.00000
      5      15.1435      0.00000
      6      16.9733      0.00000
      7      16.9734      0.00000
      8      23.3710      0.00000

 k-point     8 :       0.2000    0.1000    0.0000
  band No.  band energies     occupation 
      1     -10.7261      2.00000
      2       6.0312      2.00000
      3       7.6055      2.00000
      4       8.4721      2.00000
      5      15.5727      0.00000
      6      18.2832      0.00000
      7      18.3059      0.00000
      8      23.2768      0.00000

 k-point     9 :       0.3000    0.1000    0.0000
  band No.  band energies     occupation 
      1      -9.5429      2.00000
      2       2.7459      2.00000
      3       6.8566      2.00000
      4       7.6004      2.00000
      5      16.6154      0.00000
      6      19.1412      0.00000
      7      19.2364      0.00000
      8      23.4679      0.00000

 k-point    10 :       0.4000    0.1000    0.0000
  band No.  band energies     occupation 
      1      -7.8667      2.00000
      2      -0.4646      2.00000
      3       6.4792      2.00000
      4       6.7269      2.00000
      5      17.3355      0.00000
      6      19.4539      0.00000
      7      19.5469      0.00000
      8      24.3587      0.00000

 k-point    11 :       0.5000    0.1000    0.0000
  band No.  band energies     occupation 
      1      -5.9895      2.00000
      2      -3.0735      2.00000
      3       6.0888      2.00000
      4       6.5079      2.00000
      5      17.7394      0.00000
      6      19.2018      0.00000
      7      19.6771      0.00000
      8      25.3616      0.00000

 k-point    12 :      -0.4000    0.1000    0.0000
  band No.  band energies     occupation 
      1      -6.5733      2.00000
      2      -2.3385      2.00000
      3       5.7936      2.00000
      4       6.9217      2.00000
      5      18.1377      0.00000
      6      18.7800      0.00000
      7      19.6150      0.00000
      8      25.4372      0.00000

 k-point    13 :      -0.3000    0.1000    0.0000
  band No.  band energies     occupation 
      1      -8.4752      2.00000
      2       0.5832      2.00000
      3       5.8945      2.00000
      4       7.6559      2.00000
      5      18.1627      0.00000
      6      18.4670      0.00000
      7      19.3150      0.00000
      8      24.6298      0.00000

 k-point    14 :      -0.2000    0.1000    0.0000
  band No.  band energies     occupation 
      1      -9.9959      2.00000
      2       3.8680      2.00000
      3       6.4076      2.00000
      4       8.5708      2.00000
      5      17.1866      0.00000
      6      18.3418      0.00000
      7      18.5205      0.00000
      8      23.9274      0.00000

 k-point    15 :      -0.1000    0.1000    0.0000
  band No.  band energies     occupation 
      1     -11.0021      2.00000
      2       6.8701      2.00000
      3       7.4690      2.00000
      4       9.3349      2.00000
      5      16.1692      0.00000
      6      17.1964      0.00000
      7      17.5156      0.00000
      8      23.6699      0.00000

 k-point    16 :       0.2000    0.2000    0.0000
  band No.  band energies     occupation 
      1     -10.2672      2.00000
      2       6.5678      2.00000
      3       6.5678      2.00000
      4       6.7222      2.00000
      5      14.5524      0.00000
      6      19.9048      0.00000
      7      19.9049      0.00000
      8      21.7100      0.00000

 k-point    17 :       0.3000    0.2000    0.0000
  band No.  band energies     occupation 
      1      -9.2682      2.00000
      2       3.9609      2.00000
      3       5.7750      2.00000
      4       6.1525      2.00000
      5      14.9818      0.00000
      6      20.6481      0.00000
      7      21.1467      0.00000
      8      21.1838      0.00000

 k-point    18 :       0.4000    0.2000    0.0000
  band No.  band energies     occupation 
      1      -7.7616      2.00000
      2       0.9864      2.00000
      3       5.0906      2.00000
      4       5.3874      2.00000
      5      15.9312      0.00000
      6      21.0916      0.00000
      7      21.6583      0.00000
      8      21.7490      0.00000

 k-point    19 :       0.5000    0.2000    0.0000
  band No.  band energies     occupation 
      1      -5.8886      2.00000
      2      -1.7636      2.00000
      3       4.0874      2.00000
      4       5.4529      2.00000
      5      16.5109      0.00000
      6      21.3960      0.00000
      7      21.9438      0.00000
      8      23.1326      0.00000

 k-point    20 :      -0.4000    0.2000    0.0000
  band No.  band energies     occupation 
      1      -5.3387      2.00000
      2      -2.4217      2.00000
      3       3.4133      2.00000
      4       5.9515      2.00000
      5      17.0836      0.00000
      6      20.7096      0.00000
      7      21.9167      0.00000
      8      25.1235      0.00000

 k-point    21 :      -0.3000    0.2000    0.0000
  band No.  band energies     occupation 
      1      -7.1742      2.00000
      2       0.0966      2.00000
      3       3.1910      2.00000
      4       6.8034      2.00000
      5      17.8239      0.00000
      6      19.6844      0.00000
      7      21.6044      0.00000
      8      24.3463      0.00000

 k-point    22 :      -0.2000    0.2000    0.0000
  band No.  band energies     occupation 
      1      -8.8256      2.00000
      2       2.8111      2.00000
      3       3.7776      2.00000
      4       7.8177      2.00000
      5      18.3337      0.00000
      6      18.4364      0.00000
      7      20.3605      0.00000
      8      23.5653      0.00000

 k-point    23 :       0.3000    0.3000    0.0000
  band No.  band energies     occupation 
      1      -8.4563      2.00000
      2       3.7188      2.00000
      3       4.8991      2.00000
      4       4.8991      2.00000
      5      14.0610      0.00000
      6      18.5180      0.00000
      7      22.9820      0.00000
      8      22.9821      0.00000

 k-point    24 :       0.4000    0.3000    0.0000
  band No.  band energies     occupation 
      1      -7.1323      2.00000
      2       1.7356      2.00000
      3       3.7980      2.00000
      4       4.4257      2.00000
      5      14.6207      0.00000
      6      17.8545      0.00000
      7      23.9740      0.00000
      8      24.0328      0.00000

 k-point    25 :       0.5000    0.3000    0.0000
  band No.  band energies     occupation 
      1      -5.3819      2.00000
      2      -0.4550      2.00000
      3       2.2562      2.00000
      4       4.4226      2.00000
      5      15.3866      0.00000
      6      19.4027      0.00000
      7      23.9515      0.00000
      8      24.4164      0.00000

 k-point    26 :      -0.4000    0.3000    0.0000
  band No.  band energies     occupation 
      1      -4.0220      2.00000
      2      -1.8972      2.00000
      3       1.1037      2.00000
      4       4.8840      2.00000
      5      15.9667      0.00000
      6      22.4519      0.00000
      7      23.1037      0.00000
      8      24.5002      0.00000

 k-point    27 :      -0.3000    0.3000    0.0000
  band No.  band energies     occupation 
      1      -5.4657      2.00000
      2      -0.3626      2.00000
      3       0.9037      2.00000
      4       5.7403      2.00000
      5      16.8131      0.00000
      6      21.5952      0.00000
      7      24.0232      0.00000
      8      24.4161      0.00000

 k-point    28 :       0.4000    0.4000    0.0000
  band No.  band energies     occupation 
      1      -5.9946      2.00000
      2       0.3518      2.00000
      3       3.8401      2.00000
      4       3.8402      2.00000
      5      13.9949      0.00000
      6      16.0363      0.00000
      7      25.5862      0.00000
      8      25.5863      0.00000

 k-point    29 :       0.5000    0.4000    0.0000
  band No.  band energies     occupation 
      1      -4.4083      2.00000
      2      -1.2872      2.00000
      3       2.7254      2.00000
      4       3.7241      2.00000
      5      14.6674      0.00000
      6      16.1404      0.00000
      7      25.9682      0.00000
      8      26.1604      0.00000

 k-point    30 :      -0.4000    0.4000    0.0000
  band No.  band energies     occupation 
      1      -2.9372      2.00000
      2      -2.3284      2.00000
      3       0.9881      2.00000
      4       4.0889      2.00000
      5      15.1794      0.00000
      6      18.8455      0.00000
      7      25.0544      0.00000
      8      25.9048      0.00000

 k-point    31 :       0.5000    0.5000    0.0000
  band No.  band energies     occupation 
      1      -2.9917      2.00000
      2      -2.9917      2.00000
      3       3.4806      2.00000
      4       3.4806      2.00000
      5      14.5840      0.00000
      6      14.5840      0.00000
      7      26.7258      0.00000
      8      26.7259      0.00000

 k-point    32 :       0.3000    0.2000    0.1000
  band No.  band energies     occupation 
      1      -9.9038      2.00000
      2       4.7609      2.00000
      3       5.5682      2.00000
      4       7.9043      2.00000
      5      15.9675      0.00000
      6      19.2600      0.00000
      7      19.8489      0.00000
      8      22.5164      0.00000

 k-point    33 :       0.4000    0.2000    0.1000
  band No.  band energies     occupation 
      1      -8.5575      2.00000
      2       1.9216      2.00000
      3       4.6954      2.00000
      4       7.0055      2.00000
      5      17.0978      0.00000
      6      19.4324      0.00000
      7      21.0984      0.00000
      8      22.5822      0.00000

 k-point    34 :       0.5000    0.2000    0.1000
  band No.  band energies     occupation 
      1      -6.7639      2.00000
      2      -1.0571      2.00000
      3       4.4578      2.00000
      4       6.1336      2.00000
      5      17.8387      0.00000
      6      19.1701      0.00000
      7      21.6468      0.00000
      8      24.0096      0.00000

 k-point    35 :      -0.4000    0.2000    0.1000
  band No.  band energies     occupation 
      1      -5.2814      2.00000
      2      -2.9575      2.00000
      3       4.4517      2.00000
      4       5.7475      2.00000
      5      18.0275      0.00000
      6      19.0231      0.00000
      7      21.8054      0.00000
      8      25.1612      0.00000

 k-point    36 :       0.4000    0.3000    0.1000
  band No.  band energies     occupation 
      1      -8.1061      2.00000
      2       2.7205      2.00000
      3       3.9718      2.00000
      4       5.4553      2.00000
      5      15.5359      0.00000
      6      19.6156      0.00000
      7      21.6943      0.00000
      8      23.0083      0.00000

 k-point    37 :       0.5000    0.3000    0.1000
  band No.  band energies     occupation 
      1      -6.4704      2.00000
      2       0.3725      2.00000
      3       3.0847      2.00000
      4       4.6102      2.00000
      5      16.6731      0.00000
      6      20.1333      0.00000
      7      21.6845      0.00000
      8      24.0926      0.00000

 k-point    38 :      -0.4000    0.3000    0.1000
  band No.  band energies     occupation 
      1      -4.6732      2.00000
      2      -1.9044      2.00000
      3       2.4403      2.00000
      4       4.4442      2.00000
      5      17.2838      0.00000
      6      20.8711      0.00000
      7      22.8233      0.00000
      8      24.2634      0.00000

 k-point    39 :      -0.3000    0.3000    0.1000
  band No.  band energies     occupation 
      1      -5.2502      2.00000
      2      -1.1778      2.00000
      3       1.9704      2.00000
      4       5.0202      2.00000
      5      17.9289      0.00000
      6      20.1793      0.00000
      7      23.3717      0.00000
      8      24.4341      0.00000

 k-point    40 :      -0.2000    0.3000    0.1000
  band No.  band energies     occupation 
      1      -7.0775      2.00000
      2       1.1090      2.00000
      3       2.2758      2.00000
      4       6.0089      2.00000
      5      18.7246      0.00000
      6      18.7772      0.00000
      7      22.4904      0.00000
      8      23.1815      0.00000

 k-point    41 :       0.5000    0.4000    0.1000
  band No.  band energies     occupation 
      1      -5.6764      2.00000
      2       0.2610      2.00000
      3       2.9914      2.00000
      4       3.4854      2.00000
      5      15.4676      0.00000
      6      17.3385      0.00000
      7      24.1678      0.00000
      8      25.5292      0.00000

 k-point    42 :      -0.4000    0.4000    0.1000
  band No.  band energies     occupation 
      1      -3.8992      2.00000
      2      -1.2839      2.00000
      3       1.4236      2.00000
      4       3.3614      2.00000
      5      16.4391      0.00000
      6      19.0907      0.00000
      7      23.8103      0.00000
      8      25.4099      0.00000

 k-point    43 :      -0.3000    0.4000    0.1000
  band No.  band energies     occupation 
      1      -3.6010      2.00000
      2      -1.4567      2.00000
      3       0.4464      2.00000
      4       3.9804      2.00000
      5      17.0622      0.00000
      6      22.1563      0.00000
      7      22.8607      0.00000
      8      24.1887      0.00000

 k-point    44 :      -0.4000    0.5000    0.1000
  band No.  band energies     occupation 
      1      -2.7651      2.00000
      2      -2.7651      2.00000
      3       2.7659      2.00000
      4       2.7659      2.00000
      5      16.0028      0.00000
      6      16.0028      0.00000
      7      25.9489      0.00000
      8      25.9490      0.00000

 k-point    45 :      -0.4000    0.4000    0.2000
  band No.  band energies     occupation 
      1      -4.7800      2.00000
      2      -0.3804      2.00000
      3       1.4487      2.00000
      4       3.3950      2.00000
      5      18.8049      0.00000
      6      19.6960      0.00000
      7      21.6416      0.00000
      8      24.9966      0.00000

 k-point    46 :      -0.3000    0.4000    0.2000
  band No.  band energies     occupation 
      1      -3.4035      2.00000
      2      -1.5943      2.00000
      3       1.1343      2.00000
      4       2.8103      2.00000
      5      19.2908      0.00000
      6      20.4142      0.00000
      7      22.8989      0.00000
      8      23.1326      0.00000

 k-point    47 :      -0.3000    0.5000    0.2000
  band No.  band energies     occupation 
      1      -2.2937      2.00000
      2      -2.2937      2.00000
      3       1.6418      2.00000
      4       1.6418      2.00000
      5      19.2237      0.00000
      6      19.2237      0.00000
      7      23.3858      0.00000
      8      23.3859      0.00000


--------------------------------------------------------------------------------------------------------


 soft charge-density along one line, spin component           1
         0         1         2         3         4         5         6         7         8         9
 total charge-density along one line
 
 pseudopotential strength for first ion, spin component:           1
  9.428  12.520  -0.000   0.000  -0.000   0.000  -0.000   0.000
 12.520  16.624  -0.000   0.000  -0.000   0.000  -0.000   0.000
 -0.000  -0.000  -3.657  -0.000  -0.000   7.163   0.000   0.000
  0.000   0.000  -0.000  -3.657  -0.000   0.000   7.163   0.000
 -0.000  -0.000  -0.000  -0.000  -3.657   0.000   0.000   7.163
  0.000   0.000   7.163   0.000   0.000 -16.124  -0.000  -0.000
 -0.000  -0.000   0.000   7.163   0.000  -0.000 -16.124  -0.000
  0.000   0.000   0.000   0.000   7.163  -0.000  -0.000 -16.124
 total augmentation occupancy for first ion, spin component:           1
  7.644  -3.404  -0.000  -0.000   0.000   0.000   0.000  -0.000
 -3.404   1.599   0.000  -0.000  -0.000   0.000  -0.000   0.000
 -0.000   0.000   1.576  -0.000   0.000   0.132  -0.000   0.000
 -0.000  -0.000  -0.000   1.576   0.000  -0.000   0.132   0.000
  0.000  -0.000   0.000   0.000   1.576   0.000   0.000   0.132
  0.000   0.000   0.132  -0.000   0.000   0.013  -0.000   0.000
  0.000  -0.000  -0.000   0.132   0.000  -0.000   0.013   0.000
 -0.000   0.000   0.000   0.000   0.132   0.000   0.000   0.013


------------------------ aborting loop because EDIFF is reached ----------------------------------------


    CHARGE:  cpu time      0.0017: real time      0.0017
    FORLOC:  cpu time      0.0001: real time      0.0001
    FORNL :  cpu time      0.0012: real time      0.0012
    STRESS:  cpu time      0.0080: real time      0.0081
    FORCOR:  cpu time      0.0010: real time      0.0011
    FORHAR:  cpu time      0.0003: real time      0.0003
    MIXING:  cpu time      0.0002: real time      0.0002
    OFIELD:  cpu time      0.0000: real time      0.0000

  FORCE on cell =-STRESS in cart. coord.  units (eV):
  Direction    XX          YY          ZZ          XY          YZ          ZX
  --------------------------------------------------------------------------------------
  Alpha Z    29.13132    29.13132    29.13132
  Ewald    -116.20791  -116.20791  -116.20791    -0.00000     0.00000    -0.00000
  Hartree     8.77320     8.77320     8.77320    -0.00000    -0.00000    -0.00000
  E(xc)     -30.47866   -30.47866   -30.47866     0.00000     0.00000     0.00000
  Local     -10.96638   -10.96642   -10.96643     0.00004     0.00002     0.00003
  n-local    -7.18298    -6.95415    -7.67538    -0.76044    -0.08360     0.29012
  augment    -0.72945    -0.72941    -0.72940    -0.00003    -0.00001    -0.00002
  Kinetic   125.69545   127.41656   131.02878     5.46747     1.87974     0.68882
  Fock        0.00000     0.00000     0.00000     0.00000     0.00000     0.00000
  -------------------------------------------------------------------------------------
  Total       0.29822     0.29822     0.29822     0.00000    -0.00000     0.00000
  in kB      42.36082    42.36082    42.36082     0.00000    -0.00000     0.00000
  external pressure =       42.36 kB  Pullay stress =        0.00 kB


 VOLUME and BASIS-vectors are now :
 -----------------------------------------------------------------------------
  energy-cutoff  :      450.00
  volume of cell :       11.28
      direct lattice vectors                 reciprocal lattice vectors
     2.517300129  0.000000000  0.000000000     0.397251003 -0.229352973 -0.162177043
     1.258650065  2.180045861  0.000000000     0.000000000  0.458705947 -0.162177043
     1.258650065  0.726681953  2.055366948     0.000000000  0.000000000  0.486531128

  length of vectors
     2.517300129  2.517300129  2.517300129     0.486531128  0.486531128  0.486531128


 FORCES acting on ions
    electron-ion (+dipol)            ewald-force                    non-local-force                 convergence-correction
 -----------------------------------------------------------------------------------------------
   -.139E-05 -.803E-06 -.147E-05   -.514E-08 0.327E-08 -.272E-08   -.152E-16 -.393E-16 0.854E-17   0.517E-07 0.299E-07 0.211E-07
   0.139E-05 0.803E-06 0.147E-05   0.514E-08 -.327E-08 0.272E-08   0.923E-17 0.295E-16 -.145E-16   -.517E-07 -.299E-07 -.211E-07
 -----------------------------------------------------------------------------------------------
   -.544E-13 -.405E-13 -.220E-13   -.598E-16 0.887E-16 0.222E-15   -.592E-17 -.982E-17 -.599E-17   0.865E-14 0.526E-14 0.141E-13
 
 
 POSITION                                       TOTAL-FORCE (eV/Angst)
 -----------------------------------------------------------------------------------
      1.25865      0.72668      0.51384         0.000000      0.000000     -0.000000
      0.00000      0.00000      0.00000        -0.000000     -0.000000      0.000000
 -----------------------------------------------------------------------------------
    total drift:                               -0.000000     -0.000000     -0.000000


--------------------------------------------------------------------------------------------------------



  FREE ENERGIE OF THE ION-ELECTRON SYSTEM (eV)
  ---------------------------------------------------
  free  energy   TOTEN  =       -18.18709184 eV

  energy  without entropy=      -18.18709184  energy(sigma->0) =      -18.18709184
 


--------------------------------------------------------------------------------------------------------


    POTLOK:  cpu time      0.0025: real time      0.0025


--------------------------------------------------------------------------------------------------------


     LOOP+:  cpu time      0.7831: real time      0.8282
    4ORBIT:  cpu time      0.0000: real time      0.0000

 total amount of memory used by VASP MPI-rank0    30290. kBytes
=======================================================================

   base                                    :      30000. kBytes
   nonl-proj                               :        121. kBytes
   fftplans                                :         39. kBytes
   grid                                    :         55. kBytes
   one-center                              :          3. kBytes
   wavefun                                 :         72. kBytes
 
  
  
 General timing and accounting informations for this job:
 ========================================================
  
                  Total CPU time used (sec):        1.244
                            User time (sec):        0.934
                          System time (sec):        0.309
                         Elapsed time (sec):        1.797
  
                   Maximum memory used (kb):      170176.
                   Average memory used (kb):          N/A
  
                          Minor page faults:        10496
                          Major page faults:           56
                 Voluntary context switches:          997
