<?xml version="1.0" encoding="ISO-8859-1"?>
<modeling>
 <generator>
  <i name="program" type="string">vasp </i>
  <i name="version" type="string">6.5.1  </i>
  <i name="subversion" type="string">10Mar25 (build Feb 13 2026 23:13:13) complex                          parallel </i>
  <i name="platform" type="string">LinuxIFC </i>
  <i name="date" type="string">2026 06 23 </i>
  <i name="time" type="string">04:04:13 </i>
 </generator>
 <incar>
  <i type="string" name="PREC">Normal</i>
  <i type="string" name="ALGO">Fast</i>
  <i type="int" name="ISPIN">     1</i>
  <i type="int" name="NELMIN">     4</i>
  <i name="EDIFF">      0.00000100</i>
  <i type="int" name="NSW">     0</i>
  <i name="ENCUT">    450.00000000</i>
  <i type="logical" name="LREAL"> F  </i>
  <i type="int" name="ISMEAR">     0</i>
  <i name="SIGMA">      0.20000000</i>
  <i type="logical" name="LWAVE"> F  </i>
 </incar>
 <primitive_cell>
  <structure name="primitive_cell" >
   <crystal>
    <varray name="basis" >
     <v>       2.51730013       0.00000000       0.00000000 </v>
     <v>       1.25865006       2.18004586       0.00000000 </v>
     <v>       1.25865006       0.72668195       2.05536695 </v>
    </varray>
    <i name="volume">     11.27950384 </i>
    <varray name="rec_basis" >
     <v>       0.39725100      -0.22935297      -0.16217704 </v>
     <v>       0.00000000       0.45870595      -0.16217704 </v>
     <v>       0.00000000       0.00000000       0.48653113 </v>
    </varray>
   </crystal>
   <varray name="positions" >
    <v>       0.25000000       0.25000000       0.25000000 </v>
    <v>       0.00000000       0.00000000       0.00000000 </v>
   </varray>
  </structure>
  <varray name="primitive_index" >
   <v type="int" >        1 </v>
   <v type="int" >        2 </v>
  </varray>
 </primitive_cell>
 <kpoints>
  <generation param="Gamma">
   <v type="int" name="divisions">      10       10       10 </v>
   <v name="usershift">      0.00000000       0.00000000       0.00000000 </v>
   <v name="genvec1">      0.10000000      -0.00000000      -0.00000000 </v>
   <v name="genvec2">      0.00000000       0.10000000      -0.00000000 </v>
   <v name="genvec3">      0.00000000       0.00000000       0.10000000 </v>
   <v name="shift">      0.00000000       0.00000000       0.00000000 </v>
  </generation>
  <varray name="kpointlist" >
   <v>       0.00000000       0.00000000       0.00000000 </v>
   <v>       0.10000000       0.00000000       0.00000000 </v>
   <v>       0.20000000       0.00000000       0.00000000 </v>
   <v>       0.30000000       0.00000000       0.00000000 </v>
   <v>       0.40000000       0.00000000       0.00000000 </v>
   <v>       0.50000000       0.00000000       0.00000000 </v>
   <v>       0.10000000       0.10000000       0.00000000 </v>
   <v>       0.20000000       0.10000000       0.00000000 </v>
   <v>       0.30000000       0.10000000       0.00000000 </v>
   <v>       0.40000000       0.10000000       0.00000000 </v>
   <v>       0.50000000       0.10000000       0.00000000 </v>
   <v>      -0.40000000       0.10000000       0.00000000 </v>
   <v>      -0.30000000       0.10000000       0.00000000 </v>
   <v>      -0.20000000       0.10000000       0.00000000 </v>
   <v>      -0.10000000       0.10000000       0.00000000 </v>
   <v>       0.20000000       0.20000000       0.00000000 </v>
   <v>       0.30000000       0.20000000       0.00000000 </v>
   <v>       0.40000000       0.20000000       0.00000000 </v>
   <v>       0.50000000       0.20000000       0.00000000 </v>
   <v>      -0.40000000       0.20000000       0.00000000 </v>
   <v>      -0.30000000       0.20000000       0.00000000 </v>
   <v>      -0.20000000       0.20000000       0.00000000 </v>
   <v>       0.30000000       0.30000000       0.00000000 </v>
   <v>       0.40000000       0.30000000       0.00000000 </v>
   <v>       0.50000000       0.30000000       0.00000000 </v>
   <v>      -0.40000000       0.30000000       0.00000000 </v>
   <v>      -0.30000000       0.30000000       0.00000000 </v>
   <v>       0.40000000       0.40000000       0.00000000 </v>
   <v>       0.50000000       0.40000000       0.00000000 </v>
   <v>      -0.40000000       0.40000000       0.00000000 </v>
   <v>       0.50000000       0.50000000       0.00000000 </v>
   <v>       0.30000000       0.20000000       0.10000000 </v>
   <v>       0.40000000       0.20000000       0.10000000 </v>
   <v>       0.50000000       0.20000000       0.10000000 </v>
   <v>      -0.40000000       0.20000000       0.10000000 </v>
   <v>       0.40000000       0.30000000       0.10000000 </v>
   <v>       0.50000000       0.30000000       0.10000000 </v>
   <v>      -0.40000000       0.30000000       0.10000000 </v>
   <v>      -0.30000000       0.30000000       0.10000000 </v>
   <v>      -0.20000000       0.30000000       0.10000000 </v>
   <v>       0.50000000       0.40000000       0.10000000 </v>
   <v>      -0.40000000       0.40000000       0.10000000 </v>
   <v>      -0.30000000       0.40000000       0.10000000 </v>
   <v>      -0.40000000       0.50000000       0.10000000 </v>
   <v>      -0.40000000       0.40000000       0.20000000 </v>
   <v>      -0.30000000       0.40000000       0.20000000 </v>
   <v>      -0.30000000       0.50000000       0.20000000 </v>
  </varray>
  <varray name="weights" >
   <v>       0.00100000 </v>
   <v>       0.00800000 </v>
   <v>       0.00800000 </v>
   <v>       0.00800000 </v>
   <v>       0.00800000 </v>
   <v>       0.00400000 </v>
   <v>       0.00600000 </v>
   <v>       0.02400000 </v>
   <v>       0.02400000 </v>
   <v>       0.02400000 </v>
   <v>       0.02400000 </v>
   <v>       0.02400000 </v>
   <v>       0.02400000 </v>
   <v>       0.02400000 </v>
   <v>       0.01200000 </v>
   <v>       0.00600000 </v>
   <v>       0.02400000 </v>
   <v>       0.02400000 </v>
   <v>       0.02400000 </v>
   <v>       0.02400000 </v>
   <v>       0.02400000 </v>
   <v>       0.01200000 </v>
   <v>       0.00600000 </v>
   <v>       0.02400000 </v>
   <v>       0.02400000 </v>
   <v>       0.02400000 </v>
   <v>       0.01200000 </v>
   <v>       0.00600000 </v>
   <v>       0.02400000 </v>
   <v>       0.01200000 </v>
   <v>       0.00300000 </v>
   <v>       0.02400000 </v>
   <v>       0.04800000 </v>
   <v>       0.04800000 </v>
   <v>       0.02400000 </v>
   <v>       0.02400000 </v>
   <v>       0.04800000 </v>
   <v>       0.04800000 </v>
   <v>       0.04800000 </v>
   <v>       0.02400000 </v>
   <v>       0.02400000 </v>
   <v>       0.04800000 </v>
   <v>       0.02400000 </v>
   <v>       0.01200000 </v>
   <v>       0.02400000 </v>
   <v>       0.02400000 </v>
   <v>       0.01200000 </v>
  </varray>
 </kpoints>
 <parameters>
  <separator name="general" >
   <i type="string" name="SYSTEM">unknown system</i>
   <i type="logical" name="LCOMPAT"> F  </i>
  </separator>
  <separator name="electronic" >
   <i type="string" name="PREC">normal</i>
   <i name="ENMAX">    450.00000000</i>
   <i name="ENAUG">    644.87300000</i>
   <i name="EDIFF">      0.00000100</i>
   <i type="int" name="IALGO">    68</i>
   <i type="int" name="IWAVPR">    10</i>
   <i type="int" name="NBANDS">     8</i>
   <i type="int" name="NBANDSLOW">    -1</i>
   <i type="int" name="NBANDSHIGH">    -1</i>
   <i name="NELECT">      8.00000000</i>
   <i type="int" name="TURBO">     0</i>
   <i type="int" name="IRESTART">     0</i>
   <i type="int" name="NREBOOT">     0</i>
   <i type="int" name="NMIN">     0</i>
   <i name="EREF">      0.00000000</i>
   <separator name="electronic smearing" >
    <i type="int" name="ISMEAR">     0</i>
    <i name="SIGMA">      0.20000000</i>
    <i name="KSPACING">      0.50000000</i>
    <i type="logical" name="KGAMMA"> T  </i>
    <i type="logical" name="KBLOWUP"> T  </i>
   </separator>
   <separator name="electronic projectors" >
    <i type="logical" name="LREAL"> F  </i>
    <v name="ROPT">      0.00000000</v>
    <i type="int" name="LMAXPAW">  -100</i>
    <i type="int" name="LMAXMIX">     2</i>
    <i type="logical" name="NLSPLINE"> F  </i>
   </separator>
   <separator name="electronic startup" >
    <i type="int" name="ISTART">     0</i>
    <i type="int" name="ICHARG">     2</i>
    <i type="int" name="INIWAV">     1</i>
   </separator>
   <separator name="electronic spin" >
    <i type="int" name="ISPIN">     1</i>
    <i type="logical" name="LNONCOLLINEAR"> F  </i>
    <v name="MAGMOM">      1.00000000      1.00000000</v>
    <i name="NUPDOWN">     -1.00000000</i>
    <i type="logical" name="LSORBIT"> F  </i>
    <v name="SAXIS">      0.00000000      0.00000000      1.00000000</v>
    <i type="logical" name="LSPIRAL"> F  </i>
    <v name="QSPIRAL">      0.00000000      0.00000000      0.00000000</v>
    <i type="logical" name="LZEROZ"> F  </i>
   </separator>
   <separator name="electronic exchange-correlation" >
    <i type="logical" name="LASPH"> F  </i>
   </separator>
   <separator name="electronic convergence" >
    <i type="int" name="NELM">    60</i>
    <i type="int" name="NELMDL">    -5</i>
    <i type="int" name="NELMIN">     4</i>
    <i name="ENINI">    450.00000000</i>
    <separator name="electronic convergence detail" >
     <i type="logical" name="LDIAG"> T  </i>
     <i type="logical" name="LSUBROT"> F  </i>
     <i type="logical" name="LROBUST"> F  </i>
     <i type="int" name="ISEARCH">     0</i>
     <i name="WEIMIN">      0.00000000</i>
     <i name="EBREAK">      0.00000003</i>
     <i name="DEPER">      0.30000000</i>
     <i type="int" name="NRMM">     4</i>
     <i name="TIME">      0.40000000</i>
    </separator>
   </separator>
   <separator name="electronic mixer" >
    <i name="AMIX">      0.40000000</i>
    <i name="BMIX">      1.00000000</i>
    <i name="AMIN">      0.10000000</i>
    <i name="AMIX_MAG">      1.60000000</i>
    <i name="BMIX_MAG">      1.00000000</i>
    <separator name="electronic mixer details" >
     <i type="int" name="IMIX">     4</i>
     <i type="logical" name="MIXFIRST"> F  </i>
     <i type="int" name="MAXMIX">   -45</i>
     <i name="WC">    100.00000000</i>
     <i type="int" name="INIMIX">     1</i>
     <i type="int" name="MIXPRE">     1</i>
     <i type="int" name="MREMOVE">     5</i>
    </separator>
   </separator>
   <separator name="electronic dipolcorrection" >
    <i type="logical" name="LDIPOL"> F  </i>
    <i type="logical" name="LMONO"> F  </i>
    <i type="int" name="IDIPOL">     0</i>
    <i name="EPSILON">      1.00000000</i>
    <v name="DIPOL">   -100.00000000   -100.00000000   -100.00000000</v>
    <i name="EFIELD">      0.00000000</i>
    <i type="logical" name="LVACPOTAV"> F  </i>
   </separator>
  </separator>
  <separator name="grids" >
   <i type="int" name="NGX">    14</i>
   <i type="int" name="NGY">    14</i>
   <i type="int" name="NGZ">    14</i>
   <i type="int" name="NGXF">    28</i>
   <i type="int" name="NGYF">    28</i>
   <i type="int" name="NGZF">    28</i>
   <i type="logical" name="ADDGRID"> F  </i>
  </separator>
  <separator name="ionic" >
   <i type="int" name="NSW">     0</i>
   <i type="int" name="IBRION">    -1</i>
   <i type="int" name="MDALGO">     0</i>
   <i type="int" name="ISIF">     2</i>
   <i name="PSTRESS">      0.00000000</i>
   <i name="EDIFFG">      0.00001000</i>
   <i type="int" name="NFREE">     0</i>
   <i name="POTIM">      0.50000000</i>
   <i name="SMASS">     -3.00000000</i>
   <i name="SCALEE">      1.00000000</i>
  </separator>
  <separator name="ionic md" >
   <i name="TEBEG">      0.00010000</i>
   <i name="TEEND">      0.00010000</i>
   <i type="int" name="NBLOCK">     1</i>
   <i type="int" name="KBLOCK">     1</i>
   <i type="int" name="NPACO">   256</i>
   <i name="APACO">     10.00000000</i>
  </separator>
  <separator name="symmetry" >
   <i type="int" name="ISYM">     2</i>
   <i name="SYMPREC">      0.00001000</i>
  </separator>
  <separator name="dos" >
   <i type="int" name="LORBIT">     0</i>
   <v name="RWIGS">     -1.00000000</v>
   <i type="int" name="NEDOS">   301</i>
   <i name="EMIN">     10.00000000</i>
   <i name="EMAX">    -10.00000000</i>
   <i name="EFERMI">      0.00000000</i>
  </separator>
  <separator name="writing" >
   <i type="int" name="NWRITE">     2</i>
   <i type="logical" name="LWAVE"> F  </i>
   <i type="logical" name="LDOWNSAMPLE"> F  </i>
   <i type="logical" name="LCHARG"> T  </i>
   <i type="logical" name="LPARD"> F  </i>
   <i type="logical" name="LVTOT"> F  </i>
   <i type="logical" name="LVHAR"> F  </i>
   <i type="logical" name="LELF"> F  </i>
   <i type="logical" name="LOPTICS"> F  </i>
   <v name="STM">      0.00000000      0.00000000      0.00000000      0.00000000      0.00000000      0.00000000      0.00000000</v>
  </separator>
  <separator name="performance" >
   <i type="int" name="NPAR">     4</i>
   <i type="int" name="NSIM">     4</i>
   <i type="int" name="NBLK">    -1</i>
   <i type="logical" name="LPLANE"> T  </i>
   <i type="logical" name="LSCALAPACK"> T  </i>
   <i type="logical" name="LSCAAWARE"> F  </i>
   <i type="logical" name="LSCALU"> F  </i>
   <i type="logical" name="LASYNC"> F  </i>
   <i type="logical" name="LORBITALREAL"> F  </i>
  </separator>
  <separator name="miscellaneous" >
   <i type="int" name="IDIOT">     3</i>
   <i type="int" name="PHON_NSTRUCT">    -1</i>
   <i type="logical" name="LMUSIC"> F  </i>
   <v name="POMASS">     12.01100000</v>
   <v name="DARWINR">      0.00000000</v>
   <v name="DARWINV">      1.00000000</v>
   <i type="logical" name="LCORR"> T  </i>
  </separator>
  <i type="logical" name="GGA_COMPAT"> T  </i>
  <i type="logical" name="LBERRY"> F  </i>
  <i type="int" name="ICORELEVEL">     0</i>
  <i type="logical" name="LDAU"> F  </i>
  <i type="int" name="I_CONSTRAINED_M">     0</i>
  <separator name="electronic exchange-correlation" >
   <i type="string" name="GGA    ">PE</i>
   <i type="string" name="XC_C">1</i>
   <i type="int" name="VOSKOWN">     0</i>
   <i type="logical" name="LHFCALC"> F  </i>
   <i type="string" name="PRECFOCK"></i>
   <i type="logical" name="LSYMGRAD"> F  </i>
   <i type="logical" name="LHFONE"> F  </i>
   <i type="logical" name="LRHFCALC"> F  </i>
   <i type="logical" name="LTHOMAS"> F  </i>
   <i type="logical" name="LMODELHF"> F  </i>
   <i type="logical" name="LFOCKACE"> F  </i>
   <i name="ENCUT4O">     -1.00000000</i>
   <i type="int" name="EXXOEP">     0</i>
   <i type="int" name="FOURORBIT">     0</i>
   <i name="AEXX">      0.00000000</i>
   <i name="HFALPHA">      0.00000000</i>
   <i name="MCALPHA">      0.00000000</i>
   <i name="ALDAX">      1.00000000</i>
   <i name="AGGAX">      1.00000000</i>
   <i name="AMGGAX">      1.00000000</i>
   <i name="ALDAC">      1.00000000</i>
   <i name="AGGAC">      1.00000000</i>
   <i name="AMGGAC">      1.00000000</i>
   <i type="int" name="NKREDX">     1</i>
   <i type="int" name="NKREDY">     1</i>
   <i type="int" name="NKREDZ">     1</i>
   <i type="logical" name="SHIFTRED"> F  </i>
   <i type="logical" name="ODDONLY"> F  </i>
   <i type="logical" name="EVENONLY"> F  </i>
   <i type="int" name="LMAXFOCK">     0</i>
   <i type="int" name="NMAXFOCKAE">     0</i>
   <i type="logical" name="LFOCKAEDFT"> F  </i>
   <i name="HFSCREEN">      0.00000000</i>
   <i name="HFSCREENC">      0.00000000</i>
   <i type="int" name="NBANDSGWLOW">     0</i>
  </separator>
  <separator name="vdW DFT" >
   <i type="logical" name="LUSE_VDW"> F  </i>
   <i type="int" name="IVDW_NL">    -1</i>
   <i type="logical" name="LSPIN_VDW"> F  </i>
   <i name="ZAB_VDW">     -0.84910000</i>
   <i name="GAMMA_VDW">      1.39626340</i>
   <i name="ALPHA_VDW">      0.00000000</i>
   <i name="PARAM1">      0.12340000</i>
   <i name="PARAM2">      1.00000000</i>
   <i name="BPARAM">      6.30000000</i>
   <i name="CPARAM">      0.00930000</i>
  </separator>
  <separator name="model GW" >
   <i type="int" name="MODEL_GW">     0</i>
   <i name="MODEL_EPS0">      3.38385115</i>
   <i name="MODEL_ALPHA">      1.00000000</i>
  </separator>
  <separator name="linear response parameters" >
   <i type="logical" name="LEPSILON"> F  </i>
   <i type="logical" name="LRPA"> F  </i>
   <i type="logical" name="LNABLA"> F  </i>
   <i type="logical" name="LVEL"> F  </i>
   <i name="CSHIFT">      0.10000000</i>
   <i name="OMEGAMAX">     -1.00000000</i>
   <i name="DEG_THRESHOLD">      0.00200000</i>
   <i name="RTIME">     -0.10000000</i>
   <i name="WPLASMAI">      0.00000000</i>
   <v name="DFIELD">      0.00000000      0.00000000      0.00000000</v>
   <v name="WPLASMA">      0.00000000      0.00000000      0.00000000      0.00000000      0.00000000      0.00000000      0.00000000      0.00000000      0.00000000</v>
  </separator>
  <separator name="orbital magnetization" >
   <i type="logical" name="NUCIND"> F  </i>
   <v name="MAGPOS">      0.00000000      0.00000000      0.00000000</v>
   <i type="logical" name="LNICSALL"> T  </i>
   <i type="logical" name="ORBITALMAG"> F  </i>
   <i type="logical" name="LMAGBLOCH"> F  </i>
   <i type="logical" name="LCHIMAG"> F  </i>
   <i type="logical" name="LGAUGE"> T  </i>
   <i type="int" name="MAGATOM">     0</i>
   <v name="MAGDIPOL">      0.00000000      0.00000000      0.00000000</v>
   <v name="AVECCONST">      0.00000000      0.00000000      0.00000000</v>
  </separator>
  <separator name="response functions" >
   <i type="logical" name="LALL_IN_ONE"> F  </i>
   <i type="int" name="IALL_IN_ONE">    -1</i>
   <i type="int" name="NBANDS_WAVE">    -1</i>
   <i type="logical" name="LFINITE_TEMPERATURE"> F  </i>
   <i type="logical" name="LADDER"> F  </i>
   <i type="logical" name="LRPAFORCE"> F  </i>
   <i type="logical" name="LFXC"> F  </i>
   <i type="logical" name="LHARTREE"> T  </i>
   <i type="int" name="IBSE">     2</i>
   <v type="int" name="KPOINT">    -1     0     0     0</v>
   <i type="logical" name="LTCTC"> F  </i>
   <i type="logical" name="LTCTE"> F  </i>
   <i type="logical" name="LTETE"> F  </i>
   <i type="logical" name="LTRIPLET"> F  </i>
   <i type="logical" name="LFXCEPS"> F  </i>
   <i type="logical" name="LFXHEG"> F  </i>
   <i type="int" name="NATURALO">     2</i>
   <i type="logical" name="LHOLEGF"> F  </i>
   <i type="logical" name="L2ORDER"> F  </i>
   <i type="logical" name="LDMP1"> F  </i>
   <i type="logical" name="LMP2LT"> F  </i>
   <i type="logical" name="LSMP2LT"> F  </i>
   <i type="logical" name="LGWLF"> F  </i>
   <i name="ENCUTGW">     -1.60000002</i>
   <i name="ENCUTGWSOFT">     -1.60000002</i>
   <i name="ENCUTLF">     -1.00000000</i>
   <i type="logical" name="ESF_SPLINES"> F  </i>
   <i name="ESF_CONV">      0.01000000</i>
   <i type="int" name="ESF_NINTER">    15</i>
   <i type="int" name="LMAXMP2">    -1</i>
   <i name="SCISSOR">      0.00000000</i>
   <i type="int" name="NOMEGA">     0</i>
   <i type="int" name="NOMEGAR">     0</i>
   <i type="int" name="NBANDSGW">    -1</i>
   <i type="int" name="NBANDSO">    -1</i>
   <i type="int" name="NBANDSV">    -1</i>
   <i type="int" name="NELMGW">     1</i>
   <i type="int" name="NELMHF">     1</i>
   <i type="int" name="DIM">     3</i>
   <i type="int" name="IESPILON">     4</i>
   <i type="int" name="ANTIRES">     0</i>
   <i name="OMEGAMAX">    -30.00000000</i>
   <i name="OMEGAMIN">    -30.00000000</i>
   <i name="OMEGATL">   -200.00000000</i>
   <i type="int" name="OMEGAGRID">     0</i>
   <i name="CSHIFT">     -0.10000000</i>
   <i type="logical" name="LSELFENERGY"> F  </i>
   <i type="logical" name="LSPECTRAL"> F  </i>
   <i type="logical" name="LSPECTRALGW"> F  </i>
   <i type="logical" name="LSINGLES"> F  </i>
   <i type="logical" name="LFERMIGW"> F  </i>
   <i type="logical" name="ODDONLYGW"> F  </i>
   <i type="logical" name="EVENONLYGW"> F  </i>
   <i type="int" name="NKREDLFX">     1</i>
   <i type="int" name="NKREDLFY">     1</i>
   <i type="int" name="NKREDLFZ">     1</i>
   <i type="int" name="MAXMEM">  2800</i>
   <i type="int" name="TELESCOPE">     0</i>
   <i type="int" name="NTAUPAR">    -1</i>
   <i type="int" name="NOMEGAPAR">    -1</i>
   <i name="DAMP_NEWTON">      0.80000001</i>
   <i name="LAMBDA">      1.00000000</i>
  </separator>
  <separator name="External order field" >
   <i name="OFIELD_KAPPA">      0.00000000</i>
   <v name="OFIELD_K">      0.00000000      0.00000000      0.00000000</v>
   <i name="OFIELD_Q6_NEAR">      0.00000000</i>
   <i name="OFIELD_Q6_FAR">      0.00000000</i>
   <i name="OFIELD_A">      0.00000000</i>
  </separator>
  <separator name="optional k-points parameters" >
   <i type="int" name="KPOINTS_OPT_MODE">     1</i>
   <i type="logical" name="LKPOINTS_OPT"> F  </i>
  </separator>
 </parameters>
 <atominfo>
  <atoms>       2 </atoms>
  <types>       1 </types>
  <array name="atoms" >
   <dimension dim="1">ion</dimension>
   <field type="string">element</field>
   <field type="int">atomtype</field>
   <set>
    <rc><c>C </c><c>   1</c></rc>
    <rc><c>C </c><c>   1</c></rc>
   </set>
  </array>
  <array name="atomtypes" >
   <dimension dim="1">type</dimension>
   <field type="int">atomspertype</field>
   <field type="string">element</field>
   <field>mass</field>
   <field>valence</field>
   <field type="string">pseudopotential</field>
   <set>
    <rc><c>   2</c><c>C </c><c>     12.01100000</c><c>      4.00000000</c><c>  PAW_PBE C 08Apr2002                   </c></rc>
   </set>
  </array>
 </atominfo>
 <structure name="initialpos" >
  <crystal>
   <varray name="basis" >
    <v>       2.51730013       0.00000000       0.00000000 </v>
    <v>       1.25865006       2.18004586       0.00000000 </v>
    <v>       1.25865006       0.72668195       2.05536695 </v>
   </varray>
   <i name="volume">     11.27950384 </i>
   <varray name="rec_basis" >
    <v>       0.39725100      -0.22935297      -0.16217704 </v>
    <v>       0.00000000       0.45870595      -0.16217704 </v>
    <v>       0.00000000       0.00000000       0.48653113 </v>
   </varray>
  </crystal>
  <varray name="positions" >
   <v>       0.25000000       0.25000000       0.25000000 </v>
   <v>       0.00000000       0.00000000       0.00000000 </v>
  </varray>
 </structure>
 <calculation>
  <scstep>
   <time name="dav">    0.06    0.06</time>
   <time name="total">    0.06    0.09</time>
   <energy>
    <i name="alphaZ">     29.13132251 </i>
    <i name="ewald">   -348.62358043 </i>
    <i name="hartreedc">    -17.48913657 </i>
    <i name="XCdc">     27.44127174 </i>
    <i name="pawpsdc">    217.04409276 </i>
    <i name="pawaedc">   -218.18290438 </i>
    <i name="eentropy">     -0.00353114 </i>
    <i name="bandstr">     14.44543269 </i>
    <i name="atom">    294.28875697 </i>
    <i name="e_fr_energy">     -1.94827585 </i>
    <i name="e_wo_entrp">     -1.94474471 </i>
    <i name="e_0_energy">     -1.94651028 </i>
   </energy>
  </scstep>
  <scstep>
   <time name="dav">    0.07    0.08</time>
   <time name="total">    0.07    0.08</time>
   <energy>
    <i name="e_fr_energy">    -18.74622798 </i>
    <i name="e_wo_entrp">    -18.74622798 </i>
    <i name="e_0_energy">    -18.74622798 </i>
   </energy>
  </scstep>
  <scstep>
   <time name="dav">    0.05    0.05</time>
   <time name="total">    0.05    0.05</time>
   <energy>
    <i name="e_fr_energy">    -18.83498855 </i>
    <i name="e_wo_entrp">    -18.83498855 </i>
    <i name="e_0_energy">    -18.83498855 </i>
   </energy>
  </scstep>
  <scstep>
   <time name="dav">    0.07    0.07</time>
   <time name="total">    0.07    0.07</time>
   <energy>
    <i name="e_fr_energy">    -18.83510967 </i>
    <i name="e_wo_entrp">    -18.83510967 </i>
    <i name="e_0_energy">    -18.83510967 </i>
   </energy>
  </scstep>
  <scstep>
   <time name="dav">    0.05    0.05</time>
   <time name="total">    0.05    0.05</time>
   <energy>
    <i name="e_fr_energy">    -18.83510970 </i>
    <i name="e_wo_entrp">    -18.83510970 </i>
    <i name="e_0_energy">    -18.83510970 </i>
   </energy>
  </scstep>
  <scstep>
   <time name="diag">    0.05    0.05</time>
   <time name="diis">    0.02    0.02</time>
   <time name="orth">    0.00    0.00</time>
   <time name="total">    0.07    0.07</time>
   <energy>
    <i name="e_fr_energy">    -18.34735779 </i>
    <i name="e_wo_entrp">    -18.34735779 </i>
    <i name="e_0_energy">    -18.34735779 </i>
   </energy>
  </scstep>
  <scstep>
   <time name="diag">    0.03    0.03</time>
   <time name="diis">    0.02    0.02</time>
   <time name="orth">    0.00    0.00</time>
   <time name="total">    0.06    0.06</time>
   <energy>
    <i name="e_fr_energy">    -18.18315146 </i>
    <i name="e_wo_entrp">    -18.18315146 </i>
    <i name="e_0_energy">    -18.18315146 </i>
   </energy>
  </scstep>
  <scstep>
   <time name="diag">    0.03    0.03</time>
   <time name="diis">    0.02    0.02</time>
   <time name="orth">    0.00    0.00</time>
   <time name="total">    0.06    0.06</time>
   <energy>
    <i name="e_fr_energy">    -18.18685535 </i>
    <i name="e_wo_entrp">    -18.18685535 </i>
    <i name="e_0_energy">    -18.18685535 </i>
   </energy>
  </scstep>
  <scstep>
   <time name="diag">    0.03    0.03</time>
   <time name="diis">    0.02    0.02</time>
   <time name="orth">    0.00    0.00</time>
   <time name="total">    0.06    0.06</time>
   <energy>
    <i name="e_fr_energy">    -18.18706052 </i>
    <i name="e_wo_entrp">    -18.18706052 </i>
    <i name="e_0_energy">    -18.18706052 </i>
   </energy>
  </scstep>
  <scstep>
   <time name="diag">    0.03    0.03</time>
   <time name="diis">    0.02    0.02</time>
   <time name="orth">    0.00    0.00</time>
   <time name="total">    0.05    0.05</time>
   <energy>
    <i name="e_fr_energy">    -18.18708836 </i>
    <i name="e_wo_entrp">    -18.18708836 </i>
    <i name="e_0_energy">    -18.18708836 </i>
   </energy>
  </scstep>
  <scstep>
   <time name="diag">    0.03    0.03</time>
   <time name="diis">    0.02    0.02</time>
   <time name="orth">    0.00    0.00</time>
   <time name="total">    0.05    0.06</time>
   <energy>
    <i name="e_fr_energy">    -18.18709058 </i>
    <i name="e_wo_entrp">    -18.18709058 </i>
    <i name="e_0_energy">    -18.18709058 </i>
   </energy>
  </scstep>
  <scstep>
   <time name="diag">    0.03    0.03</time>
   <time name="diis">    0.02    0.02</time>
   <time name="orth">    0.00    0.00</time>
   <time name="total">    0.05    0.05</time>
   <energy>
    <i name="e_fr_energy">    -18.18709169 </i>
    <i name="e_wo_entrp">    -18.18709169 </i>
    <i name="e_0_energy">    -18.18709169 </i>
   </energy>
  </scstep>
  <scstep>
   <time name="diag">    0.03    0.03</time>
   <time name="diis">    0.01    0.01</time>
   <time name="orth">    0.00    0.00</time>
   <time name="total">    0.05    0.05</time>
   <energy>
    <i name="alphaZ">     29.13132251 </i>
    <i name="ewald">   -348.62358043 </i>
    <i name="hartreedc">    -26.32081157 </i>
    <i name="XCdc">     28.24874173 </i>
    <i name="pawpsdc">    783.76301052 </i>
    <i name="pawaedc">   -785.10197451 </i>
    <i name="eentropy">     -0.00000000 </i>
    <i name="bandstr">      6.42744295 </i>
    <i name="atom">    294.28875697 </i>
    <i name="e_fr_energy">    -18.18709184 </i>
    <i name="e_wo_entrp">    -18.18709184 </i>
    <i name="e_0_energy">    -18.18709184 </i>
   </energy>
  </scstep>
  <structure>
   <crystal>
    <varray name="basis" >
     <v>       2.51730013       0.00000000       0.00000000 </v>
     <v>       1.25865006       2.18004586       0.00000000 </v>
     <v>       1.25865006       0.72668195       2.05536695 </v>
    </varray>
    <i name="volume">     11.27950384 </i>
    <varray name="rec_basis" >
     <v>       0.39725100      -0.22935297      -0.16217704 </v>
     <v>       0.00000000       0.45870595      -0.16217704 </v>
     <v>       0.00000000       0.00000000       0.48653113 </v>
    </varray>
   </crystal>
   <varray name="positions" >
    <v>       0.25000000       0.25000000       0.25000000 </v>
    <v>       0.00000000       0.00000000       0.00000000 </v>
   </varray>
  </structure>
  <varray name="forces" >
   <v>       0.00000000       0.00000000      -0.00000000 </v>
   <v>      -0.00000000      -0.00000000       0.00000000 </v>
  </varray>
  <varray name="stress" >
   <v>      42.36082374       0.00000000       0.00000000 </v>
   <v>       0.00000000      42.36082374      -0.00000000 </v>
   <v>       0.00000000      -0.00000000      42.36082373 </v>
  </varray>
  <energy>
   <i name="e_fr_energy">    -18.18709184 </i>
   <i name="e_wo_entrp">    -18.18709184 </i>
   <i name="e_0_energy">    -18.18709184 </i>
  </energy>
  <time name="totalsc">    0.78    0.83</time>
  <eigenvalues>
   <array>
    <dimension dim="1">band</dimension>
    <dimension dim="2">kpoint</dimension>
    <dimension dim="3">spin</dimension>
    <field>eigene</field>
    <field>occ</field>
    <set>
     <set comment="spin 1">
      <set comment="kpoint 1">
       <r>  -11.7414    1.0000 </r>
       <r>    9.8111    1.0000 </r>
       <r>    9.8111    1.0000 </r>
       <r>    9.8111    1.0000 </r>
       <r>   15.4214    0.0000 </r>
       <r>   15.4215    0.0000 </r>
       <r>   15.4215    0.0000 </r>
       <r>   23.2728    0.0000 </r>
      </set>
      <set comment="kpoint 2">
       <r>  -11.4635    1.0000 </r>
       <r>    8.1297    1.0000 </r>
       <r>    9.3622    1.0000 </r>
       <r>    9.3623    1.0000 </r>
       <r>   16.0119    0.0000 </r>
       <r>   16.0119    0.0000 </r>
       <r>   16.3757    0.0000 </r>
       <r>   23.5047    0.0000 </r>
      </set>
      <set comment="kpoint 3">
       <r>  -10.6348    1.0000 </r>
       <r>    4.9119    1.0000 </r>
       <r>    8.4827    1.0000 </r>
       <r>    8.4828    1.0000 </r>
       <r>   17.1494    0.0000 </r>
       <r>   17.1495    0.0000 </r>
       <r>   17.6033    0.0000 </r>
       <r>   24.1533    0.0000 </r>
      </set>
      <set comment="kpoint 4">
       <r>   -9.2754    1.0000 </r>
       <r>    1.4990    1.0000 </r>
       <r>    7.6876    1.0000 </r>
       <r>    7.6876    1.0000 </r>
       <r>   17.9709    0.0000 </r>
       <r>   17.9709    0.0000 </r>
       <r>   18.3069    0.0000 </r>
       <r>   24.9381    0.0000 </r>
      </set>
      <set comment="kpoint 5">
       <r>   -7.4563    1.0000 </r>
       <r>   -1.6455    1.0000 </r>
       <r>    7.1740    1.0000 </r>
       <r>    7.1741    1.0000 </r>
       <r>   18.2608    0.0000 </r>
       <r>   18.2608    0.0000 </r>
       <r>   18.6389    0.0000 </r>
       <r>   25.4404    0.0000 </r>
      </set>
      <set comment="kpoint 6">
       <r>   -5.9334    1.0000 </r>
       <r>   -3.6231    1.0000 </r>
       <r>    6.9992    1.0000 </r>
       <r>    6.9992    1.0000 </r>
       <r>   18.2979    0.0000 </r>
       <r>   18.2979    0.0000 </r>
       <r>   18.7367    0.0000 </r>
       <r>   25.5759    0.0000 </r>
      </set>
      <set comment="kpoint 7">
       <r>  -11.3710    1.0000 </r>
       <r>    8.5774    1.0000 </r>
       <r>    8.5774    1.0000 </r>
       <r>    8.9414    1.0000 </r>
       <r>   15.1435    0.0000 </r>
       <r>   16.9733    0.0000 </r>
       <r>   16.9734    0.0000 </r>
       <r>   23.3710    0.0000 </r>
      </set>
      <set comment="kpoint 8">
       <r>  -10.7261    1.0000 </r>
       <r>    6.0312    1.0000 </r>
       <r>    7.6055    1.0000 </r>
       <r>    8.4721    1.0000 </r>
       <r>   15.5727    0.0000 </r>
       <r>   18.2832    0.0000 </r>
       <r>   18.3059    0.0000 </r>
       <r>   23.2768    0.0000 </r>
      </set>
      <set comment="kpoint 9">
       <r>   -9.5429    1.0000 </r>
       <r>    2.7459    1.0000 </r>
       <r>    6.8566    1.0000 </r>
       <r>    7.6004    1.0000 </r>
       <r>   16.6154    0.0000 </r>
       <r>   19.1412    0.0000 </r>
       <r>   19.2364    0.0000 </r>
       <r>   23.4679    0.0000 </r>
      </set>
      <set comment="kpoint 10">
       <r>   -7.8667    1.0000 </r>
       <r>   -0.4646    1.0000 </r>
       <r>    6.4792    1.0000 </r>
       <r>    6.7269    1.0000 </r>
       <r>   17.3355    0.0000 </r>
       <r>   19.4539    0.0000 </r>
       <r>   19.5469    0.0000 </r>
       <r>   24.3587    0.0000 </r>
      </set>
      <set comment="kpoint 11">
       <r>   -5.9895    1.0000 </r>
       <r>   -3.0735    1.0000 </r>
       <r>    6.0888    1.0000 </r>
       <r>    6.5079    1.0000 </r>
       <r>   17.7394    0.0000 </r>
       <r>   19.2018    0.0000 </r>
       <r>   19.6771    0.0000 </r>
       <r>   25.3616    0.0000 </r>
      </set>
      <set comment="kpoint 12">
       <r>   -6.5733    1.0000 </r>
       <r>   -2.3385    1.0000 </r>
       <r>    5.7936    1.0000 </r>
       <r>    6.9217    1.0000 </r>
       <r>   18.1377    0.0000 </r>
       <r>   18.7800    0.0000 </r>
       <r>   19.6150    0.0000 </r>
       <r>   25.4372    0.0000 </r>
      </set>
      <set comment="kpoint 13">
       <r>   -8.4752    1.0000 </r>
       <r>    0.5832    1.0000 </r>
       <r>    5.8945    1.0000 </r>
       <r>    7.6559    1.0000 </r>
       <r>   18.1627    0.0000 </r>
       <r>   18.4670    0.0000 </r>
       <r>   19.3150    0.0000 </r>
       <r>   24.6298    0.0000 </r>
      </set>
      <set comment="kpoint 14">
       <r>   -9.9959    1.0000 </r>
       <r>    3.8680    1.0000 </r>
       <r>    6.4076    1.0000 </r>
       <r>    8.5708    1.0000 </r>
       <r>   17.1866    0.0000 </r>
       <r>   18.3418    0.0000 </r>
       <r>   18.5205    0.0000 </r>
       <r>   23.9274    0.0000 </r>
      </set>
      <set comment="kpoint 15">
       <r>  -11.0021    1.0000 </r>
       <r>    6.8701    1.0000 </r>
       <r>    7.4690    1.0000 </r>
       <r>    9.3349    1.0000 </r>
       <r>   16.1692    0.0000 </r>
       <r>   17.1964    0.0000 </r>
       <r>   17.5156    0.0000 </r>
       <r>   23.6699    0.0000 </r>
      </set>
      <set comment="kpoint 16">
       <r>  -10.2672    1.0000 </r>
       <r>    6.5678    1.0000 </r>
       <r>    6.5678    1.0000 </r>
       <r>    6.7222    1.0000 </r>
       <r>   14.5524    0.0000 </r>
       <r>   19.9048    0.0000 </r>
       <r>   19.9049    0.0000 </r>
       <r>   21.7100    0.0000 </r>
      </set>
      <set comment="kpoint 17">
       <r>   -9.2682    1.0000 </r>
       <r>    3.9609    1.0000 </r>
       <r>    5.7750    1.0000 </r>
       <r>    6.1525    1.0000 </r>
       <r>   14.9818    0.0000 </r>
       <r>   20.6481    0.0000 </r>
       <r>   21.1467    0.0000 </r>
       <r>   21.1838    0.0000 </r>
      </set>
      <set comment="kpoint 18">
       <r>   -7.7616    1.0000 </r>
       <r>    0.9864    1.0000 </r>
       <r>    5.0906    1.0000 </r>
       <r>    5.3874    1.0000 </r>
       <r>   15.9312    0.0000 </r>
       <r>   21.0916    0.0000 </r>
       <r>   21.6583    0.0000 </r>
       <r>   21.7490    0.0000 </r>
      </set>
      <set comment="kpoint 19">
       <r>   -5.8886    1.0000 </r>
       <r>   -1.7636    1.0000 </r>
       <r>    4.0874    1.0000 </r>
       <r>    5.4529    1.0000 </r>
       <r>   16.5109    0.0000 </r>
       <r>   21.3960    0.0000 </r>
       <r>   21.9438    0.0000 </r>
       <r>   23.1326    0.0000 </r>
      </set>
      <set comment="kpoint 20">
       <r>   -5.3387    1.0000 </r>
       <r>   -2.4217    1.0000 </r>
       <r>    3.4133    1.0000 </r>
       <r>    5.9515    1.0000 </r>
       <r>   17.0836    0.0000 </r>
       <r>   20.7096    0.0000 </r>
       <r>   21.9167    0.0000 </r>
       <r>   25.1235    0.0000 </r>
      </set>
      <set comment="kpoint 21">
       <r>   -7.1742    1.0000 </r>
       <r>    0.0966    1.0000 </r>
       <r>    3.1910    1.0000 </r>
       <r>    6.8034    1.0000 </r>
       <r>   17.8239    0.0000 </r>
       <r>   19.6844    0.0000 </r>
       <r>   21.6044    0.0000 </r>
       <r>   24.3463    0.0000 </r>
      </set>
      <set comment="kpoint 22">
       <r>   -8.8256    1.0000 </r>
       <r>    2.8111    1.0000 </r>
       <r>    3.7776    1.0000 </r>
       <r>    7.8177    1.0000 </r>
       <r>   18.3337    0.0000 </r>
       <r>   18.4364    0.0000 </r>
       <r>   20.3605    0.0000 </r>
       <r>   23.5653    0.0000 </r>
      </set>
      <set comment="kpoint 23">
       <r>   -8.4563    1.0000 </r>
       <r>    3.7188    1.0000 </r>
       <r>    4.8991    1.0000 </r>
       <r>    4.8991    1.0000 </r>
       <r>   14.0610    0.0000 </r>
       <r>   18.5180    0.0000 </r>
       <r>   22.9820    0.0000 </r>
       <r>   22.9821    0.0000 </r>
      </set>
      <set comment="kpoint 24">
       <r>   -7.1323    1.0000 </r>
       <r>    1.7356    1.0000 </r>
       <r>    3.7980    1.0000 </r>
       <r>    4.4257    1.0000 </r>
       <r>   14.6207    0.0000 </r>
       <r>   17.8545    0.0000 </r>
       <r>   23.9740    0.0000 </r>
       <r>   24.0328    0.0000 </r>
      </set>
      <set comment="kpoint 25">
       <r>   -5.3819    1.0000 </r>
       <r>   -0.4550    1.0000 </r>
       <r>    2.2562    1.0000 </r>
       <r>    4.4226    1.0000 </r>
       <r>   15.3866    0.0000 </r>
       <r>   19.4027    0.0000 </r>
       <r>   23.9515    0.0000 </r>
       <r>   24.4164    0.0000 </r>
      </set>
      <set comment="kpoint 26">
       <r>   -4.0220    1.0000 </r>
       <r>   -1.8972    1.0000 </r>
       <r>    1.1037    1.0000 </r>
       <r>    4.8840    1.0000 </r>
       <r>   15.9667    0.0000 </r>
       <r>   22.4519    0.0000 </r>
       <r>   23.1037    0.0000 </r>
       <r>   24.5002    0.0000 </r>
      </set>
      <set comment="kpoint 27">
       <r>   -5.4657    1.0000 </r>
       <r>   -0.3626    1.0000 </r>
       <r>    0.9037    1.0000 </r>
       <r>    5.7403    1.0000 </r>
       <r>   16.8131    0.0000 </r>
       <r>   21.5952    0.0000 </r>
       <r>   24.0232    0.0000 </r>
       <r>   24.4161    0.0000 </r>
      </set>
      <set comment="kpoint 28">
       <r>   -5.9946    1.0000 </r>
       <r>    0.3518    1.0000 </r>
       <r>    3.8401    1.0000 </r>
       <r>    3.8402    1.0000 </r>
       <r>   13.9949    0.0000 </r>
       <r>   16.0363    0.0000 </r>
       <r>   25.5862    0.0000 </r>
       <r>   25.5863    0.0000 </r>
      </set>
      <set comment="kpoint 29">
       <r>   -4.4083    1.0000 </r>
       <r>   -1.2872    1.0000 </r>
       <r>    2.7254    1.0000 </r>
       <r>    3.7241    1.0000 </r>
       <r>   14.6674    0.0000 </r>
       <r>   16.1404    0.0000 </r>
       <r>   25.9682    0.0000 </r>
       <r>   26.1604    0.0000 </r>
      </set>
      <set comment="kpoint 30">
       <r>   -2.9372    1.0000 </r>
       <r>   -2.3284    1.0000 </r>
       <r>    0.9881    1.0000 </r>
       <r>    4.0889    1.0000 </r>
       <r>   15.1794    0.0000 </r>
       <r>   18.8455    0.0000 </r>
       <r>   25.0544    0.0000 </r>
       <r>   25.9048    0.0000 </r>
      </set>
      <set comment="kpoint 31">
       <r>   -2.9917    1.0000 </r>
       <r>   -2.9917    1.0000 </r>
       <r>    3.4806    1.0000 </r>
       <r>    3.4806    1.0000 </r>
       <r>   14.5840    0.0000 </r>
       <r>   14.5840    0.0000 </r>
       <r>   26.7258    0.0000 </r>
       <r>   26.7259    0.0000 </r>
      </set>
      <set comment="kpoint 32">
       <r>   -9.9038    1.0000 </r>
       <r>    4.7609    1.0000 </r>
       <r>    5.5682    1.0000 </r>
       <r>    7.9043    1.0000 </r>
       <r>   15.9675    0.0000 </r>
       <r>   19.2600    0.0000 </r>
       <r>   19.8489    0.0000 </r>
       <r>   22.5164    0.0000 </r>
      </set>
      <set comment="kpoint 33">
       <r>   -8.5575    1.0000 </r>
       <r>    1.9216    1.0000 </r>
       <r>    4.6954    1.0000 </r>
       <r>    7.0055    1.0000 </r>
       <r>   17.0978    0.0000 </r>
       <r>   19.4324    0.0000 </r>
       <r>   21.0984    0.0000 </r>
       <r>   22.5822    0.0000 </r>
      </set>
      <set comment="kpoint 34">
       <r>   -6.7639    1.0000 </r>
       <r>   -1.0571    1.0000 </r>
       <r>    4.4578    1.0000 </r>
       <r>    6.1336    1.0000 </r>
       <r>   17.8387    0.0000 </r>
       <r>   19.1701    0.0000 </r>
       <r>   21.6468    0.0000 </r>
       <r>   24.0096    0.0000 </r>
      </set>
      <set comment="kpoint 35">
       <r>   -5.2814    1.0000 </r>
       <r>   -2.9575    1.0000 </r>
       <r>    4.4517    1.0000 </r>
       <r>    5.7475    1.0000 </r>
       <r>   18.0275    0.0000 </r>
       <r>   19.0231    0.0000 </r>
       <r>   21.8054    0.0000 </r>
       <r>   25.1612    0.0000 </r>
      </set>
      <set comment="kpoint 36">
       <r>   -8.1061    1.0000 </r>
       <r>    2.7205    1.0000 </r>
       <r>    3.9718    1.0000 </r>
       <r>    5.4553    1.0000 </r>
       <r>   15.5359    0.0000 </r>
       <r>   19.6156    0.0000 </r>
       <r>   21.6943    0.0000 </r>
       <r>   23.0083    0.0000 </r>
      </set>
      <set comment="kpoint 37">
       <r>   -6.4704    1.0000 </r>
       <r>    0.3725    1.0000 </r>
       <r>    3.0847    1.0000 </r>
       <r>    4.6102    1.0000 </r>
       <r>   16.6731    0.0000 </r>
       <r>   20.1333    0.0000 </r>
       <r>   21.6845    0.0000 </r>
       <r>   24.0926    0.0000 </r>
      </set>
      <set comment="kpoint 38">
       <r>   -4.6732    1.0000 </r>
       <r>   -1.9044    1.0000 </r>
       <r>    2.4403    1.0000 </r>
       <r>    4.4442    1.0000 </r>
       <r>   17.2838    0.0000 </r>
       <r>   20.8711    0.0000 </r>
       <r>   22.8233    0.0000 </r>
       <r>   24.2634    0.0000 </r>
      </set>
      <set comment="kpoint 39">
       <r>   -5.2502    1.0000 </r>
       <r>   -1.1778    1.0000 </r>
       <r>    1.9704    1.0000 </r>
       <r>    5.0202    1.0000 </r>
       <r>   17.9289    0.0000 </r>
       <r>   20.1793    0.0000 </r>
       <r>   23.3717    0.0000 </r>
       <r>   24.4341    0.0000 </r>
      </set>
      <set comment="kpoint 40">
       <r>   -7.0775    1.0000 </r>
       <r>    1.1090    1.0000 </r>
       <r>    2.2758    1.0000 </r>
       <r>    6.0089    1.0000 </r>
       <r>   18.7246    0.0000 </r>
       <r>   18.7772    0.0000 </r>
       <r>   22.4904    0.0000 </r>
       <r>   23.1815    0.0000 </r>
      </set>
      <set comment="kpoint 41">
       <r>   -5.6764    1.0000 </r>
       <r>    0.2610    1.0000 </r>
       <r>    2.9914    1.0000 </r>
       <r>    3.4854    1.0000 </r>
       <r>   15.4676    0.0000 </r>
       <r>   17.3385    0.0000 </r>
       <r>   24.1678    0.0000 </r>
       <r>   25.5292    0.0000 </r>
      </set>
      <set comment="kpoint 42">
       <r>   -3.8992    1.0000 </r>
       <r>   -1.2839    1.0000 </r>
       <r>    1.4236    1.0000 </r>
       <r>    3.3614    1.0000 </r>
       <r>   16.4391    0.0000 </r>
       <r>   19.0907    0.0000 </r>
       <r>   23.8103    0.0000 </r>
       <r>   25.4099    0.0000 </r>
      </set>
      <set comment="kpoint 43">
       <r>   -3.6010    1.0000 </r>
       <r>   -1.4567    1.0000 </r>
       <r>    0.4464    1.0000 </r>
       <r>    3.9804    1.0000 </r>
       <r>   17.0622    0.0000 </r>
       <r>   22.1563    0.0000 </r>
       <r>   22.8607    0.0000 </r>
       <r>   24.1887    0.0000 </r>
      </set>
      <set comment="kpoint 44">
       <r>   -2.7651    1.0000 </r>
       <r>   -2.7651    1.0000 </r>
       <r>    2.7659    1.0000 </r>
       <r>    2.7659    1.0000 </r>
       <r>   16.0028    0.0000 </r>
       <r>   16.0028    0.0000 </r>
       <r>   25.9489    0.0000 </r>
       <r>   25.9490    0.0000 </r>
      </set>
      <set comment="kpoint 45">
       <r>   -4.7800    1.0000 </r>
       <r>   -0.3804    1.0000 </r>
       <r>    1.4487    1.0000 </r>
       <r>    3.3950    1.0000 </r>
       <r>   18.8049    0.0000 </r>
       <r>   19.6960    0.0000 </r>
       <r>   21.6416    0.0000 </r>
       <r>   24.9966    0.0000 </r>
      </set>
      <set comment="kpoint 46">
       <r>   -3.4035    1.0000 </r>
       <r>   -1.5943    1.0000 </r>
       <r>    1.1343    1.0000 </r>
       <r>    2.8103    1.0000 </r>
       <r>   19.2908    0.0000 </r>
       <r>   20.4142    0.0000 </r>
       <r>   22.8989    0.0000 </r>
       <r>   23.1326    0.0000 </r>
      </set>
      <set comment="kpoint 47">
       <r>   -2.2937    1.0000 </r>
       <r>   -2.2937    1.0000 </r>
       <r>    1.6418    1.0000 </r>
       <r>    1.6418    1.0000 </r>
       <r>   19.2237    0.0000 </r>
       <r>   19.2237    0.0000 </r>
       <r>   23.3858    0.0000 </r>
       <r>   23.3859    0.0000 </r>
      </set>
     </set>
    </set>
   </array>
  </eigenvalues>
  <separator name="orbital magnetization" >
   <v name="MAGDIPOLOUT">      0.00000000      0.00000000      0.00000000</v>
  </separator>
  <dos>
   <i name="efermi">     10.60681080 </i>
   <total>
    <array>
     <dimension dim="1">gridpoints</dimension>
     <dimension dim="2">spin</dimension>
     <field>energy</field>
     <field>total</field>
     <field>integrated</field>
     <set>
      <set comment="spin 1">
       <r>   -13.7414     0.0000     0.0000 </r>
       <r>   -13.5998     0.0000     0.0000 </r>
       <r>   -13.4582     0.0000     0.0000 </r>
       <r>   -13.3167     0.0000     0.0000 </r>
       <r>   -13.1751     0.0000     0.0000 </r>
       <r>   -13.0336     0.0000     0.0000 </r>
       <r>   -12.8920     0.0000     0.0000 </r>
       <r>   -12.7505     0.0000     0.0000 </r>
       <r>   -12.6089     0.0000     0.0000 </r>
       <r>   -12.4673     0.0000     0.0000 </r>
       <r>   -12.3258     0.0000     0.0000 </r>
       <r>   -12.1842     0.0000     0.0000 </r>
       <r>   -12.0427     0.0002     0.0000 </r>
       <r>   -11.9011     0.0017     0.0003 </r>
       <r>   -11.7596     0.0067     0.0012 </r>
       <r>   -11.6180     0.0217     0.0043 </r>
       <r>   -11.4764     0.0551     0.0121 </r>
       <r>   -11.3349     0.0736     0.0225 </r>
       <r>   -11.1933     0.0559     0.0304 </r>
       <r>   -11.0518     0.0610     0.0391 </r>
       <r>   -10.9102     0.0973     0.0528 </r>
       <r>   -10.7687     0.1487     0.0739 </r>
       <r>   -10.6271     0.1753     0.0987 </r>
       <r>   -10.4855     0.1101     0.1143 </r>
       <r>   -10.3440     0.0504     0.1214 </r>
       <r>   -10.2024     0.0634     0.1304 </r>
       <r>   -10.0609     0.1459     0.1510 </r>
       <r>    -9.9193     0.2462     0.1859 </r>
       <r>    -9.7777     0.2157     0.2164 </r>
       <r>    -9.6362     0.1444     0.2369 </r>
       <r>    -9.4946     0.1627     0.2599 </r>
       <r>    -9.3531     0.1950     0.2875 </r>
       <r>    -9.2115     0.2004     0.3159 </r>
       <r>    -9.0700     0.1278     0.3340 </r>
       <r>    -8.9284     0.0678     0.3436 </r>
       <r>    -8.7868     0.1047     0.3584 </r>
       <r>    -8.6453     0.2362     0.3918 </r>
       <r>    -8.5037     0.4014     0.4486 </r>
       <r>    -8.3622     0.3518     0.4984 </r>
       <r>    -8.2206     0.1893     0.5252 </r>
       <r>    -8.0791     0.1695     0.5492 </r>
       <r>    -7.9375     0.2197     0.5803 </r>
       <r>    -7.7959     0.2664     0.6180 </r>
       <r>    -7.6544     0.2210     0.6493 </r>
       <r>    -7.5128     0.1175     0.6660 </r>
       <r>    -7.3713     0.1026     0.6805 </r>
       <r>    -7.2297     0.2253     0.7124 </r>
       <r>    -7.0882     0.3815     0.7664 </r>
       <r>    -6.9466     0.3507     0.8160 </r>
       <r>    -6.8050     0.3128     0.8603 </r>
       <r>    -6.6635     0.3920     0.9158 </r>
       <r>    -6.5219     0.4463     0.9790 </r>
       <r>    -6.3804     0.3786     1.0326 </r>
       <r>    -6.2388     0.1904     1.0595 </r>
       <r>    -6.0973     0.1414     1.0795 </r>
       <r>    -5.9557     0.2700     1.1177 </r>
       <r>    -5.8141     0.3257     1.1638 </r>
       <r>    -5.6726     0.2687     1.2019 </r>
       <r>    -5.5310     0.2793     1.2414 </r>
       <r>    -5.3895     0.4733     1.3084 </r>
       <r>    -5.2479     0.6531     1.4009 </r>
       <r>    -5.1064     0.4660     1.4668 </r>
       <r>    -4.9648     0.1885     1.4935 </r>
       <r>    -4.8232     0.2014     1.5220 </r>
       <r>    -4.6817     0.3622     1.5733 </r>
       <r>    -4.5401     0.3557     1.6236 </r>
       <r>    -4.3986     0.2346     1.6568 </r>
       <r>    -4.2570     0.1485     1.6779 </r>
       <r>    -4.1154     0.1518     1.6994 </r>
       <r>    -3.9739     0.2962     1.7413 </r>
       <r>    -3.8323     0.3739     1.7942 </r>
       <r>    -3.6908     0.2879     1.8350 </r>
       <r>    -3.5492     0.2411     1.8691 </r>
       <r>    -3.4077     0.2275     1.9013 </r>
       <r>    -3.2661     0.1816     1.9270 </r>
       <r>    -3.1245     0.2072     1.9563 </r>
       <r>    -2.9830     0.3380     2.0042 </r>
       <r>    -2.8414     0.3677     2.0562 </r>
       <r>    -2.6999     0.2596     2.0930 </r>
       <r>    -2.5583     0.1906     2.1199 </r>
       <r>    -2.4168     0.3103     2.1639 </r>
       <r>    -2.2752     0.4367     2.2257 </r>
       <r>    -2.1336     0.3326     2.2728 </r>
       <r>    -1.9921     0.3132     2.3171 </r>
       <r>    -1.8505     0.4887     2.3863 </r>
       <r>    -1.7090     0.5068     2.4580 </r>
       <r>    -1.5674     0.4215     2.5177 </r>
       <r>    -1.4259     0.4566     2.5824 </r>
       <r>    -1.2843     0.6546     2.6750 </r>
       <r>    -1.1427     0.7857     2.7862 </r>
       <r>    -1.0012     0.6012     2.8713 </r>
       <r>    -0.8596     0.2666     2.9091 </r>
       <r>    -0.7181     0.0839     2.9210 </r>
       <r>    -0.5765     0.1568     2.9432 </r>
       <r>    -0.4350     0.3789     2.9968 </r>
       <r>    -0.2934     0.4057     3.0542 </r>
       <r>    -0.1518     0.1990     3.0824 </r>
       <r>    -0.0103     0.1109     3.0981 </r>
       <r>     0.1313     0.2172     3.1288 </r>
       <r>     0.2728     0.4107     3.1870 </r>
       <r>     0.4144     0.5670     3.2673 </r>
       <r>     0.5560     0.4921     3.3369 </r>
       <r>     0.6975     0.2789     3.3764 </r>
       <r>     0.8391     0.2109     3.4063 </r>
       <r>     0.9806     0.3957     3.4623 </r>
       <r>     1.1222     0.5853     3.5451 </r>
       <r>     1.2637     0.5333     3.6206 </r>
       <r>     1.4053     0.4972     3.6910 </r>
       <r>     1.5469     0.5354     3.7668 </r>
       <r>     1.6884     0.4775     3.8344 </r>
       <r>     1.8300     0.5011     3.9053 </r>
       <r>     1.9715     0.6029     3.9906 </r>
       <r>     2.1131     0.5239     4.0648 </r>
       <r>     2.2546     0.4256     4.1250 </r>
       <r>     2.3962     0.4627     4.1905 </r>
       <r>     2.5378     0.4684     4.2569 </r>
       <r>     2.6793     0.5852     4.3397 </r>
       <r>     2.8209     0.7786     4.4499 </r>
       <r>     2.9624     0.7075     4.5501 </r>
       <r>     3.1040     0.6119     4.6367 </r>
       <r>     3.2455     0.6331     4.7263 </r>
       <r>     3.3871     0.7335     4.8301 </r>
       <r>     3.5287     0.7022     4.9295 </r>
       <r>     3.6702     0.5588     5.0086 </r>
       <r>     3.8118     0.6783     5.1047 </r>
       <r>     3.9533     0.8487     5.2248 </r>
       <r>     4.0949     0.7392     5.3294 </r>
       <r>     4.2364     0.5234     5.4035 </r>
       <r>     4.3780     0.7296     5.5068 </r>
       <r>     4.5196     1.1404     5.6682 </r>
       <r>     4.6611     1.1133     5.8258 </r>
       <r>     4.8027     0.8757     5.9498 </r>
       <r>     4.9442     0.7264     6.0526 </r>
       <r>     5.0858     0.6118     6.1392 </r>
       <r>     5.2273     0.4158     6.1981 </r>
       <r>     5.3689     0.3819     6.2522 </r>
       <r>     5.5105     0.5233     6.3262 </r>
       <r>     5.6520     0.5928     6.4101 </r>
       <r>     5.7936     0.7167     6.5116 </r>
       <r>     5.9351     0.8821     6.6365 </r>
       <r>     6.0767     0.9769     6.7748 </r>
       <r>     6.2183     0.8335     6.8927 </r>
       <r>     6.3598     0.5557     6.9714 </r>
       <r>     6.5014     0.5082     7.0433 </r>
       <r>     6.6429     0.5381     7.1195 </r>
       <r>     6.7845     0.6206     7.2074 </r>
       <r>     6.9260     0.7586     7.3148 </r>
       <r>     7.0676     0.6738     7.4101 </r>
       <r>     7.2092     0.3828     7.4643 </r>
       <r>     7.3507     0.1897     7.4912 </r>
       <r>     7.4923     0.2667     7.5289 </r>
       <r>     7.6338     0.4971     7.5993 </r>
       <r>     7.7754     0.5333     7.6748 </r>
       <r>     7.9169     0.3650     7.7265 </r>
       <r>     8.0585     0.2021     7.7551 </r>
       <r>     8.2001     0.1084     7.7704 </r>
       <r>     8.3416     0.1397     7.7902 </r>
       <r>     8.4832     0.3120     7.8344 </r>
       <r>     8.6247     0.3835     7.8886 </r>
       <r>     8.7663     0.2179     7.9195 </r>
       <r>     8.9078     0.0756     7.9302 </r>
       <r>     9.0494     0.0428     7.9363 </r>
       <r>     9.1910     0.0607     7.9449 </r>
       <r>     9.3325     0.1292     7.9631 </r>
       <r>     9.4741     0.1423     7.9833 </r>
       <r>     9.6156     0.0670     7.9928 </r>
       <r>     9.7572     0.0228     7.9960 </r>
       <r>     9.8987     0.0169     7.9984 </r>
       <r>    10.0403     0.0091     7.9997 </r>
       <r>    10.1819     0.0020     8.0000 </r>
       <r>    10.3234     0.0002     8.0000 </r>
       <r>    10.4650     0.0000     8.0000 </r>
       <r>    10.6065     0.0000     8.0000 </r>
       <r>    10.7481     0.0000     8.0000 </r>
       <r>    10.8896     0.0000     8.0000 </r>
       <r>    11.0312     0.0000     8.0000 </r>
       <r>    11.1728     0.0000     8.0000 </r>
       <r>    11.3143     0.0000     8.0000 </r>
       <r>    11.4559     0.0000     8.0000 </r>
       <r>    11.5974     0.0000     8.0000 </r>
       <r>    11.7390     0.0000     8.0000 </r>
       <r>    11.8806     0.0000     8.0000 </r>
       <r>    12.0221     0.0000     8.0000 </r>
       <r>    12.1637     0.0000     8.0000 </r>
       <r>    12.3052     0.0000     8.0000 </r>
       <r>    12.4468     0.0000     8.0000 </r>
       <r>    12.5883     0.0000     8.0000 </r>
       <r>    12.7299     0.0000     8.0000 </r>
       <r>    12.8715     0.0000     8.0000 </r>
       <r>    13.0130     0.0000     8.0000 </r>
       <r>    13.1546     0.0000     8.0000 </r>
       <r>    13.2961     0.0000     8.0000 </r>
       <r>    13.4377     0.0000     8.0000 </r>
       <r>    13.5792     0.0002     8.0000 </r>
       <r>    13.7208     0.0027     8.0004 </r>
       <r>    13.8624     0.0187     8.0031 </r>
       <r>    14.0039     0.0521     8.0104 </r>
       <r>    14.1455     0.0608     8.0190 </r>
       <r>    14.2870     0.0372     8.0243 </r>
       <r>    14.4286     0.0702     8.0342 </r>
       <r>    14.5701     0.2196     8.0653 </r>
       <r>    14.7117     0.3230     8.1110 </r>
       <r>    14.8533     0.2452     8.1457 </r>
       <r>    14.9948     0.1944     8.1733 </r>
       <r>    15.1364     0.2092     8.2029 </r>
       <r>    15.2779     0.2456     8.2376 </r>
       <r>    15.4195     0.3849     8.2921 </r>
       <r>    15.5610     0.4922     8.3618 </r>
       <r>    15.7026     0.3797     8.4155 </r>
       <r>    15.8442     0.3661     8.4674 </r>
       <r>    15.9857     0.6459     8.5588 </r>
       <r>    16.1273     0.7176     8.6604 </r>
       <r>    16.2688     0.5029     8.7316 </r>
       <r>    16.4104     0.4776     8.7992 </r>
       <r>    16.5520     0.6313     8.8885 </r>
       <r>    16.6935     0.6401     8.9792 </r>
       <r>    16.8351     0.4872     9.0481 </r>
       <r>    16.9766     0.5243     9.1223 </r>
       <r>    17.1182     0.8887     9.2481 </r>
       <r>    17.2597     1.0839     9.4016 </r>
       <r>    17.4013     0.8478     9.5216 </r>
       <r>    17.5429     0.4845     9.5902 </r>
       <r>    17.6844     0.4517     9.6541 </r>
       <r>    17.8260     0.8109     9.7689 </r>
       <r>    17.9675     1.0549     9.9182 </r>
       <r>    18.1091     0.9570    10.0537 </r>
       <r>    18.2506     0.9423    10.1871 </r>
       <r>    18.3922     0.9830    10.3262 </r>
       <r>    18.5338     0.8179    10.4420 </r>
       <r>    18.6753     0.6934    10.5402 </r>
       <r>    18.8169     0.7451    10.6457 </r>
       <r>    18.9584     0.7737    10.7552 </r>
       <r>    19.1000     1.0490    10.9037 </r>
       <r>    19.2415     1.4801    11.1132 </r>
       <r>    19.3831     1.4945    11.3247 </r>
       <r>    19.5247     1.2654    11.5039 </r>
       <r>    19.6662     1.0867    11.6577 </r>
       <r>    19.8078     0.8154    11.7731 </r>
       <r>    19.9493     0.5168    11.8463 </r>
       <r>    20.0909     0.4976    11.9167 </r>
       <r>    20.2324     0.6002    12.0017 </r>
       <r>    20.3740     0.4887    12.0709 </r>
       <r>    20.5156     0.3414    12.1192 </r>
       <r>    20.6571     0.3456    12.1681 </r>
       <r>    20.7987     0.4404    12.2305 </r>
       <r>    20.9402     0.5306    12.3056 </r>
       <r>    21.0818     0.6728    12.4008 </r>
       <r>    21.2233     0.7003    12.5000 </r>
       <r>    21.3649     0.5058    12.5716 </r>
       <r>    21.5065     0.6054    12.6573 </r>
       <r>    21.6480     1.1592    12.8214 </r>
       <r>    21.7896     1.3626    13.0143 </r>
       <r>    21.9311     0.9111    13.1432 </r>
       <r>    22.0727     0.4694    13.2097 </r>
       <r>    22.2143     0.2706    13.2480 </r>
       <r>    22.3558     0.2942    13.2896 </r>
       <r>    22.4974     0.5378    13.3658 </r>
       <r>    22.6389     0.6815    13.4622 </r>
       <r>    22.7805     0.6691    13.5570 </r>
       <r>    22.9220     0.7797    13.6673 </r>
       <r>    23.0636     0.8853    13.7926 </r>
       <r>    23.2052     0.9346    13.9249 </r>
       <r>    23.3467     0.9279    14.0563 </r>
       <r>    23.4883     0.8062    14.1704 </r>
       <r>    23.6298     0.5653    14.2504 </r>
       <r>    23.7714     0.5464    14.3278 </r>
       <r>    23.9129     0.9186    14.4578 </r>
       <r>    24.0545     1.3462    14.6484 </r>
       <r>    24.1961     1.4185    14.8492 </r>
       <r>    24.3376     1.3063    15.0341 </r>
       <r>    24.4792     1.1318    15.1943 </r>
       <r>    24.6207     0.7182    15.2960 </r>
       <r>    24.7623     0.3200    15.3413 </r>
       <r>    24.9038     0.2265    15.3734 </r>
       <r>    25.0454     0.3813    15.4273 </r>
       <r>    25.1870     0.5154    15.5003 </r>
       <r>    25.3285     0.6144    15.5873 </r>
       <r>    25.4701     0.7460    15.6929 </r>
       <r>    25.6116     0.6009    15.7779 </r>
       <r>    25.7532     0.3147    15.8225 </r>
       <r>    25.8947     0.2887    15.8633 </r>
       <r>    26.0363     0.3781    15.9169 </r>
       <r>    26.1779     0.3038    15.9599 </r>
       <r>    26.3194     0.1507    15.9812 </r>
       <r>    26.4610     0.0448    15.9875 </r>
       <r>    26.6025     0.0192    15.9903 </r>
       <r>    26.7441     0.0308    15.9946 </r>
       <r>    26.8856     0.0271    15.9984 </r>
       <r>    27.0272     0.0096    15.9998 </r>
       <r>    27.1688     0.0013    16.0000 </r>
       <r>    27.3103     0.0001    16.0000 </r>
       <r>    27.4519     0.0000    16.0000 </r>
       <r>    27.5934     0.0000    16.0000 </r>
       <r>    27.7350     0.0000    16.0000 </r>
       <r>    27.8766     0.0000    16.0000 </r>
       <r>    28.0181     0.0000    16.0000 </r>
       <r>    28.1597     0.0000    16.0000 </r>
       <r>    28.3012     0.0000    16.0000 </r>
       <r>    28.4428     0.0000    16.0000 </r>
       <r>    28.5843     0.0000    16.0000 </r>
       <r>    28.7259     0.0000    16.0000 </r>
      </set>
     </set>
    </array>
   </total>
  </dos>
 </calculation>
 <structure name="finalpos" >
  <crystal>
   <varray name="basis" >
    <v>       2.51730013       0.00000000       0.00000000 </v>
    <v>       1.25865006       2.18004586       0.00000000 </v>
    <v>       1.25865006       0.72668195       2.05536695 </v>
   </varray>
   <i name="volume">     11.27950384 </i>
   <varray name="rec_basis" >
    <v>       0.39725100      -0.22935297      -0.16217704 </v>
    <v>       0.00000000       0.45870595      -0.16217704 </v>
    <v>       0.00000000       0.00000000       0.48653113 </v>
   </varray>
  </crystal>
  <varray name="positions" >
   <v>       0.25000000       0.25000000       0.25000000 </v>
   <v>       0.00000000       0.00000000       0.00000000 </v>
  </varray>
 </structure>
</modeling>
