ANIMSTEPS    6
CRYSTAL
PRIMVEC
   -1.786102789    0.000000000    1.786102789
    0.000000000    1.786102789    1.786102789
   -1.786102789    1.786102789    0.000000000
PRIMCOORD    1
      2   1
   C      0.00000   0.00000   0.00000  -0.00331  -0.03388   0.06198
   C     -0.89444   0.89444   0.89444  -0.00331  -0.03388   0.06198
PRIMCOORD    2
      2   1
   C      0.00000   0.00000   0.00000  -0.07053  -0.00184  -0.00477
   C     -0.89444   0.89444   0.89444  -0.07053  -0.00184  -0.00477
PRIMCOORD    3
      2   1
   C      0.00000   0.00000   0.00000   0.00390  -0.06204  -0.03371
   C     -0.89444   0.89444   0.89444   0.00390  -0.06204  -0.03371
PRIMCOORD    4
      2   1
   C      0.00000   0.00000   0.00000   0.04082  -0.04082  -0.04082
   C     -0.89444   0.89444   0.89444  -0.04082   0.04082   0.04082
PRIMCOORD    5
      2   1
   C      0.00000   0.00000   0.00000  -0.02887   0.02887  -0.05774
   C     -0.89444   0.89444   0.89444   0.02887  -0.02887   0.05774
PRIMCOORD    6
      2   1
   C      0.00000   0.00000   0.00000  -0.05000  -0.05000   0.00000
   C     -0.89444   0.89444   0.89444   0.05000   0.05000   0.00000
