/var/spool/slurmd/job07654/slurm_script: line 11: !#SBATCH: command not found
real-time non-blocking time  (microseconds, -R) unlimited
core file size              (blocks, -c) unlimited
data seg size               (kbytes, -d) unlimited
scheduling priority                 (-e) 0
file size                   (blocks, -f) unlimited
pending signals                     (-i) 505933
max locked memory           (kbytes, -l) unlimited
max memory size             (kbytes, -m) 114688000
open files                          (-n) 1024
pipe size                (512 bytes, -p) 8
POSIX message queues         (bytes, -q) 819200
real-time priority                  (-r) 0
stack size                  (kbytes, -s) unlimited
cpu time                   (seconds, -t) unlimited
max user processes                  (-u) 125621
virtual memory              (kbytes, -v) unlimited
file locks                          (-x) unlimited
 running   28 mpi-ranks, with    1 threads/rank, on    1 nodes
 distrk:  each k-point on   28 cores,    1 groups
 distr:  one band on    7 cores,    4 groups
 vasp.6.5.1 10Mar25 (build Feb 13 2026 23:13:13) complex                        
  
 POSCAR found type information on POSCAR C N 
 POSCAR found :  2 types and     215 ions
 -----------------------------------------------------------------------------
|                                                                             |
|           W    W    AA    RRRRR   N    N  II  N    N   GGGG   !!!           |
|           W    W   A  A   R    R  NN   N  II  NN   N  G    G  !!!           |
|           W    W  A    A  R    R  N N  N  II  N N  N  G       !!!           |
|           W WW W  AAAAAA  RRRRR   N  N N  II  N  N N  G  GGG   !            |
|           WW  WW  A    A  R   R   N   NN  II  N   NN  G    G                |
|           W    W  A    A  R    R  N    N  II  N    N   GGGG   !!!           |
|                                                                             |
|     You requested a magnetic or noncollinear calculation, but did not       |
|     specify the initial magnetic moment with the MAGMOM tag. Note that      |
|     a default of 9.302e-3 will be used for all atoms. This                  |
|     ferromagnetic setup may break the symmetry of the crystal, in           |
|     particular it may rule out finding an antiferromagnetic solution.       |
|     Thence, we recommend setting the initial magnetic moment manually       |
|     or verifying carefully that this magnetic setup is desired.             |
|                                                                             |
 -----------------------------------------------------------------------------

 scaLAPACK will be used
 LDA part: xc-table for (Slater+PW92), standard interpolation
 POSCAR, INCAR and KPOINTS ok, starting setup
 FFT: planning ... GRIDC
 FFT: planning ... GRID_SOFT
 FFT: planning ... GRID
 WAVECAR not read
 entering main loop
       N       E                     dE             d eps       ncg     rms          rms(c)
DAV:   1     0.295931125261E+04    0.29593E+04   -0.45411E+05  2160   0.153E+03
DAV:   2    -0.174398060964E+04   -0.47033E+04   -0.45080E+04  2624   0.298E+02
DAV:   3    -0.199535847899E+04   -0.25138E+03   -0.24889E+03  2592   0.668E+01
DAV:   4    -0.200195837299E+04   -0.65999E+01   -0.65814E+01  2656   0.105E+01
DAV:   5    -0.200212799800E+04   -0.16963E+00   -0.16930E+00  2592   0.169E+00BRMIX: very serious problems
 the old and the new charge density differ
 old charge density:   861.00000 new  861.99988
    0.578E+01
DAV:   6    -0.194989279263E+04    0.52235E+02   -0.41550E+01  2496   0.864E+00    0.344E+01
DAV:   7    -0.193291260863E+04    0.16980E+02   -0.49738E+01  2496   0.930E+00    0.837E+00
DAV:   8    -0.193317923446E+04   -0.26663E+00   -0.19237E+00  2584   0.199E+00    0.430E+00
DAV:   9    -0.193318448882E+04   -0.52544E-02   -0.30259E-01  2528   0.866E-01    0.115E+00
DAV:  10    -0.193319008599E+04   -0.55972E-02   -0.66133E-02  2568   0.372E-01    0.437E-01
DAV:  11    -0.193319074150E+04   -0.65551E-03   -0.76642E-03  2592   0.138E-01    0.161E-01
DAV:  12    -0.193319122802E+04   -0.48652E-03   -0.20357E-03  2592   0.643E-02    0.858E-02
DAV:  13    -0.193319141455E+04   -0.18653E-03   -0.36746E-04  2616   0.305E-02    0.503E-02
DAV:  14    -0.193319154705E+04   -0.13250E-03   -0.11093E-04  2584   0.177E-02    0.232E-02
DAV:  15    -0.193319157667E+04   -0.29617E-04   -0.30023E-05  2552   0.939E-03    0.990E-03
DAV:  16    -0.193319158023E+04   -0.35637E-05   -0.58939E-06  2360   0.390E-03    0.393E-03
DAV:  17    -0.193319158009E+04    0.14040E-06   -0.78015E-07  1608   0.158E-03
   1 F= -.19331916E+04 E0= -.19331916E+04  d E =0.000000E+00  mag=     2.0000
