unknown system                          
           1
    10.721136    0.000000    0.000000
     0.000000   10.721136    0.000000
     0.000000    0.000000   10.721136
   C    N 
   214     1
Direct configuration=     1
   0.08325581  0.08340296  0.08341086
   0.08359006  0.08329762  0.41677648
   0.08286994  0.08337712  0.74999151
   0.08365818  0.41678956  0.08300849
   0.08329711  0.41685255  0.41669765
   0.08294048  0.41666940  0.74987687
   0.08339651  0.75000968  0.08327015
   0.08355540  0.75009826  0.41657884
   0.08352669  0.74988002  0.74983816
   0.41667515  0.08337712  0.08379673
   0.41680649  0.08353262  0.41709968
   0.41621975  0.08262190  0.75044691
   0.41678980  0.41666940  0.08372619
   0.41838361  0.41758010  0.41832485
   0.41544174  0.41592507  0.75122493
   0.41682850  0.74988002  0.08313998
   0.41611334  0.75067032  0.41686994
   0.41720537  0.74915288  0.74946129
   0.74989019  0.08329762  0.08307660
   0.74994945  0.08366187  0.41671721
   0.74956699  0.08353262  0.74986017
   0.74996902  0.41685255  0.08336956
   0.75692453  0.41118378  0.40974213
   0.74834182  0.41758010  0.74828306
   0.75008783  0.75009826  0.08311127
   0.74993890  0.74955937  0.41672777
   0.74979673  0.75067032  0.75055333
   0.25004378  0.25000849  0.08379673
   0.25019929  0.25013983  0.41709968
   0.24928857  0.24955309  0.75044691
   0.24996428  0.58322352  0.08307660
   0.25032854  0.58328279  0.41671721
   0.25019929  0.58290032  0.74986017
   0.25006963  0.91658914  0.08341086
   0.24996428  0.91692340  0.41677648
   0.25004378  0.91620327  0.74999151
   0.58333607  0.25012313  0.08372619
   0.58424676  0.25171694  0.41832485
   0.58259174  0.24877507  0.75122493
   0.58351921  0.58330235  0.08336956
   0.57785044  0.59025787  0.40974213
   0.58424676  0.58167515  0.74828306
   0.58345623  0.91699151  0.08300849
   0.58351921  0.91663044  0.41669765
   0.58333607  0.91627381  0.74987687
   0.91654669  0.25016184  0.08313998
   0.91733699  0.24944667  0.41686994
   0.91581955  0.25053871  0.74946129
   0.91676493  0.58342116  0.08311127
   0.91622604  0.58327223  0.41672777
   0.91733699  0.58313006  0.75055333
   0.91667635  0.91672985  0.08327015
   0.91676493  0.91688873  0.41657884
   0.91654669  0.91686002  0.74983816
   0.25019145  0.08352478  0.25026424
   0.24967740  0.08301073  0.58357874
   0.24972824  0.08306158  0.91693842
   0.25054612  0.41687601  0.25054346
   0.24986237  0.41647600  0.58352400
   0.24967740  0.41642126  0.91698927
   0.25012814  0.75005760  0.24994240
   0.25054612  0.74945654  0.58312399
   0.25019145  0.74973576  0.91647522
   0.58354267  0.08387946  0.25054346
   0.58314267  0.08319571  0.58352400
   0.58308793  0.08301073  0.91698927
   0.58406291  0.41739624  0.25103169
   0.58314267  0.41647600  0.91680429
   0.58384485  0.75108934  0.24891066
   0.58406291  0.74896831  0.58260376
   0.58354267  0.74945654  0.91612054
   0.91672426  0.08346148  0.24994240
   0.91612321  0.08387946  0.58312399
   0.91640242  0.08352478  0.91647522
   0.91775601  0.41717819  0.24891066
   0.91563497  0.41739624  0.58260376
   0.91612321  0.41687601  0.91612054
   0.91664221  0.74997554  0.25002446
   0.91775601  0.75108934  0.58282181
   0.91672426  0.75005760  0.91653852
   0.08352669  0.25016184  0.25011998
   0.08294048  0.25012313  0.58333060
   0.08286994  0.25000849  0.91662288
   0.08355540  0.58342116  0.24990174
   0.08329711  0.58330235  0.58314745
   0.08359006  0.58322352  0.91670238
   0.08339651  0.91672985  0.24999032
   0.08365818  0.91699151  0.58321044
   0.08325581  0.91658914  0.91659704
   0.41720537  0.25053871  0.25084712
   0.41544174  0.24877507  0.58407493
   0.41621975  0.24955309  0.91737810
   0.41611334  0.58313006  0.24932968
   0.41838361  0.58167515  0.58241990
   0.41680649  0.58290032  0.91646738
   0.41682850  0.91686002  0.25011998
   0.41678980  0.91627381  0.58333060
   0.41667515  0.91620327  0.91662288
   0.74979673  0.24944667  0.24932968
   0.74834182  0.25171694  0.58241990
   0.74956699  0.25013983  0.91646738
   0.74993890  0.58327223  0.25044063
   0.75692453  0.59025787  0.58881622
   0.74994945  0.58328279  0.91633813
   0.75008783  0.91688873  0.24990174
   0.74996902  0.91663044  0.58314745
   0.74989019  0.91692340  0.91670238
   0.99990949  0.00009382  0.99990618
   0.00009993  0.00014616  0.33324964
   0.99967453  0.00029588  0.66660458
   0.99967453  0.33339542  0.99970412
   0.00016935  0.33351900  0.33323305
   0.99909494  0.33391031  0.66608969
   0.00009993  0.66675036  0.99985384
   0.99986202  0.66652703  0.33347297
   0.00016935  0.66676695  0.66648100
   0.33332343  0.99980141  0.00019859
   0.33352990  0.00021899  0.33348970
   0.33321886  0.99948633  0.66683653
   0.33321886  0.33316347  0.00051367
   0.33447601  0.33371197  0.33455314
   0.33246562  0.33270328  0.66729672
   0.33352990  0.66651030  0.99978101
   0.33346872  0.66673406  0.33326594
   0.33447601  0.66544686  0.66628803
   0.66663322  0.00008545  0.99991455
   0.66674745  0.00023928  0.33350773
   0.66653965  0.99985491  0.66656241
   0.66653965  0.33343759  0.00014509
   0.66804470  0.33489930  0.33450624
   0.66289685  0.33374990  0.66625010
   0.66674745  0.66649227  0.99976072
   0.66607749  0.66634382  0.33365618
   0.66804470  0.66549376  0.66510070
   0.16646808  0.16665676  0.00019859
   0.16688566  0.16686324  0.33348970
   0.16615300  0.16655219  0.66683653
   0.16675212  0.49996655  0.99991455
   0.16690595  0.50008078  0.33350773
   0.16652157  0.49987298  0.66656241
   0.16676049  0.83324282  0.99990618
   0.16681283  0.83343326  0.33324964
   0.16696254  0.83300786  0.66660458
   0.49983014  0.16655219  0.00051367
   0.50037863  0.16780934  0.33455314
   0.49936995  0.16579895  0.66729672
   0.50010425  0.49987298  0.00014509
   0.50156596  0.50137803  0.33450624
   0.50041657  0.49623019  0.66625010
   0.50006209  0.83300786  0.99970412
   0.50018566  0.83350268  0.33323305
   0.50057698  0.83242827  0.66608969
   0.83317697  0.16686324  0.99978101
   0.83340073  0.16680205  0.33326594
   0.83211352  0.16780934  0.66628803
   0.83315894  0.50008078  0.99976072
   0.83301049  0.49941082  0.33365618
   0.83216042  0.50137803  0.66510070
   0.83341703  0.83343326  0.99985384
   0.83319370  0.83319536  0.33347297
   0.83343362  0.83350268  0.66648100
   0.16676049  0.00009382  0.16675718
   0.16675212  0.00008545  0.50003345
   0.16646808  0.99980141  0.83334324
   0.16696254  0.33339542  0.16699214
   0.16652157  0.33343759  0.50012702
   0.16615300  0.33316347  0.83344781
   0.16681283  0.66675036  0.16656674
   0.16690595  0.66649227  0.49991922
   0.16688566  0.66651030  0.83313676
   0.50006209  0.00029588  0.16699214
   0.50010425  0.99985491  0.50012702
   0.49983014  0.99948633  0.83344781
   0.50057698  0.33391031  0.16757173
   0.50041657  0.33374990  0.50376981
   0.49936995  0.33270328  0.83420105
   0.50018566  0.66676695  0.16649732
   0.50156596  0.66549376  0.49862197
   0.50037863  0.66544686  0.83219066
   0.83341703  0.00014616  0.16656674
   0.83315894  0.00023928  0.49991922
   0.83317697  0.00021899  0.83313676
   0.83343362  0.33351900  0.16649732
   0.83216042  0.33489930  0.49862197
   0.83211352  0.33371197  0.83219066
   0.83319370  0.66652703  0.16680464
   0.83301049  0.66634382  0.50058918
   0.83340073  0.66673406  0.83319795
   0.99998909  0.16688833  0.16667757
   0.00019995  0.16649177  0.49982718
   0.99940424  0.16692027  0.83307973
   0.00067315  0.50003504  0.16599352
   0.99949896  0.50022822  0.49977178
   0.00019995  0.50017282  0.83350823
   0.00002925  0.83336258  0.16663742
   0.00067315  0.83400648  0.49996496
   0.99998909  0.83332243  0.83311167
   0.33358694  0.16692027  0.16726242
   0.33286659  0.16619992  0.50048194
   0.33291236  0.16624569  0.83375431
   0.33315844  0.50017282  0.16646671
   0.33388054  0.49981648  0.50018352
   0.33286659  0.49951806  0.83380008
   0.33355500  0.83332243  0.16667757
   0.33315844  0.83353329  0.49982718
   0.33358694  0.83273758  0.83307973
   0.66683949  0.16649177  0.16646671
   0.66648314  0.16721387  0.50018352
   0.66618473  0.16619992  0.83380008
   0.66689489  0.50022822  0.16716771
   0.66648314  0.49981648  0.83278613
   0.66670170  0.83400648  0.16599352
   0.66689489  0.83283229  0.49977178
   0.66683949  0.83353329  0.83350823
   0.57636851  0.40970184  0.59029816
