   2   2   0   0
  0.5639752E+01  0.2517300E-09  0.2517300E-09  0.2517300E-09  0.5000000E-15
  1.000000000000000E-004
  CAR 
 unknown system                          
     28.70822070    -13.74070020  301     10.73845388      1.00000000
    -13.741  0.0000E+00  0.0000E+00
    -13.599  0.0000E+00  0.0000E+00
    -13.458  0.0000E+00  0.0000E+00
    -13.316  0.0000E+00  0.0000E+00
    -13.175  0.0000E+00  0.0000E+00
    -13.033  0.0000E+00  0.0000E+00
    -12.892  0.6130E-17  0.8674E-18
    -12.750  0.1303E-13  0.1844E-14
    -12.609  0.1153E-10  0.1633E-11
    -12.467  0.3834E-08  0.5442E-09
    -12.326  0.4822E-06  0.6878E-07
    -12.184  0.2313E-04  0.3342E-05
    -12.043  0.4278E-03  0.6387E-04
    -11.901  0.3089E-02  0.5010E-03
    -11.760  0.8936E-02  0.1765E-02
    -11.618  0.1296E-01  0.3599E-02
    -11.477  0.2886E-01  0.7683E-02
    -11.335  0.8451E-01  0.1964E-01
    -11.194  0.1312E+00  0.3820E-01
    -11.052  0.1003E+00  0.5239E-01
    -10.911  0.4079E-01  0.5816E-01
    -10.769  0.3573E-01  0.6322E-01
    -10.628  0.9661E-01  0.7689E-01
    -10.486  0.1308E+00  0.9540E-01
    -10.345  0.1220E+00  0.1127E+00
    -10.203  0.2191E+00  0.1437E+00
    -10.062  0.3135E+00  0.1880E+00
     -9.920  0.2159E+00  0.2186E+00
     -9.779  0.7333E-01  0.2289E+00
     -9.637  0.2467E-01  0.2324E+00
     -9.496  0.4679E-01  0.2391E+00
     -9.354  0.7030E-01  0.2490E+00
     -9.213  0.1004E+00  0.2632E+00
     -9.071  0.2571E+00  0.2996E+00
     -8.930  0.4384E+00  0.3616E+00
     -8.788  0.3770E+00  0.4150E+00
     -8.647  0.1654E+00  0.4384E+00
     -8.505  0.9876E-01  0.4523E+00
     -8.364  0.2089E+00  0.4819E+00
     -8.222  0.2554E+00  0.5180E+00
     -8.081  0.2102E+00  0.5478E+00
     -7.939  0.2988E+00  0.5901E+00
     -7.798  0.3201E+00  0.6353E+00
     -7.656  0.1472E+00  0.6562E+00
     -7.515  0.3684E-01  0.6614E+00
     -7.373  0.5715E-01  0.6695E+00
     -7.232  0.1252E+00  0.6872E+00
     -7.090  0.1687E+00  0.7111E+00
     -6.949  0.3671E+00  0.7630E+00
     -6.807  0.7202E+00  0.8649E+00
     -6.666  0.6765E+00  0.9606E+00
     -6.524  0.2964E+00  0.1003E+01
     -6.383  0.9506E-01  0.1016E+01
     -6.241  0.1743E+00  0.1041E+01
     -6.100  0.3872E+00  0.1095E+01
     -5.958  0.4760E+00  0.1163E+01
     -5.817  0.3921E+00  0.1218E+01
     -5.675  0.3244E+00  0.1264E+01
     -5.534  0.2253E+00  0.1296E+01
     -5.392  0.7881E-01  0.1307E+01
     -5.251  0.3618E-01  0.1312E+01
     -5.109  0.1648E+00  0.1336E+01
     -4.968  0.4706E+00  0.1402E+01
     -4.826  0.7072E+00  0.1502E+01
     -4.685  0.6981E+00  0.1601E+01
     -4.543  0.4328E+00  0.1662E+01
     -4.402  0.1330E+00  0.1681E+01
     -4.260  0.3410E-01  0.1686E+01
     -4.119  0.1319E+00  0.1705E+01
     -3.977  0.4021E+00  0.1762E+01
     -3.836  0.4955E+00  0.1832E+01
     -3.694  0.2635E+00  0.1869E+01
     -3.553  0.8966E-01  0.1882E+01
     -3.411  0.4996E-01  0.1889E+01
     -3.270  0.8960E-01  0.1901E+01
     -3.128  0.1571E+00  0.1924E+01
     -2.987  0.1983E+00  0.1952E+01
     -2.845  0.3344E+00  0.1999E+01
     -2.704  0.5833E+00  0.2081E+01
     -2.562  0.6452E+00  0.2173E+01
     -2.421  0.3783E+00  0.2226E+01
     -2.279  0.1660E+00  0.2250E+01
     -2.138  0.1766E+00  0.2275E+01
     -1.996  0.2888E+00  0.2316E+01
     -1.855  0.5083E+00  0.2388E+01
     -1.714  0.5810E+00  0.2470E+01
     -1.572  0.4121E+00  0.2528E+01
     -1.431  0.4485E+00  0.2592E+01
     -1.289  0.5208E+00  0.2665E+01
     -1.148  0.3825E+00  0.2719E+01
     -1.006  0.4387E+00  0.2781E+01
     -0.865  0.5746E+00  0.2863E+01
     -0.723  0.4866E+00  0.2932E+01
     -0.582  0.3535E+00  0.2982E+01
     -0.440  0.2084E+00  0.3011E+01
     -0.299  0.1226E+00  0.3028E+01
     -0.157  0.2934E+00  0.3070E+01
     -0.016  0.5051E+00  0.3141E+01
      0.126  0.3578E+00  0.3192E+01
      0.267  0.1320E+00  0.3211E+01
      0.409  0.1353E+00  0.3230E+01
      0.550  0.2776E+00  0.3269E+01
      0.692  0.4922E+00  0.3339E+01
      0.833  0.6452E+00  0.3430E+01
      0.975  0.5698E+00  0.3511E+01
      1.116  0.4252E+00  0.3571E+01
      1.258  0.4935E+00  0.3641E+01
      1.399  0.6741E+00  0.3736E+01
      1.541  0.5223E+00  0.3810E+01
      1.682  0.1917E+00  0.3837E+01
      1.824  0.1212E+00  0.3854E+01
      1.965  0.3746E+00  0.3907E+01
      2.107  0.6730E+00  0.4003E+01
      2.248  0.7337E+00  0.4106E+01
      2.390  0.7432E+00  0.4212E+01
      2.531  0.6619E+00  0.4305E+01
      2.673  0.4307E+00  0.4366E+01
      2.814  0.3448E+00  0.4415E+01
      2.956  0.3650E+00  0.4467E+01
      3.097  0.4346E+00  0.4528E+01
      3.239  0.6342E+00  0.4618E+01
      3.380  0.1105E+01  0.4774E+01
      3.522  0.1458E+01  0.4980E+01
      3.663  0.1078E+01  0.5133E+01
      3.805  0.6737E+00  0.5228E+01
      3.946  0.6090E+00  0.5314E+01
      4.088  0.4806E+00  0.5382E+01
      4.229  0.5108E+00  0.5455E+01
      4.371  0.6834E+00  0.5551E+01
      4.512  0.6696E+00  0.5646E+01
      4.654  0.6151E+00  0.5733E+01
      4.795  0.6369E+00  0.5823E+01
      4.937  0.7356E+00  0.5927E+01
      5.078  0.7834E+00  0.6038E+01
      5.220  0.7167E+00  0.6140E+01
      5.361  0.6407E+00  0.6230E+01
      5.503  0.7581E+00  0.6338E+01
      5.644  0.1125E+01  0.6497E+01
      5.786  0.1169E+01  0.6662E+01
      5.927  0.6391E+00  0.6753E+01
      6.069  0.2559E+00  0.6789E+01
      6.210  0.3679E+00  0.6841E+01
      6.352  0.5573E+00  0.6920E+01
      6.493  0.5180E+00  0.6993E+01
      6.635  0.5334E+00  0.7069E+01
      6.776  0.6958E+00  0.7167E+01
      6.918  0.9467E+00  0.7301E+01
      7.059  0.8241E+00  0.7418E+01
      7.201  0.4346E+00  0.7479E+01
      7.342  0.2841E+00  0.7519E+01
      7.484  0.2065E+00  0.7548E+01
      7.625  0.1596E+00  0.7571E+01
      7.767  0.2922E+00  0.7612E+01
      7.908  0.4982E+00  0.7683E+01
      8.050  0.5998E+00  0.7768E+01
      8.191  0.4402E+00  0.7830E+01
      8.333  0.1759E+00  0.7855E+01
      8.474  0.7832E-01  0.7866E+01
      8.616  0.6086E-01  0.7875E+01
      8.757  0.3249E-01  0.7879E+01
      8.899  0.5823E-01  0.7887E+01
      9.040  0.1842E+00  0.7914E+01
      9.182  0.2785E+00  0.7953E+01
      9.323  0.1876E+00  0.7980E+01
      9.465  0.5548E-01  0.7987E+01
      9.606  0.1211E-01  0.7989E+01
      9.748  0.2104E-01  0.7992E+01
      9.889  0.3172E-01  0.7997E+01
     10.031  0.1934E-01  0.7999E+01
     10.172  0.4679E-02  0.8000E+01
     10.314  0.4447E-03  0.8000E+01
     10.455  0.1641E-04  0.8000E+01
     10.597  0.2325E-06  0.8000E+01
     10.738  0.1251E-08  0.8000E+01
     10.880  0.2540E-11  0.8000E+01
     11.021  0.1931E-14  0.8000E+01
     11.163  0.0000E+00  0.8000E+01
     11.304  0.0000E+00  0.8000E+01
     11.446  0.0000E+00  0.8000E+01
     11.587  0.0000E+00  0.8000E+01
     11.729  0.0000E+00  0.8000E+01
     11.870  0.0000E+00  0.8000E+01
     12.012  0.0000E+00  0.8000E+01
     12.153  0.0000E+00  0.8000E+01
     12.295  0.0000E+00  0.8000E+01
     12.436  0.0000E+00  0.8000E+01
     12.578  0.0000E+00  0.8000E+01
     12.719  0.0000E+00  0.8000E+01
     12.861  0.7172E-15  0.8000E+01
     13.002  0.1162E-11  0.8000E+01
     13.144  0.7078E-09  0.8000E+01
     13.285  0.1624E-06  0.8000E+01
     13.427  0.1414E-04  0.8000E+01
     13.568  0.4712E-03  0.8000E+01
     13.710  0.6086E-02  0.8001E+01
     13.851  0.3100E-01  0.8005E+01
     13.993  0.6548E-01  0.8015E+01
     14.134  0.7301E-01  0.8025E+01
     14.276  0.7554E-01  0.8036E+01
     14.417  0.7708E-01  0.8047E+01
     14.559  0.1003E+00  0.8061E+01
     14.700  0.2057E+00  0.8090E+01
     14.842  0.3679E+00  0.8142E+01
     14.983  0.4569E+00  0.8207E+01
     15.125  0.3604E+00  0.8258E+01
     15.266  0.1691E+00  0.8281E+01
     15.408  0.1383E+00  0.8301E+01
     15.549  0.2682E+00  0.8339E+01
     15.691  0.3827E+00  0.8393E+01
     15.832  0.4005E+00  0.8450E+01
     15.974  0.3933E+00  0.8505E+01
     16.115  0.4228E+00  0.8565E+01
     16.257  0.5172E+00  0.8638E+01
     16.398  0.5885E+00  0.8722E+01
     16.540  0.6852E+00  0.8819E+01
     16.681  0.9467E+00  0.8953E+01
     16.823  0.1084E+01  0.9106E+01
     16.964  0.7449E+00  0.9211E+01
     17.106  0.3042E+00  0.9254E+01
     17.247  0.3084E+00  0.9298E+01
     17.389  0.6816E+00  0.9395E+01
     17.530  0.8580E+00  0.9516E+01
     17.672  0.8712E+00  0.9639E+01
     17.813  0.1099E+01  0.9795E+01
     17.954  0.1337E+01  0.9984E+01
     18.096  0.1400E+01  0.1018E+02
     18.237  0.1241E+01  0.1036E+02
     18.379  0.9612E+00  0.1049E+02
     18.520  0.7591E+00  0.1060E+02
     18.662  0.4949E+00  0.1067E+02
     18.803  0.2444E+00  0.1071E+02
     18.945  0.2780E+00  0.1075E+02
     19.086  0.6069E+00  0.1083E+02
     19.228  0.1046E+01  0.1098E+02
     19.369  0.1285E+01  0.1116E+02
     19.511  0.1248E+01  0.1134E+02
     19.652  0.9930E+00  0.1148E+02
     19.794  0.8351E+00  0.1160E+02
     19.935  0.1081E+01  0.1175E+02
     20.077  0.1185E+01  0.1192E+02
     20.218  0.8286E+00  0.1203E+02
     20.360  0.4332E+00  0.1210E+02
     20.501  0.4135E+00  0.1215E+02
     20.643  0.7096E+00  0.1225E+02
     20.784  0.8308E+00  0.1237E+02
     20.926  0.5060E+00  0.1244E+02
     21.067  0.1772E+00  0.1247E+02
     21.209  0.2080E+00  0.1250E+02
     21.350  0.4845E+00  0.1257E+02
     21.492  0.7358E+00  0.1267E+02
     21.633  0.7848E+00  0.1278E+02
     21.775  0.5344E+00  0.1286E+02
     21.916  0.1997E+00  0.1289E+02
     22.058  0.1777E+00  0.1291E+02
     22.199  0.5838E+00  0.1299E+02
     22.341  0.1059E+01  0.1314E+02
     22.482  0.1052E+01  0.1329E+02
     22.624  0.9261E+00  0.1342E+02
     22.765  0.1253E+01  0.1360E+02
     22.907  0.1499E+01  0.1381E+02
     23.048  0.1351E+01  0.1400E+02
     23.190  0.1356E+01  0.1420E+02
     23.331  0.1290E+01  0.1438E+02
     23.473  0.7455E+00  0.1448E+02
     23.614  0.3559E+00  0.1453E+02
     23.756  0.3283E+00  0.1458E+02
     23.897  0.3370E+00  0.1463E+02
     24.039  0.3464E+00  0.1468E+02
     24.180  0.3622E+00  0.1473E+02
     24.322  0.3676E+00  0.1478E+02
     24.463  0.4478E+00  0.1484E+02
     24.605  0.6133E+00  0.1493E+02
     24.746  0.9324E+00  0.1506E+02
     24.888  0.1151E+01  0.1522E+02
     25.029  0.1067E+01  0.1538E+02
     25.171  0.8417E+00  0.1550E+02
     25.312  0.6945E+00  0.1559E+02
     25.454  0.7707E+00  0.1570E+02
     25.595  0.7863E+00  0.1581E+02
     25.737  0.5617E+00  0.1589E+02
     25.878  0.3566E+00  0.1594E+02
     26.020  0.1821E+00  0.1597E+02
     26.161  0.4640E-01  0.1598E+02
     26.303  0.5191E-02  0.1598E+02
     26.444  0.4994E-02  0.1598E+02
     26.586  0.2690E-01  0.1598E+02
     26.727  0.5968E-01  0.1599E+02
     26.869  0.5271E-01  0.1600E+02
     27.010  0.1851E-01  0.1600E+02
     27.152  0.2564E-02  0.1600E+02
     27.293  0.1386E-03  0.1600E+02
     27.435  0.2889E-05  0.1600E+02
     27.576  0.2296E-07  0.1600E+02
     27.718  0.6902E-10  0.1600E+02
     27.859  0.7795E-13  0.1600E+02
     28.001  0.3678E-16  0.1600E+02
     28.142  0.0000E+00  0.1600E+02
     28.284  0.0000E+00  0.1600E+02
     28.425  0.0000E+00  0.1600E+02
     28.567  0.0000E+00  0.1600E+02
     28.708  0.0000E+00  0.1600E+02
