C  N                                    
   1.00000000000000     
    10.7211360931000002    0.0000000000000000    0.0000000000000000
     0.0000000000000000   10.7211360931000002    0.0000000000000000
     0.0000000000000000    0.0000000000000000   10.7211360931000002
   C    N 
   214     1
Direct
     0.0832436411842394    0.0834278002426529    0.0834230248157581
     0.0835558650823955    0.0833596032092814    0.4167788454711072
     0.0828121956503338    0.0833532528980641    0.7499982586651797
     0.0836456017589953    0.4168178774660021    0.0830210642410023
     0.0833212130941448    0.4168944834547759    0.4166931144004877
     0.0828976638438164    0.4166531100480100    0.7498661551199319
     0.0834490725965154    0.7500339804434120    0.0832175934034822
     0.0836378294835214    0.7501407434751073    0.4165263760984388
     0.0835150486367979    0.7498541542901762    0.7497865264018628
     0.4166684083348215    0.0833532528980641    0.0838544703496638
     0.4167928871692865    0.0835200087979331    0.4171488972703727
     0.4161594695168986    0.0825340600762843    0.7505071974831026
     0.4168005118800693    0.4166531100480100    0.0837690021561812
     0.4184594238988595    0.4175349902055387    0.4184384739198279
     0.4152961791467149    0.4158666601674241    0.7513704878532792
     0.4168801405981384    0.7498541542901762    0.0831516173631996
     0.4163093797470339    0.7505508628424096    0.4168673813836250
     0.4172107776463534    0.7490969910084644    0.7494558893536478
     0.7498878215288940    0.0833596032092814    0.0831108009176020
     0.7499364628995977    0.0837433905151315    0.4167302041004035
     0.7495177697296285    0.0835200087979331    0.7498737798307147
     0.7499735525995135    0.4168944834547759    0.0833454529058528
     0.7566890541286497    0.4119160779807558    0.4099776128713515
     0.7482281930801733    0.4175349902055387    0.7482072431011488
     0.7501402909015624    0.7501407434751073    0.0830288365164762
     0.7500721278555602    0.7496843224110989    0.4165945391444410
     0.7497992856163762    0.7505508628424096    0.7503572872529674
     0.2500199198980653    0.2500017413348203    0.0838544703496638
     0.2501866757979343    0.2501262201692853    0.4171488972703727
     0.2492007270762855    0.2494928025168974    0.7505071974831026
     0.2500262702092826    0.5832211545288928    0.0831108009176020
     0.2504100575151327    0.5832697958995965    0.4167302041004035
     0.2501866757979343    0.5828511027296273    0.7498737798307147
     0.2500944672426542    0.9165769751842419    0.0834230248157581
     0.2500262702092826    0.9168891990823980    0.4167788454711072
     0.2500199198980653    0.9161455296503362    0.7499982586651797
     0.5833197760480076    0.2501338448800681    0.0837690021561812
     0.5842016562055363    0.2517927568988583    0.4184384739198279
     0.5825333261674217    0.2486295121467137    0.7513704878532792
     0.5835611494547734    0.5833068855995123    0.0833454529058528
     0.5785827439807534    0.5900223871286485    0.4099776128713515
     0.5842016562055363    0.5815615260801721    0.7482072431011488
     0.5834845434659996    0.9169789357589977    0.0830210642410023
     0.5835611494547734    0.9166545470941472    0.4166931144004877
     0.5833197760480076    0.9162309978438188    0.7498661551199319
     0.9165208212901774    0.2502134735981372    0.0831516173631996
     0.9172175298424108    0.2496427127470326    0.4168673813836250
     0.9157636580084656    0.2505441106463522    0.7494558893536478
     0.9168074104751085    0.5834736239015612    0.0830288365164762
     0.9163509894111002    0.5834054608555590    0.4165945391444410
     0.9172175298424108    0.5831326186163750    0.7503572872529674
     0.9167006474434132    0.9167824065965178    0.0832175934034822
     0.9168074104751085    0.9169711634835238    0.4165263760984388
     0.9165208212901774    0.9168483826368004    0.7497865264018628
     0.2501995386069993    0.0835328716069981    0.2503015896074245
     0.2496047215508312    0.0829380545508300    0.5836090967943548
     0.2496848120708250    0.0830181450708238    0.9169818549291762
     0.2506004442248724    0.4168837882876488    0.2505948506431181
     0.2498519885190404    0.4164364930601323    0.5835635069398677
     0.2496047215508312    0.4163909032056452    0.9170619454491700
     0.2502287027654049    0.7500530180139151    0.2499469819860849
     0.2506004442248724    0.7494051493568819    0.5831162117123512
     0.2501995386069993    0.7496984103925755    0.9164671283930019
     0.5835504542876464    0.0839337772248712    0.2505948506431181
     0.5831031590601299    0.0831853215190392    0.5835635069398677
     0.5830575692056428    0.0829380545508300    0.9170619454491700
     0.5840821753599030    0.4174155093599055    0.2510279219410947
     0.5831031590601299    0.4164364930601323    0.9168146784809608
     0.5839543113631649    0.7511129832652870    0.2488870167347130
     0.5840821753599030    0.7489720780589053    0.5825844906400945
     0.5835504542876464    0.7494051493568819    0.9160662227751288
     0.9167196850139163    0.0835620357654037    0.2499469819860849
     0.9160718163568831    0.0839337772248712    0.5831162117123512
     0.9163650773925767    0.0835328716069981    0.9164671283930019
     0.9177796502652882    0.4172876453631673    0.2488870167347130
     0.9156387450589065    0.4174155093599055    0.5825844906400945
     0.9160718163568831    0.4168837882876488    0.9160662227751288
     0.9167423802966255    0.7500757132966243    0.2499242867033757
     0.9177796502652882    0.7511129832652870    0.5827123546368327
     0.9167196850139163    0.7500530180139151    0.9164379642345963
     0.0835150486367979    0.2502134735981372    0.2501458457098238
     0.0828976638438164    0.2501338448800681    0.5833468899519900
     0.0828121956503338    0.2500017413348203    0.9166467471019359
     0.0836378294835214    0.5834736239015612    0.2498592565248927
     0.0833212130941448    0.5833068855995123    0.5831055165452241
     0.0835558650823955    0.5832211545288928    0.9166403967907186
     0.0834490725965154    0.9167824065965178    0.2499660195565951
     0.0836456017589953    0.9169789357589977    0.5831821225339979
     0.0832436411842394    0.9165769751842419    0.9165721997573471
     0.4172107776463534    0.2505441106463522    0.2509030089915356
     0.4152961791467149    0.2486295121467137    0.5841333398325759
     0.4161594695168986    0.2494928025168974    0.9174659399237157
     0.4163093797470339    0.5831326186163750    0.2494491371575904
     0.4184594238988595    0.5815615260801721    0.5824650097944613
     0.4167928871692865    0.5828511027296273    0.9164799912020669
     0.4168801405981384    0.9168483826368004    0.2501458457098238
     0.4168005118800693    0.9162309978438188    0.5833468899519900
     0.4166684083348215    0.9161455296503362    0.9166467471019359
     0.7497992856163762    0.2496427127470326    0.2494491371575904
     0.7482281930801733    0.2517927568988583    0.5824650097944613
     0.7495177697296285    0.2501262201692853    0.9164799912020669
     0.7500721278555602    0.5834054608555590    0.2503156775889011
     0.7566890541286497    0.5900223871286485    0.5880839220192442
     0.7499364628995977    0.5832697958995965    0.9162566094848685
     0.7501402909015624    0.9169711634835238    0.2498592565248927
     0.7499735525995135    0.9166545470941472    0.5831055165452241
     0.7498878215288940    0.9168891990823980    0.9166403967907186
     0.9999051796557481    0.0001183292167113    0.9998816707832887
     0.0001182749729125    0.0002248159140663    0.3332283111460796
     0.9996363287840211    0.0002989402273812    0.6665758880096035
     0.9996363287840211    0.3334241119903965    0.9997010597726188
     0.0001530878380933    0.3336119531612525    0.3332293738615562
     0.9990656479576785    0.3339146885553745    0.6660853114446255
     0.0001182749729125    0.6667716888539204    0.9997751840859337
     0.9999719082068879    0.6666194731678061    0.3333805268321939
     0.0001530878380933    0.6667706261384438    0.6663880468387475
     0.3333194054477531    0.9997660166069977    0.0002339833930023
     0.3335614973734735    0.0002057486327729    0.3335167566804174
     0.3331756189140407    0.9994139391264625    0.6668650443358715
     0.3331756189140407    0.3331349556641285    0.0005860608735375
     0.3345051268703045    0.3337092018401790    0.3346178888954796
     0.3323652890589202    0.3326150940326826    0.6673849059673174
     0.3335614973734735    0.6664832433195826    0.9997942513672271
     0.3336005865814400    0.6667034929298552    0.3332965070701448
     0.3345051268703045    0.6653821111045204    0.6662907981598210
     0.6666220139484764    0.0000607348309742    0.9999392651690258
     0.6667778178337471    0.0003002469644713    0.3335066489916727
     0.6665186349119310    0.9998400368016647    0.6665601287274256
     0.6665186349119310    0.3334398712725744    0.0001599631983353
     0.6679669067220928    0.3351217279140428    0.3346354437710701
     0.6626525465776680    0.3336019130566825    0.6663980869433175
     0.6667778178337471    0.6664933510083273    0.9996997530355287
     0.6662137736891438    0.6664735727845184    0.3335264272154816
     0.6679669067220928    0.6653645562289299    0.6648782720859572
     0.1664326836069989    0.1666527394477555    0.0002339833930023
     0.1668724156327741    0.1668948313734759    0.3335167566804174
     0.1660806061264637    0.1665089529140431    0.6668650443358715
     0.1667274018309755    0.4999553469484752    0.9999392651690258
     0.1669669139644725    0.5001111508337459    0.3335066489916727
     0.1665067038016659    0.4998519679119298    0.6665601287274256
     0.1667849962167125    0.8332385126557469    0.9998816707832887
     0.1668914829140675    0.8334516079729113    0.3332283111460796
     0.1669656072273824    0.8329696617840199    0.6665758880096035
     0.4998016226641298    0.1665089529140431    0.0005860608735375
     0.5003758688401803    0.1678384608703070    0.3346178888954796
     0.4992817610326838    0.1656986230589226    0.6673849059673174
     0.5001065382725756    0.4998519679119298    0.0001599631983353
     0.5017883949140440    0.5013002397220916    0.3346354437710701
     0.5002685800566837    0.4959858795776668    0.6663980869433175
     0.5000907789903977    0.8329696617840199    0.9997010597726188
     0.5002786201612537    0.8334864208380921    0.3332293738615562
     0.5005813555553758    0.8323989809576773    0.6660853114446255
     0.8331499093195802    0.1668948313734759    0.9997942513672271
     0.8333701589298528    0.1669339205814424    0.3332965070701448
     0.8320487771045180    0.1678384608703070    0.6662907981598210
     0.8331600170083249    0.5001111508337459    0.9996997530355287
     0.8331402387845159    0.4995471066891426    0.3335264272154816
     0.8320312222289274    0.5013002397220916    0.6648782720859572
     0.8334383548539179    0.8334516079729113    0.9997751840859337
     0.8332861391678037    0.8333052412068866    0.3333805268321939
     0.8334372921384414    0.8334864208380921    0.6663880468387475
     0.1667849962167125    0.0001183292167113    0.1667614873442531
     0.1667274018309755    0.0000607348309742    0.5000446530515248
     0.1664326836069989    0.9997660166069977    0.8333472605522445
     0.1669656072273824    0.3334241119903965    0.1670303382159801
     0.1665067038016659    0.3334398712725744    0.5001480320880702
     0.1660806061264637    0.3331349556641285    0.8334910470859569
     0.1668914829140675    0.6667716888539204    0.1665483920270887
     0.1669669139644725    0.6664933510083273    0.4998888491662541
     0.1668724156327741    0.6664832433195826    0.8331051686265241
     0.5000907789903977    0.0002989402273812    0.1670303382159801
     0.5001065382725756    0.9998400368016647    0.5001480320880702
     0.4998016226641298    0.9994139391264625    0.8334910470859569
     0.5005813555553758    0.3339146885553745    0.1676010190423227
     0.5002685800566837    0.3336019130566825    0.5040141204223332
     0.4992817610326838    0.3326150940326826    0.8343013769410774
     0.5002786201612537    0.6667706261384438    0.1665135791619079
     0.5017883949140440    0.6653645562289299    0.4986997602779084
     0.5003758688401803    0.6653821111045204    0.8321615391296930
     0.8334383548539179    0.0002248159140663    0.1665483920270887
     0.8331600170083249    0.0003002469644713    0.4998888491662541
     0.8331499093195802    0.0002057486327729    0.8331051686265241
     0.8334372921384414    0.3336119531612525    0.1665135791619079
     0.8320312222289274    0.3351217279140428    0.4986997602779084
     0.8320487771045180    0.3337092018401790    0.8321615391296930
     0.8332861391678037    0.6666194731678061    0.1666947587931134
     0.8331402387845159    0.6664735727845184    0.5004528933108574
     0.8333701589298528    0.6667034929298552    0.8330660794185576
     0.9999790182424917    0.1669488104185533    0.1666876487575095
     0.0001096403201544    0.1666004234230272    0.4998353049456767
     0.9993471936958471    0.1669170885248263    0.8330829114751737
     0.0007019462109881    0.5000963184971425    0.1659647207890131
     0.9995379920840293    0.5002835359699844    0.4997164640300156
     0.0001096403201544    0.5001646950543233    0.8333995765769728
     0.0000971070801157    0.8334304400801145    0.1665695599198855
     0.0007019462109881    0.8340352792109869    0.4999036815028575
     0.9999790182424917    0.8333123512424905    0.8330511895814467
     0.3335837545248239    0.1669170885248263    0.1673194733041541
     0.3327723605719868    0.1661056945719892    0.5005560828542954
     0.3328432406862873    0.1661765746862898    0.8338234253137102
     0.3332670894230247    0.5001646950543233    0.1665570266798468
     0.3339250212874703    0.4997768733764616    0.5002231266235384
     0.3327723605719868    0.4994439171457046    0.8338943054280108
     0.3336154764185508    0.8333123512424905    0.1666876487575095
     0.3332670894230247    0.8334429733201532    0.4998353049456767
     0.3335837545248239    0.8326805266958459    0.8330829114751737
     0.6668313620543245    0.1666004234230272    0.1665570266798468
     0.6664435403764628    0.1672583552874727    0.5002231266235384
     0.6661105841457058    0.1661056945719892    0.8338943054280108
     0.6669502029699856    0.5002835359699844    0.1671286749159719
     0.6664435403764628    0.4997768733764616    0.8327416447125273
     0.6667629854971437    0.8340352792109869    0.1659647207890131
     0.6669502029699856    0.8328713250840281    0.4997164640300156
     0.6668313620543245    0.8334429733201532    0.8333995765769728
     0.5759538903652057    0.4092872243652081    0.5907127756347919
 
  0.00000000E+00  0.00000000E+00  0.00000000E+00
  0.00000000E+00  0.00000000E+00  0.00000000E+00
  0.00000000E+00  0.00000000E+00  0.00000000E+00
  0.00000000E+00  0.00000000E+00  0.00000000E+00
  0.00000000E+00  0.00000000E+00  0.00000000E+00
  0.00000000E+00  0.00000000E+00  0.00000000E+00
  0.00000000E+00  0.00000000E+00  0.00000000E+00
  0.00000000E+00  0.00000000E+00  0.00000000E+00
  0.00000000E+00  0.00000000E+00  0.00000000E+00
  0.00000000E+00  0.00000000E+00  0.00000000E+00
  0.00000000E+00  0.00000000E+00  0.00000000E+00
  0.00000000E+00  0.00000000E+00  0.00000000E+00
  0.00000000E+00  0.00000000E+00  0.00000000E+00
  0.00000000E+00  0.00000000E+00  0.00000000E+00
  0.00000000E+00  0.00000000E+00  0.00000000E+00
  0.00000000E+00  0.00000000E+00  0.00000000E+00
  0.00000000E+00  0.00000000E+00  0.00000000E+00
  0.00000000E+00  0.00000000E+00  0.00000000E+00
  0.00000000E+00  0.00000000E+00  0.00000000E+00
  0.00000000E+00  0.00000000E+00  0.00000000E+00
  0.00000000E+00  0.00000000E+00  0.00000000E+00
  0.00000000E+00  0.00000000E+00  0.00000000E+00
  0.00000000E+00  0.00000000E+00  0.00000000E+00
  0.00000000E+00  0.00000000E+00  0.00000000E+00
  0.00000000E+00  0.00000000E+00  0.00000000E+00
  0.00000000E+00  0.00000000E+00  0.00000000E+00
  0.00000000E+00  0.00000000E+00  0.00000000E+00
  0.00000000E+00  0.00000000E+00  0.00000000E+00
  0.00000000E+00  0.00000000E+00  0.00000000E+00
  0.00000000E+00  0.00000000E+00  0.00000000E+00
  0.00000000E+00  0.00000000E+00  0.00000000E+00
  0.00000000E+00  0.00000000E+00  0.00000000E+00
  0.00000000E+00  0.00000000E+00  0.00000000E+00
  0.00000000E+00  0.00000000E+00  0.00000000E+00
  0.00000000E+00  0.00000000E+00  0.00000000E+00
  0.00000000E+00  0.00000000E+00  0.00000000E+00
  0.00000000E+00  0.00000000E+00  0.00000000E+00
  0.00000000E+00  0.00000000E+00  0.00000000E+00
  0.00000000E+00  0.00000000E+00  0.00000000E+00
  0.00000000E+00  0.00000000E+00  0.00000000E+00
  0.00000000E+00  0.00000000E+00  0.00000000E+00
  0.00000000E+00  0.00000000E+00  0.00000000E+00
  0.00000000E+00  0.00000000E+00  0.00000000E+00
  0.00000000E+00  0.00000000E+00  0.00000000E+00
  0.00000000E+00  0.00000000E+00  0.00000000E+00
  0.00000000E+00  0.00000000E+00  0.00000000E+00
  0.00000000E+00  0.00000000E+00  0.00000000E+00
  0.00000000E+00  0.00000000E+00  0.00000000E+00
  0.00000000E+00  0.00000000E+00  0.00000000E+00
  0.00000000E+00  0.00000000E+00  0.00000000E+00
  0.00000000E+00  0.00000000E+00  0.00000000E+00
  0.00000000E+00  0.00000000E+00  0.00000000E+00
  0.00000000E+00  0.00000000E+00  0.00000000E+00
  0.00000000E+00  0.00000000E+00  0.00000000E+00
  0.00000000E+00  0.00000000E+00  0.00000000E+00
  0.00000000E+00  0.00000000E+00  0.00000000E+00
  0.00000000E+00  0.00000000E+00  0.00000000E+00
  0.00000000E+00  0.00000000E+00  0.00000000E+00
  0.00000000E+00  0.00000000E+00  0.00000000E+00
  0.00000000E+00  0.00000000E+00  0.00000000E+00
  0.00000000E+00  0.00000000E+00  0.00000000E+00
  0.00000000E+00  0.00000000E+00  0.00000000E+00
  0.00000000E+00  0.00000000E+00  0.00000000E+00
  0.00000000E+00  0.00000000E+00  0.00000000E+00
  0.00000000E+00  0.00000000E+00  0.00000000E+00
  0.00000000E+00  0.00000000E+00  0.00000000E+00
  0.00000000E+00  0.00000000E+00  0.00000000E+00
  0.00000000E+00  0.00000000E+00  0.00000000E+00
  0.00000000E+00  0.00000000E+00  0.00000000E+00
  0.00000000E+00  0.00000000E+00  0.00000000E+00
  0.00000000E+00  0.00000000E+00  0.00000000E+00
  0.00000000E+00  0.00000000E+00  0.00000000E+00
  0.00000000E+00  0.00000000E+00  0.00000000E+00
  0.00000000E+00  0.00000000E+00  0.00000000E+00
  0.00000000E+00  0.00000000E+00  0.00000000E+00
  0.00000000E+00  0.00000000E+00  0.00000000E+00
  0.00000000E+00  0.00000000E+00  0.00000000E+00
  0.00000000E+00  0.00000000E+00  0.00000000E+00
  0.00000000E+00  0.00000000E+00  0.00000000E+00
  0.00000000E+00  0.00000000E+00  0.00000000E+00
  0.00000000E+00  0.00000000E+00  0.00000000E+00
  0.00000000E+00  0.00000000E+00  0.00000000E+00
  0.00000000E+00  0.00000000E+00  0.00000000E+00
  0.00000000E+00  0.00000000E+00  0.00000000E+00
  0.00000000E+00  0.00000000E+00  0.00000000E+00
  0.00000000E+00  0.00000000E+00  0.00000000E+00
  0.00000000E+00  0.00000000E+00  0.00000000E+00
  0.00000000E+00  0.00000000E+00  0.00000000E+00
  0.00000000E+00  0.00000000E+00  0.00000000E+00
  0.00000000E+00  0.00000000E+00  0.00000000E+00
  0.00000000E+00  0.00000000E+00  0.00000000E+00
  0.00000000E+00  0.00000000E+00  0.00000000E+00
  0.00000000E+00  0.00000000E+00  0.00000000E+00
  0.00000000E+00  0.00000000E+00  0.00000000E+00
  0.00000000E+00  0.00000000E+00  0.00000000E+00
  0.00000000E+00  0.00000000E+00  0.00000000E+00
  0.00000000E+00  0.00000000E+00  0.00000000E+00
  0.00000000E+00  0.00000000E+00  0.00000000E+00
  0.00000000E+00  0.00000000E+00  0.00000000E+00
  0.00000000E+00  0.00000000E+00  0.00000000E+00
  0.00000000E+00  0.00000000E+00  0.00000000E+00
  0.00000000E+00  0.00000000E+00  0.00000000E+00
  0.00000000E+00  0.00000000E+00  0.00000000E+00
  0.00000000E+00  0.00000000E+00  0.00000000E+00
  0.00000000E+00  0.00000000E+00  0.00000000E+00
  0.00000000E+00  0.00000000E+00  0.00000000E+00
  0.00000000E+00  0.00000000E+00  0.00000000E+00
  0.00000000E+00  0.00000000E+00  0.00000000E+00
  0.00000000E+00  0.00000000E+00  0.00000000E+00
  0.00000000E+00  0.00000000E+00  0.00000000E+00
  0.00000000E+00  0.00000000E+00  0.00000000E+00
  0.00000000E+00  0.00000000E+00  0.00000000E+00
  0.00000000E+00  0.00000000E+00  0.00000000E+00
  0.00000000E+00  0.00000000E+00  0.00000000E+00
  0.00000000E+00  0.00000000E+00  0.00000000E+00
  0.00000000E+00  0.00000000E+00  0.00000000E+00
  0.00000000E+00  0.00000000E+00  0.00000000E+00
  0.00000000E+00  0.00000000E+00  0.00000000E+00
  0.00000000E+00  0.00000000E+00  0.00000000E+00
  0.00000000E+00  0.00000000E+00  0.00000000E+00
  0.00000000E+00  0.00000000E+00  0.00000000E+00
  0.00000000E+00  0.00000000E+00  0.00000000E+00
  0.00000000E+00  0.00000000E+00  0.00000000E+00
  0.00000000E+00  0.00000000E+00  0.00000000E+00
  0.00000000E+00  0.00000000E+00  0.00000000E+00
  0.00000000E+00  0.00000000E+00  0.00000000E+00
  0.00000000E+00  0.00000000E+00  0.00000000E+00
  0.00000000E+00  0.00000000E+00  0.00000000E+00
  0.00000000E+00  0.00000000E+00  0.00000000E+00
  0.00000000E+00  0.00000000E+00  0.00000000E+00
  0.00000000E+00  0.00000000E+00  0.00000000E+00
  0.00000000E+00  0.00000000E+00  0.00000000E+00
  0.00000000E+00  0.00000000E+00  0.00000000E+00
  0.00000000E+00  0.00000000E+00  0.00000000E+00
  0.00000000E+00  0.00000000E+00  0.00000000E+00
  0.00000000E+00  0.00000000E+00  0.00000000E+00
  0.00000000E+00  0.00000000E+00  0.00000000E+00
  0.00000000E+00  0.00000000E+00  0.00000000E+00
  0.00000000E+00  0.00000000E+00  0.00000000E+00
  0.00000000E+00  0.00000000E+00  0.00000000E+00
  0.00000000E+00  0.00000000E+00  0.00000000E+00
  0.00000000E+00  0.00000000E+00  0.00000000E+00
  0.00000000E+00  0.00000000E+00  0.00000000E+00
  0.00000000E+00  0.00000000E+00  0.00000000E+00
  0.00000000E+00  0.00000000E+00  0.00000000E+00
  0.00000000E+00  0.00000000E+00  0.00000000E+00
  0.00000000E+00  0.00000000E+00  0.00000000E+00
  0.00000000E+00  0.00000000E+00  0.00000000E+00
  0.00000000E+00  0.00000000E+00  0.00000000E+00
  0.00000000E+00  0.00000000E+00  0.00000000E+00
  0.00000000E+00  0.00000000E+00  0.00000000E+00
  0.00000000E+00  0.00000000E+00  0.00000000E+00
  0.00000000E+00  0.00000000E+00  0.00000000E+00
  0.00000000E+00  0.00000000E+00  0.00000000E+00
  0.00000000E+00  0.00000000E+00  0.00000000E+00
  0.00000000E+00  0.00000000E+00  0.00000000E+00
  0.00000000E+00  0.00000000E+00  0.00000000E+00
  0.00000000E+00  0.00000000E+00  0.00000000E+00
  0.00000000E+00  0.00000000E+00  0.00000000E+00
  0.00000000E+00  0.00000000E+00  0.00000000E+00
  0.00000000E+00  0.00000000E+00  0.00000000E+00
  0.00000000E+00  0.00000000E+00  0.00000000E+00
  0.00000000E+00  0.00000000E+00  0.00000000E+00
  0.00000000E+00  0.00000000E+00  0.00000000E+00
  0.00000000E+00  0.00000000E+00  0.00000000E+00
  0.00000000E+00  0.00000000E+00  0.00000000E+00
  0.00000000E+00  0.00000000E+00  0.00000000E+00
  0.00000000E+00  0.00000000E+00  0.00000000E+00
  0.00000000E+00  0.00000000E+00  0.00000000E+00
  0.00000000E+00  0.00000000E+00  0.00000000E+00
  0.00000000E+00  0.00000000E+00  0.00000000E+00
  0.00000000E+00  0.00000000E+00  0.00000000E+00
  0.00000000E+00  0.00000000E+00  0.00000000E+00
  0.00000000E+00  0.00000000E+00  0.00000000E+00
  0.00000000E+00  0.00000000E+00  0.00000000E+00
  0.00000000E+00  0.00000000E+00  0.00000000E+00
  0.00000000E+00  0.00000000E+00  0.00000000E+00
  0.00000000E+00  0.00000000E+00  0.00000000E+00
  0.00000000E+00  0.00000000E+00  0.00000000E+00
  0.00000000E+00  0.00000000E+00  0.00000000E+00
  0.00000000E+00  0.00000000E+00  0.00000000E+00
  0.00000000E+00  0.00000000E+00  0.00000000E+00
  0.00000000E+00  0.00000000E+00  0.00000000E+00
  0.00000000E+00  0.00000000E+00  0.00000000E+00
  0.00000000E+00  0.00000000E+00  0.00000000E+00
  0.00000000E+00  0.00000000E+00  0.00000000E+00
  0.00000000E+00  0.00000000E+00  0.00000000E+00
  0.00000000E+00  0.00000000E+00  0.00000000E+00
  0.00000000E+00  0.00000000E+00  0.00000000E+00
  0.00000000E+00  0.00000000E+00  0.00000000E+00
  0.00000000E+00  0.00000000E+00  0.00000000E+00
  0.00000000E+00  0.00000000E+00  0.00000000E+00
  0.00000000E+00  0.00000000E+00  0.00000000E+00
  0.00000000E+00  0.00000000E+00  0.00000000E+00
  0.00000000E+00  0.00000000E+00  0.00000000E+00
  0.00000000E+00  0.00000000E+00  0.00000000E+00
  0.00000000E+00  0.00000000E+00  0.00000000E+00
  0.00000000E+00  0.00000000E+00  0.00000000E+00
  0.00000000E+00  0.00000000E+00  0.00000000E+00
  0.00000000E+00  0.00000000E+00  0.00000000E+00
  0.00000000E+00  0.00000000E+00  0.00000000E+00
  0.00000000E+00  0.00000000E+00  0.00000000E+00
  0.00000000E+00  0.00000000E+00  0.00000000E+00
  0.00000000E+00  0.00000000E+00  0.00000000E+00
  0.00000000E+00  0.00000000E+00  0.00000000E+00
  0.00000000E+00  0.00000000E+00  0.00000000E+00
  0.00000000E+00  0.00000000E+00  0.00000000E+00
  0.00000000E+00  0.00000000E+00  0.00000000E+00
  0.00000000E+00  0.00000000E+00  0.00000000E+00
  0.00000000E+00  0.00000000E+00  0.00000000E+00
  0.00000000E+00  0.00000000E+00  0.00000000E+00
  0.00000000E+00  0.00000000E+00  0.00000000E+00
  0.00000000E+00  0.00000000E+00  0.00000000E+00
  0.00000000E+00  0.00000000E+00  0.00000000E+00
  0.00000000E+00  0.00000000E+00  0.00000000E+00
