unknown system                          
           1
    10.721136    0.000000    0.000000
     0.000000   10.721136    0.000000
     0.000000    0.000000   10.721136
   C    N 
   214     1
Direct configuration=     1
   0.08324364  0.08342780  0.08342302
   0.08355587  0.08335960  0.41677885
   0.08281220  0.08335325  0.74999826
   0.08364560  0.41681788  0.08302106
   0.08332121  0.41689448  0.41669311
   0.08289766  0.41665311  0.74986616
   0.08344907  0.75003398  0.08321759
   0.08363783  0.75014074  0.41652638
   0.08351505  0.74985415  0.74978653
   0.41666841  0.08335325  0.08385447
   0.41679289  0.08352001  0.41714890
   0.41615947  0.08253406  0.75050720
   0.41680051  0.41665311  0.08376900
   0.41845942  0.41753499  0.41843847
   0.41529618  0.41586666  0.75137049
   0.41688014  0.74985415  0.08315162
   0.41630938  0.75055086  0.41686738
   0.41721078  0.74909699  0.74945589
   0.74988782  0.08335960  0.08311080
   0.74993646  0.08374339  0.41673020
   0.74951777  0.08352001  0.74987378
   0.74997355  0.41689448  0.08334545
   0.75668905  0.41191608  0.40997761
   0.74822819  0.41753499  0.74820724
   0.75014029  0.75014074  0.08302884
   0.75007213  0.74968432  0.41659454
   0.74979929  0.75055086  0.75035729
   0.25001992  0.25000174  0.08385447
   0.25018668  0.25012622  0.41714890
   0.24920073  0.24949280  0.75050720
   0.25002627  0.58322115  0.08311080
   0.25041006  0.58326980  0.41673020
   0.25018668  0.58285110  0.74987378
   0.25009447  0.91657698  0.08342302
   0.25002627  0.91688920  0.41677885
   0.25001992  0.91614553  0.74999826
   0.58331978  0.25013384  0.08376900
   0.58420166  0.25179276  0.41843847
   0.58253333  0.24862951  0.75137049
   0.58356115  0.58330689  0.08334545
   0.57858274  0.59002239  0.40997761
   0.58420166  0.58156153  0.74820724
   0.58348454  0.91697894  0.08302106
   0.58356115  0.91665455  0.41669311
   0.58331978  0.91623100  0.74986616
   0.91652082  0.25021347  0.08315162
   0.91721753  0.24964271  0.41686738
   0.91576366  0.25054411  0.74945589
   0.91680741  0.58347362  0.08302884
   0.91635099  0.58340546  0.41659454
   0.91721753  0.58313262  0.75035729
   0.91670065  0.91678241  0.08321759
   0.91680741  0.91697116  0.41652638
   0.91652082  0.91684838  0.74978653
   0.25019954  0.08353287  0.25030159
   0.24960472  0.08293805  0.58360910
   0.24968481  0.08301815  0.91698185
   0.25060044  0.41688379  0.25059485
   0.24985199  0.41643649  0.58356351
   0.24960472  0.41639090  0.91706195
   0.25022870  0.75005302  0.24994698
   0.25060044  0.74940515  0.58311621
   0.25019954  0.74969841  0.91646713
   0.58355045  0.08393378  0.25059485
   0.58310316  0.08318532  0.58356351
   0.58305757  0.08293805  0.91706195
   0.58408218  0.41741551  0.25102792
   0.58310316  0.41643649  0.91681468
   0.58395431  0.75111298  0.24888702
   0.58408218  0.74897208  0.58258449
   0.58355045  0.74940515  0.91606622
   0.91671969  0.08356204  0.24994698
   0.91607182  0.08393378  0.58311621
   0.91636508  0.08353287  0.91646713
   0.91777965  0.41728765  0.24888702
   0.91563875  0.41741551  0.58258449
   0.91607182  0.41688379  0.91606622
   0.91674238  0.75007571  0.24992429
   0.91777965  0.75111298  0.58271235
   0.91671969  0.75005302  0.91643796
   0.08351505  0.25021347  0.25014585
   0.08289766  0.25013384  0.58334689
   0.08281220  0.25000174  0.91664675
   0.08363783  0.58347362  0.24985926
   0.08332121  0.58330689  0.58310552
   0.08355587  0.58322115  0.91664040
   0.08344907  0.91678241  0.24996602
   0.08364560  0.91697894  0.58318212
   0.08324364  0.91657698  0.91657220
   0.41721078  0.25054411  0.25090301
   0.41529618  0.24862951  0.58413334
   0.41615947  0.24949280  0.91746594
   0.41630938  0.58313262  0.24944914
   0.41845942  0.58156153  0.58246501
   0.41679289  0.58285110  0.91647999
   0.41688014  0.91684838  0.25014585
   0.41680051  0.91623100  0.58334689
   0.41666841  0.91614553  0.91664675
   0.74979929  0.24964271  0.24944914
   0.74822819  0.25179276  0.58246501
   0.74951777  0.25012622  0.91647999
   0.75007213  0.58340546  0.25031568
   0.75668905  0.59002239  0.58808392
   0.74993646  0.58326980  0.91625661
   0.75014029  0.91697116  0.24985926
   0.74997355  0.91665455  0.58310552
   0.74988782  0.91688920  0.91664040
   0.99990518  0.00011833  0.99988167
   0.00011827  0.00022482  0.33322831
   0.99963633  0.00029894  0.66657589
   0.99963633  0.33342411  0.99970106
   0.00015309  0.33361195  0.33322937
   0.99906565  0.33391469  0.66608531
   0.00011827  0.66677169  0.99977518
   0.99997191  0.66661947  0.33338053
   0.00015309  0.66677063  0.66638805
   0.33331941  0.99976602  0.00023398
   0.33356150  0.00020575  0.33351676
   0.33317562  0.99941394  0.66686504
   0.33317562  0.33313496  0.00058606
   0.33450513  0.33370920  0.33461789
   0.33236529  0.33261509  0.66738491
   0.33356150  0.66648324  0.99979425
   0.33360059  0.66670349  0.33329651
   0.33450513  0.66538211  0.66629080
   0.66662201  0.00006073  0.99993927
   0.66677782  0.00030025  0.33350665
   0.66651863  0.99984004  0.66656013
   0.66651863  0.33343987  0.00015996
   0.66796691  0.33512173  0.33463544
   0.66265255  0.33360191  0.66639809
   0.66677782  0.66649335  0.99969975
   0.66621377  0.66647357  0.33352643
   0.66796691  0.66536456  0.66487827
   0.16643268  0.16665274  0.00023398
   0.16687242  0.16689483  0.33351676
   0.16608061  0.16650895  0.66686504
   0.16672740  0.49995535  0.99993927
   0.16696691  0.50011115  0.33350665
   0.16650670  0.49985197  0.66656013
   0.16678500  0.83323851  0.99988167
   0.16689148  0.83345161  0.33322831
   0.16696561  0.83296966  0.66657589
   0.49980162  0.16650895  0.00058606
   0.50037587  0.16783846  0.33461789
   0.49928176  0.16569862  0.66738491
   0.50010654  0.49985197  0.00015996
   0.50178839  0.50130024  0.33463544
   0.50026858  0.49598588  0.66639809
   0.50009078  0.83296966  0.99970106
   0.50027862  0.83348642  0.33322937
   0.50058136  0.83239898  0.66608531
   0.83314991  0.16689483  0.99979425
   0.83337016  0.16693392  0.33329651
   0.83204878  0.16783846  0.66629080
   0.83316002  0.50011115  0.99969975
   0.83314024  0.49954711  0.33352643
   0.83203122  0.50130024  0.66487827
   0.83343835  0.83345161  0.99977518
   0.83328614  0.83330524  0.33338053
   0.83343729  0.83348642  0.66638805
   0.16678500  0.00011833  0.16676149
   0.16672740  0.00006073  0.50004465
   0.16643268  0.99976602  0.83334726
   0.16696561  0.33342411  0.16703034
   0.16650670  0.33343987  0.50014803
   0.16608061  0.33313496  0.83349105
   0.16689148  0.66677169  0.16654839
   0.16696691  0.66649335  0.49988885
   0.16687242  0.66648324  0.83310517
   0.50009078  0.00029894  0.16703034
   0.50010654  0.99984004  0.50014803
   0.49980162  0.99941394  0.83349105
   0.50058136  0.33391469  0.16760102
   0.50026858  0.33360191  0.50401412
   0.49928176  0.33261509  0.83430138
   0.50027862  0.66677063  0.16651358
   0.50178839  0.66536456  0.49869976
   0.50037587  0.66538211  0.83216154
   0.83343835  0.00022482  0.16654839
   0.83316002  0.00030025  0.49988885
   0.83314991  0.00020575  0.83310517
   0.83343729  0.33361195  0.16651358
   0.83203122  0.33512173  0.49869976
   0.83204878  0.33370920  0.83216154
   0.83328614  0.66661947  0.16669476
   0.83314024  0.66647357  0.50045289
   0.83337016  0.66670349  0.83306608
   0.99997902  0.16694881  0.16668765
   0.00010964  0.16660042  0.49983530
   0.99934719  0.16691709  0.83308291
   0.00070195  0.50009632  0.16596472
   0.99953799  0.50028354  0.49971646
   0.00010964  0.50016470  0.83339958
   0.00009711  0.83343044  0.16656956
   0.00070195  0.83403528  0.49990368
   0.99997902  0.83331235  0.83305119
   0.33358375  0.16691709  0.16731947
   0.33277236  0.16610569  0.50055608
   0.33284324  0.16617657  0.83382343
   0.33326709  0.50016470  0.16655703
   0.33392502  0.49977687  0.50022313
   0.33277236  0.49944392  0.83389431
   0.33361548  0.83331235  0.16668765
   0.33326709  0.83344297  0.49983530
   0.33358375  0.83268053  0.83308291
   0.66683136  0.16660042  0.16655703
   0.66644354  0.16725836  0.50022313
   0.66611058  0.16610569  0.83389431
   0.66695020  0.50028354  0.16712867
   0.66644354  0.49977687  0.83274164
   0.66676299  0.83403528  0.16596472
   0.66695020  0.83287133  0.49971646
   0.66683136  0.83344297  0.83339958
   0.57595389  0.40928722  0.59071278
