   2   2   0   0
  0.5639752E+01  0.2517300E-09  0.2517300E-09  0.2517300E-09  0.5000000E-15
  1.000000000000000E-004
  CAR 
 unknown system                          
     28.70392863    -13.74148595  301     10.59416142      1.00000000
    -13.741  0.0000E+00  0.0000E+00
    -13.600  0.0000E+00  0.0000E+00
    -13.459  0.0000E+00  0.0000E+00
    -13.317  0.0000E+00  0.0000E+00
    -13.176  0.0000E+00  0.0000E+00
    -13.034  0.0000E+00  0.0000E+00
    -12.893  0.3139E-17  0.4441E-18
    -12.751  0.6642E-14  0.9401E-15
    -12.610  0.5879E-11  0.8328E-12
    -12.468  0.1956E-08  0.2775E-09
    -12.327  0.2461E-06  0.3510E-07
    -12.185  0.1183E-04  0.1708E-05
    -12.044  0.2209E-03  0.3296E-04
    -11.902  0.1691E-02  0.2723E-03
    -11.761  0.6643E-02  0.1212E-02
    -11.619  0.2152E-01  0.4257E-02
    -11.478  0.5481E-01  0.1201E-01
    -11.336  0.7367E-01  0.2243E-01
    -11.195  0.5605E-01  0.3036E-01
    -11.053  0.6070E-01  0.3895E-01
    -10.912  0.9685E-01  0.5265E-01
    -10.770  0.1480E+00  0.7360E-01
    -10.629  0.1755E+00  0.9843E-01
    -10.487  0.1111E+00  0.1142E+00
    -10.346  0.5072E-01  0.1213E+00
    -10.204  0.6278E-01  0.1302E+00
    -10.063  0.1443E+00  0.1506E+00
     -9.921  0.2455E+00  0.1854E+00
     -9.780  0.2171E+00  0.2161E+00
     -9.638  0.1448E+00  0.2366E+00
     -9.497  0.1621E+00  0.2595E+00
     -9.355  0.1947E+00  0.2870E+00
     -9.214  0.2009E+00  0.3155E+00
     -9.072  0.1293E+00  0.3338E+00
     -8.931  0.6791E-01  0.3434E+00
     -8.790  0.1032E+00  0.3580E+00
     -8.648  0.2329E+00  0.3909E+00
     -8.507  0.3996E+00  0.4475E+00
     -8.365  0.3551E+00  0.4977E+00
     -8.224  0.1914E+00  0.5248E+00
     -8.082  0.1687E+00  0.5487E+00
     -7.941  0.2184E+00  0.5796E+00
     -7.799  0.2660E+00  0.6172E+00
     -7.658  0.2232E+00  0.6488E+00
     -7.516  0.1193E+00  0.6657E+00
     -7.375  0.1015E+00  0.6800E+00
     -7.233  0.2211E+00  0.7113E+00
     -7.092  0.3796E+00  0.7650E+00
     -6.950  0.3530E+00  0.8150E+00
     -6.809  0.3119E+00  0.8591E+00
     -6.667  0.3900E+00  0.9143E+00
     -6.526  0.4460E+00  0.9774E+00
     -6.384  0.3826E+00  0.1031E+01
     -6.243  0.1946E+00  0.1059E+01
     -6.101  0.1395E+00  0.1079E+01
     -5.960  0.2663E+00  0.1116E+01
     -5.818  0.3264E+00  0.1163E+01
     -5.677  0.2702E+00  0.1201E+01
     -5.535  0.2765E+00  0.1240E+01
     -5.394  0.4655E+00  0.1306E+01
     -5.252  0.6524E+00  0.1398E+01
     -5.111  0.4761E+00  0.1465E+01
     -4.969  0.1935E+00  0.1493E+01
     -4.828  0.1967E+00  0.1521E+01
     -4.686  0.3584E+00  0.1571E+01
     -4.545  0.3590E+00  0.1622E+01
     -4.403  0.2385E+00  0.1656E+01
     -4.262  0.1506E+00  0.1677E+01
     -4.121  0.1490E+00  0.1698E+01
     -3.979  0.2905E+00  0.1739E+01
     -3.838  0.3748E+00  0.1792E+01
     -3.696  0.2913E+00  0.1834E+01
     -3.555  0.2414E+00  0.1868E+01
     -3.413  0.2286E+00  0.1900E+01
     -3.272  0.1833E+00  0.1926E+01
     -3.130  0.2040E+00  0.1955E+01
     -2.989  0.3336E+00  0.2002E+01
     -2.847  0.3695E+00  0.2054E+01
     -2.706  0.2642E+00  0.2092E+01
     -2.564  0.1902E+00  0.2119E+01
     -2.423  0.3029E+00  0.2162E+01
     -2.281  0.4361E+00  0.2223E+01
     -2.140  0.3383E+00  0.2271E+01
     -1.998  0.3082E+00  0.2315E+01
     -1.857  0.4826E+00  0.2383E+01
     -1.715  0.5101E+00  0.2455E+01
     -1.574  0.4235E+00  0.2515E+01
     -1.432  0.4512E+00  0.2579E+01
     -1.291  0.6446E+00  0.2670E+01
     -1.149  0.7863E+00  0.2781E+01
     -1.008  0.6155E+00  0.2869E+01
     -0.866  0.2803E+00  0.2908E+01
     -0.725  0.8670E-01  0.2920E+01
     -0.583  0.1480E+00  0.2941E+01
     -0.442  0.3697E+00  0.2994E+01
     -0.300  0.4123E+00  0.3052E+01
     -0.159  0.2089E+00  0.3082E+01
     -0.017  0.1098E+00  0.3097E+01
      0.124  0.2088E+00  0.3127E+01
      0.266  0.3999E+00  0.3183E+01
      0.407  0.5635E+00  0.3263E+01
      0.548  0.5019E+00  0.3334E+01
      0.690  0.2888E+00  0.3375E+01
      0.831  0.2076E+00  0.3404E+01
      0.973  0.3819E+00  0.3458E+01
      1.114  0.5812E+00  0.3540E+01
      1.256  0.5395E+00  0.3617E+01
      1.397  0.4948E+00  0.3687E+01
      1.539  0.5360E+00  0.3763E+01
      1.680  0.4803E+00  0.3831E+01
      1.822  0.4950E+00  0.3901E+01
      1.963  0.6004E+00  0.3986E+01
      2.105  0.5334E+00  0.4061E+01
      2.246  0.4264E+00  0.4121E+01
      2.388  0.4604E+00  0.4187E+01
      2.529  0.4676E+00  0.4253E+01
      2.671  0.5718E+00  0.4334E+01
      2.812  0.7734E+00  0.4443E+01
      2.954  0.7169E+00  0.4544E+01
      3.095  0.6140E+00  0.4631E+01
      3.237  0.6292E+00  0.4720E+01
      3.378  0.7280E+00  0.4823E+01
      3.520  0.7121E+00  0.4924E+01
      3.661  0.5622E+00  0.5004E+01
      3.803  0.6639E+00  0.5098E+01
      3.944  0.8442E+00  0.5217E+01
      4.086  0.7547E+00  0.5324E+01
      4.227  0.5295E+00  0.5399E+01
      4.369  0.7012E+00  0.5498E+01
      4.510  0.1124E+01  0.5657E+01
      4.652  0.1127E+01  0.5816E+01
      4.793  0.8909E+00  0.5942E+01
      4.934  0.7334E+00  0.6046E+01
      5.076  0.6222E+00  0.6134E+01
      5.217  0.4277E+00  0.6195E+01
      5.359  0.3758E+00  0.6248E+01
      5.500  0.5155E+00  0.6321E+01
      5.642  0.5879E+00  0.6404E+01
      5.783  0.7046E+00  0.6504E+01
      5.925  0.8723E+00  0.6627E+01
      6.066  0.9759E+00  0.6765E+01
      6.208  0.8532E+00  0.6886E+01
      6.349  0.5698E+00  0.6967E+01
      6.491  0.5061E+00  0.7038E+01
      6.632  0.5360E+00  0.7114E+01
      6.774  0.6103E+00  0.7200E+01
      6.915  0.7539E+00  0.7307E+01
      7.057  0.6901E+00  0.7405E+01
      7.198  0.4037E+00  0.7462E+01
      7.340  0.1948E+00  0.7489E+01
      7.481  0.2518E+00  0.7525E+01
      7.623  0.4831E+00  0.7593E+01
      7.764  0.5414E+00  0.7670E+01
      7.906  0.3795E+00  0.7724E+01
      8.047  0.2121E+00  0.7754E+01
      8.189  0.1117E+00  0.7769E+01
      8.330  0.1314E+00  0.7788E+01
      8.472  0.2980E+00  0.7830E+01
      8.613  0.3879E+00  0.7885E+01
      8.755  0.2334E+00  0.7918E+01
      8.896  0.8173E-01  0.7930E+01
      9.038  0.4338E-01  0.7936E+01
      9.179  0.5687E-01  0.7944E+01
      9.321  0.1233E+00  0.7961E+01
      9.462  0.1460E+00  0.7982E+01
      9.603  0.7357E-01  0.7992E+01
      9.745  0.2429E-01  0.7996E+01
      9.886  0.1730E-01  0.7998E+01
     10.028  0.1002E-01  0.8000E+01
     10.169  0.2440E-02  0.8000E+01
     10.311  0.2341E-03  0.8000E+01
     10.452  0.8722E-05  0.8000E+01
     10.594  0.1248E-06  0.8000E+01
     10.735  0.6783E-09  0.8000E+01
     10.877  0.1391E-11  0.8000E+01
     11.018  0.1072E-14  0.8000E+01
     11.160  0.0000E+00  0.8000E+01
     11.301  0.0000E+00  0.8000E+01
     11.443  0.0000E+00  0.8000E+01
     11.584  0.0000E+00  0.8000E+01
     11.726  0.0000E+00  0.8000E+01
     11.867  0.0000E+00  0.8000E+01
     12.009  0.0000E+00  0.8000E+01
     12.150  0.0000E+00  0.8000E+01
     12.292  0.0000E+00  0.8000E+01
     12.433  0.0000E+00  0.8000E+01
     12.575  0.0000E+00  0.8000E+01
     12.716  0.0000E+00  0.8000E+01
     12.858  0.4237E-16  0.8000E+01
     12.999  0.8889E-13  0.8000E+01
     13.141  0.7212E-10  0.8000E+01
     13.282  0.2221E-07  0.8000E+01
     13.424  0.2625E-05  0.8000E+01
     13.565  0.1208E-03  0.8000E+01
     13.707  0.2203E-02  0.8000E+01
     13.848  0.1623E-01  0.8003E+01
     13.990  0.4914E-01  0.8010E+01
     14.131  0.6213E-01  0.8018E+01
     14.272  0.3876E-01  0.8024E+01
     14.414  0.6218E-01  0.8033E+01
     14.555  0.2034E+00  0.8061E+01
     14.697  0.3221E+00  0.8107E+01
     14.838  0.2553E+00  0.8143E+01
     14.980  0.1949E+00  0.8171E+01
     15.121  0.2075E+00  0.8200E+01
     15.263  0.2389E+00  0.8234E+01
     15.404  0.3697E+00  0.8286E+01
     15.546  0.4923E+00  0.8356E+01
     15.687  0.3937E+00  0.8412E+01
     15.829  0.3522E+00  0.8461E+01
     15.970  0.6205E+00  0.8549E+01
     16.112  0.7292E+00  0.8652E+01
     16.253  0.5205E+00  0.8726E+01
     16.395  0.4671E+00  0.8792E+01
     16.536  0.6192E+00  0.8880E+01
     16.678  0.6496E+00  0.8972E+01
     16.819  0.5015E+00  0.9043E+01
     16.961  0.5055E+00  0.9114E+01
     17.102  0.8541E+00  0.9235E+01
     17.244  0.1084E+01  0.9388E+01
     17.385  0.8823E+00  0.9513E+01
     17.527  0.5115E+00  0.9585E+01
     17.668  0.4343E+00  0.9647E+01
     17.810  0.7713E+00  0.9756E+01
     17.951  0.1050E+01  0.9904E+01
     18.093  0.9703E+00  0.1004E+02
     18.234  0.9399E+00  0.1017E+02
     18.376  0.9897E+00  0.1031E+02
     18.517  0.8357E+00  0.1043E+02
     18.659  0.6949E+00  0.1053E+02
     18.800  0.7411E+00  0.1064E+02
     18.941  0.7670E+00  0.1074E+02
     19.083  0.1011E+01  0.1089E+02
     19.224  0.1459E+01  0.1109E+02
     19.366  0.1512E+01  0.1131E+02
     19.507  0.1278E+01  0.1149E+02
     19.649  0.1098E+01  0.1164E+02
     19.790  0.8497E+00  0.1176E+02
     19.932  0.5391E+00  0.1184E+02
     20.073  0.4875E+00  0.1191E+02
     20.215  0.5989E+00  0.1199E+02
     20.356  0.5057E+00  0.1207E+02
     20.498  0.3478E+00  0.1212E+02
     20.639  0.3382E+00  0.1216E+02
     20.781  0.4334E+00  0.1222E+02
     20.922  0.5252E+00  0.1230E+02
     21.064  0.6660E+00  0.1239E+02
     21.205  0.7121E+00  0.1249E+02
     21.347  0.5180E+00  0.1257E+02
     21.488  0.5777E+00  0.1265E+02
     21.630  0.1116E+01  0.1281E+02
     21.771  0.1373E+01  0.1300E+02
     21.913  0.9512E+00  0.1314E+02
     22.054  0.4948E+00  0.1321E+02
     22.196  0.2793E+00  0.1325E+02
     22.337  0.2832E+00  0.1329E+02
     22.479  0.5155E+00  0.1336E+02
     22.620  0.6812E+00  0.1345E+02
     22.762  0.6730E+00  0.1355E+02
     22.903  0.7780E+00  0.1366E+02
     23.045  0.8855E+00  0.1379E+02
     23.186  0.9274E+00  0.1392E+02
     23.328  0.9224E+00  0.1405E+02
     23.469  0.8192E+00  0.1416E+02
     23.610  0.5844E+00  0.1425E+02
     23.752  0.5461E+00  0.1432E+02
     23.893  0.9010E+00  0.1445E+02
     24.035  0.1332E+01  0.1464E+02
     24.176  0.1421E+01  0.1484E+02
     24.318  0.1315E+01  0.1503E+02
     24.459  0.1150E+01  0.1519E+02
     24.601  0.7402E+00  0.1529E+02
     24.742  0.3319E+00  0.1534E+02
     24.884  0.2254E+00  0.1537E+02
     25.025  0.3737E+00  0.1542E+02
     25.167  0.5104E+00  0.1550E+02
     25.308  0.6087E+00  0.1558E+02
     25.450  0.7471E+00  0.1569E+02
     25.591  0.6146E+00  0.1578E+02
     25.733  0.3236E+00  0.1582E+02
     25.874  0.2900E+00  0.1586E+02
     26.016  0.3809E+00  0.1592E+02
     26.157  0.3069E+00  0.1596E+02
     26.299  0.1506E+00  0.1598E+02
     26.440  0.4417E-01  0.1599E+02
     26.582  0.1916E-01  0.1599E+02
     26.723  0.3086E-01  0.1599E+02
     26.865  0.2698E-01  0.1600E+02
     27.006  0.9461E-02  0.1600E+02
     27.148  0.1310E-02  0.1600E+02
     27.289  0.7076E-04  0.1600E+02
     27.431  0.1474E-05  0.1600E+02
     27.572  0.1171E-07  0.1600E+02
     27.714  0.3520E-10  0.1600E+02
     27.855  0.3975E-13  0.1600E+02
     27.997  0.1883E-16  0.1600E+02
     28.138  0.0000E+00  0.1600E+02
     28.279  0.0000E+00  0.1600E+02
     28.421  0.0000E+00  0.1600E+02
     28.562  0.0000E+00  0.1600E+02
     28.704  0.0000E+00  0.1600E+02
