<?xml version="1.0" encoding="ISO-8859-1"?>
<modeling>
 <generator>
  <i name="program" type="string">vasp </i>
  <i name="version" type="string">6.5.1  </i>
  <i name="subversion" type="string">10Mar25 (build Feb 13 2026 23:13:13) complex                          parallel </i>
  <i name="platform" type="string">LinuxIFC </i>
  <i name="date" type="string">2026 06 23 </i>
  <i name="time" type="string">04:04:17 </i>
 </generator>
 <incar>
  <i type="string" name="PREC">Normal</i>
  <i type="string" name="ALGO">Fast</i>
  <i type="int" name="ISPIN">     1</i>
  <i type="int" name="NELMIN">     4</i>
  <i name="EDIFF">      0.00000100</i>
  <i type="int" name="NSW">     0</i>
  <i name="ENCUT">    550.00000000</i>
  <i type="logical" name="LREAL"> F  </i>
  <i type="int" name="ISMEAR">     0</i>
  <i name="SIGMA">      0.20000000</i>
  <i type="logical" name="LWAVE"> F  </i>
 </incar>
 <primitive_cell>
  <structure name="primitive_cell" >
   <crystal>
    <varray name="basis" >
     <v>       2.51730013       0.00000000       0.00000000 </v>
     <v>       1.25865006       2.18004586       0.00000000 </v>
     <v>       1.25865006       0.72668195       2.05536695 </v>
    </varray>
    <i name="volume">     11.27950384 </i>
    <varray name="rec_basis" >
     <v>       0.39725100      -0.22935297      -0.16217704 </v>
     <v>       0.00000000       0.45870595      -0.16217704 </v>
     <v>       0.00000000       0.00000000       0.48653113 </v>
    </varray>
   </crystal>
   <varray name="positions" >
    <v>       0.25000000       0.25000000       0.25000000 </v>
    <v>       0.00000000       0.00000000       0.00000000 </v>
   </varray>
  </structure>
  <varray name="primitive_index" >
   <v type="int" >        1 </v>
   <v type="int" >        2 </v>
  </varray>
 </primitive_cell>
 <kpoints>
  <generation param="Gamma">
   <v type="int" name="divisions">      10       10       10 </v>
   <v name="usershift">      0.00000000       0.00000000       0.00000000 </v>
   <v name="genvec1">      0.10000000      -0.00000000      -0.00000000 </v>
   <v name="genvec2">      0.00000000       0.10000000      -0.00000000 </v>
   <v name="genvec3">      0.00000000       0.00000000       0.10000000 </v>
   <v name="shift">      0.00000000       0.00000000       0.00000000 </v>
  </generation>
  <varray name="kpointlist" >
   <v>       0.00000000       0.00000000       0.00000000 </v>
   <v>       0.10000000       0.00000000       0.00000000 </v>
   <v>       0.20000000       0.00000000       0.00000000 </v>
   <v>       0.30000000       0.00000000       0.00000000 </v>
   <v>       0.40000000       0.00000000       0.00000000 </v>
   <v>       0.50000000       0.00000000       0.00000000 </v>
   <v>       0.10000000       0.10000000       0.00000000 </v>
   <v>       0.20000000       0.10000000       0.00000000 </v>
   <v>       0.30000000       0.10000000       0.00000000 </v>
   <v>       0.40000000       0.10000000       0.00000000 </v>
   <v>       0.50000000       0.10000000       0.00000000 </v>
   <v>      -0.40000000       0.10000000       0.00000000 </v>
   <v>      -0.30000000       0.10000000       0.00000000 </v>
   <v>      -0.20000000       0.10000000       0.00000000 </v>
   <v>      -0.10000000       0.10000000       0.00000000 </v>
   <v>       0.20000000       0.20000000       0.00000000 </v>
   <v>       0.30000000       0.20000000       0.00000000 </v>
   <v>       0.40000000       0.20000000       0.00000000 </v>
   <v>       0.50000000       0.20000000       0.00000000 </v>
   <v>      -0.40000000       0.20000000       0.00000000 </v>
   <v>      -0.30000000       0.20000000       0.00000000 </v>
   <v>      -0.20000000       0.20000000       0.00000000 </v>
   <v>       0.30000000       0.30000000       0.00000000 </v>
   <v>       0.40000000       0.30000000       0.00000000 </v>
   <v>       0.50000000       0.30000000       0.00000000 </v>
   <v>      -0.40000000       0.30000000       0.00000000 </v>
   <v>      -0.30000000       0.30000000       0.00000000 </v>
   <v>       0.40000000       0.40000000       0.00000000 </v>
   <v>       0.50000000       0.40000000       0.00000000 </v>
   <v>      -0.40000000       0.40000000       0.00000000 </v>
   <v>       0.50000000       0.50000000       0.00000000 </v>
   <v>       0.30000000       0.20000000       0.10000000 </v>
   <v>       0.40000000       0.20000000       0.10000000 </v>
   <v>       0.50000000       0.20000000       0.10000000 </v>
   <v>      -0.40000000       0.20000000       0.10000000 </v>
   <v>       0.40000000       0.30000000       0.10000000 </v>
   <v>       0.50000000       0.30000000       0.10000000 </v>
   <v>      -0.40000000       0.30000000       0.10000000 </v>
   <v>      -0.30000000       0.30000000       0.10000000 </v>
   <v>      -0.20000000       0.30000000       0.10000000 </v>
   <v>       0.50000000       0.40000000       0.10000000 </v>
   <v>      -0.40000000       0.40000000       0.10000000 </v>
   <v>      -0.30000000       0.40000000       0.10000000 </v>
   <v>      -0.40000000       0.50000000       0.10000000 </v>
   <v>      -0.40000000       0.40000000       0.20000000 </v>
   <v>      -0.30000000       0.40000000       0.20000000 </v>
   <v>      -0.30000000       0.50000000       0.20000000 </v>
  </varray>
  <varray name="weights" >
   <v>       0.00100000 </v>
   <v>       0.00800000 </v>
   <v>       0.00800000 </v>
   <v>       0.00800000 </v>
   <v>       0.00800000 </v>
   <v>       0.00400000 </v>
   <v>       0.00600000 </v>
   <v>       0.02400000 </v>
   <v>       0.02400000 </v>
   <v>       0.02400000 </v>
   <v>       0.02400000 </v>
   <v>       0.02400000 </v>
   <v>       0.02400000 </v>
   <v>       0.02400000 </v>
   <v>       0.01200000 </v>
   <v>       0.00600000 </v>
   <v>       0.02400000 </v>
   <v>       0.02400000 </v>
   <v>       0.02400000 </v>
   <v>       0.02400000 </v>
   <v>       0.02400000 </v>
   <v>       0.01200000 </v>
   <v>       0.00600000 </v>
   <v>       0.02400000 </v>
   <v>       0.02400000 </v>
   <v>       0.02400000 </v>
   <v>       0.01200000 </v>
   <v>       0.00600000 </v>
   <v>       0.02400000 </v>
   <v>       0.01200000 </v>
   <v>       0.00300000 </v>
   <v>       0.02400000 </v>
   <v>       0.04800000 </v>
   <v>       0.04800000 </v>
   <v>       0.02400000 </v>
   <v>       0.02400000 </v>
   <v>       0.04800000 </v>
   <v>       0.04800000 </v>
   <v>       0.04800000 </v>
   <v>       0.02400000 </v>
   <v>       0.02400000 </v>
   <v>       0.04800000 </v>
   <v>       0.02400000 </v>
   <v>       0.01200000 </v>
   <v>       0.02400000 </v>
   <v>       0.02400000 </v>
   <v>       0.01200000 </v>
  </varray>
 </kpoints>
 <parameters>
  <separator name="general" >
   <i type="string" name="SYSTEM">unknown system</i>
   <i type="logical" name="LCOMPAT"> F  </i>
  </separator>
  <separator name="electronic" >
   <i type="string" name="PREC">normal</i>
   <i name="ENMAX">    550.00000000</i>
   <i name="ENAUG">    644.87300000</i>
   <i name="EDIFF">      0.00000100</i>
   <i type="int" name="IALGO">    68</i>
   <i type="int" name="IWAVPR">    10</i>
   <i type="int" name="NBANDS">     8</i>
   <i type="int" name="NBANDSLOW">    -1</i>
   <i type="int" name="NBANDSHIGH">    -1</i>
   <i name="NELECT">      8.00000000</i>
   <i type="int" name="TURBO">     0</i>
   <i type="int" name="IRESTART">     0</i>
   <i type="int" name="NREBOOT">     0</i>
   <i type="int" name="NMIN">     0</i>
   <i name="EREF">      0.00000000</i>
   <separator name="electronic smearing" >
    <i type="int" name="ISMEAR">     0</i>
    <i name="SIGMA">      0.20000000</i>
    <i name="KSPACING">      0.50000000</i>
    <i type="logical" name="KGAMMA"> T  </i>
    <i type="logical" name="KBLOWUP"> T  </i>
   </separator>
   <separator name="electronic projectors" >
    <i type="logical" name="LREAL"> F  </i>
    <v name="ROPT">      0.00000000</v>
    <i type="int" name="LMAXPAW">  -100</i>
    <i type="int" name="LMAXMIX">     2</i>
    <i type="logical" name="NLSPLINE"> F  </i>
   </separator>
   <separator name="electronic startup" >
    <i type="int" name="ISTART">     0</i>
    <i type="int" name="ICHARG">     2</i>
    <i type="int" name="INIWAV">     1</i>
   </separator>
   <separator name="electronic spin" >
    <i type="int" name="ISPIN">     1</i>
    <i type="logical" name="LNONCOLLINEAR"> F  </i>
    <v name="MAGMOM">      1.00000000      1.00000000</v>
    <i name="NUPDOWN">     -1.00000000</i>
    <i type="logical" name="LSORBIT"> F  </i>
    <v name="SAXIS">      0.00000000      0.00000000      1.00000000</v>
    <i type="logical" name="LSPIRAL"> F  </i>
    <v name="QSPIRAL">      0.00000000      0.00000000      0.00000000</v>
    <i type="logical" name="LZEROZ"> F  </i>
   </separator>
   <separator name="electronic exchange-correlation" >
    <i type="logical" name="LASPH"> F  </i>
   </separator>
   <separator name="electronic convergence" >
    <i type="int" name="NELM">    60</i>
    <i type="int" name="NELMDL">    -5</i>
    <i type="int" name="NELMIN">     4</i>
    <i name="ENINI">    550.00000000</i>
    <separator name="electronic convergence detail" >
     <i type="logical" name="LDIAG"> T  </i>
     <i type="logical" name="LSUBROT"> F  </i>
     <i type="logical" name="LROBUST"> F  </i>
     <i type="int" name="ISEARCH">     0</i>
     <i name="WEIMIN">      0.00000000</i>
     <i name="EBREAK">      0.00000003</i>
     <i name="DEPER">      0.30000000</i>
     <i type="int" name="NRMM">     4</i>
     <i name="TIME">      0.40000000</i>
    </separator>
   </separator>
   <separator name="electronic mixer" >
    <i name="AMIX">      0.40000000</i>
    <i name="BMIX">      1.00000000</i>
    <i name="AMIN">      0.10000000</i>
    <i name="AMIX_MAG">      1.60000000</i>
    <i name="BMIX_MAG">      1.00000000</i>
    <separator name="electronic mixer details" >
     <i type="int" name="IMIX">     4</i>
     <i type="logical" name="MIXFIRST"> F  </i>
     <i type="int" name="MAXMIX">   -45</i>
     <i name="WC">    100.00000000</i>
     <i type="int" name="INIMIX">     1</i>
     <i type="int" name="MIXPRE">     1</i>
     <i type="int" name="MREMOVE">     5</i>
    </separator>
   </separator>
   <separator name="electronic dipolcorrection" >
    <i type="logical" name="LDIPOL"> F  </i>
    <i type="logical" name="LMONO"> F  </i>
    <i type="int" name="IDIPOL">     0</i>
    <i name="EPSILON">      1.00000000</i>
    <v name="DIPOL">   -100.00000000   -100.00000000   -100.00000000</v>
    <i name="EFIELD">      0.00000000</i>
    <i type="logical" name="LVACPOTAV"> F  </i>
   </separator>
  </separator>
  <separator name="grids" >
   <i type="int" name="NGX">    14</i>
   <i type="int" name="NGY">    14</i>
   <i type="int" name="NGZ">    14</i>
   <i type="int" name="NGXF">    28</i>
   <i type="int" name="NGYF">    28</i>
   <i type="int" name="NGZF">    28</i>
   <i type="logical" name="ADDGRID"> F  </i>
  </separator>
  <separator name="ionic" >
   <i type="int" name="NSW">     0</i>
   <i type="int" name="IBRION">    -1</i>
   <i type="int" name="MDALGO">     0</i>
   <i type="int" name="ISIF">     2</i>
   <i name="PSTRESS">      0.00000000</i>
   <i name="EDIFFG">      0.00001000</i>
   <i type="int" name="NFREE">     0</i>
   <i name="POTIM">      0.50000000</i>
   <i name="SMASS">     -3.00000000</i>
   <i name="SCALEE">      1.00000000</i>
  </separator>
  <separator name="ionic md" >
   <i name="TEBEG">      0.00010000</i>
   <i name="TEEND">      0.00010000</i>
   <i type="int" name="NBLOCK">     1</i>
   <i type="int" name="KBLOCK">     1</i>
   <i type="int" name="NPACO">   256</i>
   <i name="APACO">     10.00000000</i>
  </separator>
  <separator name="symmetry" >
   <i type="int" name="ISYM">     2</i>
   <i name="SYMPREC">      0.00001000</i>
  </separator>
  <separator name="dos" >
   <i type="int" name="LORBIT">     0</i>
   <v name="RWIGS">     -1.00000000</v>
   <i type="int" name="NEDOS">   301</i>
   <i name="EMIN">     10.00000000</i>
   <i name="EMAX">    -10.00000000</i>
   <i name="EFERMI">      0.00000000</i>
  </separator>
  <separator name="writing" >
   <i type="int" name="NWRITE">     2</i>
   <i type="logical" name="LWAVE"> F  </i>
   <i type="logical" name="LDOWNSAMPLE"> F  </i>
   <i type="logical" name="LCHARG"> T  </i>
   <i type="logical" name="LPARD"> F  </i>
   <i type="logical" name="LVTOT"> F  </i>
   <i type="logical" name="LVHAR"> F  </i>
   <i type="logical" name="LELF"> F  </i>
   <i type="logical" name="LOPTICS"> F  </i>
   <v name="STM">      0.00000000      0.00000000      0.00000000      0.00000000      0.00000000      0.00000000      0.00000000</v>
  </separator>
  <separator name="performance" >
   <i type="int" name="NPAR">     4</i>
   <i type="int" name="NSIM">     4</i>
   <i type="int" name="NBLK">    -1</i>
   <i type="logical" name="LPLANE"> T  </i>
   <i type="logical" name="LSCALAPACK"> T  </i>
   <i type="logical" name="LSCAAWARE"> F  </i>
   <i type="logical" name="LSCALU"> F  </i>
   <i type="logical" name="LASYNC"> F  </i>
   <i type="logical" name="LORBITALREAL"> F  </i>
  </separator>
  <separator name="miscellaneous" >
   <i type="int" name="IDIOT">     3</i>
   <i type="int" name="PHON_NSTRUCT">    -1</i>
   <i type="logical" name="LMUSIC"> F  </i>
   <v name="POMASS">     12.01100000</v>
   <v name="DARWINR">      0.00000000</v>
   <v name="DARWINV">      1.00000000</v>
   <i type="logical" name="LCORR"> T  </i>
  </separator>
  <i type="logical" name="GGA_COMPAT"> T  </i>
  <i type="logical" name="LBERRY"> F  </i>
  <i type="int" name="ICORELEVEL">     0</i>
  <i type="logical" name="LDAU"> F  </i>
  <i type="int" name="I_CONSTRAINED_M">     0</i>
  <separator name="electronic exchange-correlation" >
   <i type="string" name="GGA    ">PE</i>
   <i type="string" name="XC_C">1</i>
   <i type="int" name="VOSKOWN">     0</i>
   <i type="logical" name="LHFCALC"> F  </i>
   <i type="string" name="PRECFOCK"></i>
   <i type="logical" name="LSYMGRAD"> F  </i>
   <i type="logical" name="LHFONE"> F  </i>
   <i type="logical" name="LRHFCALC"> F  </i>
   <i type="logical" name="LTHOMAS"> F  </i>
   <i type="logical" name="LMODELHF"> F  </i>
   <i type="logical" name="LFOCKACE"> F  </i>
   <i name="ENCUT4O">     -1.00000000</i>
   <i type="int" name="EXXOEP">     0</i>
   <i type="int" name="FOURORBIT">     0</i>
   <i name="AEXX">      0.00000000</i>
   <i name="HFALPHA">      0.00000000</i>
   <i name="MCALPHA">      0.00000000</i>
   <i name="ALDAX">      1.00000000</i>
   <i name="AGGAX">      1.00000000</i>
   <i name="AMGGAX">      1.00000000</i>
   <i name="ALDAC">      1.00000000</i>
   <i name="AGGAC">      1.00000000</i>
   <i name="AMGGAC">      1.00000000</i>
   <i type="int" name="NKREDX">     1</i>
   <i type="int" name="NKREDY">     1</i>
   <i type="int" name="NKREDZ">     1</i>
   <i type="logical" name="SHIFTRED"> F  </i>
   <i type="logical" name="ODDONLY"> F  </i>
   <i type="logical" name="EVENONLY"> F  </i>
   <i type="int" name="LMAXFOCK">     0</i>
   <i type="int" name="NMAXFOCKAE">     0</i>
   <i type="logical" name="LFOCKAEDFT"> F  </i>
   <i name="HFSCREEN">      0.00000000</i>
   <i name="HFSCREENC">      0.00000000</i>
   <i type="int" name="NBANDSGWLOW">     0</i>
  </separator>
  <separator name="vdW DFT" >
   <i type="logical" name="LUSE_VDW"> F  </i>
   <i type="int" name="IVDW_NL">    -1</i>
   <i type="logical" name="LSPIN_VDW"> F  </i>
   <i name="ZAB_VDW">     -0.84910000</i>
   <i name="GAMMA_VDW">      1.39626340</i>
   <i name="ALPHA_VDW">      0.00000000</i>
   <i name="PARAM1">      0.12340000</i>
   <i name="PARAM2">      1.00000000</i>
   <i name="BPARAM">      6.30000000</i>
   <i name="CPARAM">      0.00930000</i>
  </separator>
  <separator name="model GW" >
   <i type="int" name="MODEL_GW">     0</i>
   <i name="MODEL_EPS0">      3.38385115</i>
   <i name="MODEL_ALPHA">      1.00000000</i>
  </separator>
  <separator name="linear response parameters" >
   <i type="logical" name="LEPSILON"> F  </i>
   <i type="logical" name="LRPA"> F  </i>
   <i type="logical" name="LNABLA"> F  </i>
   <i type="logical" name="LVEL"> F  </i>
   <i name="CSHIFT">      0.10000000</i>
   <i name="OMEGAMAX">     -1.00000000</i>
   <i name="DEG_THRESHOLD">      0.00200000</i>
   <i name="RTIME">     -0.10000000</i>
   <i name="WPLASMAI">      0.00000000</i>
   <v name="DFIELD">      0.00000000      0.00000000      0.00000000</v>
   <v name="WPLASMA">      0.00000000      0.00000000      0.00000000      0.00000000      0.00000000      0.00000000      0.00000000      0.00000000      0.00000000</v>
  </separator>
  <separator name="orbital magnetization" >
   <i type="logical" name="NUCIND"> F  </i>
   <v name="MAGPOS">      0.00000000      0.00000000      0.00000000</v>
   <i type="logical" name="LNICSALL"> T  </i>
   <i type="logical" name="ORBITALMAG"> F  </i>
   <i type="logical" name="LMAGBLOCH"> F  </i>
   <i type="logical" name="LCHIMAG"> F  </i>
   <i type="logical" name="LGAUGE"> T  </i>
   <i type="int" name="MAGATOM">     0</i>
   <v name="MAGDIPOL">      0.00000000      0.00000000      0.00000000</v>
   <v name="AVECCONST">      0.00000000      0.00000000      0.00000000</v>
  </separator>
  <separator name="response functions" >
   <i type="logical" name="LALL_IN_ONE"> F  </i>
   <i type="int" name="IALL_IN_ONE">    -1</i>
   <i type="int" name="NBANDS_WAVE">    -1</i>
   <i type="logical" name="LFINITE_TEMPERATURE"> F  </i>
   <i type="logical" name="LADDER"> F  </i>
   <i type="logical" name="LRPAFORCE"> F  </i>
   <i type="logical" name="LFXC"> F  </i>
   <i type="logical" name="LHARTREE"> T  </i>
   <i type="int" name="IBSE">     2</i>
   <v type="int" name="KPOINT">    -1     0     0     0</v>
   <i type="logical" name="LTCTC"> F  </i>
   <i type="logical" name="LTCTE"> F  </i>
   <i type="logical" name="LTETE"> F  </i>
   <i type="logical" name="LTRIPLET"> F  </i>
   <i type="logical" name="LFXCEPS"> F  </i>
   <i type="logical" name="LFXHEG"> F  </i>
   <i type="int" name="NATURALO">     2</i>
   <i type="logical" name="LHOLEGF"> F  </i>
   <i type="logical" name="L2ORDER"> F  </i>
   <i type="logical" name="LDMP1"> F  </i>
   <i type="logical" name="LMP2LT"> F  </i>
   <i type="logical" name="LSMP2LT"> F  </i>
   <i type="logical" name="LGWLF"> F  </i>
   <i name="ENCUTGW">     -1.60000002</i>
   <i name="ENCUTGWSOFT">     -1.60000002</i>
   <i name="ENCUTLF">     -1.00000000</i>
   <i type="logical" name="ESF_SPLINES"> F  </i>
   <i name="ESF_CONV">      0.01000000</i>
   <i type="int" name="ESF_NINTER">    15</i>
   <i type="int" name="LMAXMP2">    -1</i>
   <i name="SCISSOR">      0.00000000</i>
   <i type="int" name="NOMEGA">     0</i>
   <i type="int" name="NOMEGAR">     0</i>
   <i type="int" name="NBANDSGW">    -1</i>
   <i type="int" name="NBANDSO">    -1</i>
   <i type="int" name="NBANDSV">    -1</i>
   <i type="int" name="NELMGW">     1</i>
   <i type="int" name="NELMHF">     1</i>
   <i type="int" name="DIM">     3</i>
   <i type="int" name="IESPILON">     4</i>
   <i type="int" name="ANTIRES">     0</i>
   <i name="OMEGAMAX">    -30.00000000</i>
   <i name="OMEGAMIN">    -30.00000000</i>
   <i name="OMEGATL">   -200.00000000</i>
   <i type="int" name="OMEGAGRID">     0</i>
   <i name="CSHIFT">     -0.10000000</i>
   <i type="logical" name="LSELFENERGY"> F  </i>
   <i type="logical" name="LSPECTRAL"> F  </i>
   <i type="logical" name="LSPECTRALGW"> F  </i>
   <i type="logical" name="LSINGLES"> F  </i>
   <i type="logical" name="LFERMIGW"> F  </i>
   <i type="logical" name="ODDONLYGW"> F  </i>
   <i type="logical" name="EVENONLYGW"> F  </i>
   <i type="int" name="NKREDLFX">     1</i>
   <i type="int" name="NKREDLFY">     1</i>
   <i type="int" name="NKREDLFZ">     1</i>
   <i type="int" name="MAXMEM">  2800</i>
   <i type="int" name="TELESCOPE">     0</i>
   <i type="int" name="NTAUPAR">    -1</i>
   <i type="int" name="NOMEGAPAR">    -1</i>
   <i name="DAMP_NEWTON">      0.80000001</i>
   <i name="LAMBDA">      1.00000000</i>
  </separator>
  <separator name="External order field" >
   <i name="OFIELD_KAPPA">      0.00000000</i>
   <v name="OFIELD_K">      0.00000000      0.00000000      0.00000000</v>
   <i name="OFIELD_Q6_NEAR">      0.00000000</i>
   <i name="OFIELD_Q6_FAR">      0.00000000</i>
   <i name="OFIELD_A">      0.00000000</i>
  </separator>
  <separator name="optional k-points parameters" >
   <i type="int" name="KPOINTS_OPT_MODE">     1</i>
   <i type="logical" name="LKPOINTS_OPT"> F  </i>
  </separator>
 </parameters>
 <atominfo>
  <atoms>       2 </atoms>
  <types>       1 </types>
  <array name="atoms" >
   <dimension dim="1">ion</dimension>
   <field type="string">element</field>
   <field type="int">atomtype</field>
   <set>
    <rc><c>C </c><c>   1</c></rc>
    <rc><c>C </c><c>   1</c></rc>
   </set>
  </array>
  <array name="atomtypes" >
   <dimension dim="1">type</dimension>
   <field type="int">atomspertype</field>
   <field type="string">element</field>
   <field>mass</field>
   <field>valence</field>
   <field type="string">pseudopotential</field>
   <set>
    <rc><c>   2</c><c>C </c><c>     12.01100000</c><c>      4.00000000</c><c>  PAW_PBE C 08Apr2002                   </c></rc>
   </set>
  </array>
 </atominfo>
 <structure name="initialpos" >
  <crystal>
   <varray name="basis" >
    <v>       2.51730013       0.00000000       0.00000000 </v>
    <v>       1.25865006       2.18004586       0.00000000 </v>
    <v>       1.25865006       0.72668195       2.05536695 </v>
   </varray>
   <i name="volume">     11.27950384 </i>
   <varray name="rec_basis" >
    <v>       0.39725100      -0.22935297      -0.16217704 </v>
    <v>       0.00000000       0.45870595      -0.16217704 </v>
    <v>       0.00000000       0.00000000       0.48653113 </v>
   </varray>
  </crystal>
  <varray name="positions" >
   <v>       0.25000000       0.25000000       0.25000000 </v>
   <v>       0.00000000       0.00000000       0.00000000 </v>
  </varray>
 </structure>
 <calculation>
  <scstep>
   <time name="dav">    0.05    0.05</time>
   <time name="total">    0.06    0.06</time>
   <energy>
    <i name="alphaZ">     29.13132251 </i>
    <i name="ewald">   -348.62358043 </i>
    <i name="hartreedc">    -17.48913657 </i>
    <i name="XCdc">     27.44127174 </i>
    <i name="pawpsdc">    217.04409276 </i>
    <i name="pawaedc">   -218.18290438 </i>
    <i name="eentropy">     -0.00283545 </i>
    <i name="bandstr">     16.59885663 </i>
    <i name="atom">    294.29880157 </i>
    <i name="e_fr_energy">      0.21588838 </i>
    <i name="e_wo_entrp">      0.21872383 </i>
    <i name="e_0_energy">      0.21730610 </i>
   </energy>
  </scstep>
  <scstep>
   <time name="dav">    0.08    0.08</time>
   <time name="total">    0.08    0.08</time>
   <energy>
    <i name="e_fr_energy">    -18.71679513 </i>
    <i name="e_wo_entrp">    -18.71679513 </i>
    <i name="e_0_energy">    -18.71679513 </i>
   </energy>
  </scstep>
  <scstep>
   <time name="dav">    0.05    0.05</time>
   <time name="total">    0.05    0.05</time>
   <energy>
    <i name="e_fr_energy">    -18.83404003 </i>
    <i name="e_wo_entrp">    -18.83404003 </i>
    <i name="e_0_energy">    -18.83404003 </i>
   </energy>
  </scstep>
  <scstep>
   <time name="dav">    0.07    0.10</time>
   <time name="total">    0.07    0.10</time>
   <energy>
    <i name="e_fr_energy">    -18.83423840 </i>
    <i name="e_wo_entrp">    -18.83423840 </i>
    <i name="e_0_energy">    -18.83423840 </i>
   </energy>
  </scstep>
  <scstep>
   <time name="dav">    0.05    0.05</time>
   <time name="total">    0.05    0.05</time>
   <energy>
    <i name="e_fr_energy">    -18.83423844 </i>
    <i name="e_wo_entrp">    -18.83423844 </i>
    <i name="e_0_energy">    -18.83423844 </i>
   </energy>
  </scstep>
  <scstep>
   <time name="diag">    0.05    0.05</time>
   <time name="diis">    0.02    0.02</time>
   <time name="orth">    0.00    0.00</time>
   <time name="total">    0.07    0.07</time>
   <energy>
    <i name="e_fr_energy">    -18.34496209 </i>
    <i name="e_wo_entrp">    -18.34496209 </i>
    <i name="e_0_energy">    -18.34496209 </i>
   </energy>
  </scstep>
  <scstep>
   <time name="diag">    0.03    0.03</time>
   <time name="diis">    0.02    0.02</time>
   <time name="orth">    0.00    0.00</time>
   <time name="total">    0.06    0.06</time>
   <energy>
    <i name="e_fr_energy">    -18.18075664 </i>
    <i name="e_wo_entrp">    -18.18075664 </i>
    <i name="e_0_energy">    -18.18075664 </i>
   </energy>
  </scstep>
  <scstep>
   <time name="diag">    0.03    0.03</time>
   <time name="diis">    0.02    0.02</time>
   <time name="orth">    0.00    0.00</time>
   <time name="total">    0.06    0.06</time>
   <energy>
    <i name="e_fr_energy">    -18.18448864 </i>
    <i name="e_wo_entrp">    -18.18448864 </i>
    <i name="e_0_energy">    -18.18448864 </i>
   </energy>
  </scstep>
  <scstep>
   <time name="diag">    0.03    0.03</time>
   <time name="diis">    0.02    0.02</time>
   <time name="orth">    0.00    0.00</time>
   <time name="total">    0.06    0.06</time>
   <energy>
    <i name="e_fr_energy">    -18.18469948 </i>
    <i name="e_wo_entrp">    -18.18469948 </i>
    <i name="e_0_energy">    -18.18469948 </i>
   </energy>
  </scstep>
  <scstep>
   <time name="diag">    0.03    0.03</time>
   <time name="diis">    0.02    0.02</time>
   <time name="orth">    0.00    0.00</time>
   <time name="total">    0.05    0.05</time>
   <energy>
    <i name="e_fr_energy">    -18.18472612 </i>
    <i name="e_wo_entrp">    -18.18472611 </i>
    <i name="e_0_energy">    -18.18472611 </i>
   </energy>
  </scstep>
  <scstep>
   <time name="diag">    0.03    0.03</time>
   <time name="diis">    0.02    0.02</time>
   <time name="orth">    0.00    0.00</time>
   <time name="total">    0.06    0.06</time>
   <energy>
    <i name="e_fr_energy">    -18.18472923 </i>
    <i name="e_wo_entrp">    -18.18472923 </i>
    <i name="e_0_energy">    -18.18472923 </i>
   </energy>
  </scstep>
  <scstep>
   <time name="diag">    0.03    0.03</time>
   <time name="diis">    0.02    0.02</time>
   <time name="orth">    0.00    0.00</time>
   <time name="total">    0.05    0.05</time>
   <energy>
    <i name="e_fr_energy">    -18.18473024 </i>
    <i name="e_wo_entrp">    -18.18473024 </i>
    <i name="e_0_energy">    -18.18473024 </i>
   </energy>
  </scstep>
  <scstep>
   <time name="diag">    0.03    0.03</time>
   <time name="diis">    0.01    0.01</time>
   <time name="orth">    0.00    0.00</time>
   <time name="total">    0.05    0.05</time>
   <energy>
    <i name="alphaZ">     29.13132251 </i>
    <i name="ewald">   -348.62358043 </i>
    <i name="hartreedc">    -26.32468602 </i>
    <i name="XCdc">     28.24868399 </i>
    <i name="pawpsdc">    769.94469710 </i>
    <i name="pawaedc">   -771.28583800 </i>
    <i name="eentropy">     -0.00000000 </i>
    <i name="bandstr">      6.42586875 </i>
    <i name="atom">    294.29880157 </i>
    <i name="e_fr_energy">    -18.18473052 </i>
    <i name="e_wo_entrp">    -18.18473052 </i>
    <i name="e_0_energy">    -18.18473052 </i>
   </energy>
  </scstep>
  <structure>
   <crystal>
    <varray name="basis" >
     <v>       2.51730013       0.00000000       0.00000000 </v>
     <v>       1.25865006       2.18004586       0.00000000 </v>
     <v>       1.25865006       0.72668195       2.05536695 </v>
    </varray>
    <i name="volume">     11.27950384 </i>
    <varray name="rec_basis" >
     <v>       0.39725100      -0.22935297      -0.16217704 </v>
     <v>       0.00000000       0.45870595      -0.16217704 </v>
     <v>       0.00000000       0.00000000       0.48653113 </v>
    </varray>
   </crystal>
   <varray name="positions" >
    <v>       0.25000000       0.25000000       0.25000000 </v>
    <v>       0.00000000       0.00000000       0.00000000 </v>
   </varray>
  </structure>
  <varray name="forces" >
   <v>      -0.00000000       0.00000000      -0.00000000 </v>
   <v>       0.00000000      -0.00000000       0.00000000 </v>
  </varray>
  <varray name="stress" >
   <v>      47.57927695       0.00000000       0.00000000 </v>
   <v>       0.00000000      47.57927695      -0.00000000 </v>
   <v>       0.00000000      -0.00000000      47.57927694 </v>
  </varray>
  <energy>
   <i name="e_fr_energy">    -18.18473052 </i>
   <i name="e_wo_entrp">    -18.18473052 </i>
   <i name="e_0_energy">    -18.18473052 </i>
  </energy>
  <time name="totalsc">    0.79    0.84</time>
  <eigenvalues>
   <array>
    <dimension dim="1">band</dimension>
    <dimension dim="2">kpoint</dimension>
    <dimension dim="3">spin</dimension>
    <field>eigene</field>
    <field>occ</field>
    <set>
     <set comment="spin 1">
      <set comment="kpoint 1">
       <r>  -11.7415    1.0000 </r>
       <r>    9.8118    1.0000 </r>
       <r>    9.8119    1.0000 </r>
       <r>    9.8119    1.0000 </r>
       <r>   15.4175    0.0000 </r>
       <r>   15.4175    0.0000 </r>
       <r>   15.4175    0.0000 </r>
       <r>   23.2740    0.0000 </r>
      </set>
      <set comment="kpoint 2">
       <r>  -11.4636    1.0000 </r>
       <r>    8.1289    1.0000 </r>
       <r>    9.3627    1.0000 </r>
       <r>    9.3627    1.0000 </r>
       <r>   16.0075    0.0000 </r>
       <r>   16.0075    0.0000 </r>
       <r>   16.3706    0.0000 </r>
       <r>   23.5044    0.0000 </r>
      </set>
      <set comment="kpoint 3">
       <r>  -10.6348    1.0000 </r>
       <r>    4.9111    1.0000 </r>
       <r>    8.4817    1.0000 </r>
       <r>    8.4818    1.0000 </r>
       <r>   17.1440    0.0000 </r>
       <r>   17.1441    0.0000 </r>
       <r>   17.5963    0.0000 </r>
       <r>   24.1436    0.0000 </r>
      </set>
      <set comment="kpoint 4">
       <r>   -9.2754    1.0000 </r>
       <r>    1.4991    1.0000 </r>
       <r>    7.6871    1.0000 </r>
       <r>    7.6871    1.0000 </r>
       <r>   17.9685    0.0000 </r>
       <r>   17.9686    0.0000 </r>
       <r>   18.3043    0.0000 </r>
       <r>   24.9205    0.0000 </r>
      </set>
      <set comment="kpoint 5">
       <r>   -7.4563    1.0000 </r>
       <r>   -1.6455    1.0000 </r>
       <r>    7.1729    1.0000 </r>
       <r>    7.1730    1.0000 </r>
       <r>   18.2574    0.0000 </r>
       <r>   18.2575    0.0000 </r>
       <r>   18.6383    0.0000 </r>
       <r>   25.4266    0.0000 </r>
      </set>
      <set comment="kpoint 6">
       <r>   -5.9335    1.0000 </r>
       <r>   -3.6238    1.0000 </r>
       <r>    6.9974    1.0000 </r>
       <r>    6.9974    1.0000 </r>
       <r>   18.2943    0.0000 </r>
       <r>   18.2944    0.0000 </r>
       <r>   18.7369    0.0000 </r>
       <r>   25.5619    0.0000 </r>
      </set>
      <set comment="kpoint 7">
       <r>  -11.3710    1.0000 </r>
       <r>    8.5777    1.0000 </r>
       <r>    8.5777    1.0000 </r>
       <r>    8.9412    1.0000 </r>
       <r>   15.1424    0.0000 </r>
       <r>   16.9695    0.0000 </r>
       <r>   16.9695    0.0000 </r>
       <r>   23.3710    0.0000 </r>
      </set>
      <set comment="kpoint 8">
       <r>  -10.7261    1.0000 </r>
       <r>    6.0304    1.0000 </r>
       <r>    7.6052    1.0000 </r>
       <r>    8.4713    1.0000 </r>
       <r>   15.5704    0.0000 </r>
       <r>   18.2781    0.0000 </r>
       <r>   18.2992    0.0000 </r>
       <r>   23.2723    0.0000 </r>
      </set>
      <set comment="kpoint 9">
       <r>   -9.5430    1.0000 </r>
       <r>    2.7463    1.0000 </r>
       <r>    6.8559    1.0000 </r>
       <r>    7.5996    1.0000 </r>
       <r>   16.6127    0.0000 </r>
       <r>   19.1377    0.0000 </r>
       <r>   19.2297    0.0000 </r>
       <r>   23.4594    0.0000 </r>
      </set>
      <set comment="kpoint 10">
       <r>   -7.8667    1.0000 </r>
       <r>   -0.4646    1.0000 </r>
       <r>    6.4782    1.0000 </r>
       <r>    6.7262    1.0000 </r>
       <r>   17.3312    0.0000 </r>
       <r>   19.4463    0.0000 </r>
       <r>   19.5438    0.0000 </r>
       <r>   24.3471    0.0000 </r>
      </set>
      <set comment="kpoint 11">
       <r>   -5.9897    1.0000 </r>
       <r>   -3.0741    1.0000 </r>
       <r>    6.0890    1.0000 </r>
       <r>    6.5070    1.0000 </r>
       <r>   17.7360    0.0000 </r>
       <r>   19.1970    0.0000 </r>
       <r>   19.6751    0.0000 </r>
       <r>   25.3485    0.0000 </r>
      </set>
      <set comment="kpoint 12">
       <r>   -6.5735    1.0000 </r>
       <r>   -2.3389    1.0000 </r>
       <r>    5.7939    1.0000 </r>
       <r>    6.9213    1.0000 </r>
       <r>   18.1349    0.0000 </r>
       <r>   18.7762    0.0000 </r>
       <r>   19.6131    0.0000 </r>
       <r>   25.4237    0.0000 </r>
      </set>
      <set comment="kpoint 13">
       <r>   -8.4752    1.0000 </r>
       <r>    0.5833    1.0000 </r>
       <r>    5.8937    1.0000 </r>
       <r>    7.6556    1.0000 </r>
       <r>   18.1603    0.0000 </r>
       <r>   18.4631    0.0000 </r>
       <r>   19.3107    0.0000 </r>
       <r>   24.6158    0.0000 </r>
      </set>
      <set comment="kpoint 14">
       <r>   -9.9959    1.0000 </r>
       <r>    3.8680    1.0000 </r>
       <r>    6.4070    1.0000 </r>
       <r>    8.5697    1.0000 </r>
       <r>   17.1841    0.0000 </r>
       <r>   18.3367    0.0000 </r>
       <r>   18.5159    0.0000 </r>
       <r>   23.9168    0.0000 </r>
      </set>
      <set comment="kpoint 15">
       <r>  -11.0021    1.0000 </r>
       <r>    6.8688    1.0000 </r>
       <r>    7.4688    1.0000 </r>
       <r>    9.3346    1.0000 </r>
       <r>   16.1661    0.0000 </r>
       <r>   17.1925    0.0000 </r>
       <r>   17.5094    0.0000 </r>
       <r>   23.6655    0.0000 </r>
      </set>
      <set comment="kpoint 16">
       <r>  -10.2673    1.0000 </r>
       <r>    6.5675    1.0000 </r>
       <r>    6.5675    1.0000 </r>
       <r>    6.7209    1.0000 </r>
       <r>   14.5500    0.0000 </r>
       <r>   19.8969    0.0000 </r>
       <r>   19.8969    0.0000 </r>
       <r>   21.7068    0.0000 </r>
      </set>
      <set comment="kpoint 17">
       <r>   -9.2684    1.0000 </r>
       <r>    3.9610    1.0000 </r>
       <r>    5.7744    1.0000 </r>
       <r>    6.1518    1.0000 </r>
       <r>   14.9794    0.0000 </r>
       <r>   20.6451    0.0000 </r>
       <r>   21.1379    0.0000 </r>
       <r>   21.1732    0.0000 </r>
      </set>
      <set comment="kpoint 18">
       <r>   -7.7616    1.0000 </r>
       <r>    0.9866    1.0000 </r>
       <r>    5.0906    1.0000 </r>
       <r>    5.3871    1.0000 </r>
       <r>   15.9290    0.0000 </r>
       <r>   21.0868    0.0000 </r>
       <r>   21.6475    0.0000 </r>
       <r>   21.7422    0.0000 </r>
      </set>
      <set comment="kpoint 19">
       <r>   -5.8888    1.0000 </r>
       <r>   -1.7640    1.0000 </r>
       <r>    4.0875    1.0000 </r>
       <r>    5.4520    1.0000 </r>
       <r>   16.5090    0.0000 </r>
       <r>   21.3875    0.0000 </r>
       <r>   21.9367    0.0000 </r>
       <r>   23.1236    0.0000 </r>
      </set>
      <set comment="kpoint 20">
       <r>   -5.3389    1.0000 </r>
       <r>   -2.4222    1.0000 </r>
       <r>    3.4133    1.0000 </r>
       <r>    5.9514    1.0000 </r>
       <r>   17.0815    0.0000 </r>
       <r>   20.7033    0.0000 </r>
       <r>   21.9104    0.0000 </r>
       <r>   25.1096    0.0000 </r>
      </set>
      <set comment="kpoint 21">
       <r>   -7.1743    1.0000 </r>
       <r>    0.0966    1.0000 </r>
       <r>    3.1910    1.0000 </r>
       <r>    6.8035    1.0000 </r>
       <r>   17.8209    0.0000 </r>
       <r>   19.6807    0.0000 </r>
       <r>   21.5972    0.0000 </r>
       <r>   24.3352    0.0000 </r>
      </set>
      <set comment="kpoint 22">
       <r>   -8.8256    1.0000 </r>
       <r>    2.8112    1.0000 </r>
       <r>    3.7774    1.0000 </r>
       <r>    7.8163    1.0000 </r>
       <r>   18.3302    0.0000 </r>
       <r>   18.4303    0.0000 </r>
       <r>   20.3511    0.0000 </r>
       <r>   23.5537    0.0000 </r>
      </set>
      <set comment="kpoint 23">
       <r>   -8.4565    1.0000 </r>
       <r>    3.7196    1.0000 </r>
       <r>    4.8987    1.0000 </r>
       <r>    4.8988    1.0000 </r>
       <r>   14.0597    0.0000 </r>
       <r>   18.5173    0.0000 </r>
       <r>   22.9668    0.0000 </r>
       <r>   22.9669    0.0000 </r>
      </set>
      <set comment="kpoint 24">
       <r>   -7.1323    1.0000 </r>
       <r>    1.7360    1.0000 </r>
       <r>    3.7980    1.0000 </r>
       <r>    4.4256    1.0000 </r>
       <r>   14.6189    0.0000 </r>
       <r>   17.8529    0.0000 </r>
       <r>   23.9586    0.0000 </r>
       <r>   24.0193    0.0000 </r>
      </set>
      <set comment="kpoint 25">
       <r>   -5.3821    1.0000 </r>
       <r>   -0.4552    1.0000 </r>
       <r>    2.2562    1.0000 </r>
       <r>    4.4218    1.0000 </r>
       <r>   15.3849    0.0000 </r>
       <r>   19.3976    0.0000 </r>
       <r>   23.9359    0.0000 </r>
       <r>   24.4045    0.0000 </r>
      </set>
      <set comment="kpoint 26">
       <r>   -4.0221    1.0000 </r>
       <r>   -1.8975    1.0000 </r>
       <r>    1.1036    1.0000 </r>
       <r>    4.8836    1.0000 </r>
       <r>   15.9652    0.0000 </r>
       <r>   22.4427    0.0000 </r>
       <r>   23.0923    0.0000 </r>
       <r>   24.4869    0.0000 </r>
      </set>
      <set comment="kpoint 27">
       <r>   -5.4658    1.0000 </r>
       <r>   -0.3628    1.0000 </r>
       <r>    0.9036    1.0000 </r>
       <r>    5.7398    1.0000 </r>
       <r>   16.8097    0.0000 </r>
       <r>   21.5851    0.0000 </r>
       <r>   24.0058    0.0000 </r>
       <r>   24.4042    0.0000 </r>
      </set>
      <set comment="kpoint 28">
       <r>   -5.9946    1.0000 </r>
       <r>    0.3520    1.0000 </r>
       <r>    3.8401    1.0000 </r>
       <r>    3.8401    1.0000 </r>
       <r>   13.9936    0.0000 </r>
       <r>   16.0356    0.0000 </r>
       <r>   25.5689    0.0000 </r>
       <r>   25.5690    0.0000 </r>
      </set>
      <set comment="kpoint 29">
       <r>   -4.4083    1.0000 </r>
       <r>   -1.2874    1.0000 </r>
       <r>    2.7254    1.0000 </r>
       <r>    3.7233    1.0000 </r>
       <r>   14.6661    0.0000 </r>
       <r>   16.1381    0.0000 </r>
       <r>   25.9465    0.0000 </r>
       <r>   26.1378    0.0000 </r>
      </set>
      <set comment="kpoint 30">
       <r>   -2.9373    1.0000 </r>
       <r>   -2.3286    1.0000 </r>
       <r>    0.9881    1.0000 </r>
       <r>    4.0886    1.0000 </r>
       <r>   15.1776    0.0000 </r>
       <r>   18.8410    0.0000 </r>
       <r>   25.0364    0.0000 </r>
       <r>   25.8920    0.0000 </r>
      </set>
      <set comment="kpoint 31">
       <r>   -2.9923    1.0000 </r>
       <r>   -2.9923    1.0000 </r>
       <r>    3.4794    1.0000 </r>
       <r>    3.4794    1.0000 </r>
       <r>   14.5824    0.0000 </r>
       <r>   14.5824    0.0000 </r>
       <r>   26.7038    0.0000 </r>
       <r>   26.7039    0.0000 </r>
      </set>
      <set comment="kpoint 32">
       <r>   -9.9039    1.0000 </r>
       <r>    4.7603    1.0000 </r>
       <r>    5.5675    1.0000 </r>
       <r>    7.9030    1.0000 </r>
       <r>   15.9638    0.0000 </r>
       <r>   19.2526    0.0000 </r>
       <r>   19.8422    0.0000 </r>
       <r>   22.5097    0.0000 </r>
      </set>
      <set comment="kpoint 33">
       <r>   -8.5575    1.0000 </r>
       <r>    1.9220    1.0000 </r>
       <r>    4.6951    1.0000 </r>
       <r>    7.0046    1.0000 </r>
       <r>   17.0937    0.0000 </r>
       <r>   19.4263    0.0000 </r>
       <r>   21.0907    0.0000 </r>
       <r>   22.5753    0.0000 </r>
      </set>
      <set comment="kpoint 34">
       <r>   -6.7641    1.0000 </r>
       <r>   -1.0573    1.0000 </r>
       <r>    4.4577    1.0000 </r>
       <r>    6.1330    1.0000 </r>
       <r>   17.8347    0.0000 </r>
       <r>   19.1661    0.0000 </r>
       <r>   21.6390    0.0000 </r>
       <r>   23.9972    0.0000 </r>
      </set>
      <set comment="kpoint 35">
       <r>   -5.2815    1.0000 </r>
       <r>   -2.9579    1.0000 </r>
       <r>    4.4516    1.0000 </r>
       <r>    5.7473    1.0000 </r>
       <r>   18.0241    0.0000 </r>
       <r>   19.0205    0.0000 </r>
       <r>   21.7987    0.0000 </r>
       <r>   25.1478    0.0000 </r>
      </set>
      <set comment="kpoint 36">
       <r>   -8.1062    1.0000 </r>
       <r>    2.7207    1.0000 </r>
       <r>    3.9718    1.0000 </r>
       <r>    5.4546    1.0000 </r>
       <r>   15.5329    0.0000 </r>
       <r>   19.6124    0.0000 </r>
       <r>   21.6834    0.0000 </r>
       <r>   22.9956    0.0000 </r>
      </set>
      <set comment="kpoint 37">
       <r>   -6.4706    1.0000 </r>
       <r>    0.3726    1.0000 </r>
       <r>    3.0849    1.0000 </r>
       <r>    4.6104    1.0000 </r>
       <r>   16.6703    0.0000 </r>
       <r>   20.1287    0.0000 </r>
       <r>   21.6777    0.0000 </r>
       <r>   24.0820    0.0000 </r>
      </set>
      <set comment="kpoint 38">
       <r>   -4.6731    1.0000 </r>
       <r>   -1.9045    1.0000 </r>
       <r>    2.4405    1.0000 </r>
       <r>    4.4443    1.0000 </r>
       <r>   17.2816    0.0000 </r>
       <r>   20.8656    0.0000 </r>
       <r>   22.8157    0.0000 </r>
       <r>   24.2511    0.0000 </r>
      </set>
      <set comment="kpoint 39">
       <r>   -5.2503    1.0000 </r>
       <r>   -1.1780    1.0000 </r>
       <r>    1.9704    1.0000 </r>
       <r>    5.0197    1.0000 </r>
       <r>   17.9253    0.0000 </r>
       <r>   20.1739    0.0000 </r>
       <r>   23.3629    0.0000 </r>
       <r>   24.4165    0.0000 </r>
      </set>
      <set comment="kpoint 40">
       <r>   -7.0776    1.0000 </r>
       <r>    1.1092    1.0000 </r>
       <r>    2.2760    1.0000 </r>
       <r>    6.0082    1.0000 </r>
       <r>   18.7188    0.0000 </r>
       <r>   18.7721    0.0000 </r>
       <r>   22.4844    0.0000 </r>
       <r>   23.1695    0.0000 </r>
      </set>
      <set comment="kpoint 41">
       <r>   -5.6766    1.0000 </r>
       <r>    0.2611    1.0000 </r>
       <r>    2.9914    1.0000 </r>
       <r>    3.4853    1.0000 </r>
       <r>   15.4652    0.0000 </r>
       <r>   17.3361    0.0000 </r>
       <r>   24.1531    0.0000 </r>
       <r>   25.5110    0.0000 </r>
      </set>
      <set comment="kpoint 42">
       <r>   -3.8994    1.0000 </r>
       <r>   -1.2841    1.0000 </r>
       <r>    1.4235    1.0000 </r>
       <r>    3.3614    1.0000 </r>
       <r>   16.4367    0.0000 </r>
       <r>   19.0860    0.0000 </r>
       <r>   23.7975    0.0000 </r>
       <r>   25.3950    0.0000 </r>
      </set>
      <set comment="kpoint 43">
       <r>   -3.6011    1.0000 </r>
       <r>   -1.4568    1.0000 </r>
       <r>    0.4463    1.0000 </r>
       <r>    3.9804    1.0000 </r>
       <r>   17.0590    0.0000 </r>
       <r>   22.1495    0.0000 </r>
       <r>   22.8489    0.0000 </r>
       <r>   24.1761    0.0000 </r>
      </set>
      <set comment="kpoint 44">
       <r>   -2.7652    1.0000 </r>
       <r>   -2.7652    1.0000 </r>
       <r>    2.7661    1.0000 </r>
       <r>    2.7661    1.0000 </r>
       <r>   16.0005    0.0000 </r>
       <r>   16.0005    0.0000 </r>
       <r>   25.9304    0.0000 </r>
       <r>   25.9305    0.0000 </r>
      </set>
      <set comment="kpoint 45">
       <r>   -4.7803    1.0000 </r>
       <r>   -0.3804    1.0000 </r>
       <r>    1.4487    1.0000 </r>
       <r>    3.3952    1.0000 </r>
       <r>   18.7999    0.0000 </r>
       <r>   19.6915    0.0000 </r>
       <r>   21.6356    0.0000 </r>
       <r>   24.9822    0.0000 </r>
      </set>
      <set comment="kpoint 46">
       <r>   -3.4035    1.0000 </r>
       <r>   -1.5943    1.0000 </r>
       <r>    1.1342    1.0000 </r>
       <r>    2.8105    1.0000 </r>
       <r>   19.2863    0.0000 </r>
       <r>   20.4087    0.0000 </r>
       <r>   22.8914    0.0000 </r>
       <r>   23.1185    0.0000 </r>
      </set>
      <set comment="kpoint 47">
       <r>   -2.2937    1.0000 </r>
       <r>   -2.2937    1.0000 </r>
       <r>    1.6417    1.0000 </r>
       <r>    1.6417    1.0000 </r>
       <r>   19.2185    0.0000 </r>
       <r>   19.2185    0.0000 </r>
       <r>   23.3739    0.0000 </r>
       <r>   23.3740    0.0000 </r>
      </set>
     </set>
    </set>
   </array>
  </eigenvalues>
  <separator name="orbital magnetization" >
   <v name="MAGDIPOLOUT">      0.00000000      0.00000000      0.00000000</v>
  </separator>
  <dos>
   <i name="efermi">     10.59416142 </i>
   <total>
    <array>
     <dimension dim="1">gridpoints</dimension>
     <dimension dim="2">spin</dimension>
     <field>energy</field>
     <field>total</field>
     <field>integrated</field>
     <set>
      <set comment="spin 1">
       <r>   -13.7415     0.0000     0.0000 </r>
       <r>   -13.6000     0.0000     0.0000 </r>
       <r>   -13.4585     0.0000     0.0000 </r>
       <r>   -13.3170     0.0000     0.0000 </r>
       <r>   -13.1755     0.0000     0.0000 </r>
       <r>   -13.0341     0.0000     0.0000 </r>
       <r>   -12.8926     0.0000     0.0000 </r>
       <r>   -12.7511     0.0000     0.0000 </r>
       <r>   -12.6096     0.0000     0.0000 </r>
       <r>   -12.4681     0.0000     0.0000 </r>
       <r>   -12.3266     0.0000     0.0000 </r>
       <r>   -12.1852     0.0000     0.0000 </r>
       <r>   -12.0437     0.0002     0.0000 </r>
       <r>   -11.9022     0.0017     0.0003 </r>
       <r>   -11.7607     0.0066     0.0012 </r>
       <r>   -11.6192     0.0215     0.0043 </r>
       <r>   -11.4777     0.0548     0.0120 </r>
       <r>   -11.3362     0.0737     0.0224 </r>
       <r>   -11.1948     0.0560     0.0304 </r>
       <r>   -11.0533     0.0607     0.0390 </r>
       <r>   -10.9118     0.0969     0.0527 </r>
       <r>   -10.7703     0.1480     0.0736 </r>
       <r>   -10.6288     0.1755     0.0984 </r>
       <r>   -10.4873     0.1111     0.1142 </r>
       <r>   -10.3459     0.0507     0.1213 </r>
       <r>   -10.2044     0.0628     0.1302 </r>
       <r>   -10.0629     0.1443     0.1506 </r>
       <r>    -9.9214     0.2455     0.1854 </r>
       <r>    -9.7799     0.2171     0.2161 </r>
       <r>    -9.6384     0.1448     0.2366 </r>
       <r>    -9.4969     0.1621     0.2595 </r>
       <r>    -9.3555     0.1947     0.2870 </r>
       <r>    -9.2140     0.2009     0.3155 </r>
       <r>    -9.0725     0.1293     0.3338 </r>
       <r>    -8.9310     0.0679     0.3434 </r>
       <r>    -8.7895     0.1032     0.3580 </r>
       <r>    -8.6480     0.2329     0.3909 </r>
       <r>    -8.5066     0.3996     0.4475 </r>
       <r>    -8.3651     0.3551     0.4977 </r>
       <r>    -8.2236     0.1914     0.5248 </r>
       <r>    -8.0821     0.1687     0.5487 </r>
       <r>    -7.9406     0.2184     0.5796 </r>
       <r>    -7.7991     0.2660     0.6172 </r>
       <r>    -7.6576     0.2232     0.6488 </r>
       <r>    -7.5162     0.1193     0.6657 </r>
       <r>    -7.3747     0.1015     0.6800 </r>
       <r>    -7.2332     0.2211     0.7113 </r>
       <r>    -7.0917     0.3796     0.7650 </r>
       <r>    -6.9502     0.3530     0.8150 </r>
       <r>    -6.8087     0.3119     0.8591 </r>
       <r>    -6.6673     0.3900     0.9143 </r>
       <r>    -6.5258     0.4460     0.9774 </r>
       <r>    -6.3843     0.3826     1.0315 </r>
       <r>    -6.2428     0.1946     1.0590 </r>
       <r>    -6.1013     0.1395     1.0788 </r>
       <r>    -5.9598     0.2663     1.1164 </r>
       <r>    -5.8183     0.3264     1.1626 </r>
       <r>    -5.6769     0.2702     1.2008 </r>
       <r>    -5.5354     0.2765     1.2400 </r>
       <r>    -5.3939     0.4655     1.3058 </r>
       <r>    -5.2524     0.6524     1.3981 </r>
       <r>    -5.1109     0.4761     1.4655 </r>
       <r>    -4.9694     0.1935     1.4929 </r>
       <r>    -4.8279     0.1967     1.5207 </r>
       <r>    -4.6865     0.3584     1.5714 </r>
       <r>    -4.5450     0.3590     1.6222 </r>
       <r>    -4.4035     0.2385     1.6559 </r>
       <r>    -4.2620     0.1506     1.6772 </r>
       <r>    -4.1205     0.1490     1.6983 </r>
       <r>    -3.9790     0.2905     1.7394 </r>
       <r>    -3.8376     0.3748     1.7925 </r>
       <r>    -3.6961     0.2913     1.8337 </r>
       <r>    -3.5546     0.2414     1.8678 </r>
       <r>    -3.4131     0.2286     1.9002 </r>
       <r>    -3.2716     0.1833     1.9261 </r>
       <r>    -3.1301     0.2040     1.9550 </r>
       <r>    -2.9886     0.3336     2.0022 </r>
       <r>    -2.8472     0.3695     2.0544 </r>
       <r>    -2.7057     0.2642     2.0918 </r>
       <r>    -2.5642     0.1902     2.1187 </r>
       <r>    -2.4227     0.3029     2.1616 </r>
       <r>    -2.2812     0.4361     2.2233 </r>
       <r>    -2.1397     0.3383     2.2712 </r>
       <r>    -1.9983     0.3082     2.3148 </r>
       <r>    -1.8568     0.4826     2.3831 </r>
       <r>    -1.7153     0.5101     2.4552 </r>
       <r>    -1.5738     0.4235     2.5151 </r>
       <r>    -1.4323     0.4512     2.5790 </r>
       <r>    -1.2908     0.6446     2.6702 </r>
       <r>    -1.1493     0.7863     2.7814 </r>
       <r>    -1.0079     0.6155     2.8685 </r>
       <r>    -0.8664     0.2803     2.9082 </r>
       <r>    -0.7249     0.0867     2.9204 </r>
       <r>    -0.5834     0.1480     2.9414 </r>
       <r>    -0.4419     0.3697     2.9937 </r>
       <r>    -0.3004     0.4123     3.0520 </r>
       <r>    -0.1590     0.2089     3.0816 </r>
       <r>    -0.0175     0.1098     3.0971 </r>
       <r>     0.1240     0.2088     3.1266 </r>
       <r>     0.2655     0.3999     3.1832 </r>
       <r>     0.4070     0.5635     3.2630 </r>
       <r>     0.5485     0.5019     3.3340 </r>
       <r>     0.6900     0.2888     3.3748 </r>
       <r>     0.8314     0.2076     3.4042 </r>
       <r>     0.9729     0.3819     3.4582 </r>
       <r>     1.1144     0.5812     3.5405 </r>
       <r>     1.2559     0.5395     3.6168 </r>
       <r>     1.3974     0.4948     3.6868 </r>
       <r>     1.5389     0.5360     3.7626 </r>
       <r>     1.6803     0.4803     3.8306 </r>
       <r>     1.8218     0.4950     3.9006 </r>
       <r>     1.9633     0.6004     3.9856 </r>
       <r>     2.1048     0.5334     4.0610 </r>
       <r>     2.2463     0.4264     4.1214 </r>
       <r>     2.3878     0.4604     4.1865 </r>
       <r>     2.5293     0.4676     4.2527 </r>
       <r>     2.6707     0.5718     4.3336 </r>
       <r>     2.8122     0.7734     4.4430 </r>
       <r>     2.9537     0.7169     4.5444 </r>
       <r>     3.0952     0.6140     4.6313 </r>
       <r>     3.2367     0.6292     4.7203 </r>
       <r>     3.3782     0.7280     4.8233 </r>
       <r>     3.5196     0.7121     4.9240 </r>
       <r>     3.6611     0.5622     5.0036 </r>
       <r>     3.8026     0.6639     5.0975 </r>
       <r>     3.9441     0.8442     5.2170 </r>
       <r>     4.0856     0.7547     5.3237 </r>
       <r>     4.2271     0.5295     5.3987 </r>
       <r>     4.3686     0.7012     5.4979 </r>
       <r>     4.5100     1.1240     5.6569 </r>
       <r>     4.6515     1.1275     5.8164 </r>
       <r>     4.7930     0.8909     5.9425 </r>
       <r>     4.9345     0.7334     6.0462 </r>
       <r>     5.0760     0.6222     6.1343 </r>
       <r>     5.2175     0.4277     6.1948 </r>
       <r>     5.3590     0.3758     6.2479 </r>
       <r>     5.5004     0.5155     6.3209 </r>
       <r>     5.6419     0.5879     6.4041 </r>
       <r>     5.7834     0.7046     6.5038 </r>
       <r>     5.9249     0.8723     6.6272 </r>
       <r>     6.0664     0.9759     6.7652 </r>
       <r>     6.2079     0.8532     6.8860 </r>
       <r>     6.3493     0.5698     6.9666 </r>
       <r>     6.4908     0.5061     7.0382 </r>
       <r>     6.6323     0.5360     7.1140 </r>
       <r>     6.7738     0.6103     7.2004 </r>
       <r>     6.9153     0.7539     7.3070 </r>
       <r>     7.0568     0.6901     7.4047 </r>
       <r>     7.1983     0.4037     7.4618 </r>
       <r>     7.3397     0.1948     7.4893 </r>
       <r>     7.4812     0.2518     7.5250 </r>
       <r>     7.6227     0.4831     7.5933 </r>
       <r>     7.7642     0.5414     7.6699 </r>
       <r>     7.9057     0.3795     7.7236 </r>
       <r>     8.0472     0.2121     7.7536 </r>
       <r>     8.1886     0.1117     7.7694 </r>
       <r>     8.3301     0.1314     7.7880 </r>
       <r>     8.4716     0.2980     7.8302 </r>
       <r>     8.6131     0.3879     7.8850 </r>
       <r>     8.7546     0.2334     7.9181 </r>
       <r>     8.8961     0.0817     7.9296 </r>
       <r>     9.0376     0.0434     7.9358 </r>
       <r>     9.1790     0.0569     7.9438 </r>
       <r>     9.3205     0.1233     7.9613 </r>
       <r>     9.4620     0.1460     7.9819 </r>
       <r>     9.6035     0.0736     7.9923 </r>
       <r>     9.7450     0.0243     7.9958 </r>
       <r>     9.8865     0.0173     7.9982 </r>
       <r>    10.0279     0.0100     7.9996 </r>
       <r>    10.1694     0.0024     8.0000 </r>
       <r>    10.3109     0.0002     8.0000 </r>
       <r>    10.4524     0.0000     8.0000 </r>
       <r>    10.5939     0.0000     8.0000 </r>
       <r>    10.7354     0.0000     8.0000 </r>
       <r>    10.8769     0.0000     8.0000 </r>
       <r>    11.0183     0.0000     8.0000 </r>
       <r>    11.1598     0.0000     8.0000 </r>
       <r>    11.3013     0.0000     8.0000 </r>
       <r>    11.4428     0.0000     8.0000 </r>
       <r>    11.5843     0.0000     8.0000 </r>
       <r>    11.7258     0.0000     8.0000 </r>
       <r>    11.8672     0.0000     8.0000 </r>
       <r>    12.0087     0.0000     8.0000 </r>
       <r>    12.1502     0.0000     8.0000 </r>
       <r>    12.2917     0.0000     8.0000 </r>
       <r>    12.4332     0.0000     8.0000 </r>
       <r>    12.5747     0.0000     8.0000 </r>
       <r>    12.7162     0.0000     8.0000 </r>
       <r>    12.8576     0.0000     8.0000 </r>
       <r>    12.9991     0.0000     8.0000 </r>
       <r>    13.1406     0.0000     8.0000 </r>
       <r>    13.2821     0.0000     8.0000 </r>
       <r>    13.4236     0.0000     8.0000 </r>
       <r>    13.5651     0.0001     8.0000 </r>
       <r>    13.7065     0.0022     8.0003 </r>
       <r>    13.8480     0.0162     8.0026 </r>
       <r>    13.9895     0.0491     8.0096 </r>
       <r>    14.1310     0.0621     8.0184 </r>
       <r>    14.2725     0.0388     8.0239 </r>
       <r>    14.4140     0.0622     8.0327 </r>
       <r>    14.5555     0.2034     8.0614 </r>
       <r>    14.6969     0.3221     8.1070 </r>
       <r>    14.8384     0.2553     8.1431 </r>
       <r>    14.9799     0.1949     8.1707 </r>
       <r>    15.1214     0.2075     8.2001 </r>
       <r>    15.2629     0.2389     8.2339 </r>
       <r>    15.4044     0.3697     8.2862 </r>
       <r>    15.5459     0.4923     8.3558 </r>
       <r>    15.6873     0.3937     8.4115 </r>
       <r>    15.8288     0.3522     8.4613 </r>
       <r>    15.9703     0.6205     8.5491 </r>
       <r>    16.1118     0.7292     8.6523 </r>
       <r>    16.2533     0.5205     8.7260 </r>
       <r>    16.3948     0.4671     8.7920 </r>
       <r>    16.5362     0.6192     8.8797 </r>
       <r>    16.6777     0.6496     8.9716 </r>
       <r>    16.8192     0.5015     9.0425 </r>
       <r>    16.9607     0.5055     9.1140 </r>
       <r>    17.1022     0.8541     9.2349 </r>
       <r>    17.2437     1.0838     9.3882 </r>
       <r>    17.3852     0.8823     9.5131 </r>
       <r>    17.5266     0.5115     9.5854 </r>
       <r>    17.6681     0.4343     9.6469 </r>
       <r>    17.8096     0.7713     9.7560 </r>
       <r>    17.9511     1.0496     9.9045 </r>
       <r>    18.0926     0.9703    10.0418 </r>
       <r>    18.2341     0.9399    10.1748 </r>
       <r>    18.3755     0.9897    10.3148 </r>
       <r>    18.5170     0.8357    10.4330 </r>
       <r>    18.6585     0.6949    10.5313 </r>
       <r>    18.8000     0.7411    10.6362 </r>
       <r>    18.9415     0.7670    10.7447 </r>
       <r>    19.0830     1.0111    10.8878 </r>
       <r>    19.2245     1.4591    11.0942 </r>
       <r>    19.3659     1.5121    11.3082 </r>
       <r>    19.5074     1.2782    11.4890 </r>
       <r>    19.6489     1.0981    11.6444 </r>
       <r>    19.7904     0.8497    11.7646 </r>
       <r>    19.9319     0.5391    11.8409 </r>
       <r>    20.0734     0.4875    11.9098 </r>
       <r>    20.2148     0.5989    11.9946 </r>
       <r>    20.3563     0.5057    12.0661 </r>
       <r>    20.4978     0.3478    12.1153 </r>
       <r>    20.6393     0.3382    12.1632 </r>
       <r>    20.7808     0.4334    12.2245 </r>
       <r>    20.9223     0.5252    12.2988 </r>
       <r>    21.0638     0.6660    12.3931 </r>
       <r>    21.2052     0.7121    12.4938 </r>
       <r>    21.3467     0.5180    12.5671 </r>
       <r>    21.4882     0.5777    12.6488 </r>
       <r>    21.6297     1.1164    12.8068 </r>
       <r>    21.7712     1.3734    13.0011 </r>
       <r>    21.9127     0.9512    13.1357 </r>
       <r>    22.0541     0.4948    13.2057 </r>
       <r>    22.1956     0.2793    13.2452 </r>
       <r>    22.3371     0.2832    13.2853 </r>
       <r>    22.4786     0.5155    13.3582 </r>
       <r>    22.6201     0.6812    13.4546 </r>
       <r>    22.7616     0.6730    13.5498 </r>
       <r>    22.9031     0.7780    13.6599 </r>
       <r>    23.0445     0.8855    13.7852 </r>
       <r>    23.1860     0.9274    13.9164 </r>
       <r>    23.3275     0.9224    14.0469 </r>
       <r>    23.4690     0.8192    14.1628 </r>
       <r>    23.6105     0.5844    14.2455 </r>
       <r>    23.7520     0.5461    14.3228 </r>
       <r>    23.8934     0.9010    14.4502 </r>
       <r>    24.0349     1.3321    14.6387 </r>
       <r>    24.1764     1.4206    14.8397 </r>
       <r>    24.3179     1.3151    15.0258 </r>
       <r>    24.4594     1.1497    15.1884 </r>
       <r>    24.6009     0.7402    15.2932 </r>
       <r>    24.7424     0.3319    15.3401 </r>
       <r>    24.8838     0.2254    15.3720 </r>
       <r>    25.0253     0.3737    15.4249 </r>
       <r>    25.1668     0.5104    15.4971 </r>
       <r>    25.3083     0.6087    15.5832 </r>
       <r>    25.4498     0.7471    15.6889 </r>
       <r>    25.5913     0.6146    15.7759 </r>
       <r>    25.7327     0.3236    15.8217 </r>
       <r>    25.8742     0.2900    15.8627 </r>
       <r>    26.0157     0.3809    15.9166 </r>
       <r>    26.1572     0.3069    15.9600 </r>
       <r>    26.2987     0.1506    15.9813 </r>
       <r>    26.4402     0.0442    15.9876 </r>
       <r>    26.5817     0.0192    15.9903 </r>
       <r>    26.7231     0.0309    15.9946 </r>
       <r>    26.8646     0.0270    15.9985 </r>
       <r>    27.0061     0.0095    15.9998 </r>
       <r>    27.1476     0.0013    16.0000 </r>
       <r>    27.2891     0.0001    16.0000 </r>
       <r>    27.4306     0.0000    16.0000 </r>
       <r>    27.5721     0.0000    16.0000 </r>
       <r>    27.7135     0.0000    16.0000 </r>
       <r>    27.8550     0.0000    16.0000 </r>
       <r>    27.9965     0.0000    16.0000 </r>
       <r>    28.1380     0.0000    16.0000 </r>
       <r>    28.2795     0.0000    16.0000 </r>
       <r>    28.4210     0.0000    16.0000 </r>
       <r>    28.5624     0.0000    16.0000 </r>
       <r>    28.7039     0.0000    16.0000 </r>
      </set>
     </set>
    </array>
   </total>
  </dos>
 </calculation>
 <structure name="finalpos" >
  <crystal>
   <varray name="basis" >
    <v>       2.51730013       0.00000000       0.00000000 </v>
    <v>       1.25865006       2.18004586       0.00000000 </v>
    <v>       1.25865006       0.72668195       2.05536695 </v>
   </varray>
   <i name="volume">     11.27950384 </i>
   <varray name="rec_basis" >
    <v>       0.39725100      -0.22935297      -0.16217704 </v>
    <v>       0.00000000       0.45870595      -0.16217704 </v>
    <v>       0.00000000       0.00000000       0.48653113 </v>
   </varray>
  </crystal>
  <varray name="positions" >
   <v>       0.25000000       0.25000000       0.25000000 </v>
   <v>       0.00000000       0.00000000       0.00000000 </v>
  </varray>
 </structure>
</modeling>
