   2   2   0   0
  0.5639752E+01  0.2517300E-09  0.2517300E-09  0.2517300E-09  0.5000000E-15
  1.000000000000000E-004
  CAR 
 unknown system                          
     28.69721085    -13.74324597  301     10.58955891      1.00000000
    -13.743  0.0000E+00  0.0000E+00
    -13.602  0.0000E+00  0.0000E+00
    -13.460  0.0000E+00  0.0000E+00
    -13.319  0.0000E+00  0.0000E+00
    -13.177  0.0000E+00  0.0000E+00
    -13.036  0.0000E+00  0.0000E+00
    -12.894  0.3139E-17  0.4441E-18
    -12.753  0.6603E-14  0.9346E-15
    -12.612  0.5846E-11  0.8279E-12
    -12.470  0.1945E-08  0.2760E-09
    -12.329  0.2449E-06  0.3492E-07
    -12.187  0.1178E-04  0.1701E-05
    -12.046  0.2201E-03  0.3284E-04
    -11.904  0.1688E-02  0.2716E-03
    -11.763  0.6637E-02  0.1210E-02
    -11.621  0.2151E-01  0.4253E-02
    -11.480  0.5479E-01  0.1201E-01
    -11.338  0.7369E-01  0.2243E-01
    -11.197  0.5609E-01  0.3036E-01
    -11.055  0.6075E-01  0.3896E-01
    -10.914  0.9693E-01  0.5267E-01
    -10.772  0.1482E+00  0.7363E-01
    -10.631  0.1755E+00  0.9847E-01
    -10.489  0.1110E+00  0.1142E+00
    -10.348  0.5071E-01  0.1213E+00
    -10.207  0.6293E-01  0.1302E+00
    -10.065  0.1447E+00  0.1507E+00
     -9.924  0.2456E+00  0.1855E+00
     -9.782  0.2169E+00  0.2161E+00
     -9.641  0.1448E+00  0.2366E+00
     -9.499  0.1623E+00  0.2596E+00
     -9.358  0.1948E+00  0.2871E+00
     -9.216  0.2008E+00  0.3156E+00
     -9.075  0.1291E+00  0.3338E+00
     -8.933  0.6796E-01  0.3434E+00
     -8.792  0.1036E+00  0.3581E+00
     -8.650  0.2338E+00  0.3912E+00
     -8.509  0.4001E+00  0.4478E+00
     -8.367  0.3543E+00  0.4979E+00
     -8.226  0.1910E+00  0.5249E+00
     -8.085  0.1690E+00  0.5488E+00
     -7.943  0.2188E+00  0.5798E+00
     -7.802  0.2662E+00  0.6174E+00
     -7.660  0.2227E+00  0.6489E+00
     -7.519  0.1188E+00  0.6657E+00
     -7.377  0.1018E+00  0.6801E+00
     -7.236  0.2222E+00  0.7116E+00
     -7.094  0.3801E+00  0.7654E+00
     -6.953  0.3524E+00  0.8152E+00
     -6.811  0.3120E+00  0.8593E+00
     -6.670  0.3904E+00  0.9146E+00
     -6.528  0.4462E+00  0.9777E+00
     -6.387  0.3818E+00  0.1032E+01
     -6.245  0.1937E+00  0.1059E+01
     -6.104  0.1398E+00  0.1079E+01
     -5.962  0.2670E+00  0.1117E+01
     -5.821  0.3265E+00  0.1163E+01
     -5.680  0.2701E+00  0.1201E+01
     -5.538  0.2771E+00  0.1240E+01
     -5.397  0.4669E+00  0.1306E+01
     -5.255  0.6525E+00  0.1399E+01
     -5.114  0.4743E+00  0.1466E+01
     -4.972  0.1926E+00  0.1493E+01
     -4.831  0.1977E+00  0.1521E+01
     -4.689  0.3593E+00  0.1572E+01
     -4.548  0.3585E+00  0.1622E+01
     -4.406  0.2378E+00  0.1656E+01
     -4.265  0.1501E+00  0.1677E+01
     -4.123  0.1494E+00  0.1699E+01
     -3.982  0.2916E+00  0.1740E+01
     -3.840  0.3748E+00  0.1793E+01
     -3.699  0.2907E+00  0.1834E+01
     -3.558  0.2413E+00  0.1868E+01
     -3.416  0.2285E+00  0.1900E+01
     -3.275  0.1830E+00  0.1926E+01
     -3.133  0.2047E+00  0.1955E+01
     -2.992  0.3346E+00  0.2003E+01
     -2.850  0.3692E+00  0.2055E+01
     -2.709  0.2634E+00  0.2092E+01
     -2.567  0.1903E+00  0.2119E+01
     -2.426  0.3043E+00  0.2162E+01
     -2.284  0.4363E+00  0.2224E+01
     -2.143  0.3374E+00  0.2271E+01
     -2.001  0.3093E+00  0.2315E+01
     -1.860  0.4838E+00  0.2384E+01
     -1.718  0.5095E+00  0.2456E+01
     -1.577  0.4231E+00  0.2516E+01
     -1.436  0.4520E+00  0.2580E+01
     -1.294  0.6460E+00  0.2671E+01
     -1.153  0.7863E+00  0.2782E+01
     -1.011  0.6134E+00  0.2869E+01
     -0.870  0.2783E+00  0.2908E+01
     -0.728  0.8630E-01  0.2921E+01
     -0.587  0.1492E+00  0.2942E+01
     -0.445  0.3710E+00  0.2994E+01
     -0.304  0.4114E+00  0.3052E+01
     -0.162  0.2075E+00  0.3082E+01
     -0.021  0.1100E+00  0.3097E+01
      0.121  0.2100E+00  0.3127E+01
      0.262  0.4015E+00  0.3184E+01
      0.404  0.5641E+00  0.3264E+01
      0.545  0.5007E+00  0.3334E+01
      0.687  0.2875E+00  0.3375E+01
      0.828  0.2081E+00  0.3404E+01
      0.969  0.3837E+00  0.3459E+01
      1.111  0.5818E+00  0.3541E+01
      1.252  0.5387E+00  0.3617E+01
      1.394  0.4950E+00  0.3687E+01
      1.535  0.5360E+00  0.3763E+01
      1.677  0.4801E+00  0.3831E+01
      1.818  0.4959E+00  0.3901E+01
      1.960  0.6007E+00  0.3986E+01
      2.101  0.5321E+00  0.4061E+01
      2.243  0.4262E+00  0.4122E+01
      2.384  0.4608E+00  0.4187E+01
      2.526  0.4680E+00  0.4253E+01
      2.667  0.5738E+00  0.4334E+01
      2.809  0.7742E+00  0.4444E+01
      2.950  0.7155E+00  0.4545E+01
      3.091  0.6136E+00  0.4632E+01
      3.233  0.6298E+00  0.4721E+01
      3.374  0.7289E+00  0.4824E+01
      3.516  0.7112E+00  0.4925E+01
      3.657  0.5620E+00  0.5004E+01
      3.799  0.6656E+00  0.5098E+01
      3.940  0.8447E+00  0.5218E+01
      4.082  0.7530E+00  0.5324E+01
      4.223  0.5289E+00  0.5399E+01
      4.365  0.7045E+00  0.5499E+01
      4.506  0.1126E+01  0.5658E+01
      4.648  0.1126E+01  0.5817E+01
      4.789  0.8895E+00  0.5943E+01
      4.931  0.7328E+00  0.6047E+01
      5.072  0.6211E+00  0.6135E+01
      5.213  0.4265E+00  0.6195E+01
      5.355  0.3766E+00  0.6248E+01
      5.496  0.5164E+00  0.6321E+01
      5.638  0.5883E+00  0.6405E+01
      5.779  0.7059E+00  0.6505E+01
      5.921  0.8733E+00  0.6628E+01
      6.062  0.9761E+00  0.6766E+01
      6.204  0.8513E+00  0.6887E+01
      6.345  0.5685E+00  0.6967E+01
      6.487  0.5064E+00  0.7039E+01
      6.628  0.5363E+00  0.7115E+01
      6.770  0.6113E+00  0.7201E+01
      6.911  0.7545E+00  0.7308E+01
      7.053  0.6887E+00  0.7405E+01
      7.194  0.4017E+00  0.7462E+01
      7.336  0.1941E+00  0.7489E+01
      7.477  0.2530E+00  0.7525E+01
      7.618  0.4844E+00  0.7594E+01
      7.760  0.5409E+00  0.7670E+01
      7.901  0.3783E+00  0.7724E+01
      8.043  0.2112E+00  0.7754E+01
      8.184  0.1114E+00  0.7769E+01
      8.326  0.1321E+00  0.7788E+01
      8.467  0.2991E+00  0.7830E+01
      8.609  0.3876E+00  0.7885E+01
      8.750  0.2322E+00  0.7918E+01
      8.892  0.8123E-01  0.7930E+01
      9.033  0.4334E-01  0.7936E+01
      9.175  0.5715E-01  0.7944E+01
      9.316  0.1238E+00  0.7961E+01
      9.458  0.1457E+00  0.7982E+01
      9.599  0.7310E-01  0.7992E+01
      9.740  0.2418E-01  0.7996E+01
      9.882  0.1728E-01  0.7998E+01
     10.023  0.9966E-02  0.8000E+01
     10.165  0.2413E-02  0.8000E+01
     10.306  0.2302E-03  0.8000E+01
     10.448  0.8534E-05  0.8000E+01
     10.589  0.1215E-06  0.8000E+01
     10.731  0.6572E-09  0.8000E+01
     10.872  0.1341E-11  0.8000E+01
     11.014  0.1027E-14  0.8000E+01
     11.155  0.0000E+00  0.8000E+01
     11.297  0.0000E+00  0.8000E+01
     11.438  0.0000E+00  0.8000E+01
     11.580  0.0000E+00  0.8000E+01
     11.721  0.0000E+00  0.8000E+01
     11.862  0.0000E+00  0.8000E+01
     12.004  0.0000E+00  0.8000E+01
     12.145  0.0000E+00  0.8000E+01
     12.287  0.0000E+00  0.8000E+01
     12.428  0.0000E+00  0.8000E+01
     12.570  0.0000E+00  0.8000E+01
     12.711  0.0000E+00  0.8000E+01
     12.853  0.3767E-16  0.8000E+01
     12.994  0.8226E-13  0.8000E+01
     13.136  0.6740E-10  0.8000E+01
     13.277  0.2097E-07  0.8000E+01
     13.419  0.2503E-05  0.8000E+01
     13.560  0.1164E-03  0.8000E+01
     13.702  0.2144E-02  0.8000E+01
     13.843  0.1595E-01  0.8003E+01
     13.985  0.4878E-01  0.8009E+01
     14.126  0.6227E-01  0.8018E+01
     14.267  0.3898E-01  0.8024E+01
     14.409  0.6121E-01  0.8032E+01
     14.550  0.2013E+00  0.8061E+01
     14.692  0.3218E+00  0.8106E+01
     14.833  0.2567E+00  0.8143E+01
     14.975  0.1952E+00  0.8170E+01
     15.116  0.2072E+00  0.8200E+01
     15.258  0.2379E+00  0.8233E+01
     15.399  0.3679E+00  0.8285E+01
     15.541  0.4925E+00  0.8355E+01
     15.682  0.3955E+00  0.8411E+01
     15.824  0.3504E+00  0.8461E+01
     15.965  0.6169E+00  0.8548E+01
     16.107  0.7305E+00  0.8651E+01
     16.248  0.5230E+00  0.8725E+01
     16.389  0.4659E+00  0.8791E+01
     16.531  0.6178E+00  0.8879E+01
     16.672  0.6508E+00  0.8971E+01
     16.814  0.5034E+00  0.9042E+01
     16.955  0.5036E+00  0.9113E+01
     17.097  0.8498E+00  0.9233E+01
     17.238  0.1083E+01  0.9386E+01
     17.380  0.8862E+00  0.9512E+01
     17.521  0.5154E+00  0.9585E+01
     17.663  0.4321E+00  0.9646E+01
     17.804  0.7653E+00  0.9754E+01
     17.946  0.1049E+01  0.9903E+01
     18.087  0.9735E+00  0.1004E+02
     18.229  0.9411E+00  0.1017E+02
     18.370  0.9907E+00  0.1031E+02
     18.512  0.8375E+00  0.1043E+02
     18.653  0.6946E+00  0.1053E+02
     18.794  0.7401E+00  0.1064E+02
     18.936  0.7666E+00  0.1074E+02
     19.077  0.1007E+01  0.1089E+02
     19.219  0.1456E+01  0.1109E+02
     19.360  0.1514E+01  0.1131E+02
     19.502  0.1281E+01  0.1149E+02
     19.643  0.1100E+01  0.1164E+02
     19.785  0.8535E+00  0.1176E+02
     19.926  0.5412E+00  0.1184E+02
     20.068  0.4856E+00  0.1191E+02
     20.209  0.5987E+00  0.1199E+02
     20.351  0.5083E+00  0.1207E+02
     20.492  0.3486E+00  0.1211E+02
     20.634  0.3372E+00  0.1216E+02
     20.775  0.4329E+00  0.1222E+02
     20.916  0.5252E+00  0.1230E+02
     21.058  0.6656E+00  0.1239E+02
     21.199  0.7133E+00  0.1249E+02
     21.341  0.5196E+00  0.1257E+02
     21.482  0.5760E+00  0.1265E+02
     21.624  0.1113E+01  0.1281E+02
     21.765  0.1374E+01  0.1300E+02
     21.907  0.9546E+00  0.1314E+02
     22.048  0.4964E+00  0.1321E+02
     22.190  0.2795E+00  0.1324E+02
     22.331  0.2815E+00  0.1328E+02
     22.473  0.5124E+00  0.1336E+02
     22.614  0.6817E+00  0.1345E+02
     22.756  0.6755E+00  0.1355E+02
     22.897  0.7787E+00  0.1366E+02
     23.038  0.8850E+00  0.1378E+02
     23.180  0.9266E+00  0.1392E+02
     23.321  0.9220E+00  0.1405E+02
     23.463  0.8200E+00  0.1416E+02
     23.604  0.5860E+00  0.1424E+02
     23.746  0.5460E+00  0.1432E+02
     23.887  0.8993E+00  0.1445E+02
     24.029  0.1332E+01  0.1464E+02
     24.170  0.1422E+01  0.1484E+02
     24.312  0.1316E+01  0.1503E+02
     24.453  0.1150E+01  0.1519E+02
     24.595  0.7416E+00  0.1529E+02
     24.736  0.3331E+00  0.1534E+02
     24.878  0.2258E+00  0.1537E+02
     25.019  0.3734E+00  0.1542E+02
     25.161  0.5097E+00  0.1550E+02
     25.302  0.6081E+00  0.1558E+02
     25.443  0.7475E+00  0.1569E+02
     25.585  0.6161E+00  0.1578E+02
     25.726  0.3249E+00  0.1582E+02
     25.868  0.2911E+00  0.1586E+02
     26.009  0.3812E+00  0.1592E+02
     26.151  0.3063E+00  0.1596E+02
     26.292  0.1499E+00  0.1598E+02
     26.434  0.4380E-01  0.1599E+02
     26.575  0.1911E-01  0.1599E+02
     26.717  0.3086E-01  0.1599E+02
     26.858  0.2696E-01  0.1600E+02
     27.000  0.9445E-02  0.1600E+02
     27.141  0.1307E-02  0.1600E+02
     27.283  0.7054E-04  0.1600E+02
     27.424  0.1469E-05  0.1600E+02
     27.565  0.1167E-07  0.1600E+02
     27.707  0.3507E-10  0.1600E+02
     27.848  0.3961E-13  0.1600E+02
     27.990  0.1883E-16  0.1600E+02
     28.131  0.0000E+00  0.1600E+02
     28.273  0.0000E+00  0.1600E+02
     28.414  0.0000E+00  0.1600E+02
     28.556  0.0000E+00  0.1600E+02
     28.697  0.0000E+00  0.1600E+02
