    2    2    1    1
  0.5639752E+01  0.2517300E-09  0.2517300E-09  0.2517300E-09  0.5000000E-15
  1.000000000000000E-004
  CAR 
 unknown system                          
      8     47      8
 
  0.1276756E-14  0.1276756E-14  0.1276756E-14  0.1000000E-02
      1        -11.743246   1.000000
      2          9.806460   1.000000
      3          9.806460   1.000000
      4          9.806462   1.000000
      5         15.413423   0.000000
      6         15.413423   0.000000
      7         15.413424   0.000000
      8         23.268977   0.000000
 
  0.1000000E+00  0.1257202E-14  0.1278733E-14  0.8000000E-02
      1        -11.465480   1.000000
      2          8.123808   1.000000
      3          9.357363   1.000000
      4          9.357364   1.000000
      5         16.003372   0.000000
      6         16.003373   0.000000
      7         16.366313   0.000000
      8         23.499513   0.000000
 
  0.2000000E+00  0.1255815E-14  0.1296939E-14  0.8000000E-02
      1        -10.637193   1.000000
      2          4.906282   1.000000
      3          8.476506   1.000000
      4          8.476507   1.000000
      5         17.139784   0.000000
      6         17.139786   0.000000
      7         17.591747   0.000000
      8         24.137900   0.000000
 
  0.3000000E+00  0.1203015E-14  0.1309915E-14  0.8000000E-02
      1         -9.278170   1.000000
      2          1.494771   1.000000
      3          7.681941   1.000000
      4          7.681942   1.000000
      5         17.964484   0.000000
      6         17.964485   0.000000
      7         18.299918   0.000000
      8         24.915455   0.000000
 
  0.4000000E+00  0.1224943E-14  0.1342384E-14  0.8000000E-02
      1         -7.459569   1.000000
      2         -1.649862   1.000000
      3          7.167706   1.000000
      4          7.167707   1.000000
      5         18.253481   0.000000
      6         18.253483   0.000000
      7         18.633643   0.000000
      8         25.422251   0.000000
 
  0.5000000E+00  0.1216617E-14  0.1247647E-14  0.4000000E-02
      1         -5.936606   1.000000
      2         -3.627951   1.000000
      3          6.992123   1.000000
      4          6.992124   1.000000
      5         18.290429   0.000000
      6         18.290430   0.000000
      7         18.732316   0.000000
      8         25.557143   0.000000
 
  0.1000000E+00  0.1000000E+00  0.1257559E-14  0.6000000E-02
      1        -11.372978   1.000000
      2          8.572463   1.000000
      3          8.572464   1.000000
      4          8.935916   1.000000
      5         15.138335   0.000000
      6         16.965188   0.000000
      7         16.965190   0.000000
      8         23.365975   0.000000
 
  0.2000000E+00  0.1000000E+00  0.1290028E-14  0.2400000E-01
      1        -10.728378   1.000000
      2          6.025435   1.000000
      3          7.600051   1.000000
      4          8.466070   1.000000
      5         15.566438   0.000000
      6         18.273528   0.000000
      7         18.294814   0.000000
      8         23.267540   0.000000
 
  0.3000000E+00  0.1000000E+00  0.1316497E-14  0.2400000E-01
      1         -9.545701   1.000000
      2          2.741630   1.000000
      3          6.850801   1.000000
      4          7.594447   1.000000
      5         16.608662   0.000000
      6         19.133003   0.000000
      7         19.225216   0.000000
      8         23.454867   0.000000
 
  0.4000000E+00  0.1000000E+00  0.1363612E-14  0.2400000E-01
      1         -7.869970   1.000000
      2         -0.468910   1.000000
      3          6.473053   1.000000
      4          6.720987   1.000000
      5         17.327405   0.000000
      6         19.441977   0.000000
      7         19.539001   0.000000
      8         24.342455   0.000000
 
  0.5000000E+00  0.1000000E+00  0.1297399E-14  0.2400000E-01
      1         -5.992858   1.000000
      2         -3.078110   1.000000
      3          6.083966   1.000000
      4          6.501779   1.000000
      5         17.732230   0.000000
      6         19.193004   0.000000
      7         19.670451   0.000000
      8         25.343615   0.000000
 
 -0.4000000E+00  0.1000000E+00  0.1241531E-14  0.2400000E-01
      1         -6.576685   1.000000
      2         -2.342980   1.000000
      3          5.788845   1.000000
      4          6.916112   1.000000
      5         18.131125   0.000000
      6         18.772252   0.000000
      7         19.608447   0.000000
      8         25.418703   0.000000
 
 -0.3000000E+00  0.1000000E+00  0.1259737E-14  0.2400000E-01
      1         -8.478255   1.000000
      2          0.578896   1.000000
      3          5.888691   1.000000
      4          7.650348   1.000000
      5         18.156262   0.000000
      6         18.459061   0.000000
      7         19.305998   0.000000
      8         24.610697   0.000000
 
 -0.2000000E+00  0.1000000E+00  0.1280036E-14  0.2400000E-01
      1         -9.998501   1.000000
      2          3.863208   1.000000
      3          6.401957   1.000000
      4          8.564503   1.000000
      5         17.179973   0.000000
      6         18.332377   0.000000
      7         18.511334   0.000000
      8         23.911787   0.000000
 
 -0.1000000E+00  0.1000000E+00  0.1258124E-14  0.1200000E-01
      1        -11.004230   1.000000
      2          6.863810   1.000000
      3          7.463797   1.000000
      4          9.329238   1.000000
      5         16.161975   0.000000
      6         17.188165   0.000000
      7         17.505023   0.000000
      8         23.660582   0.000000
 
  0.2000000E+00  0.2000000E+00  0.1282348E-14  0.6000000E-02
      1        -10.269723   1.000000
      2          6.562416   1.000000
      3          6.562416   1.000000
      4          6.715877   1.000000
      5         14.546347   0.000000
      6         19.892116   0.000000
      7         19.892117   0.000000
      8         21.703165   0.000000
 
  0.3000000E+00  0.2000000E+00  0.1309202E-14  0.2400000E-01
      1         -9.271123   1.000000
      2          3.956044   1.000000
      3          5.769291   1.000000
      4          6.146796   1.000000
      5         14.975762   0.000000
      6         20.641684   0.000000
      7         21.132945   0.000000
      8         21.168149   0.000000
 
  0.4000000E+00  0.2000000E+00  0.1328561E-14  0.2400000E-01
      1         -7.764974   1.000000
      2          0.982068   1.000000
      3          5.085688   1.000000
      4          5.381929   1.000000
      5         15.925441   0.000000
      6         21.083104   0.000000
      7         21.642619   0.000000
      8         21.736945   0.000000
 
  0.5000000E+00  0.2000000E+00  0.1290872E-14  0.2400000E-01
      1         -5.892292   1.000000
      2         -1.768099   1.000000
      3          4.082657   1.000000
      4          5.446877   1.000000
      5         16.505614   0.000000
      6         21.382623   0.000000
      7         21.931310   0.000000
      8         23.119009   0.000000
 
 -0.4000000E+00  0.2000000E+00  0.1234619E-14  0.2400000E-01
      1         -5.342314   1.000000
      2         -2.426262   1.000000
      3          3.408584   1.000000
      4          5.946246   1.000000
      5         17.078114   0.000000
      6         20.698815   0.000000
      7         21.905197   0.000000
      8         25.103700   0.000000
 
 -0.3000000E+00  0.2000000E+00  0.1260149E-14  0.2400000E-01
      1         -7.177611   1.000000
      2          0.092248   1.000000
      3          3.186333   1.000000
      4          6.798323   1.000000
      5         17.817272   0.000000
      6         19.676290   0.000000
      7         21.591934   0.000000
      8         24.329992   0.000000
 
 -0.2000000E+00  0.2000000E+00  0.1301415E-14  0.1200000E-01
      1         -8.828635   1.000000
      2          2.806309   1.000000
      3          3.772775   1.000000
      4          7.811045   1.000000
      5         18.325828   0.000000
      6         18.426287   0.000000
      7         20.346113   0.000000
      8         23.548772   0.000000
 
  0.3000000E+00  0.3000000E+00  0.1302674E-14  0.6000000E-02
      1         -8.459571   1.000000
      2          3.714497   1.000000
      3          4.893617   1.000000
      4          4.893617   1.000000
      5         14.056290   0.000000
      6         18.514301   0.000000
      7         22.960925   0.000000
      8         22.960927   0.000000
 
  0.4000000E+00  0.3000000E+00  0.1321265E-14  0.2400000E-01
      1         -7.135841   1.000000
      2          1.731315   1.000000
      3          3.793155   1.000000
      4          4.420443   1.000000
      5         14.615501   0.000000
      6         17.849872   0.000000
      7         23.952688   0.000000
      8         24.013600   0.000000
 
  0.5000000E+00  0.3000000E+00  0.1311331E-14  0.2400000E-01
      1         -5.385814   1.000000
      2         -0.459348   1.000000
      3          2.251669   1.000000
      4          4.416709   1.000000
      5         15.381732   0.000000
      6         19.393954   0.000000
      7         23.930373   0.000000
      8         24.398569   0.000000
 
 -0.4000000E+00  0.3000000E+00  0.1248716E-14  0.2400000E-01
      1         -4.025818   1.000000
      2         -1.901692   1.000000
      3          1.099246   1.000000
      4          4.878571   1.000000
      5         15.962056   0.000000
      6         22.437767   0.000000
      7         23.086964   0.000000
      8         24.481129   0.000000
 
 -0.3000000E+00  0.3000000E+00  0.1270508E-14  0.1200000E-01
      1         -5.469459   1.000000
      2         -0.367018   1.000000
      3          0.899298   1.000000
      4          5.734707   1.000000
      5         16.806406   0.000000
      6         21.580278   0.000000
      7         23.999465   0.000000
      8         24.398907   0.000000
 
  0.4000000E+00  0.4000000E+00  0.1238198E-14  0.6000000E-02
      1         -5.998503   1.000000
      2          0.347549   1.000000
      3          3.834973   1.000000
      4          3.834973   1.000000
      5         13.990274   0.000000
      6         16.032798   0.000000
      7         25.562315   0.000000
      8         25.562317   0.000000
 
  0.5000000E+00  0.4000000E+00  0.1219232E-14  0.2400000E-01
      1         -4.412334   1.000000
      2         -1.291541   1.000000
      3          2.720520   1.000000
      4          3.718149   1.000000
      5         14.662919   0.000000
      6         16.134868   0.000000
      7         25.939711   0.000000
      8         26.130503   0.000000
 
 -0.4000000E+00  0.4000000E+00  0.1231745E-14  0.1200000E-01
      1         -2.941259   1.000000
      2         -2.332785   1.000000
      3          0.983644   1.000000
      4          4.083553   1.000000
      5         15.174551   0.000000
      6         18.837142   0.000000
      7         25.030264   0.000000
      8         25.884507   0.000000
 
  0.5000000E+00  0.5000000E+00  0.1193213E-14  0.3000000E-02
      1         -2.996041   1.000000
      2         -2.996041   1.000000
      3          3.474437   1.000000
      4          3.474437   1.000000
      5         14.579428   0.000000
      6         14.579428   0.000000
      7         26.697209   0.000000
      8         26.697211   0.000000
 
  0.3000000E+00  0.2000000E+00  0.1000000E+00  0.2400000E-01
      1         -9.906471   1.000000
      2          4.755229   1.000000
      3          5.562639   1.000000
      4          7.897750   1.000000
      5         15.959861   0.000000
      6         19.248024   0.000000
      7         19.837388   0.000000
      8         22.505635   0.000000
 
  0.4000000E+00  0.2000000E+00  0.1000000E+00  0.4800000E-01
      1         -8.560572   1.000000
      2          1.917264   1.000000
      3          4.690249   1.000000
      4          6.999408   1.000000
      5         17.089728   0.000000
      6         19.422077   0.000000
      7         21.085562   0.000000
      8         22.571102   0.000000
 
  0.5000000E+00  0.2000000E+00  0.1000000E+00  0.4800000E-01
      1         -6.767428   1.000000
      2         -1.061514   1.000000
      3          4.452835   1.000000
      4          6.127919   1.000000
      5         17.831040   0.000000
      6         19.161856   0.000000
      7         21.633824   0.000000
      8         23.992280   0.000000
 
 -0.4000000E+00  0.2000000E+00  0.1000000E+00  0.2400000E-01
      1         -5.284900   1.000000
      2         -2.962194   1.000000
      3          4.446832   1.000000
      4          5.742163   1.000000
      5         18.020654   0.000000
      6         19.016264   0.000000
      7         21.793535   0.000000
      8         25.142076   0.000000
 
  0.4000000E+00  0.3000000E+00  0.1000000E+00  0.2400000E-01
      1         -8.109377   1.000000
      2          2.715809   1.000000
      3          3.966943   1.000000
      4          5.449608   1.000000
      5         15.529197   0.000000
      6         19.609318   0.000000
      7         21.678377   0.000000
      8         22.990058   0.000000
 
  0.5000000E+00  0.3000000E+00  0.1000000E+00  0.4800000E-01
      1         -6.474051   1.000000
      2          0.368134   1.000000
      3          3.080179   1.000000
      4          4.605420   1.000000
      5         16.666731   0.000000
      6         20.125324   0.000000
      7         21.672704   0.000000
      8         24.076037   0.000000
 
 -0.4000000E+00  0.3000000E+00  0.1000000E+00  0.4800000E-01
      1         -4.676935   1.000000
      2         -1.908867   1.000000
      3          2.435823   1.000000
      4          4.439339   1.000000
      5         17.278136   0.000000
      6         20.861143   0.000000
      7         22.810221   0.000000
      8         24.244871   0.000000
 
 -0.3000000E+00  0.3000000E+00  0.1000000E+00  0.4800000E-01
      1         -5.253962   1.000000
      2         -1.182242   1.000000
      3          1.965859   1.000000
      4          5.014755   1.000000
      5         17.921864   0.000000
      6         20.169381   0.000000
      7         23.357513   0.000000
      8         24.410297   0.000000
 
 -0.2000000E+00  0.3000000E+00  0.1000000E+00  0.2400000E-01
      1         -7.080980   1.000000
      2          1.104571   1.000000
      3          2.271505   1.000000
      4          6.003121   1.000000
      5         18.714584   0.000000
      6         18.768390   0.000000
      7         22.479875   0.000000
      8         23.163833   0.000000
 
  0.5000000E+00  0.4000000E+00  0.1000000E+00  0.2400000E-01
      1         -5.680303   1.000000
      2          0.256727   1.000000
      3          2.986643   1.000000
      4          3.480395   1.000000
      5         15.461659   0.000000
      6         17.333076   0.000000
      7         24.147282   0.000000
      8         25.504238   0.000000
 
 -0.4000000E+00  0.4000000E+00  0.1000000E+00  0.4800000E-01
      1         -3.903281   1.000000
      2         -1.288256   1.000000
      3          1.419044   1.000000
      4          3.356519   1.000000
      5         16.433333   0.000000
      6         19.082208   0.000000
      7         23.791964   0.000000
      8         25.388335   0.000000
 
 -0.3000000E+00  0.4000000E+00  0.1000000E+00  0.2400000E-01
      1         -3.604963   1.000000
      2         -1.461023   1.000000
      3          0.441928   1.000000
      4          3.975573   1.000000
      5         17.055599   0.000000
      6         22.144962   0.000000
      7         22.843434   0.000000
      8         24.170311   0.000000
 
 -0.4000000E+00  0.5000000E+00  0.1000000E+00  0.1200000E-01
      1         -2.769309   1.000000
      2         -2.769309   1.000000
      3          2.761170   1.000000
      4          2.761170   1.000000
      5         15.997092   0.000000
      6         15.997093   0.000000
      7         25.923391   0.000000
      8         25.923393   0.000000
 
 -0.4000000E+00  0.4000000E+00  0.2000000E+00  0.2400000E-01
      1         -4.783916   1.000000
      2         -0.384776   1.000000
      3          1.444319   1.000000
      4          3.390429   1.000000
      5         18.795897   0.000000
      6         19.688038   0.000000
      7         21.630554   0.000000
      8         24.975601   0.000000
 
 -0.3000000E+00  0.4000000E+00  0.2000000E+00  0.2400000E-01
      1         -3.407445   1.000000
      2         -1.598733   1.000000
      3          1.129800   1.000000
      4          2.805739   1.000000
      5         19.282704   0.000000
      6         20.404389   0.000000
      7         22.885933   0.000000
      8         23.112897   0.000000
 
 -0.3000000E+00  0.5000000E+00  0.2000000E+00  0.1200000E-01
      1         -2.297895   1.000000
      2         -2.297895   1.000000
      3          1.637178   1.000000
      4          1.637179   1.000000
      5         19.214724   0.000000
      6         19.214725   0.000000
      7         23.368480   0.000000
      8         23.368481   0.000000
