       N       E                     dE             d eps       ncg     rms          rms(c)
DAV:   1     0.129399732469E+02    0.12940E+02   -0.68787E+03   752   0.152E+03
DAV:   2    -0.186225490445E+02   -0.31563E+02   -0.29550E+02  1168   0.157E+02
DAV:   3    -0.188465025488E+02   -0.22395E+00   -0.22395E+00   824   0.173E+01
DAV:   4    -0.188467928846E+02   -0.29034E-03   -0.29034E-03  1096   0.657E-01
DAV:   5    -0.188467929443E+02   -0.59716E-07   -0.59714E-07   776   0.703E-03    0.559E+00
RMM:   6    -0.183591479518E+02    0.48764E+00   -0.27924E-01   764   0.473E+00    0.331E+00
RMM:   7    -0.181952572963E+02    0.16389E+00   -0.43224E-01   837   0.625E+00    0.727E-01
RMM:   8    -0.181989572340E+02   -0.36999E-02   -0.23044E-02   786   0.182E+00    0.116E-01
RMM:   9    -0.181991692876E+02   -0.21205E-03   -0.36298E-03   832   0.666E-01    0.514E-02
RMM:  10    -0.181991958232E+02   -0.26536E-04   -0.41285E-04   786   0.230E-01    0.205E-02
RMM:  11    -0.181991995199E+02   -0.36967E-05   -0.59981E-05   840   0.869E-02    0.531E-03
RMM:  12    -0.181992005778E+02   -0.10579E-05   -0.78467E-06   755   0.333E-02    0.601E-03
RMM:  13    -0.181992008201E+02   -0.24234E-06   -0.60832E-07   542   0.900E-03
   1 F= -.18199201E+02 E0= -.18199201E+02  d E =-.743668E-10
