<?xml version="1.0" encoding="ISO-8859-1"?>
<modeling>
 <generator>
  <i name="program" type="string">vasp </i>
  <i name="version" type="string">6.5.1  </i>
  <i name="subversion" type="string">10Mar25 (build Feb 13 2026 23:13:13) complex                          parallel </i>
  <i name="platform" type="string">LinuxIFC </i>
  <i name="date" type="string">2026 06 23 </i>
  <i name="time" type="string">04:04:34 </i>
 </generator>
 <incar>
  <i type="string" name="PREC">Normal</i>
  <i type="string" name="ALGO">Fast</i>
  <i type="int" name="ISPIN">     1</i>
  <i type="int" name="NELMIN">     4</i>
  <i name="EDIFF">      0.00000100</i>
  <i type="int" name="NSW">     0</i>
  <i name="ENCUT">    900.00000000</i>
  <i type="logical" name="LREAL"> F  </i>
  <i type="int" name="ISMEAR">     0</i>
  <i name="SIGMA">      0.20000000</i>
  <i type="logical" name="LWAVE"> F  </i>
 </incar>
 <primitive_cell>
  <structure name="primitive_cell" >
   <crystal>
    <varray name="basis" >
     <v>       2.51730013       0.00000000       0.00000000 </v>
     <v>       1.25865006       2.18004586       0.00000000 </v>
     <v>       1.25865006       0.72668195       2.05536695 </v>
    </varray>
    <i name="volume">     11.27950384 </i>
    <varray name="rec_basis" >
     <v>       0.39725100      -0.22935297      -0.16217704 </v>
     <v>       0.00000000       0.45870595      -0.16217704 </v>
     <v>       0.00000000       0.00000000       0.48653113 </v>
    </varray>
   </crystal>
   <varray name="positions" >
    <v>       0.25000000       0.25000000       0.25000000 </v>
    <v>       0.00000000       0.00000000       0.00000000 </v>
   </varray>
  </structure>
  <varray name="primitive_index" >
   <v type="int" >        1 </v>
   <v type="int" >        2 </v>
  </varray>
 </primitive_cell>
 <kpoints>
  <generation param="Gamma">
   <v type="int" name="divisions">      10       10       10 </v>
   <v name="usershift">      0.00000000       0.00000000       0.00000000 </v>
   <v name="genvec1">      0.10000000      -0.00000000      -0.00000000 </v>
   <v name="genvec2">      0.00000000       0.10000000      -0.00000000 </v>
   <v name="genvec3">      0.00000000       0.00000000       0.10000000 </v>
   <v name="shift">      0.00000000       0.00000000       0.00000000 </v>
  </generation>
  <varray name="kpointlist" >
   <v>       0.00000000       0.00000000       0.00000000 </v>
   <v>       0.10000000       0.00000000       0.00000000 </v>
   <v>       0.20000000       0.00000000       0.00000000 </v>
   <v>       0.30000000       0.00000000       0.00000000 </v>
   <v>       0.40000000       0.00000000       0.00000000 </v>
   <v>       0.50000000       0.00000000       0.00000000 </v>
   <v>       0.10000000       0.10000000       0.00000000 </v>
   <v>       0.20000000       0.10000000       0.00000000 </v>
   <v>       0.30000000       0.10000000       0.00000000 </v>
   <v>       0.40000000       0.10000000       0.00000000 </v>
   <v>       0.50000000       0.10000000       0.00000000 </v>
   <v>      -0.40000000       0.10000000       0.00000000 </v>
   <v>      -0.30000000       0.10000000       0.00000000 </v>
   <v>      -0.20000000       0.10000000       0.00000000 </v>
   <v>      -0.10000000       0.10000000       0.00000000 </v>
   <v>       0.20000000       0.20000000       0.00000000 </v>
   <v>       0.30000000       0.20000000       0.00000000 </v>
   <v>       0.40000000       0.20000000       0.00000000 </v>
   <v>       0.50000000       0.20000000       0.00000000 </v>
   <v>      -0.40000000       0.20000000       0.00000000 </v>
   <v>      -0.30000000       0.20000000       0.00000000 </v>
   <v>      -0.20000000       0.20000000       0.00000000 </v>
   <v>       0.30000000       0.30000000       0.00000000 </v>
   <v>       0.40000000       0.30000000       0.00000000 </v>
   <v>       0.50000000       0.30000000       0.00000000 </v>
   <v>      -0.40000000       0.30000000       0.00000000 </v>
   <v>      -0.30000000       0.30000000       0.00000000 </v>
   <v>       0.40000000       0.40000000       0.00000000 </v>
   <v>       0.50000000       0.40000000       0.00000000 </v>
   <v>      -0.40000000       0.40000000       0.00000000 </v>
   <v>       0.50000000       0.50000000       0.00000000 </v>
   <v>       0.30000000       0.20000000       0.10000000 </v>
   <v>       0.40000000       0.20000000       0.10000000 </v>
   <v>       0.50000000       0.20000000       0.10000000 </v>
   <v>      -0.40000000       0.20000000       0.10000000 </v>
   <v>       0.40000000       0.30000000       0.10000000 </v>
   <v>       0.50000000       0.30000000       0.10000000 </v>
   <v>      -0.40000000       0.30000000       0.10000000 </v>
   <v>      -0.30000000       0.30000000       0.10000000 </v>
   <v>      -0.20000000       0.30000000       0.10000000 </v>
   <v>       0.50000000       0.40000000       0.10000000 </v>
   <v>      -0.40000000       0.40000000       0.10000000 </v>
   <v>      -0.30000000       0.40000000       0.10000000 </v>
   <v>      -0.40000000       0.50000000       0.10000000 </v>
   <v>      -0.40000000       0.40000000       0.20000000 </v>
   <v>      -0.30000000       0.40000000       0.20000000 </v>
   <v>      -0.30000000       0.50000000       0.20000000 </v>
  </varray>
  <varray name="weights" >
   <v>       0.00100000 </v>
   <v>       0.00800000 </v>
   <v>       0.00800000 </v>
   <v>       0.00800000 </v>
   <v>       0.00800000 </v>
   <v>       0.00400000 </v>
   <v>       0.00600000 </v>
   <v>       0.02400000 </v>
   <v>       0.02400000 </v>
   <v>       0.02400000 </v>
   <v>       0.02400000 </v>
   <v>       0.02400000 </v>
   <v>       0.02400000 </v>
   <v>       0.02400000 </v>
   <v>       0.01200000 </v>
   <v>       0.00600000 </v>
   <v>       0.02400000 </v>
   <v>       0.02400000 </v>
   <v>       0.02400000 </v>
   <v>       0.02400000 </v>
   <v>       0.02400000 </v>
   <v>       0.01200000 </v>
   <v>       0.00600000 </v>
   <v>       0.02400000 </v>
   <v>       0.02400000 </v>
   <v>       0.02400000 </v>
   <v>       0.01200000 </v>
   <v>       0.00600000 </v>
   <v>       0.02400000 </v>
   <v>       0.01200000 </v>
   <v>       0.00300000 </v>
   <v>       0.02400000 </v>
   <v>       0.04800000 </v>
   <v>       0.04800000 </v>
   <v>       0.02400000 </v>
   <v>       0.02400000 </v>
   <v>       0.04800000 </v>
   <v>       0.04800000 </v>
   <v>       0.04800000 </v>
   <v>       0.02400000 </v>
   <v>       0.02400000 </v>
   <v>       0.04800000 </v>
   <v>       0.02400000 </v>
   <v>       0.01200000 </v>
   <v>       0.02400000 </v>
   <v>       0.02400000 </v>
   <v>       0.01200000 </v>
  </varray>
 </kpoints>
 <parameters>
  <separator name="general" >
   <i type="string" name="SYSTEM">unknown system</i>
   <i type="logical" name="LCOMPAT"> F  </i>
  </separator>
  <separator name="electronic" >
   <i type="string" name="PREC">normal</i>
   <i name="ENMAX">    900.00000000</i>
   <i name="ENAUG">    644.87300000</i>
   <i name="EDIFF">      0.00000100</i>
   <i type="int" name="IALGO">    68</i>
   <i type="int" name="IWAVPR">    10</i>
   <i type="int" name="NBANDS">     8</i>
   <i type="int" name="NBANDSLOW">    -1</i>
   <i type="int" name="NBANDSHIGH">    -1</i>
   <i name="NELECT">      8.00000000</i>
   <i type="int" name="TURBO">     0</i>
   <i type="int" name="IRESTART">     0</i>
   <i type="int" name="NREBOOT">     0</i>
   <i type="int" name="NMIN">     0</i>
   <i name="EREF">      0.00000000</i>
   <separator name="electronic smearing" >
    <i type="int" name="ISMEAR">     0</i>
    <i name="SIGMA">      0.20000000</i>
    <i name="KSPACING">      0.50000000</i>
    <i type="logical" name="KGAMMA"> T  </i>
    <i type="logical" name="KBLOWUP"> T  </i>
   </separator>
   <separator name="electronic projectors" >
    <i type="logical" name="LREAL"> F  </i>
    <v name="ROPT">      0.00000000</v>
    <i type="int" name="LMAXPAW">  -100</i>
    <i type="int" name="LMAXMIX">     2</i>
    <i type="logical" name="NLSPLINE"> F  </i>
   </separator>
   <separator name="electronic startup" >
    <i type="int" name="ISTART">     0</i>
    <i type="int" name="ICHARG">     2</i>
    <i type="int" name="INIWAV">     1</i>
   </separator>
   <separator name="electronic spin" >
    <i type="int" name="ISPIN">     1</i>
    <i type="logical" name="LNONCOLLINEAR"> F  </i>
    <v name="MAGMOM">      1.00000000      1.00000000</v>
    <i name="NUPDOWN">     -1.00000000</i>
    <i type="logical" name="LSORBIT"> F  </i>
    <v name="SAXIS">      0.00000000      0.00000000      1.00000000</v>
    <i type="logical" name="LSPIRAL"> F  </i>
    <v name="QSPIRAL">      0.00000000      0.00000000      0.00000000</v>
    <i type="logical" name="LZEROZ"> F  </i>
   </separator>
   <separator name="electronic exchange-correlation" >
    <i type="logical" name="LASPH"> F  </i>
   </separator>
   <separator name="electronic convergence" >
    <i type="int" name="NELM">    60</i>
    <i type="int" name="NELMDL">    -5</i>
    <i type="int" name="NELMIN">     4</i>
    <i name="ENINI">    900.00000000</i>
    <separator name="electronic convergence detail" >
     <i type="logical" name="LDIAG"> T  </i>
     <i type="logical" name="LSUBROT"> F  </i>
     <i type="logical" name="LROBUST"> F  </i>
     <i type="int" name="ISEARCH">     0</i>
     <i name="WEIMIN">      0.00000000</i>
     <i name="EBREAK">      0.00000003</i>
     <i name="DEPER">      0.30000000</i>
     <i type="int" name="NRMM">     4</i>
     <i name="TIME">      0.40000000</i>
    </separator>
   </separator>
   <separator name="electronic mixer" >
    <i name="AMIX">      0.40000000</i>
    <i name="BMIX">      1.00000000</i>
    <i name="AMIN">      0.10000000</i>
    <i name="AMIX_MAG">      1.60000000</i>
    <i name="BMIX_MAG">      1.00000000</i>
    <separator name="electronic mixer details" >
     <i type="int" name="IMIX">     4</i>
     <i type="logical" name="MIXFIRST"> F  </i>
     <i type="int" name="MAXMIX">   -45</i>
     <i name="WC">    100.00000000</i>
     <i type="int" name="INIMIX">     1</i>
     <i type="int" name="MIXPRE">     1</i>
     <i type="int" name="MREMOVE">     5</i>
    </separator>
   </separator>
   <separator name="electronic dipolcorrection" >
    <i type="logical" name="LDIPOL"> F  </i>
    <i type="logical" name="LMONO"> F  </i>
    <i type="int" name="IDIPOL">     0</i>
    <i name="EPSILON">      1.00000000</i>
    <v name="DIPOL">   -100.00000000   -100.00000000   -100.00000000</v>
    <i name="EFIELD">      0.00000000</i>
    <i type="logical" name="LVACPOTAV"> F  </i>
   </separator>
  </separator>
  <separator name="grids" >
   <i type="int" name="NGX">    18</i>
   <i type="int" name="NGY">    18</i>
   <i type="int" name="NGZ">    18</i>
   <i type="int" name="NGXF">    36</i>
   <i type="int" name="NGYF">    36</i>
   <i type="int" name="NGZF">    36</i>
   <i type="logical" name="ADDGRID"> F  </i>
  </separator>
  <separator name="ionic" >
   <i type="int" name="NSW">     0</i>
   <i type="int" name="IBRION">    -1</i>
   <i type="int" name="MDALGO">     0</i>
   <i type="int" name="ISIF">     2</i>
   <i name="PSTRESS">      0.00000000</i>
   <i name="EDIFFG">      0.00001000</i>
   <i type="int" name="NFREE">     0</i>
   <i name="POTIM">      0.50000000</i>
   <i name="SMASS">     -3.00000000</i>
   <i name="SCALEE">      1.00000000</i>
  </separator>
  <separator name="ionic md" >
   <i name="TEBEG">      0.00010000</i>
   <i name="TEEND">      0.00010000</i>
   <i type="int" name="NBLOCK">     1</i>
   <i type="int" name="KBLOCK">     1</i>
   <i type="int" name="NPACO">   256</i>
   <i name="APACO">     10.00000000</i>
  </separator>
  <separator name="symmetry" >
   <i type="int" name="ISYM">     2</i>
   <i name="SYMPREC">      0.00001000</i>
  </separator>
  <separator name="dos" >
   <i type="int" name="LORBIT">     0</i>
   <v name="RWIGS">     -1.00000000</v>
   <i type="int" name="NEDOS">   301</i>
   <i name="EMIN">     10.00000000</i>
   <i name="EMAX">    -10.00000000</i>
   <i name="EFERMI">      0.00000000</i>
  </separator>
  <separator name="writing" >
   <i type="int" name="NWRITE">     2</i>
   <i type="logical" name="LWAVE"> F  </i>
   <i type="logical" name="LDOWNSAMPLE"> F  </i>
   <i type="logical" name="LCHARG"> T  </i>
   <i type="logical" name="LPARD"> F  </i>
   <i type="logical" name="LVTOT"> F  </i>
   <i type="logical" name="LVHAR"> F  </i>
   <i type="logical" name="LELF"> F  </i>
   <i type="logical" name="LOPTICS"> F  </i>
   <v name="STM">      0.00000000      0.00000000      0.00000000      0.00000000      0.00000000      0.00000000      0.00000000</v>
  </separator>
  <separator name="performance" >
   <i type="int" name="NPAR">     4</i>
   <i type="int" name="NSIM">     4</i>
   <i type="int" name="NBLK">    -1</i>
   <i type="logical" name="LPLANE"> T  </i>
   <i type="logical" name="LSCALAPACK"> T  </i>
   <i type="logical" name="LSCAAWARE"> F  </i>
   <i type="logical" name="LSCALU"> F  </i>
   <i type="logical" name="LASYNC"> F  </i>
   <i type="logical" name="LORBITALREAL"> F  </i>
  </separator>
  <separator name="miscellaneous" >
   <i type="int" name="IDIOT">     3</i>
   <i type="int" name="PHON_NSTRUCT">    -1</i>
   <i type="logical" name="LMUSIC"> F  </i>
   <v name="POMASS">     12.01100000</v>
   <v name="DARWINR">      0.00000000</v>
   <v name="DARWINV">      1.00000000</v>
   <i type="logical" name="LCORR"> T  </i>
  </separator>
  <i type="logical" name="GGA_COMPAT"> T  </i>
  <i type="logical" name="LBERRY"> F  </i>
  <i type="int" name="ICORELEVEL">     0</i>
  <i type="logical" name="LDAU"> F  </i>
  <i type="int" name="I_CONSTRAINED_M">     0</i>
  <separator name="electronic exchange-correlation" >
   <i type="string" name="GGA    ">PE</i>
   <i type="string" name="XC_C">1</i>
   <i type="int" name="VOSKOWN">     0</i>
   <i type="logical" name="LHFCALC"> F  </i>
   <i type="string" name="PRECFOCK"></i>
   <i type="logical" name="LSYMGRAD"> F  </i>
   <i type="logical" name="LHFONE"> F  </i>
   <i type="logical" name="LRHFCALC"> F  </i>
   <i type="logical" name="LTHOMAS"> F  </i>
   <i type="logical" name="LMODELHF"> F  </i>
   <i type="logical" name="LFOCKACE"> F  </i>
   <i name="ENCUT4O">     -1.00000000</i>
   <i type="int" name="EXXOEP">     0</i>
   <i type="int" name="FOURORBIT">     0</i>
   <i name="AEXX">      0.00000000</i>
   <i name="HFALPHA">      0.00000000</i>
   <i name="MCALPHA">      0.00000000</i>
   <i name="ALDAX">      1.00000000</i>
   <i name="AGGAX">      1.00000000</i>
   <i name="AMGGAX">      1.00000000</i>
   <i name="ALDAC">      1.00000000</i>
   <i name="AGGAC">      1.00000000</i>
   <i name="AMGGAC">      1.00000000</i>
   <i type="int" name="NKREDX">     1</i>
   <i type="int" name="NKREDY">     1</i>
   <i type="int" name="NKREDZ">     1</i>
   <i type="logical" name="SHIFTRED"> F  </i>
   <i type="logical" name="ODDONLY"> F  </i>
   <i type="logical" name="EVENONLY"> F  </i>
   <i type="int" name="LMAXFOCK">     0</i>
   <i type="int" name="NMAXFOCKAE">     0</i>
   <i type="logical" name="LFOCKAEDFT"> F  </i>
   <i name="HFSCREEN">      0.00000000</i>
   <i name="HFSCREENC">      0.00000000</i>
   <i type="int" name="NBANDSGWLOW">     0</i>
  </separator>
  <separator name="vdW DFT" >
   <i type="logical" name="LUSE_VDW"> F  </i>
   <i type="int" name="IVDW_NL">    -1</i>
   <i type="logical" name="LSPIN_VDW"> F  </i>
   <i name="ZAB_VDW">     -0.84910000</i>
   <i name="GAMMA_VDW">      1.39626340</i>
   <i name="ALPHA_VDW">      0.00000000</i>
   <i name="PARAM1">      0.12340000</i>
   <i name="PARAM2">      1.00000000</i>
   <i name="BPARAM">      6.30000000</i>
   <i name="CPARAM">      0.00930000</i>
  </separator>
  <separator name="model GW" >
   <i type="int" name="MODEL_GW">     0</i>
   <i name="MODEL_EPS0">      3.38385115</i>
   <i name="MODEL_ALPHA">      1.00000000</i>
  </separator>
  <separator name="linear response parameters" >
   <i type="logical" name="LEPSILON"> F  </i>
   <i type="logical" name="LRPA"> F  </i>
   <i type="logical" name="LNABLA"> F  </i>
   <i type="logical" name="LVEL"> F  </i>
   <i name="CSHIFT">      0.10000000</i>
   <i name="OMEGAMAX">     -1.00000000</i>
   <i name="DEG_THRESHOLD">      0.00200000</i>
   <i name="RTIME">     -0.10000000</i>
   <i name="WPLASMAI">      0.00000000</i>
   <v name="DFIELD">      0.00000000      0.00000000      0.00000000</v>
   <v name="WPLASMA">      0.00000000      0.00000000      0.00000000      0.00000000      0.00000000      0.00000000      0.00000000      0.00000000      0.00000000</v>
  </separator>
  <separator name="orbital magnetization" >
   <i type="logical" name="NUCIND"> F  </i>
   <v name="MAGPOS">      0.00000000      0.00000000      0.00000000</v>
   <i type="logical" name="LNICSALL"> T  </i>
   <i type="logical" name="ORBITALMAG"> F  </i>
   <i type="logical" name="LMAGBLOCH"> F  </i>
   <i type="logical" name="LCHIMAG"> F  </i>
   <i type="logical" name="LGAUGE"> T  </i>
   <i type="int" name="MAGATOM">     0</i>
   <v name="MAGDIPOL">      0.00000000      0.00000000      0.00000000</v>
   <v name="AVECCONST">      0.00000000      0.00000000      0.00000000</v>
  </separator>
  <separator name="response functions" >
   <i type="logical" name="LALL_IN_ONE"> F  </i>
   <i type="int" name="IALL_IN_ONE">    -1</i>
   <i type="int" name="NBANDS_WAVE">    -1</i>
   <i type="logical" name="LFINITE_TEMPERATURE"> F  </i>
   <i type="logical" name="LADDER"> F  </i>
   <i type="logical" name="LRPAFORCE"> F  </i>
   <i type="logical" name="LFXC"> F  </i>
   <i type="logical" name="LHARTREE"> T  </i>
   <i type="int" name="IBSE">     2</i>
   <v type="int" name="KPOINT">    -1     0     0     0</v>
   <i type="logical" name="LTCTC"> F  </i>
   <i type="logical" name="LTCTE"> F  </i>
   <i type="logical" name="LTETE"> F  </i>
   <i type="logical" name="LTRIPLET"> F  </i>
   <i type="logical" name="LFXCEPS"> F  </i>
   <i type="logical" name="LFXHEG"> F  </i>
   <i type="int" name="NATURALO">     2</i>
   <i type="logical" name="LHOLEGF"> F  </i>
   <i type="logical" name="L2ORDER"> F  </i>
   <i type="logical" name="LDMP1"> F  </i>
   <i type="logical" name="LMP2LT"> F  </i>
   <i type="logical" name="LSMP2LT"> F  </i>
   <i type="logical" name="LGWLF"> F  </i>
   <i name="ENCUTGW">     -1.60000002</i>
   <i name="ENCUTGWSOFT">     -1.60000002</i>
   <i name="ENCUTLF">     -1.00000000</i>
   <i type="logical" name="ESF_SPLINES"> F  </i>
   <i name="ESF_CONV">      0.01000000</i>
   <i type="int" name="ESF_NINTER">    15</i>
   <i type="int" name="LMAXMP2">    -1</i>
   <i name="SCISSOR">      0.00000000</i>
   <i type="int" name="NOMEGA">     0</i>
   <i type="int" name="NOMEGAR">     0</i>
   <i type="int" name="NBANDSGW">    -1</i>
   <i type="int" name="NBANDSO">    -1</i>
   <i type="int" name="NBANDSV">    -1</i>
   <i type="int" name="NELMGW">     1</i>
   <i type="int" name="NELMHF">     1</i>
   <i type="int" name="DIM">     3</i>
   <i type="int" name="IESPILON">     4</i>
   <i type="int" name="ANTIRES">     0</i>
   <i name="OMEGAMAX">    -30.00000000</i>
   <i name="OMEGAMIN">    -30.00000000</i>
   <i name="OMEGATL">   -200.00000000</i>
   <i type="int" name="OMEGAGRID">     0</i>
   <i name="CSHIFT">     -0.10000000</i>
   <i type="logical" name="LSELFENERGY"> F  </i>
   <i type="logical" name="LSPECTRAL"> F  </i>
   <i type="logical" name="LSPECTRALGW"> F  </i>
   <i type="logical" name="LSINGLES"> F  </i>
   <i type="logical" name="LFERMIGW"> F  </i>
   <i type="logical" name="ODDONLYGW"> F  </i>
   <i type="logical" name="EVENONLYGW"> F  </i>
   <i type="int" name="NKREDLFX">     1</i>
   <i type="int" name="NKREDLFY">     1</i>
   <i type="int" name="NKREDLFZ">     1</i>
   <i type="int" name="MAXMEM">  2800</i>
   <i type="int" name="TELESCOPE">     0</i>
   <i type="int" name="NTAUPAR">    -1</i>
   <i type="int" name="NOMEGAPAR">    -1</i>
   <i name="DAMP_NEWTON">      0.80000001</i>
   <i name="LAMBDA">      1.00000000</i>
  </separator>
  <separator name="External order field" >
   <i name="OFIELD_KAPPA">      0.00000000</i>
   <v name="OFIELD_K">      0.00000000      0.00000000      0.00000000</v>
   <i name="OFIELD_Q6_NEAR">      0.00000000</i>
   <i name="OFIELD_Q6_FAR">      0.00000000</i>
   <i name="OFIELD_A">      0.00000000</i>
  </separator>
  <separator name="optional k-points parameters" >
   <i type="int" name="KPOINTS_OPT_MODE">     1</i>
   <i type="logical" name="LKPOINTS_OPT"> F  </i>
  </separator>
 </parameters>
 <atominfo>
  <atoms>       2 </atoms>
  <types>       1 </types>
  <array name="atoms" >
   <dimension dim="1">ion</dimension>
   <field type="string">element</field>
   <field type="int">atomtype</field>
   <set>
    <rc><c>C </c><c>   1</c></rc>
    <rc><c>C </c><c>   1</c></rc>
   </set>
  </array>
  <array name="atomtypes" >
   <dimension dim="1">type</dimension>
   <field type="int">atomspertype</field>
   <field type="string">element</field>
   <field>mass</field>
   <field>valence</field>
   <field type="string">pseudopotential</field>
   <set>
    <rc><c>   2</c><c>C </c><c>     12.01100000</c><c>      4.00000000</c><c>  PAW_PBE C 08Apr2002                   </c></rc>
   </set>
  </array>
 </atominfo>
 <structure name="initialpos" >
  <crystal>
   <varray name="basis" >
    <v>       2.51730013       0.00000000       0.00000000 </v>
    <v>       1.25865006       2.18004586       0.00000000 </v>
    <v>       1.25865006       0.72668195       2.05536695 </v>
   </varray>
   <i name="volume">     11.27950384 </i>
   <varray name="rec_basis" >
    <v>       0.39725100      -0.22935297      -0.16217704 </v>
    <v>       0.00000000       0.45870595      -0.16217704 </v>
    <v>       0.00000000       0.00000000       0.48653113 </v>
   </varray>
  </crystal>
  <varray name="positions" >
   <v>       0.25000000       0.25000000       0.25000000 </v>
   <v>       0.00000000       0.00000000       0.00000000 </v>
  </varray>
 </structure>
 <calculation>
  <scstep>
   <time name="dav">    0.06    0.06</time>
   <time name="total">    0.06    0.06</time>
   <energy>
    <i name="alphaZ">     29.13132251 </i>
    <i name="ewald">   -348.62358043 </i>
    <i name="hartreedc">    -17.48913657 </i>
    <i name="XCdc">     27.44127266 </i>
    <i name="pawpsdc">    217.04409276 </i>
    <i name="pawaedc">   -218.18290438 </i>
    <i name="eentropy">     -0.00391437 </i>
    <i name="bandstr">     29.31289744 </i>
    <i name="atom">    294.30992362 </i>
    <i name="e_fr_energy">     12.93997325 </i>
    <i name="e_wo_entrp">     12.94388761 </i>
    <i name="e_0_energy">     12.94193043 </i>
   </energy>
  </scstep>
  <scstep>
   <time name="dav">    0.08    0.08</time>
   <time name="total">    0.08    0.08</time>
   <energy>
    <i name="e_fr_energy">    -18.62254904 </i>
    <i name="e_wo_entrp">    -18.62254904 </i>
    <i name="e_0_energy">    -18.62254904 </i>
   </energy>
  </scstep>
  <scstep>
   <time name="dav">    0.06    0.06</time>
   <time name="total">    0.06    0.06</time>
   <energy>
    <i name="e_fr_energy">    -18.84650255 </i>
    <i name="e_wo_entrp">    -18.84650255 </i>
    <i name="e_0_energy">    -18.84650255 </i>
   </energy>
  </scstep>
  <scstep>
   <time name="dav">    0.07    0.07</time>
   <time name="total">    0.07    0.07</time>
   <energy>
    <i name="e_fr_energy">    -18.84679288 </i>
    <i name="e_wo_entrp">    -18.84679288 </i>
    <i name="e_0_energy">    -18.84679288 </i>
   </energy>
  </scstep>
  <scstep>
   <time name="dav">    0.05    0.05</time>
   <time name="total">    0.06    0.06</time>
   <energy>
    <i name="e_fr_energy">    -18.84679294 </i>
    <i name="e_wo_entrp">    -18.84679294 </i>
    <i name="e_0_energy">    -18.84679294 </i>
   </energy>
  </scstep>
  <scstep>
   <time name="diag">    0.04    0.04</time>
   <time name="diis">    0.02    0.02</time>
   <time name="orth">    0.00    0.00</time>
   <time name="total">    0.08    0.08</time>
   <energy>
    <i name="e_fr_energy">    -18.35914795 </i>
    <i name="e_wo_entrp">    -18.35914795 </i>
    <i name="e_0_energy">    -18.35914795 </i>
   </energy>
  </scstep>
  <scstep>
   <time name="diag">    0.03    0.03</time>
   <time name="diis">    0.02    0.02</time>
   <time name="orth">    0.00    0.00</time>
   <time name="total">    0.07    0.07</time>
   <energy>
    <i name="e_fr_energy">    -18.19525730 </i>
    <i name="e_wo_entrp">    -18.19525730 </i>
    <i name="e_0_energy">    -18.19525730 </i>
   </energy>
  </scstep>
  <scstep>
   <time name="diag">    0.03    0.03</time>
   <time name="diis">    0.02    0.02</time>
   <time name="orth">    0.00    0.00</time>
   <time name="total">    0.06    0.07</time>
   <energy>
    <i name="e_fr_energy">    -18.19895723 </i>
    <i name="e_wo_entrp">    -18.19895723 </i>
    <i name="e_0_energy">    -18.19895723 </i>
   </energy>
  </scstep>
  <scstep>
   <time name="diag">    0.03    0.03</time>
   <time name="diis">    0.02    0.02</time>
   <time name="orth">    0.00    0.00</time>
   <time name="total">    0.07    0.07</time>
   <energy>
    <i name="e_fr_energy">    -18.19916929 </i>
    <i name="e_wo_entrp">    -18.19916929 </i>
    <i name="e_0_energy">    -18.19916929 </i>
   </energy>
  </scstep>
  <scstep>
   <time name="diag">    0.03    0.03</time>
   <time name="diis">    0.02    0.02</time>
   <time name="orth">    0.00    0.00</time>
   <time name="total">    0.06    0.06</time>
   <energy>
    <i name="e_fr_energy">    -18.19919582 </i>
    <i name="e_wo_entrp">    -18.19919582 </i>
    <i name="e_0_energy">    -18.19919582 </i>
   </energy>
  </scstep>
  <scstep>
   <time name="diag">    0.03    0.03</time>
   <time name="diis">    0.02    0.02</time>
   <time name="orth">    0.00    0.00</time>
   <time name="total">    0.06    0.06</time>
   <energy>
    <i name="e_fr_energy">    -18.19919952 </i>
    <i name="e_wo_entrp">    -18.19919952 </i>
    <i name="e_0_energy">    -18.19919952 </i>
   </energy>
  </scstep>
  <scstep>
   <time name="diag">    0.03    0.03</time>
   <time name="diis">    0.02    0.02</time>
   <time name="orth">    0.00    0.00</time>
   <time name="total">    0.06    0.06</time>
   <energy>
    <i name="e_fr_energy">    -18.19920058 </i>
    <i name="e_wo_entrp">    -18.19920058 </i>
    <i name="e_0_energy">    -18.19920058 </i>
   </energy>
  </scstep>
  <scstep>
   <time name="diag">    0.03    0.03</time>
   <time name="diis">    0.02    0.02</time>
   <time name="orth">    0.00    0.00</time>
   <time name="total">    0.05    0.05</time>
   <energy>
    <i name="alphaZ">     29.13132251 </i>
    <i name="ewald">   -348.62358043 </i>
    <i name="hartreedc">    -26.32385179 </i>
    <i name="XCdc">     28.24951472 </i>
    <i name="pawpsdc">    771.76251341 </i>
    <i name="pawaedc">   -773.09563242 </i>
    <i name="eentropy">     -0.00000000 </i>
    <i name="bandstr">      6.39058957 </i>
    <i name="atom">    294.30992362 </i>
    <i name="e_fr_energy">    -18.19920082 </i>
    <i name="e_wo_entrp">    -18.19920082 </i>
    <i name="e_0_energy">    -18.19920082 </i>
   </energy>
  </scstep>
  <structure>
   <crystal>
    <varray name="basis" >
     <v>       2.51730013       0.00000000       0.00000000 </v>
     <v>       1.25865006       2.18004586       0.00000000 </v>
     <v>       1.25865006       0.72668195       2.05536695 </v>
    </varray>
    <i name="volume">     11.27950384 </i>
    <varray name="rec_basis" >
     <v>       0.39725100      -0.22935297      -0.16217704 </v>
     <v>       0.00000000       0.45870595      -0.16217704 </v>
     <v>       0.00000000       0.00000000       0.48653113 </v>
    </varray>
   </crystal>
   <varray name="positions" >
    <v>       0.25000000       0.25000000       0.25000000 </v>
    <v>       0.00000000       0.00000000       0.00000000 </v>
   </varray>
  </structure>
  <varray name="forces" >
   <v>       0.00000000      -0.00000000      -0.00000000 </v>
   <v>      -0.00000000       0.00000000       0.00000000 </v>
  </varray>
  <varray name="stress" >
   <v>      45.56053314       0.00000000       0.00000000 </v>
   <v>       0.00000000      45.56053314      -0.00000000 </v>
   <v>       0.00000000      -0.00000000      45.56053313 </v>
  </varray>
  <energy>
   <i name="e_fr_energy">    -18.19920082 </i>
   <i name="e_wo_entrp">    -18.19920082 </i>
   <i name="e_0_energy">    -18.19920082 </i>
  </energy>
  <time name="totalsc">    0.91    0.93</time>
  <eigenvalues>
   <array>
    <dimension dim="1">band</dimension>
    <dimension dim="2">kpoint</dimension>
    <dimension dim="3">spin</dimension>
    <field>eigene</field>
    <field>occ</field>
    <set>
     <set comment="spin 1">
      <set comment="kpoint 1">
       <r>  -11.7432    1.0000 </r>
       <r>    9.8065    1.0000 </r>
       <r>    9.8065    1.0000 </r>
       <r>    9.8065    1.0000 </r>
       <r>   15.4134    0.0000 </r>
       <r>   15.4134    0.0000 </r>
       <r>   15.4134    0.0000 </r>
       <r>   23.2690    0.0000 </r>
      </set>
      <set comment="kpoint 2">
       <r>  -11.4655    1.0000 </r>
       <r>    8.1238    1.0000 </r>
       <r>    9.3574    1.0000 </r>
       <r>    9.3574    1.0000 </r>
       <r>   16.0034    0.0000 </r>
       <r>   16.0034    0.0000 </r>
       <r>   16.3663    0.0000 </r>
       <r>   23.4995    0.0000 </r>
      </set>
      <set comment="kpoint 3">
       <r>  -10.6372    1.0000 </r>
       <r>    4.9063    1.0000 </r>
       <r>    8.4765    1.0000 </r>
       <r>    8.4765    1.0000 </r>
       <r>   17.1398    0.0000 </r>
       <r>   17.1398    0.0000 </r>
       <r>   17.5917    0.0000 </r>
       <r>   24.1379    0.0000 </r>
      </set>
      <set comment="kpoint 4">
       <r>   -9.2782    1.0000 </r>
       <r>    1.4948    1.0000 </r>
       <r>    7.6819    1.0000 </r>
       <r>    7.6819    1.0000 </r>
       <r>   17.9645    0.0000 </r>
       <r>   17.9645    0.0000 </r>
       <r>   18.2999    0.0000 </r>
       <r>   24.9155    0.0000 </r>
      </set>
      <set comment="kpoint 5">
       <r>   -7.4596    1.0000 </r>
       <r>   -1.6499    1.0000 </r>
       <r>    7.1677    1.0000 </r>
       <r>    7.1677    1.0000 </r>
       <r>   18.2535    0.0000 </r>
       <r>   18.2535    0.0000 </r>
       <r>   18.6336    0.0000 </r>
       <r>   25.4223    0.0000 </r>
      </set>
      <set comment="kpoint 6">
       <r>   -5.9366    1.0000 </r>
       <r>   -3.6280    1.0000 </r>
       <r>    6.9921    1.0000 </r>
       <r>    6.9921    1.0000 </r>
       <r>   18.2904    0.0000 </r>
       <r>   18.2904    0.0000 </r>
       <r>   18.7323    0.0000 </r>
       <r>   25.5571    0.0000 </r>
      </set>
      <set comment="kpoint 7">
       <r>  -11.3730    1.0000 </r>
       <r>    8.5725    1.0000 </r>
       <r>    8.5725    1.0000 </r>
       <r>    8.9359    1.0000 </r>
       <r>   15.1383    0.0000 </r>
       <r>   16.9652    0.0000 </r>
       <r>   16.9652    0.0000 </r>
       <r>   23.3660    0.0000 </r>
      </set>
      <set comment="kpoint 8">
       <r>  -10.7284    1.0000 </r>
       <r>    6.0254    1.0000 </r>
       <r>    7.6001    1.0000 </r>
       <r>    8.4661    1.0000 </r>
       <r>   15.5664    0.0000 </r>
       <r>   18.2735    0.0000 </r>
       <r>   18.2948    0.0000 </r>
       <r>   23.2675    0.0000 </r>
      </set>
      <set comment="kpoint 9">
       <r>   -9.5457    1.0000 </r>
       <r>    2.7416    1.0000 </r>
       <r>    6.8508    1.0000 </r>
       <r>    7.5944    1.0000 </r>
       <r>   16.6087    0.0000 </r>
       <r>   19.1330    0.0000 </r>
       <r>   19.2252    0.0000 </r>
       <r>   23.4549    0.0000 </r>
      </set>
      <set comment="kpoint 10">
       <r>   -7.8700    1.0000 </r>
       <r>   -0.4689    1.0000 </r>
       <r>    6.4731    1.0000 </r>
       <r>    6.7210    1.0000 </r>
       <r>   17.3274    0.0000 </r>
       <r>   19.4420    0.0000 </r>
       <r>   19.5390    0.0000 </r>
       <r>   24.3425    0.0000 </r>
      </set>
      <set comment="kpoint 11">
       <r>   -5.9929    1.0000 </r>
       <r>   -3.0781    1.0000 </r>
       <r>    6.0840    1.0000 </r>
       <r>    6.5018    1.0000 </r>
       <r>   17.7322    0.0000 </r>
       <r>   19.1930    0.0000 </r>
       <r>   19.6705    0.0000 </r>
       <r>   25.3436    0.0000 </r>
      </set>
      <set comment="kpoint 12">
       <r>   -6.5767    1.0000 </r>
       <r>   -2.3430    1.0000 </r>
       <r>    5.7888    1.0000 </r>
       <r>    6.9161    1.0000 </r>
       <r>   18.1311    0.0000 </r>
       <r>   18.7723    0.0000 </r>
       <r>   19.6084    0.0000 </r>
       <r>   25.4187    0.0000 </r>
      </set>
      <set comment="kpoint 13">
       <r>   -8.4783    1.0000 </r>
       <r>    0.5789    1.0000 </r>
       <r>    5.8887    1.0000 </r>
       <r>    7.6503    1.0000 </r>
       <r>   18.1563    0.0000 </r>
       <r>   18.4591    0.0000 </r>
       <r>   19.3060    0.0000 </r>
       <r>   24.6107    0.0000 </r>
      </set>
      <set comment="kpoint 14">
       <r>   -9.9985    1.0000 </r>
       <r>    3.8632    1.0000 </r>
       <r>    6.4020    1.0000 </r>
       <r>    8.5645    1.0000 </r>
       <r>   17.1800    0.0000 </r>
       <r>   18.3324    0.0000 </r>
       <r>   18.5113    0.0000 </r>
       <r>   23.9118    0.0000 </r>
      </set>
      <set comment="kpoint 15">
       <r>  -11.0042    1.0000 </r>
       <r>    6.8638    1.0000 </r>
       <r>    7.4638    1.0000 </r>
       <r>    9.3292    1.0000 </r>
       <r>   16.1620    0.0000 </r>
       <r>   17.1882    0.0000 </r>
       <r>   17.5050    0.0000 </r>
       <r>   23.6606    0.0000 </r>
      </set>
      <set comment="kpoint 16">
       <r>  -10.2697    1.0000 </r>
       <r>    6.5624    1.0000 </r>
       <r>    6.5624    1.0000 </r>
       <r>    6.7159    1.0000 </r>
       <r>   14.5463    0.0000 </r>
       <r>   19.8921    0.0000 </r>
       <r>   19.8921    0.0000 </r>
       <r>   21.7032    0.0000 </r>
      </set>
      <set comment="kpoint 17">
       <r>   -9.2711    1.0000 </r>
       <r>    3.9560    1.0000 </r>
       <r>    5.7693    1.0000 </r>
       <r>    6.1468    1.0000 </r>
       <r>   14.9758    0.0000 </r>
       <r>   20.6417    0.0000 </r>
       <r>   21.1329    0.0000 </r>
       <r>   21.1681    0.0000 </r>
      </set>
      <set comment="kpoint 18">
       <r>   -7.7650    1.0000 </r>
       <r>    0.9821    1.0000 </r>
       <r>    5.0857    1.0000 </r>
       <r>    5.3819    1.0000 </r>
       <r>   15.9254    0.0000 </r>
       <r>   21.0831    0.0000 </r>
       <r>   21.6426    0.0000 </r>
       <r>   21.7369    0.0000 </r>
      </set>
      <set comment="kpoint 19">
       <r>   -5.8923    1.0000 </r>
       <r>   -1.7681    1.0000 </r>
       <r>    4.0827    1.0000 </r>
       <r>    5.4469    1.0000 </r>
       <r>   16.5056    0.0000 </r>
       <r>   21.3826    0.0000 </r>
       <r>   21.9313    0.0000 </r>
       <r>   23.1190    0.0000 </r>
      </set>
      <set comment="kpoint 20">
       <r>   -5.3423    1.0000 </r>
       <r>   -2.4263    1.0000 </r>
       <r>    3.4086    1.0000 </r>
       <r>    5.9462    1.0000 </r>
       <r>   17.0781    0.0000 </r>
       <r>   20.6988    0.0000 </r>
       <r>   21.9052    0.0000 </r>
       <r>   25.1037    0.0000 </r>
      </set>
      <set comment="kpoint 21">
       <r>   -7.1776    1.0000 </r>
       <r>    0.0922    1.0000 </r>
       <r>    3.1863    1.0000 </r>
       <r>    6.7983    1.0000 </r>
       <r>   17.8173    0.0000 </r>
       <r>   19.6763    0.0000 </r>
       <r>   21.5919    0.0000 </r>
       <r>   24.3300    0.0000 </r>
      </set>
      <set comment="kpoint 22">
       <r>   -8.8286    1.0000 </r>
       <r>    2.8063    1.0000 </r>
       <r>    3.7728    1.0000 </r>
       <r>    7.8110    1.0000 </r>
       <r>   18.3258    0.0000 </r>
       <r>   18.4263    0.0000 </r>
       <r>   20.3461    0.0000 </r>
       <r>   23.5488    0.0000 </r>
      </set>
      <set comment="kpoint 23">
       <r>   -8.4596    1.0000 </r>
       <r>    3.7145    1.0000 </r>
       <r>    4.8936    1.0000 </r>
       <r>    4.8936    1.0000 </r>
       <r>   14.0563    0.0000 </r>
       <r>   18.5143    0.0000 </r>
       <r>   22.9609    0.0000 </r>
       <r>   22.9609    0.0000 </r>
      </set>
      <set comment="kpoint 24">
       <r>   -7.1358    1.0000 </r>
       <r>    1.7313    1.0000 </r>
       <r>    3.7932    1.0000 </r>
       <r>    4.4204    1.0000 </r>
       <r>   14.6155    0.0000 </r>
       <r>   17.8499    0.0000 </r>
       <r>   23.9527    0.0000 </r>
       <r>   24.0136    0.0000 </r>
      </set>
      <set comment="kpoint 25">
       <r>   -5.3858    1.0000 </r>
       <r>   -0.4593    1.0000 </r>
       <r>    2.2517    1.0000 </r>
       <r>    4.4167    1.0000 </r>
       <r>   15.3817    0.0000 </r>
       <r>   19.3940    0.0000 </r>
       <r>   23.9304    0.0000 </r>
       <r>   24.3986    0.0000 </r>
      </set>
      <set comment="kpoint 26">
       <r>   -4.0258    1.0000 </r>
       <r>   -1.9017    1.0000 </r>
       <r>    1.0992    1.0000 </r>
       <r>    4.8786    1.0000 </r>
       <r>   15.9621    0.0000 </r>
       <r>   22.4378    0.0000 </r>
       <r>   23.0870    0.0000 </r>
       <r>   24.4811    0.0000 </r>
      </set>
      <set comment="kpoint 27">
       <r>   -5.4695    1.0000 </r>
       <r>   -0.3670    1.0000 </r>
       <r>    0.8993    1.0000 </r>
       <r>    5.7347    1.0000 </r>
       <r>   16.8064    0.0000 </r>
       <r>   21.5803    0.0000 </r>
       <r>   23.9995    0.0000 </r>
       <r>   24.3989    0.0000 </r>
      </set>
      <set comment="kpoint 28">
       <r>   -5.9985    1.0000 </r>
       <r>    0.3475    1.0000 </r>
       <r>    3.8350    1.0000 </r>
       <r>    3.8350    1.0000 </r>
       <r>   13.9903    0.0000 </r>
       <r>   16.0328    0.0000 </r>
       <r>   25.5623    0.0000 </r>
       <r>   25.5623    0.0000 </r>
      </set>
      <set comment="kpoint 29">
       <r>   -4.4123    1.0000 </r>
       <r>   -1.2915    1.0000 </r>
       <r>    2.7205    1.0000 </r>
       <r>    3.7181    1.0000 </r>
       <r>   14.6629    0.0000 </r>
       <r>   16.1349    0.0000 </r>
       <r>   25.9397    0.0000 </r>
       <r>   26.1305    0.0000 </r>
      </set>
      <set comment="kpoint 30">
       <r>   -2.9413    1.0000 </r>
       <r>   -2.3328    1.0000 </r>
       <r>    0.9836    1.0000 </r>
       <r>    4.0836    1.0000 </r>
       <r>   15.1746    0.0000 </r>
       <r>   18.8371    0.0000 </r>
       <r>   25.0303    0.0000 </r>
       <r>   25.8845    0.0000 </r>
      </set>
      <set comment="kpoint 31">
       <r>   -2.9960    1.0000 </r>
       <r>   -2.9960    1.0000 </r>
       <r>    3.4744    1.0000 </r>
       <r>    3.4744    1.0000 </r>
       <r>   14.5794    0.0000 </r>
       <r>   14.5794    0.0000 </r>
       <r>   26.6972    0.0000 </r>
       <r>   26.6972    0.0000 </r>
      </set>
      <set comment="kpoint 32">
       <r>   -9.9065    1.0000 </r>
       <r>    4.7552    1.0000 </r>
       <r>    5.5626    1.0000 </r>
       <r>    7.8978    1.0000 </r>
       <r>   15.9599    0.0000 </r>
       <r>   19.2480    0.0000 </r>
       <r>   19.8374    0.0000 </r>
       <r>   22.5056    0.0000 </r>
      </set>
      <set comment="kpoint 33">
       <r>   -8.5606    1.0000 </r>
       <r>    1.9173    1.0000 </r>
       <r>    4.6902    1.0000 </r>
       <r>    6.9994    1.0000 </r>
       <r>   17.0897    0.0000 </r>
       <r>   19.4221    0.0000 </r>
       <r>   21.0856    0.0000 </r>
       <r>   22.5711    0.0000 </r>
      </set>
      <set comment="kpoint 34">
       <r>   -6.7674    1.0000 </r>
       <r>   -1.0615    1.0000 </r>
       <r>    4.4528    1.0000 </r>
       <r>    6.1279    1.0000 </r>
       <r>   17.8310    0.0000 </r>
       <r>   19.1619    0.0000 </r>
       <r>   21.6338    0.0000 </r>
       <r>   23.9923    0.0000 </r>
      </set>
      <set comment="kpoint 35">
       <r>   -5.2849    1.0000 </r>
       <r>   -2.9622    1.0000 </r>
       <r>    4.4468    1.0000 </r>
       <r>    5.7422    1.0000 </r>
       <r>   18.0207    0.0000 </r>
       <r>   19.0163    0.0000 </r>
       <r>   21.7935    0.0000 </r>
       <r>   25.1421    0.0000 </r>
      </set>
      <set comment="kpoint 36">
       <r>   -8.1094    1.0000 </r>
       <r>    2.7158    1.0000 </r>
       <r>    3.9669    1.0000 </r>
       <r>    5.4496    1.0000 </r>
       <r>   15.5292    0.0000 </r>
       <r>   19.6093    0.0000 </r>
       <r>   21.6784    0.0000 </r>
       <r>   22.9901    0.0000 </r>
      </set>
      <set comment="kpoint 37">
       <r>   -6.4741    1.0000 </r>
       <r>    0.3681    1.0000 </r>
       <r>    3.0802    1.0000 </r>
       <r>    4.6054    1.0000 </r>
       <r>   16.6667    0.0000 </r>
       <r>   20.1253    0.0000 </r>
       <r>   21.6727    0.0000 </r>
       <r>   24.0760    0.0000 </r>
      </set>
      <set comment="kpoint 38">
       <r>   -4.6769    1.0000 </r>
       <r>   -1.9089    1.0000 </r>
       <r>    2.4358    1.0000 </r>
       <r>    4.4393    1.0000 </r>
       <r>   17.2781    0.0000 </r>
       <r>   20.8611    0.0000 </r>
       <r>   22.8102    0.0000 </r>
       <r>   24.2449    0.0000 </r>
      </set>
      <set comment="kpoint 39">
       <r>   -5.2540    1.0000 </r>
       <r>   -1.1822    1.0000 </r>
       <r>    1.9659    1.0000 </r>
       <r>    5.0148    1.0000 </r>
       <r>   17.9219    0.0000 </r>
       <r>   20.1694    0.0000 </r>
       <r>   23.3575    0.0000 </r>
       <r>   24.4103    0.0000 </r>
      </set>
      <set comment="kpoint 40">
       <r>   -7.0810    1.0000 </r>
       <r>    1.1046    1.0000 </r>
       <r>    2.2715    1.0000 </r>
       <r>    6.0031    1.0000 </r>
       <r>   18.7146    0.0000 </r>
       <r>   18.7684    0.0000 </r>
       <r>   22.4799    0.0000 </r>
       <r>   23.1638    0.0000 </r>
      </set>
      <set comment="kpoint 41">
       <r>   -5.6803    1.0000 </r>
       <r>    0.2567    1.0000 </r>
       <r>    2.9866    1.0000 </r>
       <r>    3.4804    1.0000 </r>
       <r>   15.4617    0.0000 </r>
       <r>   17.3331    0.0000 </r>
       <r>   24.1473    0.0000 </r>
       <r>   25.5042    0.0000 </r>
      </set>
      <set comment="kpoint 42">
       <r>   -3.9033    1.0000 </r>
       <r>   -1.2883    1.0000 </r>
       <r>    1.4190    1.0000 </r>
       <r>    3.3565    1.0000 </r>
       <r>   16.4333    0.0000 </r>
       <r>   19.0822    0.0000 </r>
       <r>   23.7920    0.0000 </r>
       <r>   25.3883    0.0000 </r>
      </set>
      <set comment="kpoint 43">
       <r>   -3.6050    1.0000 </r>
       <r>   -1.4610    1.0000 </r>
       <r>    0.4419    1.0000 </r>
       <r>    3.9756    1.0000 </r>
       <r>   17.0556    0.0000 </r>
       <r>   22.1450    0.0000 </r>
       <r>   22.8434    0.0000 </r>
       <r>   24.1703    0.0000 </r>
      </set>
      <set comment="kpoint 44">
       <r>   -2.7693    1.0000 </r>
       <r>   -2.7693    1.0000 </r>
       <r>    2.7612    1.0000 </r>
       <r>    2.7612    1.0000 </r>
       <r>   15.9971    0.0000 </r>
       <r>   15.9971    0.0000 </r>
       <r>   25.9234    0.0000 </r>
       <r>   25.9234    0.0000 </r>
      </set>
      <set comment="kpoint 45">
       <r>   -4.7839    1.0000 </r>
       <r>   -0.3848    1.0000 </r>
       <r>    1.4443    1.0000 </r>
       <r>    3.3904    1.0000 </r>
       <r>   18.7959    0.0000 </r>
       <r>   19.6880    0.0000 </r>
       <r>   21.6306    0.0000 </r>
       <r>   24.9756    0.0000 </r>
      </set>
      <set comment="kpoint 46">
       <r>   -3.4074    1.0000 </r>
       <r>   -1.5987    1.0000 </r>
       <r>    1.1298    1.0000 </r>
       <r>    2.8057    1.0000 </r>
       <r>   19.2827    0.0000 </r>
       <r>   20.4044    0.0000 </r>
       <r>   22.8859    0.0000 </r>
       <r>   23.1129    0.0000 </r>
      </set>
      <set comment="kpoint 47">
       <r>   -2.2979    1.0000 </r>
       <r>   -2.2979    1.0000 </r>
       <r>    1.6372    1.0000 </r>
       <r>    1.6372    1.0000 </r>
       <r>   19.2147    0.0000 </r>
       <r>   19.2147    0.0000 </r>
       <r>   23.3685    0.0000 </r>
       <r>   23.3685    0.0000 </r>
      </set>
     </set>
    </set>
   </array>
  </eigenvalues>
  <separator name="orbital magnetization" >
   <v name="MAGDIPOLOUT">      0.00000000      0.00000000      0.00000000</v>
  </separator>
  <dos>
   <i name="efermi">     10.58955891 </i>
   <total>
    <array>
     <dimension dim="1">gridpoints</dimension>
     <dimension dim="2">spin</dimension>
     <field>energy</field>
     <field>total</field>
     <field>integrated</field>
     <set>
      <set comment="spin 1">
       <r>   -13.7432     0.0000     0.0000 </r>
       <r>   -13.6018     0.0000     0.0000 </r>
       <r>   -13.4603     0.0000     0.0000 </r>
       <r>   -13.3188     0.0000     0.0000 </r>
       <r>   -13.1774     0.0000     0.0000 </r>
       <r>   -13.0359     0.0000     0.0000 </r>
       <r>   -12.8944     0.0000     0.0000 </r>
       <r>   -12.7530     0.0000     0.0000 </r>
       <r>   -12.6115     0.0000     0.0000 </r>
       <r>   -12.4700     0.0000     0.0000 </r>
       <r>   -12.3286     0.0000     0.0000 </r>
       <r>   -12.1871     0.0000     0.0000 </r>
       <r>   -12.0456     0.0002     0.0000 </r>
       <r>   -11.9042     0.0017     0.0003 </r>
       <r>   -11.7627     0.0066     0.0012 </r>
       <r>   -11.6212     0.0215     0.0043 </r>
       <r>   -11.4798     0.0548     0.0120 </r>
       <r>   -11.3383     0.0737     0.0224 </r>
       <r>   -11.1968     0.0561     0.0304 </r>
       <r>   -11.0554     0.0607     0.0390 </r>
       <r>   -10.9139     0.0969     0.0527 </r>
       <r>   -10.7724     0.1482     0.0736 </r>
       <r>   -10.6309     0.1755     0.0985 </r>
       <r>   -10.4895     0.1110     0.1142 </r>
       <r>   -10.3480     0.0507     0.1213 </r>
       <r>   -10.2065     0.0629     0.1302 </r>
       <r>   -10.0651     0.1447     0.1507 </r>
       <r>    -9.9236     0.2456     0.1855 </r>
       <r>    -9.7821     0.2169     0.2161 </r>
       <r>    -9.6407     0.1448     0.2366 </r>
       <r>    -9.4992     0.1623     0.2596 </r>
       <r>    -9.3577     0.1948     0.2871 </r>
       <r>    -9.2163     0.2008     0.3156 </r>
       <r>    -9.0748     0.1291     0.3338 </r>
       <r>    -8.9333     0.0680     0.3434 </r>
       <r>    -8.7919     0.1036     0.3581 </r>
       <r>    -8.6504     0.2338     0.3912 </r>
       <r>    -8.5089     0.4001     0.4478 </r>
       <r>    -8.3675     0.3543     0.4979 </r>
       <r>    -8.2260     0.1910     0.5249 </r>
       <r>    -8.0845     0.1690     0.5488 </r>
       <r>    -7.9431     0.2188     0.5798 </r>
       <r>    -7.8016     0.2662     0.6174 </r>
       <r>    -7.6601     0.2227     0.6489 </r>
       <r>    -7.5186     0.1188     0.6657 </r>
       <r>    -7.3772     0.1018     0.6801 </r>
       <r>    -7.2357     0.2222     0.7116 </r>
       <r>    -7.0942     0.3801     0.7654 </r>
       <r>    -6.9528     0.3524     0.8152 </r>
       <r>    -6.8113     0.3120     0.8593 </r>
       <r>    -6.6698     0.3904     0.9146 </r>
       <r>    -6.5284     0.4462     0.9777 </r>
       <r>    -6.3869     0.3818     1.0317 </r>
       <r>    -6.2454     0.1937     1.0591 </r>
       <r>    -6.1040     0.1398     1.0789 </r>
       <r>    -5.9625     0.2670     1.1167 </r>
       <r>    -5.8210     0.3265     1.1629 </r>
       <r>    -5.6796     0.2701     1.2011 </r>
       <r>    -5.5381     0.2771     1.2403 </r>
       <r>    -5.3966     0.4669     1.3063 </r>
       <r>    -5.2552     0.6525     1.3986 </r>
       <r>    -5.1137     0.4743     1.4657 </r>
       <r>    -4.9722     0.1926     1.4930 </r>
       <r>    -4.8308     0.1977     1.5210 </r>
       <r>    -4.6893     0.3593     1.5718 </r>
       <r>    -4.5478     0.3585     1.6225 </r>
       <r>    -4.4063     0.2378     1.6561 </r>
       <r>    -4.2649     0.1501     1.6774 </r>
       <r>    -4.1234     0.1494     1.6985 </r>
       <r>    -3.9819     0.2916     1.7398 </r>
       <r>    -3.8405     0.3748     1.7928 </r>
       <r>    -3.6990     0.2907     1.8339 </r>
       <r>    -3.5575     0.2413     1.8681 </r>
       <r>    -3.4161     0.2285     1.9004 </r>
       <r>    -3.2746     0.1830     1.9263 </r>
       <r>    -3.1331     0.2047     1.9552 </r>
       <r>    -2.9917     0.3346     2.0026 </r>
       <r>    -2.8502     0.3692     2.0548 </r>
       <r>    -2.7087     0.2634     2.0920 </r>
       <r>    -2.5673     0.1903     2.1190 </r>
       <r>    -2.4258     0.3043     2.1620 </r>
       <r>    -2.2843     0.4363     2.2237 </r>
       <r>    -2.1429     0.3374     2.2715 </r>
       <r>    -2.0014     0.3093     2.3152 </r>
       <r>    -1.8599     0.4838     2.3837 </r>
       <r>    -1.7184     0.5095     2.4557 </r>
       <r>    -1.5770     0.4231     2.5156 </r>
       <r>    -1.4355     0.4520     2.5795 </r>
       <r>    -1.2940     0.6460     2.6709 </r>
       <r>    -1.1526     0.7863     2.7822 </r>
       <r>    -1.0111     0.6134     2.8689 </r>
       <r>    -0.8696     0.2783     2.9083 </r>
       <r>    -0.7282     0.0863     2.9205 </r>
       <r>    -0.5867     0.1492     2.9416 </r>
       <r>    -0.4452     0.3710     2.9941 </r>
       <r>    -0.3038     0.4114     3.0523 </r>
       <r>    -0.1623     0.2075     3.0817 </r>
       <r>    -0.0208     0.1100     3.0972 </r>
       <r>     0.1206     0.2100     3.1269 </r>
       <r>     0.2621     0.4015     3.1837 </r>
       <r>     0.4036     0.5641     3.2635 </r>
       <r>     0.5450     0.5007     3.3344 </r>
       <r>     0.6865     0.2875     3.3750 </r>
       <r>     0.8280     0.2081     3.4045 </r>
       <r>     0.9694     0.3837     3.4588 </r>
       <r>     1.1109     0.5818     3.5411 </r>
       <r>     1.2524     0.5387     3.6173 </r>
       <r>     1.3939     0.4950     3.6873 </r>
       <r>     1.5353     0.5360     3.7631 </r>
       <r>     1.6768     0.4801     3.8311 </r>
       <r>     1.8183     0.4959     3.9012 </r>
       <r>     1.9597     0.6007     3.9862 </r>
       <r>     2.1012     0.5321     4.0615 </r>
       <r>     2.2427     0.4262     4.1218 </r>
       <r>     2.3841     0.4608     4.1870 </r>
       <r>     2.5256     0.4680     4.2532 </r>
       <r>     2.6671     0.5738     4.3343 </r>
       <r>     2.8085     0.7742     4.4439 </r>
       <r>     2.9500     0.7155     4.5451 </r>
       <r>     3.0915     0.6136     4.6319 </r>
       <r>     3.2329     0.6298     4.7210 </r>
       <r>     3.3744     0.7289     4.8241 </r>
       <r>     3.5159     0.7112     4.9247 </r>
       <r>     3.6573     0.5620     5.0042 </r>
       <r>     3.7988     0.6656     5.0984 </r>
       <r>     3.9403     0.8447     5.2179 </r>
       <r>     4.0817     0.7530     5.3244 </r>
       <r>     4.2232     0.5289     5.3992 </r>
       <r>     4.3647     0.7045     5.4989 </r>
       <r>     4.5062     1.1259     5.6582 </r>
       <r>     4.6476     1.1260     5.8175 </r>
       <r>     4.7891     0.8895     5.9433 </r>
       <r>     4.9306     0.7328     6.0469 </r>
       <r>     5.0720     0.6211     6.1348 </r>
       <r>     5.2135     0.4265     6.1951 </r>
       <r>     5.3550     0.3766     6.2484 </r>
       <r>     5.4964     0.5164     6.3215 </r>
       <r>     5.6379     0.5883     6.4047 </r>
       <r>     5.7794     0.7059     6.5046 </r>
       <r>     5.9208     0.8733     6.6281 </r>
       <r>     6.0623     0.9761     6.7662 </r>
       <r>     6.2038     0.8513     6.8866 </r>
       <r>     6.3452     0.5685     6.9671 </r>
       <r>     6.4867     0.5064     7.0387 </r>
       <r>     6.6282     0.5363     7.1146 </r>
       <r>     6.7696     0.6113     7.2010 </r>
       <r>     6.9111     0.7545     7.3078 </r>
       <r>     7.0526     0.6887     7.4052 </r>
       <r>     7.1940     0.4017     7.4620 </r>
       <r>     7.3355     0.1941     7.4895 </r>
       <r>     7.4770     0.2530     7.5253 </r>
       <r>     7.6185     0.4844     7.5938 </r>
       <r>     7.7599     0.5409     7.6703 </r>
       <r>     7.9014     0.3783     7.7239 </r>
       <r>     8.0429     0.2112     7.7537 </r>
       <r>     8.1843     0.1114     7.7695 </r>
       <r>     8.3258     0.1321     7.7882 </r>
       <r>     8.4673     0.2991     7.8305 </r>
       <r>     8.6087     0.3876     7.8853 </r>
       <r>     8.7502     0.2322     7.9182 </r>
       <r>     8.8917     0.0812     7.9297 </r>
       <r>     9.0331     0.0433     7.9358 </r>
       <r>     9.1746     0.0571     7.9439 </r>
       <r>     9.3161     0.1238     7.9614 </r>
       <r>     9.4575     0.1457     7.9820 </r>
       <r>     9.5990     0.0731     7.9923 </r>
       <r>     9.7405     0.0242     7.9958 </r>
       <r>     9.8819     0.0173     7.9982 </r>
       <r>    10.0234     0.0100     7.9996 </r>
       <r>    10.1649     0.0024     8.0000 </r>
       <r>    10.3063     0.0002     8.0000 </r>
       <r>    10.4478     0.0000     8.0000 </r>
       <r>    10.5893     0.0000     8.0000 </r>
       <r>    10.7308     0.0000     8.0000 </r>
       <r>    10.8722     0.0000     8.0000 </r>
       <r>    11.0137     0.0000     8.0000 </r>
       <r>    11.1552     0.0000     8.0000 </r>
       <r>    11.2966     0.0000     8.0000 </r>
       <r>    11.4381     0.0000     8.0000 </r>
       <r>    11.5796     0.0000     8.0000 </r>
       <r>    11.7210     0.0000     8.0000 </r>
       <r>    11.8625     0.0000     8.0000 </r>
       <r>    12.0040     0.0000     8.0000 </r>
       <r>    12.1454     0.0000     8.0000 </r>
       <r>    12.2869     0.0000     8.0000 </r>
       <r>    12.4284     0.0000     8.0000 </r>
       <r>    12.5698     0.0000     8.0000 </r>
       <r>    12.7113     0.0000     8.0000 </r>
       <r>    12.8528     0.0000     8.0000 </r>
       <r>    12.9942     0.0000     8.0000 </r>
       <r>    13.1357     0.0000     8.0000 </r>
       <r>    13.2772     0.0000     8.0000 </r>
       <r>    13.4186     0.0000     8.0000 </r>
       <r>    13.5601     0.0001     8.0000 </r>
       <r>    13.7016     0.0021     8.0003 </r>
       <r>    13.8431     0.0160     8.0026 </r>
       <r>    13.9845     0.0488     8.0095 </r>
       <r>    14.1260     0.0623     8.0183 </r>
       <r>    14.2675     0.0390     8.0238 </r>
       <r>    14.4089     0.0612     8.0325 </r>
       <r>    14.5504     0.2013     8.0609 </r>
       <r>    14.6919     0.3218     8.1065 </r>
       <r>    14.8333     0.2567     8.1428 </r>
       <r>    14.9748     0.1952     8.1704 </r>
       <r>    15.1163     0.2072     8.1997 </r>
       <r>    15.2577     0.2379     8.2334 </r>
       <r>    15.3992     0.3679     8.2854 </r>
       <r>    15.5407     0.4925     8.3551 </r>
       <r>    15.6821     0.3955     8.4110 </r>
       <r>    15.8236     0.3504     8.4606 </r>
       <r>    15.9651     0.6169     8.5479 </r>
       <r>    16.1065     0.7305     8.6512 </r>
       <r>    16.2480     0.5230     8.7252 </r>
       <r>    16.3895     0.4659     8.7911 </r>
       <r>    16.5309     0.6178     8.8785 </r>
       <r>    16.6724     0.6508     8.9706 </r>
       <r>    16.8139     0.5034     9.0418 </r>
       <r>    16.9554     0.5036     9.1130 </r>
       <r>    17.0968     0.8498     9.2333 </r>
       <r>    17.2383     1.0832     9.3865 </r>
       <r>    17.3798     0.8862     9.5119 </r>
       <r>    17.5212     0.5154     9.5848 </r>
       <r>    17.6627     0.4321     9.6459 </r>
       <r>    17.8042     0.7653     9.7542 </r>
       <r>    17.9456     1.0489     9.9026 </r>
       <r>    18.0871     0.9735    10.0403 </r>
       <r>    18.2286     0.9411    10.1734 </r>
       <r>    18.3700     0.9907    10.3136 </r>
       <r>    18.5115     0.8375    10.4321 </r>
       <r>    18.6530     0.6946    10.5303 </r>
       <r>    18.7944     0.7401    10.6350 </r>
       <r>    18.9359     0.7666    10.7435 </r>
       <r>    19.0774     1.0070    10.8859 </r>
       <r>    19.2188     1.4563    11.0919 </r>
       <r>    19.3603     1.5141    11.3061 </r>
       <r>    19.5018     1.2806    11.4873 </r>
       <r>    19.6432     1.1000    11.6429 </r>
       <r>    19.7847     0.8535    11.7637 </r>
       <r>    19.9262     0.5412    11.8402 </r>
       <r>    20.0677     0.4856    11.9089 </r>
       <r>    20.2091     0.5987    11.9936 </r>
       <r>    20.3506     0.5083    12.0655 </r>
       <r>    20.4921     0.3486    12.1148 </r>
       <r>    20.6335     0.3372    12.1625 </r>
       <r>    20.7750     0.4329    12.2238 </r>
       <r>    20.9165     0.5252    12.2981 </r>
       <r>    21.0579     0.6656    12.3922 </r>
       <r>    21.1994     0.7133    12.4932 </r>
       <r>    21.3409     0.5196    12.5667 </r>
       <r>    21.4823     0.5760    12.6481 </r>
       <r>    21.6238     1.1132    12.8056 </r>
       <r>    21.7653     1.3745    13.0001 </r>
       <r>    21.9067     0.9546    13.1351 </r>
       <r>    22.0482     0.4964    13.2054 </r>
       <r>    22.1897     0.2795    13.2449 </r>
       <r>    22.3311     0.2815    13.2847 </r>
       <r>    22.4726     0.5124    13.3572 </r>
       <r>    22.6141     0.6817    13.4536 </r>
       <r>    22.7555     0.6755    13.5492 </r>
       <r>    22.8970     0.7787    13.6594 </r>
       <r>    23.0385     0.8850    13.7846 </r>
       <r>    23.1800     0.9266    13.9157 </r>
       <r>    23.3214     0.9220    14.0461 </r>
       <r>    23.4629     0.8200    14.1621 </r>
       <r>    23.6044     0.5860    14.2450 </r>
       <r>    23.7458     0.5460    14.3222 </r>
       <r>    23.8873     0.8993    14.4495 </r>
       <r>    24.0288     1.3320    14.6379 </r>
       <r>    24.1702     1.4221    14.8391 </r>
       <r>    24.3117     1.3156    15.0252 </r>
       <r>    24.4532     1.1504    15.1879 </r>
       <r>    24.5946     0.7416    15.2929 </r>
       <r>    24.7361     0.3331    15.3400 </r>
       <r>    24.8776     0.2258    15.3719 </r>
       <r>    25.0190     0.3734    15.4247 </r>
       <r>    25.1605     0.5097    15.4969 </r>
       <r>    25.3020     0.6081    15.5829 </r>
       <r>    25.4434     0.7475    15.6886 </r>
       <r>    25.5849     0.6161    15.7758 </r>
       <r>    25.7264     0.3249    15.8217 </r>
       <r>    25.8678     0.2911    15.8629 </r>
       <r>    26.0093     0.3812    15.9168 </r>
       <r>    26.1508     0.3063    15.9602 </r>
       <r>    26.2923     0.1499    15.9814 </r>
       <r>    26.4337     0.0438    15.9876 </r>
       <r>    26.5752     0.0191    15.9903 </r>
       <r>    26.7167     0.0309    15.9947 </r>
       <r>    26.8581     0.0270    15.9985 </r>
       <r>    26.9996     0.0094    15.9998 </r>
       <r>    27.1411     0.0013    16.0000 </r>
       <r>    27.2825     0.0001    16.0000 </r>
       <r>    27.4240     0.0000    16.0000 </r>
       <r>    27.5655     0.0000    16.0000 </r>
       <r>    27.7069     0.0000    16.0000 </r>
       <r>    27.8484     0.0000    16.0000 </r>
       <r>    27.9899     0.0000    16.0000 </r>
       <r>    28.1313     0.0000    16.0000 </r>
       <r>    28.2728     0.0000    16.0000 </r>
       <r>    28.4143     0.0000    16.0000 </r>
       <r>    28.5557     0.0000    16.0000 </r>
       <r>    28.6972     0.0000    16.0000 </r>
      </set>
     </set>
    </array>
   </total>
  </dos>
 </calculation>
 <structure name="finalpos" >
  <crystal>
   <varray name="basis" >
    <v>       2.51730013       0.00000000       0.00000000 </v>
    <v>       1.25865006       2.18004586       0.00000000 </v>
    <v>       1.25865006       0.72668195       2.05536695 </v>
   </varray>
   <i name="volume">     11.27950384 </i>
   <varray name="rec_basis" >
    <v>       0.39725100      -0.22935297      -0.16217704 </v>
    <v>       0.00000000       0.45870595      -0.16217704 </v>
    <v>       0.00000000       0.00000000       0.48653113 </v>
   </varray>
  </crystal>
  <varray name="positions" >
   <v>       0.25000000       0.25000000       0.25000000 </v>
   <v>       0.00000000       0.00000000       0.00000000 </v>
  </varray>
 </structure>
</modeling>
