generated by phonopy
   1.0
     7.5809874460003215    0.0000000000006672    0.0000000000004716
     3.7904937231513163    6.5653277140765844   -0.0000000000001728
     3.7904937231513163    2.1884425712583138    6.1898503296675074
C
  54
Direct
  0.0833333333333333  0.0833333333333333  0.0833333333333333
  0.4166666666666666  0.0833333333333333  0.0833333333333333
  0.7500000000000000  0.0833333333333333  0.0833333333333333
  0.0833333333333333  0.4166666666666666  0.0833333333333333
  0.4166666666666666  0.4166666666666666  0.0833333333333333
  0.7500000000000000  0.4166666666666666  0.0833333333333333
  0.0833333333333333  0.7500000000000000  0.0833333333333333
  0.4166666666666666  0.7500000000000000  0.0833333333333333
  0.7500000000000000  0.7500000000000000  0.0833333333333333
  0.0833333333333333  0.0833333333333333  0.4166666666666666
  0.4166666666666666  0.0833333333333333  0.4166666666666666
  0.7500000000000000  0.0833333333333333  0.4166666666666666
  0.0833333333333333  0.4166666666666666  0.4166666666666666
  0.4166666666666666  0.4166666666666666  0.4166666666666666
  0.7500000000000000  0.4166666666666666  0.4166666666666666
  0.0833333333333333  0.7500000000000000  0.4166666666666666
  0.4166666666666666  0.7500000000000000  0.4166666666666666
  0.7500000000000000  0.7500000000000000  0.4166666666666666
  0.0833333333333333  0.0833333333333333  0.7500000000000000
  0.4166666666666666  0.0833333333333333  0.7500000000000000
  0.7500000000000000  0.0833333333333333  0.7500000000000000
  0.0833333333333333  0.4166666666666666  0.7500000000000000
  0.4166666666666666  0.4166666666666666  0.7500000000000000
  0.7500000000000000  0.4166666666666666  0.7500000000000000
  0.0833333333333333  0.7500000000000000  0.7500000000000000
  0.4166666666666666  0.7500000000000000  0.7500000000000000
  0.7500000000000000  0.7500000000000000  0.7500000000000000
  0.0000000000000000  0.0000000000000000  0.0000000000000000
  0.3333333333333333  0.0000000000000000  0.0000000000000000
  0.6666666666666666  0.0000000000000000  0.0000000000000000
  0.0000000000000000  0.3333333333333333  0.0000000000000000
  0.3333333333333333  0.3333333333333333  0.0000000000000000
  0.6666666666666666  0.3333333333333333  0.0000000000000000
  0.0000000000000000  0.6666666666666666  0.0000000000000000
  0.3333333333333333  0.6666666666666666  0.0000000000000000
  0.6666666666666666  0.6666666666666666  0.0000000000000000
  0.0000000000000000  0.0000000000000000  0.3333333333333333
  0.3333333333333333  0.0000000000000000  0.3333333333333333
  0.6666666666666666  0.0000000000000000  0.3333333333333333
  0.0000000000000000  0.3333333333333333  0.3333333333333333
  0.3333333333333333  0.3333333333333333  0.3333333333333333
  0.6666666666666666  0.3333333333333333  0.3333333333333333
  0.0000000000000000  0.6666666666666666  0.3333333333333333
  0.3333333333333333  0.6666666666666666  0.3333333333333333
  0.6666666666666666  0.6666666666666666  0.3333333333333333
  0.0000000000000000  0.0000000000000000  0.6666666666666666
  0.3333333333333333  0.0000000000000000  0.6666666666666666
  0.6666666666666666  0.0000000000000000  0.6666666666666666
  0.0000000000000000  0.3333333333333333  0.6666666666666666
  0.3333333333333333  0.3333333333333333  0.6666666666666666
  0.6666666666666666  0.3333333333333333  0.6666666666666666
  0.0000000000000000  0.6666666666666666  0.6666666666666666
  0.3333333333333333  0.6666666666666666  0.6666666666666666
  0.6666666666666666  0.6666666666666666  0.6666666666666666
