   2   2   0   0
  0.5639752E+01  0.2517300E-09  0.2517300E-09  0.2517300E-09  0.5000000E-15
  1.000000000000000E-004
  CAR 
 unknown system                          
     28.27133416    -13.65877146  301      9.68668839      1.00000000
    -13.659  0.0000E+00  0.0000E+00
    -13.519  0.0000E+00  0.0000E+00
    -13.379  0.0000E+00  0.0000E+00
    -13.239  0.0000E+00  0.0000E+00
    -13.100  0.0000E+00  0.0000E+00
    -12.960  0.0000E+00  0.0000E+00
    -12.820  0.0000E+00  0.0000E+00
    -12.680  0.0000E+00  0.0000E+00
    -12.541  0.0000E+00  0.0000E+00
    -12.401  0.0000E+00  0.0000E+00
    -12.261  0.0000E+00  0.0000E+00
    -12.121  0.0000E+00  0.0000E+00
    -11.982  0.0000E+00  0.0000E+00
    -11.842  0.0000E+00  0.0000E+00
    -11.702  0.0000E+00  0.6667E-04
    -11.562  0.0000E+00  0.6667E-04
    -11.422  0.0000E+00  0.6000E-03
    -11.283  0.0000E+00  0.1000E-02
    -11.143  0.0000E+00  0.1000E-02
    -11.003  0.5724E-02  0.1800E-02
    -10.863  0.0000E+00  0.1800E-02
    -10.724  0.1145E-01  0.3400E-02
    -10.584  0.0000E+00  0.3933E-02
    -10.444  0.0000E+00  0.3933E-02
    -10.304  0.1077E-06  0.3933E-02
    -10.165  0.0000E+00  0.4333E-02
    -10.025  0.1805E-02  0.4586E-02
     -9.885  0.0000E+00  0.7533E-02
     -9.745  0.0000E+00  0.7533E-02
     -9.606  0.0000E+00  0.7533E-02
     -9.466  0.0000E+00  0.9133E-02
     -9.326  0.1390E-09  0.9133E-02
     -9.186  0.0000E+00  0.1127E-01
     -9.046  0.0000E+00  0.1127E-01
     -8.907  0.0000E+00  0.1127E-01
     -8.767  0.0000E+00  0.1207E-01
     -8.627  0.0000E+00  0.1207E-01
     -8.487  0.1423E-01  0.1726E-01
     -8.348  0.0000E+00  0.1727E-01
     -8.208  0.0000E+00  0.1727E-01
     -8.068  0.0000E+00  0.1887E-01
     -7.928  0.8187E-08  0.1887E-01
     -7.789  0.1145E-01  0.2207E-01
     -7.649  0.0000E+00  0.2207E-01
     -7.509  0.7318E-03  0.2217E-01
     -7.369  0.0000E+00  0.2260E-01
     -7.229  0.1058E-02  0.2275E-01
     -7.090  0.1145E-01  0.2740E-01
     -6.950  0.0000E+00  0.2740E-01
     -6.810  0.2279E-01  0.3058E-01
     -6.670  0.0000E+00  0.3060E-01
     -6.531  0.2897E-02  0.3260E-01
     -6.391  0.0000E+00  0.3540E-01
     -6.251  0.0000E+00  0.3540E-01
     -6.111  0.0000E+00  0.3540E-01
     -5.972  0.1908E-02  0.3767E-01
     -5.832  0.0000E+00  0.3927E-01
     -5.692  0.0000E+00  0.4087E-01
     -5.552  0.7332E-09  0.4087E-01
     -5.413  0.1986E-01  0.4444E-01
     -5.273  0.0000E+00  0.4967E-01
     -5.133  0.0000E+00  0.4967E-01
     -4.993  0.0000E+00  0.4967E-01
     -4.853  0.5783E-02  0.5047E-01
     -4.714  0.0000E+00  0.5447E-01
     -4.574  0.0000E+00  0.5447E-01
     -4.434  0.0000E+00  0.5607E-01
     -4.294  0.0000E+00  0.5607E-01
     -4.155  0.0000E+00  0.5607E-01
     -4.015  0.0000E+00  0.5767E-01
     -3.875  0.0000E+00  0.6087E-01
     -3.735  0.0000E+00  0.6087E-01
     -3.596  0.0000E+00  0.6273E-01
     -3.456  0.0000E+00  0.6433E-01
     -3.316  0.0000E+00  0.6433E-01
     -3.176  0.0000E+00  0.6433E-01
     -3.036  0.4258E-02  0.6653E-01
     -2.897  0.0000E+00  0.6873E-01
     -2.757  0.0000E+00  0.7033E-01
     -2.617  0.0000E+00  0.7033E-01
     -2.477  0.8523E-02  0.7152E-01
     -2.338  0.0000E+00  0.7593E-01
     -2.198  0.0000E+00  0.7593E-01
     -2.058  0.0000E+00  0.7593E-01
     -1.918  0.0000E+00  0.8073E-01
     -1.779  0.0000E+00  0.8233E-01
     -1.639  0.0000E+00  0.8447E-01
     -1.499  0.0000E+00  0.8607E-01
     -1.359  0.3434E-01  0.9087E-01
     -1.220  0.2290E-01  0.9407E-01
     -1.080  0.0000E+00  0.9727E-01
     -0.940  0.0000E+00  0.9727E-01
     -0.800  0.0000E+00  0.9727E-01
     -0.660  0.0000E+00  0.9727E-01
     -0.521  0.2290E-01  0.1005E+00
     -0.381  0.0000E+00  0.1029E+00
     -0.241  0.0000E+00  0.1029E+00
     -0.101  0.0000E+00  0.1029E+00
      0.038  0.1145E-01  0.1045E+00
      0.178  0.1145E-01  0.1061E+00
      0.318  0.0000E+00  0.1097E+00
      0.458  0.0000E+00  0.1113E+00
      0.597  0.0000E+00  0.1129E+00
      0.737  0.0000E+00  0.1129E+00
      0.877  0.9543E-05  0.1137E+00
      1.017  0.1158E-01  0.1177E+00
      1.157  0.0000E+00  0.1209E+00
      1.296  0.0000E+00  0.1209E+00
      1.436  0.3816E-02  0.1262E+00
      1.576  0.1036E-01  0.1276E+00
      1.716  0.0000E+00  0.1294E+00
      1.855  0.2290E-01  0.1326E+00
      1.995  0.0000E+00  0.1358E+00
      2.135  0.0000E+00  0.1358E+00
      2.275  0.0000E+00  0.1390E+00
      2.414  0.0000E+00  0.1422E+00
      2.554  0.0000E+00  0.1422E+00
      2.694  0.1560E-01  0.1492E+00
      2.834  0.0000E+00  0.1510E+00
      2.974  0.4337E-03  0.1527E+00
      3.113  0.1145E-01  0.1574E+00
      3.253  0.3161E-06  0.1574E+00
      3.393  0.9151E-02  0.1651E+00
      3.533  0.0000E+00  0.1658E+00
      3.672  0.1211E-02  0.1680E+00
      3.812  0.1162E-13  0.1726E+00
      3.952  0.2458E-08  0.1774E+00
      4.092  0.0000E+00  0.1798E+00
      4.231  0.0000E+00  0.1798E+00
      4.371  0.4579E-01  0.1910E+00
      4.511  0.2261E-01  0.1942E+00
      4.651  0.1145E-01  0.1990E+00
      4.790  0.1915E-01  0.2017E+00
      4.930  0.2290E-01  0.2051E+00
      5.070  0.0000E+00  0.2067E+00
      5.210  0.0000E+00  0.2067E+00
      5.350  0.2290E-01  0.2115E+00
      5.489  0.0000E+00  0.2131E+00
      5.629  0.1401E-01  0.2151E+00
      5.769  0.9296E-02  0.2200E+00
      5.909  0.2289E-01  0.2251E+00
      6.048  0.1145E-01  0.2315E+00
      6.188  0.0000E+00  0.2315E+00
      6.328  0.1058E-10  0.2331E+00
      6.468  0.5724E-02  0.2371E+00
      6.607  0.1145E-01  0.2391E+00
      6.747  0.1717E-01  0.2431E+00
      6.887  0.2671E-01  0.2485E+00
      7.027  0.8344E-04  0.2485E+00
      7.167  0.0000E+00  0.2495E+00
      7.306  0.9249E-14  0.2495E+00
      7.446  0.1116E-02  0.2505E+00
      7.586  0.0000E+00  0.2562E+00
      7.726  0.5211E-16  0.2570E+00
      7.865  0.0000E+00  0.2586E+00
      8.005  0.3816E-02  0.2591E+00
      8.145  0.0000E+00  0.2591E+00
      8.285  0.6355E-17  0.2591E+00
      8.424  0.1234E-01  0.2635E+00
      8.564  0.0000E+00  0.2642E+00
      8.704  0.0000E+00  0.2642E+00
      8.844  0.0000E+00  0.2646E+00
      8.983  0.0000E+00  0.2646E+00
      9.123  0.0000E+00  0.2646E+00
      9.263  0.0000E+00  0.2665E+00
      9.403  0.0000E+00  0.2665E+00
      9.543  0.0000E+00  0.2665E+00
      9.682  0.1431E-02  0.2667E+00
      9.822  0.0000E+00  0.2667E+00
      9.962  0.0000E+00  0.2667E+00
     10.102  0.0000E+00  0.2667E+00
     10.241  0.0000E+00  0.2667E+00
     10.381  0.0000E+00  0.2667E+00
     10.521  0.0000E+00  0.2667E+00
     10.661  0.0000E+00  0.2667E+00
     10.800  0.0000E+00  0.2667E+00
     10.940  0.0000E+00  0.2667E+00
     11.080  0.0000E+00  0.2667E+00
     11.220  0.0000E+00  0.2667E+00
     11.360  0.0000E+00  0.2667E+00
     11.499  0.0000E+00  0.2667E+00
     11.639  0.0000E+00  0.2667E+00
     11.779  0.0000E+00  0.2667E+00
     11.919  0.0000E+00  0.2667E+00
     12.058  0.0000E+00  0.2667E+00
     12.198  0.0000E+00  0.2667E+00
     12.338  0.0000E+00  0.2667E+00
     12.478  0.0000E+00  0.2667E+00
     12.617  0.0000E+00  0.2667E+00
     12.757  0.0000E+00  0.2667E+00
     12.897  0.0000E+00  0.2667E+00
     13.037  0.0000E+00  0.2667E+00
     13.176  0.0000E+00  0.2667E+00
     13.316  0.0000E+00  0.2667E+00
     13.456  0.0000E+00  0.2667E+00
     13.596  0.0000E+00  0.2667E+00
     13.736  0.0000E+00  0.2667E+00
     13.875  0.2846E-02  0.2675E+00
     14.015  0.0000E+00  0.2675E+00
     14.155  0.0000E+00  0.2675E+00
     14.295  0.0000E+00  0.2675E+00
     14.434  0.1145E-01  0.2699E+00
     14.574  0.0000E+00  0.2715E+00
     14.714  0.0000E+00  0.2715E+00
     14.854  0.0000E+00  0.2731E+00
     14.993  0.5712E-02  0.2743E+00
     15.133  0.0000E+00  0.2743E+00
     15.273  0.1144E-01  0.2777E+00
     15.413  0.0000E+00  0.2809E+00
     15.553  0.0000E+00  0.2809E+00
     15.692  0.0000E+00  0.2809E+00
     15.832  0.1912E-01  0.2883E+00
     15.972  0.1716E-01  0.2911E+00
     16.112  0.0000E+00  0.2911E+00
     16.251  0.2290E-01  0.2949E+00
     16.391  0.1111E-03  0.2965E+00
     16.531  0.0000E+00  0.3013E+00
     16.671  0.0000E+00  0.3021E+00
     16.810  0.0000E+00  0.3029E+00
     16.950  0.7632E-02  0.3103E+00
     17.090  0.2290E-01  0.3159E+00
     17.230  0.0000E+00  0.3191E+00
     17.370  0.3816E-02  0.3205E+00
     17.509  0.3347E-04  0.3205E+00
     17.649  0.3418E-01  0.3284E+00
     17.789  0.7632E-02  0.3327E+00
     17.929  0.1146E-01  0.3359E+00
     18.068  0.2633E-01  0.3417E+00
     18.208  0.5724E-02  0.3461E+00
     18.348  0.3816E-02  0.3502E+00
     18.488  0.9553E-02  0.3518E+00
     18.627  0.5724E-02  0.3577E+00
     18.767  0.1141E-01  0.3593E+00
     18.907  0.1645E-02  0.3643E+00
     19.047  0.1145E-01  0.3753E+00
     19.186  0.3433E-01  0.3817E+00
     19.326  0.1145E-01  0.3865E+00
     19.466  0.1145E-01  0.3913E+00
     19.606  0.1145E-01  0.3945E+00
     19.746  0.0000E+00  0.3953E+00
     19.885  0.6612E-12  0.3953E+00
     20.025  0.0000E+00  0.4017E+00
     20.165  0.1144E-01  0.4041E+00
     20.305  0.0000E+00  0.4041E+00
     20.444  0.1309E-04  0.4057E+00
     20.584  0.7946E-14  0.4073E+00
     20.724  0.0000E+00  0.4105E+00
     20.864  0.1224E-01  0.4154E+00
     21.003  0.0000E+00  0.4185E+00
     21.143  0.1144E-01  0.4201E+00
     21.283  0.1139E-08  0.4201E+00
     21.423  0.2564E-01  0.4341E+00
     21.563  0.0000E+00  0.4373E+00
     21.702  0.0000E+00  0.4405E+00
     21.842  0.0000E+00  0.4405E+00
     21.982  0.0000E+00  0.4421E+00
     22.122  0.0000E+00  0.4421E+00
     22.261  0.0000E+00  0.4469E+00
     22.401  0.0000E+00  0.4501E+00
     22.541  0.2438E-01  0.4535E+00
     22.681  0.3638E-02  0.4570E+00
     22.820  0.2268E-01  0.4620E+00
     22.960  0.1967E-03  0.4670E+00
     23.100  0.1526E-01  0.4727E+00
     23.240  0.5724E-02  0.4751E+00
     23.379  0.0000E+00  0.4759E+00
     23.519  0.2290E-01  0.4791E+00
     23.659  0.1322E-01  0.4825E+00
     23.799  0.2671E-01  0.4932E+00
     23.939  0.7534E-02  0.4975E+00
     24.078  0.1948E-01  0.5039E+00
     24.218  0.0000E+00  0.5100E+00
     24.358  0.0000E+00  0.5116E+00
     24.498  0.0000E+00  0.5116E+00
     24.637  0.2533E-12  0.5121E+00
     24.777  0.3177E-17  0.5145E+00
     24.917  0.0000E+00  0.5177E+00
     25.057  0.1695E-04  0.5177E+00
     25.196  0.1082E-01  0.5262E+00
     25.336  0.1908E-02  0.5273E+00
     25.476  0.0000E+00  0.5273E+00
     25.616  0.1186E-01  0.5298E+00
     25.756  0.0000E+00  0.5313E+00
     25.895  0.0000E+00  0.5329E+00
     26.035  0.0000E+00  0.5329E+00
     26.175  0.0000E+00  0.5329E+00
     26.315  0.0000E+00  0.5329E+00
     26.454  0.0000E+00  0.5333E+00
     26.594  0.0000E+00  0.5333E+00
     26.734  0.0000E+00  0.5333E+00
     26.874  0.0000E+00  0.5333E+00
     27.013  0.0000E+00  0.5333E+00
     27.153  0.0000E+00  0.5333E+00
     27.293  0.0000E+00  0.5333E+00
     27.433  0.0000E+00  0.5333E+00
     27.572  0.0000E+00  0.5333E+00
     27.712  0.0000E+00  0.5333E+00
     27.852  0.0000E+00  0.5333E+00
     27.992  0.0000E+00  0.5333E+00
     28.132  0.0000E+00  0.5333E+00
     28.271  0.0000E+00  0.5333E+00
