    2    2   30    1
  0.5639752E+01  0.2517300E-09  0.2517300E-09  0.2517300E-09  0.5000000E-15
  1.000000000000000E-004
  CAR 
 unknown system                          
      8     47      8
 
  0.1276756E-14  0.1276756E-14  0.1276756E-14  0.1000000E-02
      1        -11.752858   1.000000
      2          9.645903   1.000000
      3          9.645957   1.000000
      4          9.645957   1.000000
      5         15.220345   0.000000
      6         15.220417   0.000000
      7         15.220417   0.000000
      8         22.844132   0.000000
 
  0.1000000E+00  0.1257202E-14  0.1278733E-14  0.8000000E-02
      1        -11.477242   1.000000
      2          7.977778   1.000000
      3          9.202265   1.000000
      4          9.202312   1.000000
      5         15.802687   0.000000
      6         15.802755   0.000000
      7         16.154011   0.000000
      8         23.087627   0.000000
 
  0.2000000E+00  0.1255815E-14  0.1296939E-14  0.8000000E-02
      1        -10.655107   1.000000
      2          4.785831   1.000000
      3          8.330958   1.000000
      4          8.331001   1.000000
      5         16.927571   0.000000
      6         16.927645   0.000000
      7         17.342470   0.000000
      8         23.763785   0.000000
 
  0.3000000E+00  0.1203015E-14  0.1309915E-14  0.8000000E-02
      1         -9.306958   1.000000
      2          1.401433   1.000000
      3          7.544282   1.000000
      4          7.544322   1.000000
      5         17.748971   0.000000
      6         17.749046   0.000000
      7         18.014001   0.000000
      8         24.594609   0.000000
 
  0.4000000E+00  0.1224943E-14  0.1342384E-14  0.8000000E-02
      1         -7.505942   1.000000
      2         -1.714896   1.000000
      3          7.034835   1.000000
      4          7.034872   1.000000
      5         18.041502   0.000000
      6         18.041571   0.000000
      7         18.324005   0.000000
      8         25.144362   0.000000
 
  0.5000000E+00  0.1216617E-14  0.1247647E-14  0.4000000E-02
      1         -6.010575   1.000000
      2         -3.661625   1.000000
      3          6.860931   1.000000
      4          6.860967   1.000000
      5         18.080796   0.000000
      6         18.080864   0.000000
      7         18.414712   0.000000
      8         25.298154   0.000000
 
  0.1000000E+00  0.1000000E+00  0.1257559E-14  0.6000000E-02
      1        -11.385433   1.000000
      2          8.427623   1.000000
      3          8.427656   1.000000
      4          8.774320   1.000000
      5         14.945199   0.000000
      6         16.751955   0.000000
      7         16.752012   0.000000
      8         22.965439   0.000000
 
  0.2000000E+00  0.1000000E+00  0.1290028E-14  0.2400000E-01
      1        -10.745580   1.000000
      2          5.895711   1.000000
      3          7.465854   1.000000
      4          8.312995   1.000000
      5         15.367121   0.000000
      6         18.034974   0.000000
      7         18.067134   0.000000
      8         22.917105   0.000000
 
  0.3000000E+00  0.1000000E+00  0.1316497E-14  0.2400000E-01
      1         -9.572159   1.000000
      2          2.637426   1.000000
      3          6.723887   1.000000
      4          7.450631   1.000000
      5         16.399402   0.000000
      6         18.861580   0.000000
      7         18.991372   0.000000
      8         23.155338   0.000000
 
  0.4000000E+00  0.1000000E+00  0.1363612E-14  0.2400000E-01
      1         -7.911280   1.000000
      2         -0.546045   1.000000
      3          6.349163   1.000000
      4          6.586445   1.000000
      5         17.114879   0.000000
      6         19.213004   0.000000
      7         19.242534   0.000000
      8         24.062845   0.000000
 
  0.5000000E+00  0.1000000E+00  0.1297399E-14  0.2400000E-01
      1         -6.060605   1.000000
      2         -3.122683   1.000000
      3          5.956533   1.000000
      4          6.376712   1.000000
      5         17.519019   0.000000
      6         18.971206   0.000000
      7         19.363275   0.000000
      8         25.068732   0.000000
 
 -0.4000000E+00  0.1000000E+00  0.1241531E-14  0.2400000E-01
      1         -6.633523   1.000000
      2         -2.399662   1.000000
      3          5.665494   1.000000
      4          6.786074   1.000000
      5         17.910270   0.000000
      6         18.554084   0.000000
      7         19.307153   0.000000
      8         25.136583   0.000000
 
 -0.3000000E+00  0.1000000E+00  0.1259737E-14  0.2400000E-01
      1         -8.513832   1.000000
      2          0.492516   1.000000
      3          5.765713   1.000000
      4          7.512158   1.000000
      5         17.939532   0.000000
      6         18.221995   0.000000
      7         19.029854   0.000000
      8         24.305440   0.000000
 
 -0.2000000E+00  0.1000000E+00  0.1280036E-14  0.2400000E-01
      1        -10.021280   1.000000
      2          3.749668   1.000000
      3          6.275680   1.000000
      4          8.416476   1.000000
      5         16.969839   0.000000
      6         18.089198   0.000000
      7         18.267413   0.000000
      8         23.570209   0.000000
 
 -0.1000000E+00  0.1000000E+00  0.1258124E-14  0.1200000E-01
      1        -11.019319   1.000000
      2          6.724240   1.000000
      3          7.330914   1.000000
      4          9.173133   1.000000
      5         15.961762   0.000000
      6         16.967585   0.000000
      7         17.277662   0.000000
      8         23.274707   0.000000
 
  0.2000000E+00  0.2000000E+00  0.1282348E-14  0.6000000E-02
      1        -10.290366   1.000000
      2          6.439857   1.000000
      3          6.439885   1.000000
      4          6.560210   1.000000
      5         14.353941   0.000000
      6         19.645825   0.000000
      7         19.645896   0.000000
      8         21.416530   0.000000
 
  0.3000000E+00  0.2000000E+00  0.1309202E-14  0.2400000E-01
      1         -9.299458   1.000000
      2          3.836969   1.000000
      3          5.654672   1.000000
      4          6.013028   1.000000
      5         14.778600   0.000000
      6         20.388947   0.000000
      7         20.868919   0.000000
      8         20.909034   0.000000
 
  0.4000000E+00  0.2000000E+00  0.1328561E-14  0.2400000E-01
      1         -7.806031   1.000000
      2          0.888114   1.000000
      3          4.962475   1.000000
      4          5.270694   1.000000
      5         15.723052   0.000000
      6         20.834127   0.000000
      7         21.383791   0.000000
      8         21.449130   0.000000
 
  0.5000000E+00  0.2000000E+00  0.1290872E-14  0.2400000E-01
      1         -5.954324   1.000000
      2         -1.833241   1.000000
      3          3.969746   1.000000
      4          5.334294   1.000000
      5         16.302038   0.000000
      6         21.131634   0.000000
      7         21.616721   0.000000
      8         22.860007   0.000000
 
 -0.4000000E+00  0.2000000E+00  0.1234619E-14  0.2400000E-01
      1         -5.414733   1.000000
      2         -2.479734   1.000000
      3          3.303380   1.000000
      4          5.827756   1.000000
      5         16.869246   0.000000
      6         20.455165   0.000000
      7         21.593089   0.000000
      8         24.805800   0.000000
 
 -0.3000000E+00  0.2000000E+00  0.1260149E-14  0.2400000E-01
      1         -7.224801   1.000000
      2          0.006954   1.000000
      3          3.085885   1.000000
      4          6.670204   1.000000
      5         17.595242   0.000000
      6         19.440083   0.000000
      7         21.301369   0.000000
      8         24.015367   0.000000
 
 -0.2000000E+00  0.2000000E+00  0.1301415E-14  0.1200000E-01
      1         -8.860915   1.000000
      2          2.691856   1.000000
      3          3.675171   1.000000
      4          7.671282   1.000000
      5         18.102407   0.000000
      6         18.186536   0.000000
      7         20.087278   0.000000
      8         23.223328   0.000000
 
  0.3000000E+00  0.3000000E+00  0.1302674E-14  0.6000000E-02
      1         -8.494110   1.000000
      2          3.577283   1.000000
      3          4.788168   1.000000
      4          4.788192   1.000000
      5         13.866382   0.000000
      6         18.298482   0.000000
      7         22.679382   0.000000
      8         22.679474   0.000000
 
  0.4000000E+00  0.3000000E+00  0.1321265E-14  0.2400000E-01
      1         -7.181413   1.000000
      2          1.612282   1.000000
      3          3.696554   1.000000
      4          4.319545   1.000000
      5         14.421894   0.000000
      6         17.641308   0.000000
      7         23.662611   0.000000
      8         23.712307   0.000000
 
  0.5000000E+00  0.3000000E+00  0.1311331E-14  0.2400000E-01
      1         -5.448448   1.000000
      2         -0.554949   1.000000
      3          2.167701   1.000000
      4          4.315432   1.000000
      5         15.186932   0.000000
      6         19.164679   0.000000
      7         23.644715   0.000000
      8         24.081274   0.000000
 
 -0.4000000E+00  0.3000000E+00  0.1248716E-14  0.2400000E-01
      1         -4.112196   1.000000
      2         -1.970503   1.000000
      3          1.024806   1.000000
      4          4.772064   1.000000
      5         15.764343   0.000000
      6         22.167632   0.000000
      7         22.810858   0.000000
      8         24.160259   0.000000
 
 -0.3000000E+00  0.3000000E+00  0.1270508E-14  0.1200000E-01
      1         -5.534065   1.000000
      2         -0.462595   1.000000
      3          0.832670   1.000000
      4          5.618693   1.000000
      5         16.599567   0.000000
      6         21.320492   0.000000
      7         23.684390   0.000000
      8         24.066150   0.000000
 
  0.4000000E+00  0.4000000E+00  0.1238198E-14  0.6000000E-02
      1         -6.053050   1.000000
      2          0.237891   1.000000
      3          3.740035   1.000000
      4          3.740057   1.000000
      5         13.802697   0.000000
      6         15.839751   0.000000
      7         25.250182   0.000000
      8         25.250297   0.000000
 
  0.5000000E+00  0.4000000E+00  0.1219232E-14  0.2400000E-01
      1         -4.481211   1.000000
      2         -1.388389   1.000000
      3          2.638295   1.000000
      4          3.624222   1.000000
      5         14.473289   0.000000
      6         15.935864   0.000000
      7         25.622125   0.000000
      8         25.806071   0.000000
 
 -0.4000000E+00  0.4000000E+00  0.1231745E-14  0.1200000E-01
      1         -3.034024   1.000000
      2         -2.416840   1.000000
      3          0.924944   1.000000
      4          3.985643   1.000000
      5         14.983333   0.000000
      6         18.609873   0.000000
      7         24.727516   0.000000
      8         25.553984   0.000000
 
  0.5000000E+00  0.5000000E+00  0.1193213E-14  0.3000000E-02
      1         -3.076404   1.000000
      2         -3.076404   1.000000
      3          3.383017   1.000000
      4          3.383038   1.000000
      5         14.391979   0.000000
      6         14.391979   0.000000
      7         26.365289   0.000000
      8         26.365420   0.000000
 
  0.3000000E+00  0.2000000E+00  0.1000000E+00  0.2400000E-01
      1         -9.929920   1.000000
      2          4.628439   1.000000
      3          5.448850   1.000000
      4          7.752988   1.000000
      5         15.755485   0.000000
      6         18.998358   0.000000
      7         19.589982   0.000000
      8         22.207541   0.000000
 
  0.4000000E+00  0.2000000E+00  0.1000000E+00  0.4800000E-01
      1         -8.594974   1.000000
      2          1.816818   1.000000
      3          4.578005   1.000000
      4          6.866233   1.000000
      5         16.875952   0.000000
      6         19.175143   0.000000
      7         20.813207   0.000000
      8         22.293204   0.000000
 
  0.5000000E+00  0.2000000E+00  0.1000000E+00  0.4800000E-01
      1         -6.819347   1.000000
      2         -1.134031   1.000000
      3          4.338835   1.000000
      4          6.006480   1.000000
      5         17.621008   0.000000
      6         18.912114   0.000000
      7         21.339159   0.000000
      8         23.712831   0.000000
 
 -0.4000000E+00  0.2000000E+00  0.1000000E+00  0.2400000E-01
      1         -5.362857   1.000000
      2         -3.005011   1.000000
      3          4.330257   1.000000
      4          5.626972   1.000000
      5         17.820186   0.000000
      6         18.757458   0.000000
      7         21.493394   0.000000
      8         24.850528   0.000000
 
  0.4000000E+00  0.3000000E+00  0.1000000E+00  0.2400000E-01
      1         -8.147127   1.000000
      2          2.594698   1.000000
      3          3.869050   1.000000
      4          5.333430   1.000000
      5         15.326685   0.000000
      6         19.387319   0.000000
      7         21.396863   0.000000
      8         22.707680   0.000000
 
  0.5000000E+00  0.3000000E+00  0.1000000E+00  0.4800000E-01
      1         -6.526613   1.000000
      2          0.272003   1.000000
      3          2.980844   1.000000
      4          4.503003   1.000000
      5         16.458200   0.000000
      6         19.908469   0.000000
      7         21.375096   0.000000
      8         23.776868   0.000000
 
 -0.4000000E+00  0.3000000E+00  0.1000000E+00  0.4800000E-01
      1         -4.754007   1.000000
      2         -1.973607   1.000000
      3          2.339009   1.000000
      4          4.339548   1.000000
      5         17.071091   0.000000
      6         20.609535   0.000000
      7         22.513389   0.000000
      8         23.940121   0.000000
 
 -0.3000000E+00  0.3000000E+00  0.1000000E+00  0.4800000E-01
      1         -5.321707   1.000000
      2         -1.258048   1.000000
      3          1.876630   1.000000
      4          4.906935   1.000000
      5         17.711342   0.000000
      6         19.918937   0.000000
      7         23.043338   0.000000
      8         24.103475   0.000000
 
 -0.2000000E+00  0.3000000E+00  0.1000000E+00  0.2400000E-01
      1         -7.128385   1.000000
      2          0.998337   1.000000
      3          2.188901   1.000000
      4          5.883045   1.000000
      5         18.484205   0.000000
      6         18.544597   0.000000
      7         22.180132   0.000000
      8         22.875132   0.000000
 
  0.5000000E+00  0.4000000E+00  0.1000000E+00  0.2400000E-01
      1         -5.738564   1.000000
      2          0.145030   1.000000
      3          2.899295   1.000000
      4          3.392360   1.000000
      5         15.261540   0.000000
      6         17.128614   0.000000
      7         23.845565   0.000000
      8         25.190803   0.000000
 
 -0.4000000E+00  0.4000000E+00  0.1000000E+00  0.4800000E-01
      1         -3.980991   1.000000
      2         -1.387138   1.000000
      3          1.352525   1.000000
      4          3.267860   1.000000
      5         16.230607   0.000000
      6         18.856301   0.000000
      7         23.492594   0.000000
      8         25.068187   0.000000
 
 -0.3000000E+00  0.4000000E+00  0.1000000E+00  0.2400000E-01
      1         -3.692945   1.000000
      2         -1.552842   1.000000
      3          0.388123   1.000000
      4          3.879415   1.000000
      5         16.850091   0.000000
      6         21.901196   0.000000
      7         22.544877   0.000000
      8         23.853849   0.000000
 
 -0.4000000E+00  0.5000000E+00  0.1000000E+00  0.1200000E-01
      1         -2.853845   1.000000
      2         -2.853844   1.000000
      3          2.678306   1.000000
      4          2.678324   1.000000
      5         15.797602   0.000000
      6         15.797616   0.000000
      7         25.602853   0.000000
      8         25.602964   0.000000
 
 -0.4000000E+00  0.4000000E+00  0.2000000E+00  0.2400000E-01
      1         -4.853495   1.000000
      2         -0.490021   1.000000
      3          1.373392   1.000000
      4          3.303439   1.000000
      5         18.566831   0.000000
      6         19.487294   0.000000
      7         21.321778   0.000000
      8         24.660688   0.000000
 
 -0.3000000E+00  0.4000000E+00  0.2000000E+00  0.2400000E-01
      1         -3.497824   1.000000
      2         -1.684130   1.000000
      3          1.058672   1.000000
      4          2.726686   1.000000
      5         19.076511   0.000000
      6         20.152623   0.000000
      7         22.593737   0.000000
      8         22.812760   0.000000
 
 -0.3000000E+00  0.5000000E+00  0.2000000E+00  0.1200000E-01
      1         -2.393693   1.000000
      2         -2.393692   1.000000
      3          1.571189   1.000000
      4          1.571202   1.000000
      5         18.992657   0.000000
      6         18.992689   0.000000
      7         23.069478   0.000000
      8         23.069544   0.000000
