   2   2   0   0
  0.5705170E+01  0.2526996E-09  0.2526996E-09  0.2526996E-09  0.5000000E-15
  1.000000000000000E-004
  CAR 
 unknown system                          
     30.98688490    -16.60030017  301      9.41898467      1.00000000
    -16.600  0.0000E+00  0.0000E+00
    -16.442  0.0000E+00  0.0000E+00
    -16.283  0.0000E+00  0.0000E+00
    -16.124  0.0000E+00  0.0000E+00
    -15.966  0.0000E+00  0.0000E+00
    -15.807  0.0000E+00  0.0000E+00
    -15.649  0.0000E+00  0.0000E+00
    -15.490  0.0000E+00  0.0000E+00
    -15.331  0.0000E+00  0.0000E+00
    -15.173  0.0000E+00  0.0000E+00
    -15.014  0.0000E+00  0.0000E+00
    -14.855  0.0000E+00  0.0000E+00
    -14.697  0.0000E+00  0.0000E+00
    -14.538  0.0000E+00  0.0000E+00
    -14.380  0.0000E+00  0.6667E-04
    -14.221  0.0000E+00  0.6667E-04
    -14.062  0.1120E-17  0.6000E-03
    -13.904  0.0000E+00  0.1000E-02
    -13.745  0.0000E+00  0.1000E-02
    -13.586  0.0000E+00  0.1800E-02
    -13.428  0.0000E+00  0.1800E-02
    -13.269  0.0000E+00  0.3400E-02
    -13.111  0.0000E+00  0.3933E-02
    -12.952  0.0000E+00  0.3933E-02
    -12.793  0.2522E-02  0.4333E-02
    -12.635  0.0000E+00  0.4333E-02
    -12.476  0.0000E+00  0.5933E-02
    -12.317  0.0000E+00  0.7533E-02
    -12.159  0.0000E+00  0.7533E-02
    -12.000  0.0000E+00  0.9133E-02
    -11.842  0.0000E+00  0.9133E-02
    -11.683  0.0000E+00  0.1127E-01
    -11.524  0.0000E+00  0.1127E-01
    -11.366  0.0000E+00  0.1127E-01
    -11.207  0.0000E+00  0.1207E-01
    -11.048  0.0000E+00  0.1207E-01
    -10.890  0.4260E-06  0.1527E-01
    -10.731  0.0000E+00  0.1727E-01
    -10.573  0.0000E+00  0.1727E-01
    -10.414  0.0000E+00  0.1887E-01
    -10.255  0.0000E+00  0.1887E-01
    -10.097  0.4136E-02  0.2112E-01
     -9.938  0.0000E+00  0.2207E-01
     -9.779  0.3705E-06  0.2207E-01
     -9.621  0.0000E+00  0.2260E-01
     -9.462  0.1709E-03  0.2263E-01
     -9.304  0.0000E+00  0.2740E-01
     -9.145  0.0000E+00  0.2740E-01
     -8.986  0.2017E-01  0.3060E-01
     -8.828  0.1355E-11  0.3060E-01
     -8.669  0.2017E-01  0.3540E-01
     -8.510  0.0000E+00  0.3540E-01
     -8.352  0.0000E+00  0.3540E-01
     -8.193  0.1181E-07  0.3540E-01
     -8.035  0.1009E-01  0.3927E-01
     -7.876  0.0000E+00  0.3927E-01
     -7.717  0.0000E+00  0.4087E-01
     -7.559  0.5043E-02  0.4167E-01
     -7.400  0.9929E-02  0.4644E-01
     -7.241  0.0000E+00  0.4967E-01
     -7.083  0.0000E+00  0.4967E-01
     -6.924  0.0000E+00  0.4967E-01
     -6.766  0.0000E+00  0.5127E-01
     -6.607  0.0000E+00  0.5447E-01
     -6.448  0.1303E-13  0.5447E-01
     -6.290  0.0000E+00  0.5607E-01
     -6.131  0.0000E+00  0.5607E-01
     -5.972  0.0000E+00  0.5767E-01
     -5.814  0.0000E+00  0.6087E-01
     -5.655  0.0000E+00  0.6087E-01
     -5.497  0.1947E-08  0.6247E-01
     -5.338  0.7161E-02  0.6387E-01
     -5.179  0.0000E+00  0.6433E-01
     -5.021  0.0000E+00  0.6433E-01
     -4.862  0.1243E-01  0.6631E-01
     -4.704  0.0000E+00  0.6873E-01
     -4.545  0.0000E+00  0.7033E-01
     -4.386  0.0000E+00  0.7033E-01
     -4.228  0.0000E+00  0.7033E-01
     -4.069  0.1009E-01  0.7593E-01
     -3.910  0.0000E+00  0.7593E-01
     -3.752  0.0000E+00  0.7593E-01
     -3.593  0.3026E-01  0.8073E-01
     -3.435  0.1009E-01  0.8233E-01
     -3.276  0.1009E-01  0.8447E-01
     -3.117  0.0000E+00  0.8607E-01
     -2.959  0.3026E-01  0.9087E-01
     -2.800  0.2017E-01  0.9407E-01
     -2.641  0.0000E+00  0.9727E-01
     -2.483  0.0000E+00  0.9727E-01
     -2.324  0.0000E+00  0.9727E-01
     -2.166  0.0000E+00  0.9727E-01
     -2.007  0.1009E-01  0.1005E+00
     -1.848  0.0000E+00  0.1029E+00
     -1.690  0.0000E+00  0.1029E+00
     -1.531  0.0000E+00  0.1029E+00
     -1.372  0.0000E+00  0.1045E+00
     -1.214  0.0000E+00  0.1061E+00
     -1.055  0.0000E+00  0.1097E+00
     -0.897  0.8959E-17  0.1113E+00
     -0.738  0.0000E+00  0.1129E+00
     -0.579  0.0000E+00  0.1129E+00
     -0.421  0.1008E-01  0.1153E+00
     -0.262  0.3442E-02  0.1182E+00
     -0.103  0.0000E+00  0.1209E+00
      0.055  0.0000E+00  0.1209E+00
      0.214  0.0000E+00  0.1262E+00
      0.372  0.2017E-01  0.1294E+00
      0.531  0.0000E+00  0.1294E+00
      0.690  0.1861E-01  0.1356E+00
      0.848  0.0000E+00  0.1358E+00
      1.007  0.2983E-03  0.1358E+00
      1.166  0.4479E-17  0.1390E+00
      1.324  0.0000E+00  0.1422E+00
      1.483  0.1009E-01  0.1438E+00
      1.641  0.3933E-02  0.1500E+00
      1.800  0.0000E+00  0.1510E+00
      1.959  0.0000E+00  0.1558E+00
      2.117  0.0000E+00  0.1574E+00
      2.276  0.1015E-01  0.1622E+00
      2.435  0.0000E+00  0.1658E+00
      2.593  0.1260E-15  0.1662E+00
      2.752  0.1786E-01  0.1706E+00
      2.910  0.1921E-02  0.1745E+00
      3.069  0.0000E+00  0.1798E+00
      3.228  0.0000E+00  0.1798E+00
      3.386  0.1569E-02  0.1800E+00
      3.545  0.0000E+00  0.1910E+00
      3.704  0.1024E-01  0.1958E+00
      3.862  0.0000E+00  0.1990E+00
      4.021  0.0000E+00  0.2019E+00
      4.179  0.0000E+00  0.2067E+00
      4.338  0.0000E+00  0.2067E+00
      4.497  0.1009E-01  0.2083E+00
      4.655  0.0000E+00  0.2115E+00
      4.814  0.3798E-12  0.2131E+00
      4.973  0.0000E+00  0.2187E+00
      5.131  0.3146E-04  0.2219E+00
      5.290  0.2258E-01  0.2303E+00
      5.448  0.0000E+00  0.2315E+00
      5.607  0.7040E-02  0.2327E+00
      5.766  0.2431E-08  0.2363E+00
      5.924  0.8250E-02  0.2384E+00
      6.083  0.2172E-03  0.2408E+00
      6.242  0.2245E-01  0.2483E+00
      6.400  0.5659E-07  0.2485E+00
      6.559  0.0000E+00  0.2495E+00
      6.717  0.0000E+00  0.2495E+00
      6.876  0.7602E-08  0.2503E+00
      7.035  0.0000E+00  0.2562E+00
      7.193  0.0000E+00  0.2570E+00
      7.352  0.0000E+00  0.2586E+00
      7.511  0.3106E-02  0.2591E+00
      7.669  0.0000E+00  0.2591E+00
      7.828  0.2576E-16  0.2591E+00
      7.986  0.1009E-01  0.2634E+00
      8.145  0.0000E+00  0.2642E+00
      8.304  0.0000E+00  0.2642E+00
      8.462  0.0000E+00  0.2646E+00
      8.621  0.0000E+00  0.2646E+00
      8.780  0.1064E-10  0.2646E+00
      8.938  0.0000E+00  0.2665E+00
      9.097  0.0000E+00  0.2665E+00
      9.255  0.0000E+00  0.2665E+00
      9.414  0.0000E+00  0.2667E+00
      9.573  0.0000E+00  0.2667E+00
      9.731  0.0000E+00  0.2667E+00
      9.890  0.0000E+00  0.2667E+00
     10.049  0.0000E+00  0.2667E+00
     10.207  0.0000E+00  0.2667E+00
     10.366  0.0000E+00  0.2667E+00
     10.524  0.0000E+00  0.2667E+00
     10.683  0.0000E+00  0.2667E+00
     10.842  0.0000E+00  0.2667E+00
     11.000  0.0000E+00  0.2667E+00
     11.159  0.0000E+00  0.2667E+00
     11.318  0.0000E+00  0.2667E+00
     11.476  0.0000E+00  0.2667E+00
     11.635  0.0000E+00  0.2667E+00
     11.793  0.0000E+00  0.2667E+00
     11.952  0.0000E+00  0.2667E+00
     12.111  0.0000E+00  0.2667E+00
     12.269  0.0000E+00  0.2667E+00
     12.428  0.0000E+00  0.2667E+00
     12.587  0.0000E+00  0.2667E+00
     12.745  0.0000E+00  0.2667E+00
     12.904  0.0000E+00  0.2667E+00
     13.062  0.0000E+00  0.2667E+00
     13.221  0.0000E+00  0.2667E+00
     13.380  0.0000E+00  0.2667E+00
     13.538  0.0000E+00  0.2667E+00
     13.697  0.0000E+00  0.2667E+00
     13.855  0.0000E+00  0.2667E+00
     14.014  0.0000E+00  0.2667E+00
     14.173  0.0000E+00  0.2667E+00
     14.331  0.0000E+00  0.2667E+00
     14.490  0.0000E+00  0.2667E+00
     14.649  0.0000E+00  0.2667E+00
     14.807  0.2310E-02  0.2674E+00
     14.966  0.0000E+00  0.2675E+00
     15.124  0.0000E+00  0.2675E+00
     15.283  0.1064E-04  0.2675E+00
     15.442  0.0000E+00  0.2715E+00
     15.600  0.0000E+00  0.2715E+00
     15.759  0.0000E+00  0.2715E+00
     15.918  0.4169E-07  0.2731E+00
     16.076  0.2522E-02  0.2743E+00
     16.235  0.0000E+00  0.2759E+00
     16.393  0.1261E-02  0.2777E+00
     16.552  0.0000E+00  0.2809E+00
     16.711  0.0000E+00  0.2809E+00
     16.869  0.0000E+00  0.2861E+00
     17.028  0.6724E-02  0.2903E+00
     17.187  0.3956E-08  0.2903E+00
     17.345  0.2412E-07  0.2943E+00
     17.504  0.0000E+00  0.2965E+00
     17.662  0.1009E-01  0.3013E+00
     17.821  0.0000E+00  0.3021E+00
     17.980  0.1009E-01  0.3037E+00
     18.138  0.3759E-03  0.3061E+00
     18.297  0.7811E-15  0.3159E+00
     18.456  0.0000E+00  0.3191E+00
     18.614  0.3080E-17  0.3191E+00
     18.773  0.1009E-01  0.3221E+00
     18.931  0.2017E-01  0.3317E+00
     19.090  0.0000E+00  0.3333E+00
     19.249  0.1009E-01  0.3359E+00
     19.407  0.4214E-03  0.3376E+00
     19.566  0.1009E-01  0.3449E+00
     19.725  0.0000E+00  0.3497E+00
     19.883  0.1009E-01  0.3518E+00
     20.042  0.0000E+00  0.3577E+00
     20.200  0.2017E-01  0.3609E+00
     20.359  0.1100E-01  0.3658E+00
     20.518  0.2860E-01  0.3766E+00
     20.676  0.2017E-01  0.3833E+00
     20.835  0.1009E-01  0.3881E+00
     20.994  0.0000E+00  0.3913E+00
     21.152  0.5952E-08  0.3929E+00
     21.311  0.0000E+00  0.3985E+00
     21.469  0.0000E+00  0.3985E+00
     21.628  0.4932E-02  0.4024E+00
     21.787  0.1009E-01  0.4057E+00
     21.945  0.0000E+00  0.4057E+00
     22.104  0.0000E+00  0.4057E+00
     22.263  0.8240E-02  0.4118E+00
     22.421  0.0000E+00  0.4121E+00
     22.580  0.0000E+00  0.4153E+00
     22.738  0.0000E+00  0.4185E+00
     22.897  0.1009E-01  0.4201E+00
     23.056  0.0000E+00  0.4221E+00
     23.214  0.2538E-02  0.4297E+00
     23.373  0.7928E-03  0.4374E+00
     23.532  0.1009E-01  0.4421E+00
     23.690  0.0000E+00  0.4421E+00
     23.849  0.1244E-14  0.4421E+00
     24.007  0.0000E+00  0.4501E+00
     24.166  0.0000E+00  0.4501E+00
     24.325  0.0000E+00  0.4501E+00
     24.483  0.1009E-01  0.4549E+00
     24.642  0.2695E-04  0.4581E+00
     24.801  0.1088E-01  0.4622E+00
     24.959  0.1009E-01  0.4685E+00
     25.118  0.2800E-18  0.4737E+00
     25.276  0.0000E+00  0.4751E+00
     25.435  0.0000E+00  0.4759E+00
     25.594  0.2017E-01  0.4839E+00
     25.752  0.1009E-01  0.4871E+00
     25.911  0.1491E-01  0.4950E+00
     26.070  0.3026E-01  0.5028E+00
     26.228  0.2952E-01  0.5075E+00
     26.387  0.0000E+00  0.5116E+00
     26.545  0.0000E+00  0.5116E+00
     26.704  0.0000E+00  0.5121E+00
     26.863  0.0000E+00  0.5121E+00
     27.021  0.1021E-01  0.5194E+00
     27.180  0.0000E+00  0.5217E+00
     27.339  0.2765E-05  0.5217E+00
     27.497  0.9907E-02  0.5265E+00
     27.656  0.0000E+00  0.5273E+00
     27.814  0.0000E+00  0.5273E+00
     27.973  0.1902E-01  0.5312E+00
     28.132  0.0000E+00  0.5313E+00
     28.290  0.0000E+00  0.5329E+00
     28.449  0.0000E+00  0.5329E+00
     28.608  0.0000E+00  0.5329E+00
     28.766  0.0000E+00  0.5329E+00
     28.925  0.0000E+00  0.5333E+00
     29.083  0.0000E+00  0.5333E+00
     29.242  0.0000E+00  0.5333E+00
     29.401  0.0000E+00  0.5333E+00
     29.559  0.0000E+00  0.5333E+00
     29.718  0.0000E+00  0.5333E+00
     29.877  0.0000E+00  0.5333E+00
     30.035  0.0000E+00  0.5333E+00
     30.194  0.0000E+00  0.5333E+00
     30.352  0.0000E+00  0.5333E+00
     30.511  0.0000E+00  0.5333E+00
     30.670  0.0000E+00  0.5333E+00
     30.828  0.0000E+00  0.5333E+00
     30.987  0.0000E+00  0.5333E+00
