    2    2   30    1
  0.5705170E+01  0.2526996E-09  0.2526996E-09  0.2526996E-09  0.5000000E-15
  1.000000000000000E-004
  CAR 
 unknown system                          
      8     47      8
 
  0.1276756E-14  0.1276756E-14  0.1276756E-14  0.1000000E-02
      1        -14.437246   1.000000
      2          9.327674   1.000000
      3          9.327707   1.000000
      4          9.327708   1.000000
      5         16.367168   0.000000
      6         16.367210   0.000000
      7         16.367211   0.000000
      8         24.991066   0.000000
 
  0.1000000E+00  0.1262931E-14  0.1282646E-14  0.8000000E-02
      1        -14.134687   1.000000
      2          7.505477   1.000000
      3          8.846725   1.000000
      4          8.846754   1.000000
      5         17.005000   0.000000
      6         17.005040   0.000000
      7         17.360564   0.000000
      8         25.231190   0.000000
 
  0.2000000E+00  0.1280068E-14  0.1303118E-14  0.8000000E-02
      1        -13.231691   1.000000
      2          3.939297   1.000000
      3          7.879588   1.000000
      4          7.879615   1.000000
      5         18.247828   0.000000
      6         18.247871   0.000000
      7         18.677211   0.000000
      8         25.880977   0.000000
 
  0.3000000E+00  0.1258589E-14  0.1324468E-14  0.8000000E-02
      1        -11.749199   1.000000
      2          0.148269   1.000000
      3          6.992833   1.000000
      4          6.992858   1.000000
      5         19.131919   0.000000
      6         19.131963   0.000000
      7         19.443732   0.000000
      8         26.621345   0.000000
 
  0.4000000E+00  0.8360355E-14  0.1356192E-14  0.8000000E-02
      1         -9.766408   1.000000
      2         -3.326737   1.000000
      3          6.415375   1.000000
      4          6.415399   1.000000
      5         19.412736   0.000000
      6         19.412775   0.000000
      7         19.806571   0.000000
      8         27.027556   0.000000
 
  0.5000000E+00  0.8361925E-14  0.1384112E-14  0.4000000E-02
      1         -8.125168   1.000000
      2         -5.479923   1.000000
      3          6.217888   1.000000
      4          6.217911   1.000000
      5         19.437299   0.000000
      6         19.437338   0.000000
      7         19.914265   0.000000
      8         27.108627   0.000000
 
  0.1000000E+00  0.1000000E+00  0.1276924E-14  0.6000000E-02
      1        -14.033907   1.000000
      2          8.004086   1.000000
      3          8.004106   1.000000
      4          8.360968   1.000000
      5         16.048070   0.000000
      6         18.038880   0.000000
      7         18.038913   0.000000
      8         25.055611   0.000000
 
  0.2000000E+00  0.1000000E+00  0.1284397E-14  0.2400000E-01
      1        -13.331095   1.000000
      2          5.176716   1.000000
      3          6.929794   1.000000
      4          7.855451   1.000000
      5         16.502044   0.000000
      6         19.464531   0.000000
      7         19.500571   0.000000
      8         24.831830   0.000000
 
  0.3000000E+00  0.1000000E+00  0.1290991E-14  0.2400000E-01
      1        -12.040940   1.000000
      2          1.529125   1.000000
      3          6.090095   1.000000
      4          6.893051   1.000000
      5         17.628940   0.000000
      6         20.389250   0.000000
      7         20.510201   0.000000
      8         24.926204   0.000000
 
  0.4000000E+00  0.1000000E+00  0.1311902E-14  0.2400000E-01
      1        -10.212345   1.000000
      2         -2.026157   1.000000
      3          5.660334   1.000000
      4          5.923696   1.000000
      5         18.378726   0.000000
      6         20.716926   0.000000
      7         20.811755   0.000000
      8         25.889403   0.000000
 
  0.5000000E+00  0.1000000E+00  0.1322440E-14  0.2400000E-01
      1         -8.176538   1.000000
      2         -4.885599   1.000000
      3          5.219889   1.000000
      4          5.682766   1.000000
      5         18.789193   0.000000
      6         20.431435   0.000000
      7         20.939049   0.000000
      8         26.999938   0.000000
 
 -0.4000000E+00  0.1000000E+00  0.1198377E-14  0.2400000E-01
      1         -8.805397   1.000000
      2         -4.086643   1.000000
      3          4.900160   1.000000
      4          6.135739   1.000000
      5         19.224979   0.000000
      6         19.993878   0.000000
      7         20.857439   0.000000
      8         27.109567   0.000000
 
 -0.3000000E+00  0.1000000E+00  0.1176337E-14  0.2400000E-01
      1        -10.875938   1.000000
      2         -0.868409   1.000000
      3          5.021958   1.000000
      4          6.947052   1.000000
      5         19.364999   0.000000
      6         19.623491   0.000000
      7         20.514007   0.000000
      8         26.267819   0.000000
 
 -0.2000000E+00  0.1000000E+00  0.1222158E-14  0.2400000E-01
      1        -12.534943   1.000000
      2          2.772960   1.000000
      3          5.605220   1.000000
      4          7.958218   1.000000
      5         18.323071   0.000000
      6         19.535531   0.000000
      7         19.647245   0.000000
      8         25.553622   0.000000
 
 -0.1000000E+00  0.1000000E+00  0.1266332E-14  0.1200000E-01
      1        -13.631888   1.000000
      2          6.094526   1.000000
      3          6.799822   1.000000
      4          8.800304   1.000000
      5         17.203580   0.000000
      6         18.221506   0.000000
      7         18.642518   0.000000
      8         25.363847   0.000000
 
  0.2000000E+00  0.2000000E+00  0.1321187E-14  0.6000000E-02
      1        -12.830774   1.000000
      2          5.782988   1.000000
      3          5.783005   1.000000
      4          5.886960   1.000000
      5         15.368060   0.000000
      6         21.262584   0.000000
      7         21.262626   0.000000
      8         22.967297   0.000000
 
  0.3000000E+00  0.2000000E+00  0.1331724E-14  0.2400000E-01
      1        -11.740802   1.000000
      2          2.858596   1.000000
      3          4.898135   1.000000
      4          5.292319   1.000000
      5         15.819475   0.000000
      6         21.759300   0.000000
      7         22.615243   0.000000
      8         22.662380   0.000000
 
  0.4000000E+00  0.2000000E+00  0.1351757E-14  0.2400000E-01
      1        -10.095914   1.000000
      2         -0.431448   1.000000
      3          4.119358   1.000000
      4          4.460947   1.000000
      5         16.824328   0.000000
      6         22.259372   0.000000
      7         23.157921   0.000000
      8         23.262451   0.000000
 
  0.5000000E+00  0.2000000E+00  0.1351043E-14  0.2400000E-01
      1         -8.054939   1.000000
      2         -3.458399   1.000000
      3          3.010670   1.000000
      4          4.524716   1.000000
      5         17.413775   0.000000
      6         22.858668   0.000000
      7         23.425936   0.000000
      8         24.578856   0.000000
 
 -0.4000000E+00  0.2000000E+00  0.1231223E-14  0.2400000E-01
      1         -7.461218   1.000000
      2         -4.174236   1.000000
      3          2.270618   1.000000
      4          5.070241   1.000000
      5         18.022303   0.000000
      6         22.135108   0.000000
      7         23.377937   0.000000
      8         26.932176   0.000000
 
 -0.3000000E+00  0.2000000E+00  0.1195086E-14  0.2400000E-01
      1         -9.454722   1.000000
      2         -1.415031   1.000000
      3          2.036505   1.000000
      4          6.008065   1.000000
      5         18.847703   0.000000
      6         21.061904   0.000000
      7         22.995740   0.000000
      8         26.044414   0.000000
 
 -0.2000000E+00  0.2000000E+00  0.1217392E-14  0.1200000E-01
      1        -11.257890   1.000000
      2          1.569645   1.000000
      3          2.715281   1.000000
      4          7.124956   1.000000
      5         19.576698   0.000000
      6         19.598055   0.000000
      7         21.620959   0.000000
      8         25.147385   0.000000
 
  0.3000000E+00  0.3000000E+00  0.1296929E-14  0.6000000E-02
      1        -10.854083   1.000000
      2          2.544994   1.000000
      3          3.927059   1.000000
      4          3.927074   1.000000
      5         14.802366   0.000000
      6         19.446088   0.000000
      7         24.650926   0.000000
      8         24.650979   0.000000
 
  0.4000000E+00  0.3000000E+00  0.1352605E-14  0.2400000E-01
      1         -9.406980   1.000000
      2          0.352347   1.000000
      3          2.715927   1.000000
      4          3.399298   1.000000
      5         15.389281   0.000000
      6         18.751415   0.000000
      7         25.738528   0.000000
      8         25.799481   0.000000
 
  0.5000000E+00  0.3000000E+00  0.1299744E-14  0.2400000E-01
      1         -7.494102   1.000000
      2         -2.054465   1.000000
      3          1.013630   1.000000
      4          3.389901   1.000000
      5         16.179327   0.000000
      6         20.490143   0.000000
      7         25.705293   0.000000
      8         26.191653   0.000000
 
 -0.4000000E+00  0.3000000E+00  0.1227249E-14  0.2400000E-01
      1         -6.021388   1.000000
      2         -3.618388   1.000000
      3         -0.260587   1.000000
      4          3.895011   1.000000
      5         16.789341   0.000000
      6         23.896761   0.000000
      7         24.805069   0.000000
      8         26.230041   0.000000
 
 -0.3000000E+00  0.3000000E+00  0.1203299E-14  0.1200000E-01
      1         -7.587966   1.000000
      2         -1.955651   1.000000
      3         -0.463551   1.000000
      4          4.836577   1.000000
      5         17.710414   0.000000
      6         23.169456   0.000000
      7         25.767954   0.000000
      8         26.196416   0.000000
 
  0.4000000E+00  0.4000000E+00  0.1273551E-14  0.6000000E-02
      1         -8.161542   1.000000
      2         -1.184139   1.000000
      3          2.751456   1.000000
      4          2.751469   1.000000
      5         14.696705   0.000000
      6         16.811227   0.000000
      7         27.542942   0.000000
      8         27.543015   0.000000
 
  0.5000000E+00  0.4000000E+00  0.1179926E-14  0.2400000E-01
      1         -6.423623   1.000000
      2         -2.994220   1.000000
      3          1.537854   1.000000
      4          2.620146   1.000000
      5         15.395942   0.000000
      6         16.956871   0.000000
      7         27.968775   0.000000
      8         28.173681   0.000000
 
 -0.4000000E+00  0.4000000E+00  0.1133111E-14  0.1200000E-01
      1         -4.825870   1.000000
      2         -4.133371   1.000000
      3         -0.356412   1.000000
      4          3.020480   1.000000
      5         15.932838   0.000000
      6         19.917055   0.000000
      7         26.967825   0.000000
      8         27.908106   0.000000
 
  0.5000000E+00  0.5000000E+00  0.1287422E-14  0.3000000E-02
      1         -4.867333   1.000000
      2         -4.867332   1.000000
      3          2.351663   1.000000
      4          2.351677   1.000000
      5         15.292425   0.000000
      6         15.292427   0.000000
      7         28.823715   0.000000
      8         28.823831   0.000000
 
  0.3000000E+00  0.2000000E+00  0.1000000E+00  0.2400000E-01
      1        -12.434425   1.000000
      2          3.739959   1.000000
      3          4.693946   1.000000
      4          7.226212   1.000000
      5         16.924542   0.000000
      6         20.538508   0.000000
      7         21.169379   0.000000
      8         23.874690   0.000000
 
  0.4000000E+00  0.2000000E+00  0.1000000E+00  0.4800000E-01
      1        -10.965107   1.000000
      2          0.605683   1.000000
      3          3.703497   1.000000
      4          6.235866   1.000000
      5         18.145709   0.000000
      6         20.662172   0.000000
      7         22.534217   0.000000
      8         23.952829   0.000000
 
  0.5000000E+00  0.2000000E+00  0.1000000E+00  0.4800000E-01
      1         -9.008368   1.000000
      2         -2.682000   1.000000
      3          3.425480   1.000000
      4          5.276463   1.000000
      5         18.886172   0.000000
      6         20.365070   0.000000
      7         23.151322   0.000000
      8         25.554484   0.000000
 
 -0.4000000E+00  0.2000000E+00  0.1000000E+00  0.2400000E-01
      1         -7.407727   1.000000
      2         -4.752810   1.000000
      3          3.410884   1.000000
      4          4.854293   1.000000
      5         19.040889   0.000000
      6         20.229078   0.000000
      7         23.324978   0.000000
      8         26.922324   0.000000
 
  0.4000000E+00  0.3000000E+00  0.1000000E+00  0.2400000E-01
      1        -10.471699   1.000000
      2          1.453995   1.000000
      3          2.918894   1.000000
      4          4.533068   1.000000
      5         16.409151   0.000000
      6         20.619529   0.000000
      7         23.219783   0.000000
      8         24.669656   0.000000
 
  0.5000000E+00  0.3000000E+00  0.1000000E+00  0.4800000E-01
      1         -8.684441   1.000000
      2         -1.127382   1.000000
      3          1.915913   1.000000
      4          3.610134   1.000000
      5         17.611032   0.000000
      6         21.209106   0.000000
      7         23.218937   0.000000
      8         25.861448   0.000000
 
 -0.4000000E+00  0.3000000E+00  0.1000000E+00  0.4800000E-01
      1         -6.730168   1.000000
      2         -3.616289   1.000000
      3          1.194319   1.000000
      4          3.426971   1.000000
      5         18.223148   0.000000
      6         22.179917   0.000000
      7         24.422499   0.000000
      8         26.038155   0.000000
 
 -0.3000000E+00  0.3000000E+00  0.1000000E+00  0.4800000E-01
      1         -7.354512   1.000000
      2         -2.825875   1.000000
      3          0.684678   1.000000
      4          4.055349   1.000000
      5         18.908625   0.000000
      6         21.499791   0.000000
      7         25.052618   0.000000
      8         26.227593   0.000000
 
 -0.2000000E+00  0.3000000E+00  0.1000000E+00  0.2400000E-01
      1         -9.348230   1.000000
      2         -0.325963   1.000000
      3          1.050454   1.000000
      4          5.140851   1.000000
      5         19.853457   0.000000
      6         19.933513   0.000000
      7         23.955282   0.000000
      8         24.811311   0.000000
 
  0.5000000E+00  0.4000000E+00  0.1000000E+00  0.2400000E-01
      1         -7.813934   1.000000
      2         -1.288507   1.000000
      3          1.830579   1.000000
      4          2.375171   1.000000
      5         16.292426   0.000000
      6         18.211381   0.000000
      7         25.926603   0.000000
      8         27.489732   0.000000
 
 -0.4000000E+00  0.4000000E+00  0.1000000E+00  0.4800000E-01
      1         -5.871307   1.000000
      2         -2.991402   1.000000
      3          0.115703   1.000000
      4          2.235890   1.000000
      5         17.301189   0.000000
      6         20.164375   0.000000
      7         25.525781   0.000000
      8         27.351399   0.000000
 
 -0.3000000E+00  0.4000000E+00  0.1000000E+00  0.2400000E-01
      1         -5.554783   1.000000
      2         -3.172413   1.000000
      3         -0.954823   1.000000
      4          2.913655   1.000000
      5         17.963083   0.000000
      6         23.513756   0.000000
      7         24.548341   0.000000
      8         25.914662   0.000000
 
 -0.4000000E+00  0.5000000E+00  0.1000000E+00  0.1200000E-01
      1         -4.621253   1.000000
      2         -4.621253   1.000000
      3          1.581266   1.000000
      4          1.581278   1.000000
      5         16.823591   0.000000
      6         16.823599   0.000000
      7         27.939151   0.000000
      8         27.939202   0.000000
 
 -0.4000000E+00  0.4000000E+00  0.2000000E+00  0.2400000E-01
      1         -6.835853   1.000000
      2         -1.992511   1.000000
      3          0.138923   1.000000
      4          2.281104   1.000000
      5         19.938641   0.000000
      6         20.714600   0.000000
      7         23.170525   0.000000
      8         26.915216   0.000000
 
 -0.3000000E+00  0.4000000E+00  0.2000000E+00  0.2400000E-01
      1         -5.339955   1.000000
      2         -3.311671   1.000000
      3         -0.218202   1.000000
      4          1.642443   1.000000
      5         20.331268   0.000000
      6         21.681057   0.000000
      7         24.466225   0.000000
      8         24.793518   0.000000
 
 -0.3000000E+00  0.5000000E+00  0.2000000E+00  0.1200000E-01
      1         -4.113468   1.000000
      2         -4.113467   1.000000
      3          0.360288   1.000000
      4          0.360296   1.000000
      5         20.301010   0.000000
      6         20.301028   0.000000
      7         25.048181   0.000000
      8         25.048230   0.000000
