 vasp.6.5.1 10Mar25 (build Feb 13 2026 23:13:13) complex                        
  
 executed on             LinuxIFC date 2026.09.03  03:30:32
 running   28 mpi-ranks, with    1 threads/rank, on    1 nodes
 distrk:  each k-point on   28 cores,    1 groups
 distr:  one band on NCORE=   7 cores,    4 groups


--------------------------------------------------------------------------------------------------------


 INCAR:
   ALGO = Damped
   TIME = 0.4
   NELMIN = 4
   EDIFF = 1E-6
   ENCUT = 500
   PREC = Normal
   LREAL = .FALSE.
   ISMEAR = 0
   SIGMA = 0.005
   ISPIN = 1
   LHFCALC = .TRUE.
   AEXX = 0.25
   HFSCREEN = 0.2
   SYMPREC = 1E-4
   NSW = 30
   IBRION = 2
   ISIF = 3
   LWAVE = .FALSE.
   NPAR = 4
   NCORE = 7

 POTCAR:    PAW_PBE C 08Apr2002                   
 POTCAR:    PAW_PBE C 08Apr2002                   
   SHA256 =  253f7b50bb8d59471dbedb8285d89021f4a42ed1a2c5d38a03a736e69125dd95 C/POTCAR              
   COPYR  = (c) Copyright 08Apr2002 Georg Kresse                                                    
   COPYR  = This file is part of the software VASP. Any use, copying, and all other rights are regul
   COPYR  = If you do not have a valid VASP license, you may not use, copy or distribute this file. 
   VRHFIN =C: s2p2                                                                                  
   LEXCH  = PE                                                                                      
   EATOM  =   147.1560 eV,   10.8157 Ry                                                             
                                                                                                    
   TITEL  = PAW_PBE C 08Apr2002                                                                     
   LULTRA =        F    use ultrasoft PP ?                                                          
   IUNSCR =        1    unscreen: 0-lin 1-nonlin 2-no                                               
   RPACOR =    1.200    partial core radius                                                         
   POMASS =   12.011; ZVAL   =    4.000    mass and valenz                                          
   RCORE  =    1.500    outmost cutoff radius                                                       
   RWIGS  =    1.630; RWIGS  =    0.863    wigner-seitz radius (au A)                               
   ENMAX  =  400.000; ENMIN  =  300.000 eV                                                          
   ICORE  =        2    local potential                                                             
   LCOR   =        T    correct aug charges                                                         
   LPAW   =        T    paw PP                                                                      
   EAUG   =  644.873                                                                                
   DEXC   =    0.000                                                                                
   RMAX   =    1.529    core radius for proj-oper                                                   
   RAUG   =    1.300    factor for augmentation sphere                                              
   RDEP   =    1.501    radius for radial grids                                                     
   RDEPT  =    1.300    core radius for aug-charge                                                  
                                                                                                    
   Atomic configuration                                                                             
    4 entries                                                                                       
     n  l   j            E        occ.                                                              
     1  0  0.50      -273.3789   2.0000                                                             
     2  0  0.50       -13.7508   2.0000                                                             
     2  1  0.50        -5.2854   2.0000                                                             
     3  2  1.50        -5.4423   0.0000                                                             
   Description                                                                                      
     l       E           TYP  RCUT    TYP  RCUT                                                     
     0    -13.7508458     23  1.200                                                                 
     0     -8.2022199     23  1.200                                                                 
     1     -5.2854383     23  1.500                                                                 
     1     34.0145650     23  1.500                                                                 
     2     -5.4423304      7  1.500                                                                 
  local pseudopotential read in
  partial core-charges read in
  partial kinetic energy density read in
  atomic valenz-charges read in
  non local Contribution for L=           0  read in
    real space projection operators read in
  non local Contribution for L=           0  read in
    real space projection operators read in
  non local Contribution for L=           1  read in
    real space projection operators read in
  non local Contribution for L=           1  read in
    real space projection operators read in
    PAW grid and wavefunctions read in
 
   number of l-projection  operators is LMAX  =           4
   number of lm-projection operators is LMMAX =           8
 
  PAW_PBE C 08Apr2002                   :
 energy of atom  1       EATOM= -147.1560
 kinetic energy error for atom=    0.0076 (will be added to EATOM!!)
 
 
 POSCAR: C8
  positions in direct lattice
  velocities in cartesian coordinates


 exchange-correlation table for PE
   RHO(1)=    0.500       N(1)  =     2000
   RHO(2)=  100.500       N(2)  =     4000
 


--------------------------------------------------------------------------------------------------------


 ion  position               nearest neighbor table
   1  0.250  0.250  0.250-   2 1.55   2 1.55   2 1.55   2 1.55
   2  0.000  0.000  0.000-   1 1.55   1 1.55   1 1.55   1 1.55
 
  LATTYP: Found a face centered cubic cell.
 ALAT       =     3.5737117542
  
  Lattice vectors:
  
 A1 = (   2.5269958153,   0.0000000000,   0.0000000000)
 A2 = (   1.2634979077,   2.1884425714,  -0.0000000000)
 A3 = (   1.2634979077,   0.7294808571,   2.0632834432)


Analysis of symmetry for initial positions (statically):
=====================================================================
 Subroutine PRICEL returns:
 Original cell was already a primitive cell.
 

 Routine SETGRP: Setting up the symmetry group for a 
 face centered cubic supercell.


 Subroutine GETGRP returns: Found 48 space group operations
 (whereof 24 operations were pure point group operations)
 out of a pool of 48 trial point group operations.


The static configuration has the point symmetry T_d .
 The point group associated with its full space group is O_h .


Analysis of symmetry for dynamics (positions and initial velocities):
=====================================================================
 Subroutine PRICEL returns:
 Original cell was already a primitive cell.
 

 Routine SETGRP: Setting up the symmetry group for a 
 face centered cubic supercell.


 Subroutine GETGRP returns: Found 48 space group operations
 (whereof 24 operations were pure point group operations)
 out of a pool of 48 trial point group operations.


The dynamic configuration has the point symmetry T_d .
 The point group associated with its full space group is O_h .


 Subroutine INISYM returns: Found 48 space group operations
 (whereof 24 operations are pure point group operations),
 and found     1 'primitive' translations


----------------------------------------------------------------------------------------

                                     Primitive cell                                     

  volume of cell :      11.4103

  direct lattice vectors                    reciprocal lattice vectors
     2.526995815  0.000000000  0.000000000     0.395726813 -0.228472982 -0.161554795
     1.263497908  2.188442571 -0.000000000    -0.000000000  0.456945964 -0.161554795
     1.263497908  0.729480857  2.063283443    -0.000000000  0.000000000  0.484664384

  length of vectors
     2.526995815  2.526995815  2.526995815     0.484664384  0.484664384  0.484664384

  position of ions in fractional coordinates (direct lattice)
     0.250000000  0.250000000  0.250000000
     0.000000000  0.000000000  0.000000000

  ion indices of the primitive-cell ions
   primitive index   ion index
                 1           1
                 2           2

----------------------------------------------------------------------------------------

 
 
 KPOINTS: k-density: 4.0                          

Automatic generation of k-mesh.
 Grid dimensions read from file:
 generate k-points for:   10   10   10

 Generating k-lattice:

  Cartesian coordinates                     Fractional coordinates (reciprocal lattice)
     0.039572681 -0.022847298 -0.016155479     0.100000000 -0.000000000  0.000000000
    -0.000000000  0.045694596 -0.016155479    -0.000000000  0.100000000  0.000000000
    -0.000000000  0.000000000  0.048466438     0.000000000 -0.000000000  0.100000000

  Length of vectors
     0.048466438  0.048466438  0.048466438

  Shift w.r.t. Gamma in fractional coordinates (k-lattice)
     0.000000000  0.000000000  0.000000000

 
 Subroutine IBZKPT returns following result:
 ===========================================
 
 Found     47 irreducible k-points:
 
 Following reciprocal coordinates:
            Coordinates               Weight
  0.000000  0.000000  0.000000      1.000000
  0.100000  0.000000  0.000000      8.000000
  0.200000  0.000000  0.000000      8.000000
  0.300000  0.000000  0.000000      8.000000
  0.400000  0.000000  0.000000      8.000000
  0.500000  0.000000  0.000000      4.000000
  0.100000  0.100000  0.000000      6.000000
  0.200000  0.100000  0.000000     24.000000
  0.300000  0.100000  0.000000     24.000000
  0.400000  0.100000  0.000000     24.000000
  0.500000  0.100000  0.000000     24.000000
 -0.400000  0.100000  0.000000     24.000000
 -0.300000  0.100000  0.000000     24.000000
 -0.200000  0.100000  0.000000     24.000000
 -0.100000  0.100000  0.000000     12.000000
  0.200000  0.200000  0.000000      6.000000
  0.300000  0.200000  0.000000     24.000000
  0.400000  0.200000  0.000000     24.000000
  0.500000  0.200000  0.000000     24.000000
 -0.400000  0.200000  0.000000     24.000000
 -0.300000  0.200000  0.000000     24.000000
 -0.200000  0.200000  0.000000     12.000000
  0.300000  0.300000  0.000000      6.000000
  0.400000  0.300000  0.000000     24.000000
  0.500000  0.300000  0.000000     24.000000
 -0.400000  0.300000  0.000000     24.000000
 -0.300000  0.300000  0.000000     12.000000
  0.400000  0.400000  0.000000      6.000000
  0.500000  0.400000  0.000000     24.000000
 -0.400000  0.400000  0.000000     12.000000
  0.500000  0.500000  0.000000      3.000000
  0.300000  0.200000  0.100000     24.000000
  0.400000  0.200000  0.100000     48.000000
  0.500000  0.200000  0.100000     48.000000
 -0.400000  0.200000  0.100000     24.000000
  0.400000  0.300000  0.100000     24.000000
  0.500000  0.300000  0.100000     48.000000
 -0.400000  0.300000  0.100000     48.000000
 -0.300000  0.300000  0.100000     48.000000
 -0.200000  0.300000  0.100000     24.000000
  0.500000  0.400000  0.100000     24.000000
 -0.400000  0.400000  0.100000     48.000000
 -0.300000  0.400000  0.100000     24.000000
 -0.400000  0.500000  0.100000     12.000000
 -0.400000  0.400000  0.200000     24.000000
 -0.300000  0.400000  0.200000     24.000000
 -0.300000  0.500000  0.200000     12.000000
 
 Following cartesian coordinates:
            Coordinates               Weight
  0.000000  0.000000  0.000000      1.000000
  0.039573 -0.022847 -0.016155      8.000000
  0.079145 -0.045695 -0.032311      8.000000
  0.118718 -0.068542 -0.048466      8.000000
  0.158291 -0.091389 -0.064622      8.000000
  0.197863 -0.114236 -0.080777      4.000000
  0.039573  0.022847 -0.032311      6.000000
  0.079145 -0.000000 -0.048466     24.000000
  0.118718 -0.022847 -0.064622     24.000000
  0.158291 -0.045695 -0.080777     24.000000
  0.197863 -0.068542 -0.096933     24.000000
 -0.158291  0.137084  0.048466     24.000000
 -0.118718  0.114236  0.032311     24.000000
 -0.079145  0.091389  0.016155     24.000000
 -0.039573  0.068542  0.000000     12.000000
  0.079145  0.045695 -0.064622      6.000000
  0.118718  0.022847 -0.080777     24.000000
  0.158291 -0.000000 -0.096933     24.000000
  0.197863 -0.022847 -0.113088     24.000000
 -0.158291  0.182778  0.032311     24.000000
 -0.118718  0.159931  0.016155     24.000000
 -0.079145  0.137084  0.000000     12.000000
  0.118718  0.068542 -0.096933      6.000000
  0.158291  0.045695 -0.113088     24.000000
  0.197863  0.022847 -0.129244     24.000000
 -0.158291  0.228473  0.016155     24.000000
 -0.118718  0.205626  0.000000     12.000000
  0.158291  0.091389 -0.129244      6.000000
  0.197863  0.068542 -0.145399     24.000000
 -0.158291  0.274168  0.000000     12.000000
  0.197863  0.114236 -0.161555      3.000000
  0.118718  0.022847 -0.032311     24.000000
  0.158291 -0.000000 -0.048466     48.000000
  0.197863 -0.022847 -0.064622     48.000000
 -0.158291  0.182778  0.080777     24.000000
  0.158291  0.045695 -0.064622     24.000000
  0.197863  0.022847 -0.080777     48.000000
 -0.158291  0.228473  0.064622     48.000000
 -0.118718  0.205626  0.048466     48.000000
 -0.079145  0.182778  0.032311     24.000000
  0.197863  0.068542 -0.096933     24.000000
 -0.158291  0.274168  0.048466     48.000000
 -0.118718  0.251320  0.032311     24.000000
 -0.158291  0.319862  0.032311     12.000000
 -0.158291  0.274168  0.096933     24.000000
 -0.118718  0.251320  0.080777     24.000000
 -0.118718  0.297015  0.064622     12.000000
 
 
 Subroutine IBZKPT_HF returns following result:
 ==============================================
 
 Found   1000 k-points in 1st BZ
 the following   1000 k-points will be used (e.g. in the exchange kernel)
 Following reciprocal coordinates:   # in IRBZ
  0.000000  0.000000  0.000000    0.00100000   1 t-inv F
  0.100000  0.000000  0.000000    0.00100000   2 t-inv F
  0.200000  0.000000  0.000000    0.00100000   3 t-inv F
  0.300000  0.000000  0.000000    0.00100000   4 t-inv F
  0.400000  0.000000  0.000000    0.00100000   5 t-inv F
  0.500000  0.000000  0.000000    0.00100000   6 t-inv F
  0.100000  0.100000  0.000000    0.00100000   7 t-inv F
  0.200000  0.100000  0.000000    0.00100000   8 t-inv F
  0.300000  0.100000  0.000000    0.00100000   9 t-inv F
  0.400000  0.100000  0.000000    0.00100000  10 t-inv F
  0.500000  0.100000  0.000000    0.00100000  11 t-inv F
 -0.400000  0.100000  0.000000    0.00100000  12 t-inv F
 -0.300000  0.100000  0.000000    0.00100000  13 t-inv F
 -0.200000  0.100000  0.000000    0.00100000  14 t-inv F
 -0.100000  0.100000  0.000000    0.00100000  15 t-inv F
  0.200000  0.200000  0.000000    0.00100000  16 t-inv F
  0.300000  0.200000  0.000000    0.00100000  17 t-inv F
  0.400000  0.200000  0.000000    0.00100000  18 t-inv F
  0.500000  0.200000  0.000000    0.00100000  19 t-inv F
 -0.400000  0.200000  0.000000    0.00100000  20 t-inv F
 -0.300000  0.200000  0.000000    0.00100000  21 t-inv F
 -0.200000  0.200000  0.000000    0.00100000  22 t-inv F
  0.300000  0.300000  0.000000    0.00100000  23 t-inv F
  0.400000  0.300000  0.000000    0.00100000  24 t-inv F
  0.500000  0.300000  0.000000    0.00100000  25 t-inv F
 -0.400000  0.300000  0.000000    0.00100000  26 t-inv F
 -0.300000  0.300000  0.000000    0.00100000  27 t-inv F
  0.400000  0.400000  0.000000    0.00100000  28 t-inv F
  0.500000  0.400000  0.000000    0.00100000  29 t-inv F
 -0.400000  0.400000  0.000000    0.00100000  30 t-inv F
  0.500000  0.500000  0.000000    0.00100000  31 t-inv F
  0.300000  0.200000  0.100000    0.00100000  32 t-inv F
  0.400000  0.200000  0.100000    0.00100000  33 t-inv F
  0.500000  0.200000  0.100000    0.00100000  34 t-inv F
 -0.400000  0.200000  0.100000    0.00100000  35 t-inv F
  0.400000  0.300000  0.100000    0.00100000  36 t-inv F
  0.500000  0.300000  0.100000    0.00100000  37 t-inv F
 -0.400000  0.300000  0.100000    0.00100000  38 t-inv F
 -0.300000  0.300000  0.100000    0.00100000  39 t-inv F
 -0.200000  0.300000  0.100000    0.00100000  40 t-inv F
  0.500000  0.400000  0.100000    0.00100000  41 t-inv F
 -0.400000  0.400000  0.100000    0.00100000  42 t-inv F
 -0.300000  0.400000  0.100000    0.00100000  43 t-inv F
 -0.400000  0.500000  0.100000    0.00100000  44 t-inv F
 -0.400000  0.400000  0.200000    0.00100000  45 t-inv F
 -0.300000  0.400000  0.200000    0.00100000  46 t-inv F
 -0.300000  0.500000  0.200000    0.00100000  47 t-inv F
  0.000000  0.100000  0.000000    0.00100000   2 t-inv F
  0.000000  0.000000  0.100000    0.00100000   2 t-inv F
 -0.100000 -0.100000 -0.100000    0.00100000   2 t-inv F
 -0.100000 -0.000000 -0.000000    0.00100000   2 t-inv F
 -0.000000 -0.100000 -0.000000    0.00100000   2 t-inv F
 -0.000000 -0.000000 -0.100000    0.00100000   2 t-inv F
  0.100000  0.100000  0.100000    0.00100000   2 t-inv F
  0.000000  0.200000  0.000000    0.00100000   3 t-inv F
  0.000000  0.000000  0.200000    0.00100000   3 t-inv F
 -0.200000 -0.200000 -0.200000    0.00100000   3 t-inv F
 -0.200000 -0.000000 -0.000000    0.00100000   3 t-inv F
 -0.000000 -0.200000 -0.000000    0.00100000   3 t-inv F
 -0.000000 -0.000000 -0.200000    0.00100000   3 t-inv F
  0.200000  0.200000  0.200000    0.00100000   3 t-inv F
  0.000000  0.300000  0.000000    0.00100000   4 t-inv F
  0.000000  0.000000  0.300000    0.00100000   4 t-inv F
 -0.300000 -0.300000 -0.300000    0.00100000   4 t-inv F
 -0.300000 -0.000000 -0.000000    0.00100000   4 t-inv F
 -0.000000 -0.300000 -0.000000    0.00100000   4 t-inv F
 -0.000000 -0.000000 -0.300000    0.00100000   4 t-inv F
  0.300000  0.300000  0.300000    0.00100000   4 t-inv F
  0.000000  0.400000  0.000000    0.00100000   5 t-inv F
  0.000000  0.000000  0.400000    0.00100000   5 t-inv F
 -0.400000 -0.400000 -0.400000    0.00100000   5 t-inv F
 -0.400000 -0.000000 -0.000000    0.00100000   5 t-inv F
 -0.000000 -0.400000 -0.000000    0.00100000   5 t-inv F
 -0.000000 -0.000000 -0.400000    0.00100000   5 t-inv F
  0.400000  0.400000  0.400000    0.00100000   5 t-inv F
  0.000000  0.500000  0.000000    0.00100000   6 t-inv F
  0.000000  0.000000  0.500000    0.00100000   6 t-inv F
 -0.500000 -0.500000 -0.500000    0.00100000   6 t-inv F
  0.000000  0.100000  0.100000    0.00100000   7 t-inv F
  0.100000  0.000000  0.100000    0.00100000   7 t-inv F
 -0.100000 -0.100000  0.000000    0.00100000   7 t-inv F
 -0.100000  0.000000 -0.100000    0.00100000   7 t-inv F
  0.000000 -0.100000 -0.100000    0.00100000   7 t-inv F
  0.000000  0.200000  0.100000    0.00100000   8 t-inv F
  0.100000  0.000000  0.200000    0.00100000   8 t-inv F
 -0.100000 -0.100000  0.100000    0.00100000   8 t-inv F
 -0.200000 -0.100000 -0.200000    0.00100000   8 t-inv F
  0.100000  0.200000 -0.000000    0.00100000   8 t-inv F
  0.100000 -0.100000 -0.100000    0.00100000   8 t-inv F
 -0.200000 -0.200000 -0.100000    0.00100000   8 t-inv F
 -0.000000  0.100000  0.200000    0.00100000   8 t-inv F
 -0.100000  0.100000 -0.100000    0.00100000   8 t-inv F
 -0.100000 -0.200000 -0.200000    0.00100000   8 t-inv F
  0.200000 -0.000000  0.100000    0.00100000   8 t-inv F
 -0.200000 -0.100000 -0.000000    0.00100000   8 t-inv F
 -0.000000 -0.200000 -0.100000    0.00100000   8 t-inv F
 -0.100000 -0.000000 -0.200000    0.00100000   8 t-inv F
  0.100000  0.100000 -0.100000    0.00100000   8 t-inv F
  0.200000  0.100000  0.200000    0.00100000   8 t-inv F
 -0.100000 -0.200000  0.000000    0.00100000   8 t-inv F
 -0.100000  0.100000  0.100000    0.00100000   8 t-inv F
  0.200000  0.200000  0.100000    0.00100000   8 t-inv F
  0.000000 -0.100000 -0.200000    0.00100000   8 t-inv F
  0.100000 -0.100000  0.100000    0.00100000   8 t-inv F
  0.100000  0.200000  0.200000    0.00100000   8 t-inv F
 -0.200000  0.000000 -0.100000    0.00100000   8 t-inv F
  0.000000  0.300000  0.100000    0.00100000   9 t-inv F
  0.100000  0.000000  0.300000    0.00100000   9 t-inv F
 -0.100000 -0.100000  0.200000    0.00100000   9 t-inv F
 -0.300000 -0.200000 -0.300000    0.00100000   9 t-inv F
  0.100000  0.300000 -0.000000    0.00100000   9 t-inv F
  0.200000 -0.100000 -0.100000    0.00100000   9 t-inv F
 -0.300000 -0.300000 -0.200000    0.00100000   9 t-inv F
 -0.000000  0.100000  0.300000    0.00100000   9 t-inv F
 -0.100000  0.200000 -0.100000    0.00100000   9 t-inv F
 -0.200000 -0.300000 -0.300000    0.00100000   9 t-inv F
  0.300000 -0.000000  0.100000    0.00100000   9 t-inv F
 -0.300000 -0.100000 -0.000000    0.00100000   9 t-inv F
 -0.000000 -0.300000 -0.100000    0.00100000   9 t-inv F
 -0.100000 -0.000000 -0.300000    0.00100000   9 t-inv F
  0.100000  0.100000 -0.200000    0.00100000   9 t-inv F
  0.300000  0.200000  0.300000    0.00100000   9 t-inv F
 -0.100000 -0.300000  0.000000    0.00100000   9 t-inv F
 -0.200000  0.100000  0.100000    0.00100000   9 t-inv F
  0.300000  0.300000  0.200000    0.00100000   9 t-inv F
  0.000000 -0.100000 -0.300000    0.00100000   9 t-inv F
  0.100000 -0.200000  0.100000    0.00100000   9 t-inv F
  0.200000  0.300000  0.300000    0.00100000   9 t-inv F
 -0.300000  0.000000 -0.100000    0.00100000   9 t-inv F
  0.000000  0.400000  0.100000    0.00100000  10 t-inv F
  0.100000  0.000000  0.400000    0.00100000  10 t-inv F
 -0.100000 -0.100000  0.300000    0.00100000  10 t-inv F
 -0.400000 -0.300000 -0.400000    0.00100000  10 t-inv F
  0.100000  0.400000 -0.000000    0.00100000  10 t-inv F
  0.300000 -0.100000 -0.100000    0.00100000  10 t-inv F
 -0.400000 -0.400000 -0.300000    0.00100000  10 t-inv F
 -0.000000  0.100000  0.400000    0.00100000  10 t-inv F
 -0.100000  0.300000 -0.100000    0.00100000  10 t-inv F
 -0.300000 -0.400000 -0.400000    0.00100000  10 t-inv F
  0.400000 -0.000000  0.100000    0.00100000  10 t-inv F
 -0.400000 -0.100000 -0.000000    0.00100000  10 t-inv F
 -0.000000 -0.400000 -0.100000    0.00100000  10 t-inv F
 -0.100000 -0.000000 -0.400000    0.00100000  10 t-inv F
  0.100000  0.100000 -0.300000    0.00100000  10 t-inv F
  0.400000  0.300000  0.400000    0.00100000  10 t-inv F
 -0.100000 -0.400000  0.000000    0.00100000  10 t-inv F
 -0.300000  0.100000  0.100000    0.00100000  10 t-inv F
  0.400000  0.400000  0.300000    0.00100000  10 t-inv F
  0.000000 -0.100000 -0.400000    0.00100000  10 t-inv F
  0.100000 -0.300000  0.100000    0.00100000  10 t-inv F
  0.300000  0.400000  0.400000    0.00100000  10 t-inv F
 -0.400000  0.000000 -0.100000    0.00100000  10 t-inv F
  0.000000  0.500000  0.100000    0.00100000  11 t-inv F
  0.100000  0.000000  0.500000    0.00100000  11 t-inv F
 -0.100000 -0.100000  0.400000    0.00100000  11 t-inv F
 -0.500000 -0.400000 -0.500000    0.00100000  11 t-inv F
  0.100000  0.500000 -0.000000    0.00100000  11 t-inv F
  0.400000 -0.100000 -0.100000    0.00100000  11 t-inv F
 -0.500000 -0.500000 -0.400000    0.00100000  11 t-inv F
 -0.000000  0.100000  0.500000    0.00100000  11 t-inv F
 -0.100000  0.400000 -0.100000    0.00100000  11 t-inv F
 -0.400000 -0.500000 -0.500000    0.00100000  11 t-inv F
  0.500000 -0.000000  0.100000    0.00100000  11 t-inv F
 -0.500000 -0.100000 -0.000000    0.00100000  11 t-inv F
 -0.000000 -0.500000 -0.100000    0.00100000  11 t-inv F
 -0.100000 -0.000000 -0.500000    0.00100000  11 t-inv F
  0.100000  0.100000 -0.400000    0.00100000  11 t-inv F
  0.500000  0.400000  0.500000    0.00100000  11 t-inv F
 -0.100000 -0.500000  0.000000    0.00100000  11 t-inv F
 -0.400000  0.100000  0.100000    0.00100000  11 t-inv F
  0.500000  0.500000  0.400000    0.00100000  11 t-inv F
  0.000000 -0.100000 -0.500000    0.00100000  11 t-inv F
  0.100000 -0.400000  0.100000    0.00100000  11 t-inv F
  0.400000  0.500000  0.500000    0.00100000  11 t-inv F
 -0.500000  0.000000 -0.100000    0.00100000  11 t-inv F
  0.000000 -0.400000  0.100000    0.00100000  12 t-inv F
  0.100000  0.000000 -0.400000    0.00100000  12 t-inv F
 -0.100000 -0.100000 -0.500000    0.00100000  12 t-inv F
  0.400000  0.500000  0.400000    0.00100000  12 t-inv F
  0.100000 -0.400000 -0.000000    0.00100000  12 t-inv F
 -0.500000 -0.100000 -0.100000    0.00100000  12 t-inv F
  0.400000  0.400000  0.500000    0.00100000  12 t-inv F
 -0.000000  0.100000 -0.400000    0.00100000  12 t-inv F
 -0.100000 -0.500000 -0.100000    0.00100000  12 t-inv F
  0.500000  0.400000  0.400000    0.00100000  12 t-inv F
 -0.400000 -0.000000  0.100000    0.00100000  12 t-inv F
  0.400000 -0.100000 -0.000000    0.00100000  12 t-inv F
 -0.000000  0.400000 -0.100000    0.00100000  12 t-inv F
 -0.100000 -0.000000  0.400000    0.00100000  12 t-inv F
  0.100000  0.100000  0.500000    0.00100000  12 t-inv F
 -0.400000 -0.500000 -0.400000    0.00100000  12 t-inv F
 -0.100000  0.400000  0.000000    0.00100000  12 t-inv F
  0.500000  0.100000  0.100000    0.00100000  12 t-inv F
 -0.400000 -0.400000 -0.500000    0.00100000  12 t-inv F
  0.000000 -0.100000  0.400000    0.00100000  12 t-inv F
  0.100000  0.500000  0.100000    0.00100000  12 t-inv F
 -0.500000 -0.400000 -0.400000    0.00100000  12 t-inv F
  0.400000  0.000000 -0.100000    0.00100000  12 t-inv F
  0.000000 -0.300000  0.100000    0.00100000  13 t-inv F
  0.100000  0.000000 -0.300000    0.00100000  13 t-inv F
 -0.100000 -0.100000 -0.400000    0.00100000  13 t-inv F
  0.300000  0.400000  0.300000    0.00100000  13 t-inv F
  0.100000 -0.300000 -0.000000    0.00100000  13 t-inv F
 -0.400000 -0.100000 -0.100000    0.00100000  13 t-inv F
  0.300000  0.300000  0.400000    0.00100000  13 t-inv F
 -0.000000  0.100000 -0.300000    0.00100000  13 t-inv F
 -0.100000 -0.400000 -0.100000    0.00100000  13 t-inv F
  0.400000  0.300000  0.300000    0.00100000  13 t-inv F
 -0.300000 -0.000000  0.100000    0.00100000  13 t-inv F
  0.300000 -0.100000 -0.000000    0.00100000  13 t-inv F
 -0.000000  0.300000 -0.100000    0.00100000  13 t-inv F
 -0.100000 -0.000000  0.300000    0.00100000  13 t-inv F
  0.100000  0.100000  0.400000    0.00100000  13 t-inv F
 -0.300000 -0.400000 -0.300000    0.00100000  13 t-inv F
 -0.100000  0.300000  0.000000    0.00100000  13 t-inv F
  0.400000  0.100000  0.100000    0.00100000  13 t-inv F
 -0.300000 -0.300000 -0.400000    0.00100000  13 t-inv F
  0.000000 -0.100000  0.300000    0.00100000  13 t-inv F
  0.100000  0.400000  0.100000    0.00100000  13 t-inv F
 -0.400000 -0.300000 -0.300000    0.00100000  13 t-inv F
  0.300000  0.000000 -0.100000    0.00100000  13 t-inv F
  0.000000 -0.200000  0.100000    0.00100000  14 t-inv F
  0.100000  0.000000 -0.200000    0.00100000  14 t-inv F
 -0.100000 -0.100000 -0.300000    0.00100000  14 t-inv F
  0.200000  0.300000  0.200000    0.00100000  14 t-inv F
  0.100000 -0.200000 -0.000000    0.00100000  14 t-inv F
 -0.300000 -0.100000 -0.100000    0.00100000  14 t-inv F
  0.200000  0.200000  0.300000    0.00100000  14 t-inv F
 -0.000000  0.100000 -0.200000    0.00100000  14 t-inv F
 -0.100000 -0.300000 -0.100000    0.00100000  14 t-inv F
  0.300000  0.200000  0.200000    0.00100000  14 t-inv F
 -0.200000 -0.000000  0.100000    0.00100000  14 t-inv F
  0.200000 -0.100000 -0.000000    0.00100000  14 t-inv F
 -0.000000  0.200000 -0.100000    0.00100000  14 t-inv F
 -0.100000 -0.000000  0.200000    0.00100000  14 t-inv F
  0.100000  0.100000  0.300000    0.00100000  14 t-inv F
 -0.200000 -0.300000 -0.200000    0.00100000  14 t-inv F
 -0.100000  0.200000  0.000000    0.00100000  14 t-inv F
  0.300000  0.100000  0.100000    0.00100000  14 t-inv F
 -0.200000 -0.200000 -0.300000    0.00100000  14 t-inv F
  0.000000 -0.100000  0.200000    0.00100000  14 t-inv F
  0.100000  0.300000  0.100000    0.00100000  14 t-inv F
 -0.300000 -0.200000 -0.200000    0.00100000  14 t-inv F
  0.200000  0.000000 -0.100000    0.00100000  14 t-inv F
  0.000000 -0.100000  0.100000    0.00100000  15 t-inv F
  0.100000  0.000000 -0.100000    0.00100000  15 t-inv F
 -0.100000 -0.100000 -0.200000    0.00100000  15 t-inv F
  0.100000  0.200000  0.100000    0.00100000  15 t-inv F
  0.100000 -0.100000 -0.000000    0.00100000  15 t-inv F
 -0.200000 -0.100000 -0.100000    0.00100000  15 t-inv F
  0.100000  0.100000  0.200000    0.00100000  15 t-inv F
 -0.000000  0.100000 -0.100000    0.00100000  15 t-inv F
 -0.100000 -0.200000 -0.100000    0.00100000  15 t-inv F
  0.200000  0.100000  0.100000    0.00100000  15 t-inv F
 -0.100000 -0.000000  0.100000    0.00100000  15 t-inv F
  0.000000  0.200000  0.200000    0.00100000  16 t-inv F
  0.200000  0.000000  0.200000    0.00100000  16 t-inv F
 -0.200000 -0.200000  0.000000    0.00100000  16 t-inv F
 -0.200000  0.000000 -0.200000    0.00100000  16 t-inv F
  0.000000 -0.200000 -0.200000    0.00100000  16 t-inv F
  0.000000  0.300000  0.200000    0.00100000  17 t-inv F
  0.200000  0.000000  0.300000    0.00100000  17 t-inv F
 -0.200000 -0.200000  0.100000    0.00100000  17 t-inv F
 -0.300000 -0.100000 -0.300000    0.00100000  17 t-inv F
  0.200000  0.300000 -0.000000    0.00100000  17 t-inv F
  0.100000 -0.200000 -0.200000    0.00100000  17 t-inv F
 -0.300000 -0.300000 -0.100000    0.00100000  17 t-inv F
 -0.000000  0.200000  0.300000    0.00100000  17 t-inv F
 -0.200000  0.100000 -0.200000    0.00100000  17 t-inv F
 -0.100000 -0.300000 -0.300000    0.00100000  17 t-inv F
  0.300000 -0.000000  0.200000    0.00100000  17 t-inv F
 -0.300000 -0.200000 -0.000000    0.00100000  17 t-inv F
 -0.000000 -0.300000 -0.200000    0.00100000  17 t-inv F
 -0.200000 -0.000000 -0.300000    0.00100000  17 t-inv F
  0.200000  0.200000 -0.100000    0.00100000  17 t-inv F
  0.300000  0.100000  0.300000    0.00100000  17 t-inv F
 -0.200000 -0.300000  0.000000    0.00100000  17 t-inv F
 -0.100000  0.200000  0.200000    0.00100000  17 t-inv F
  0.300000  0.300000  0.100000    0.00100000  17 t-inv F
  0.000000 -0.200000 -0.300000    0.00100000  17 t-inv F
  0.200000 -0.100000  0.200000    0.00100000  17 t-inv F
  0.100000  0.300000  0.300000    0.00100000  17 t-inv F
 -0.300000  0.000000 -0.200000    0.00100000  17 t-inv F
  0.000000  0.400000  0.200000    0.00100000  18 t-inv F
  0.200000  0.000000  0.400000    0.00100000  18 t-inv F
 -0.200000 -0.200000  0.200000    0.00100000  18 t-inv F
 -0.400000 -0.200000 -0.400000    0.00100000  18 t-inv F
  0.200000  0.400000 -0.000000    0.00100000  18 t-inv F
  0.200000 -0.200000 -0.200000    0.00100000  18 t-inv F
 -0.400000 -0.400000 -0.200000    0.00100000  18 t-inv F
 -0.000000  0.200000  0.400000    0.00100000  18 t-inv F
 -0.200000  0.200000 -0.200000    0.00100000  18 t-inv F
 -0.200000 -0.400000 -0.400000    0.00100000  18 t-inv F
  0.400000 -0.000000  0.200000    0.00100000  18 t-inv F
 -0.400000 -0.200000 -0.000000    0.00100000  18 t-inv F
 -0.000000 -0.400000 -0.200000    0.00100000  18 t-inv F
 -0.200000 -0.000000 -0.400000    0.00100000  18 t-inv F
  0.200000  0.200000 -0.200000    0.00100000  18 t-inv F
  0.400000  0.200000  0.400000    0.00100000  18 t-inv F
 -0.200000 -0.400000  0.000000    0.00100000  18 t-inv F
 -0.200000  0.200000  0.200000    0.00100000  18 t-inv F
  0.400000  0.400000  0.200000    0.00100000  18 t-inv F
  0.000000 -0.200000 -0.400000    0.00100000  18 t-inv F
  0.200000 -0.200000  0.200000    0.00100000  18 t-inv F
  0.200000  0.400000  0.400000    0.00100000  18 t-inv F
 -0.400000  0.000000 -0.200000    0.00100000  18 t-inv F
  0.000000  0.500000  0.200000    0.00100000  19 t-inv F
  0.200000  0.000000  0.500000    0.00100000  19 t-inv F
 -0.200000 -0.200000  0.300000    0.00100000  19 t-inv F
 -0.500000 -0.300000 -0.500000    0.00100000  19 t-inv F
  0.200000  0.500000 -0.000000    0.00100000  19 t-inv F
  0.300000 -0.200000 -0.200000    0.00100000  19 t-inv F
 -0.500000 -0.500000 -0.300000    0.00100000  19 t-inv F
 -0.000000  0.200000  0.500000    0.00100000  19 t-inv F
 -0.200000  0.300000 -0.200000    0.00100000  19 t-inv F
 -0.300000 -0.500000 -0.500000    0.00100000  19 t-inv F
  0.500000 -0.000000  0.200000    0.00100000  19 t-inv F
 -0.500000 -0.200000 -0.000000    0.00100000  19 t-inv F
 -0.000000 -0.500000 -0.200000    0.00100000  19 t-inv F
 -0.200000 -0.000000 -0.500000    0.00100000  19 t-inv F
  0.200000  0.200000 -0.300000    0.00100000  19 t-inv F
  0.500000  0.300000  0.500000    0.00100000  19 t-inv F
 -0.200000 -0.500000  0.000000    0.00100000  19 t-inv F
 -0.300000  0.200000  0.200000    0.00100000  19 t-inv F
  0.500000  0.500000  0.300000    0.00100000  19 t-inv F
  0.000000 -0.200000 -0.500000    0.00100000  19 t-inv F
  0.200000 -0.300000  0.200000    0.00100000  19 t-inv F
  0.300000  0.500000  0.500000    0.00100000  19 t-inv F
 -0.500000  0.000000 -0.200000    0.00100000  19 t-inv F
  0.000000 -0.400000  0.200000    0.00100000  20 t-inv F
  0.200000  0.000000 -0.400000    0.00100000  20 t-inv F
 -0.200000 -0.200000 -0.600000    0.00100000  20 t-inv F
  0.400000  0.600000  0.400000    0.00100000  20 t-inv F
  0.200000 -0.400000 -0.000000    0.00100000  20 t-inv F
 -0.600000 -0.200000 -0.200000    0.00100000  20 t-inv F
  0.400000  0.400000  0.600000    0.00100000  20 t-inv F
 -0.000000  0.200000 -0.400000    0.00100000  20 t-inv F
 -0.200000 -0.600000 -0.200000    0.00100000  20 t-inv F
  0.600000  0.400000  0.400000    0.00100000  20 t-inv F
 -0.400000 -0.000000  0.200000    0.00100000  20 t-inv F
  0.400000 -0.200000 -0.000000    0.00100000  20 t-inv F
 -0.000000  0.400000 -0.200000    0.00100000  20 t-inv F
 -0.200000 -0.000000  0.400000    0.00100000  20 t-inv F
  0.200000  0.200000  0.600000    0.00100000  20 t-inv F
 -0.400000 -0.600000 -0.400000    0.00100000  20 t-inv F
 -0.200000  0.400000  0.000000    0.00100000  20 t-inv F
  0.600000  0.200000  0.200000    0.00100000  20 t-inv F
 -0.400000 -0.400000 -0.600000    0.00100000  20 t-inv F
  0.000000 -0.200000  0.400000    0.00100000  20 t-inv F
  0.200000  0.600000  0.200000    0.00100000  20 t-inv F
 -0.600000 -0.400000 -0.400000    0.00100000  20 t-inv F
  0.400000  0.000000 -0.200000    0.00100000  20 t-inv F
  0.000000 -0.300000  0.200000    0.00100000  21 t-inv F
  0.200000  0.000000 -0.300000    0.00100000  21 t-inv F
 -0.200000 -0.200000 -0.500000    0.00100000  21 t-inv F
  0.300000  0.500000  0.300000    0.00100000  21 t-inv F
  0.200000 -0.300000 -0.000000    0.00100000  21 t-inv F
 -0.500000 -0.200000 -0.200000    0.00100000  21 t-inv F
  0.300000  0.300000  0.500000    0.00100000  21 t-inv F
 -0.000000  0.200000 -0.300000    0.00100000  21 t-inv F
 -0.200000 -0.500000 -0.200000    0.00100000  21 t-inv F
  0.500000  0.300000  0.300000    0.00100000  21 t-inv F
 -0.300000 -0.000000  0.200000    0.00100000  21 t-inv F
  0.300000 -0.200000 -0.000000    0.00100000  21 t-inv F
 -0.000000  0.300000 -0.200000    0.00100000  21 t-inv F
 -0.200000 -0.000000  0.300000    0.00100000  21 t-inv F
  0.200000  0.200000  0.500000    0.00100000  21 t-inv F
 -0.300000 -0.500000 -0.300000    0.00100000  21 t-inv F
 -0.200000  0.300000  0.000000    0.00100000  21 t-inv F
  0.500000  0.200000  0.200000    0.00100000  21 t-inv F
 -0.300000 -0.300000 -0.500000    0.00100000  21 t-inv F
  0.000000 -0.200000  0.300000    0.00100000  21 t-inv F
  0.200000  0.500000  0.200000    0.00100000  21 t-inv F
 -0.500000 -0.300000 -0.300000    0.00100000  21 t-inv F
  0.300000  0.000000 -0.200000    0.00100000  21 t-inv F
  0.000000 -0.200000  0.200000    0.00100000  22 t-inv F
  0.200000  0.000000 -0.200000    0.00100000  22 t-inv F
 -0.200000 -0.200000 -0.400000    0.00100000  22 t-inv F
  0.200000  0.400000  0.200000    0.00100000  22 t-inv F
  0.200000 -0.200000 -0.000000    0.00100000  22 t-inv F
 -0.400000 -0.200000 -0.200000    0.00100000  22 t-inv F
  0.200000  0.200000  0.400000    0.00100000  22 t-inv F
 -0.000000  0.200000 -0.200000    0.00100000  22 t-inv F
 -0.200000 -0.400000 -0.200000    0.00100000  22 t-inv F
  0.400000  0.200000  0.200000    0.00100000  22 t-inv F
 -0.200000 -0.000000  0.200000    0.00100000  22 t-inv F
  0.000000  0.300000  0.300000    0.00100000  23 t-inv F
  0.300000  0.000000  0.300000    0.00100000  23 t-inv F
 -0.300000 -0.300000 -0.000000    0.00100000  23 t-inv F
 -0.300000  0.000000 -0.300000    0.00100000  23 t-inv F
 -0.000000 -0.300000 -0.300000    0.00100000  23 t-inv F
  0.000000  0.400000  0.300000    0.00100000  24 t-inv F
  0.300000  0.000000  0.400000    0.00100000  24 t-inv F
 -0.300000 -0.300000  0.100000    0.00100000  24 t-inv F
 -0.400000 -0.100000 -0.400000    0.00100000  24 t-inv F
  0.300000  0.400000 -0.000000    0.00100000  24 t-inv F
  0.100000 -0.300000 -0.300000    0.00100000  24 t-inv F
 -0.400000 -0.400000 -0.100000    0.00100000  24 t-inv F
 -0.000000  0.300000  0.400000    0.00100000  24 t-inv F
 -0.300000  0.100000 -0.300000    0.00100000  24 t-inv F
 -0.100000 -0.400000 -0.400000    0.00100000  24 t-inv F
  0.400000 -0.000000  0.300000    0.00100000  24 t-inv F
 -0.400000 -0.300000 -0.000000    0.00100000  24 t-inv F
 -0.000000 -0.400000 -0.300000    0.00100000  24 t-inv F
 -0.300000 -0.000000 -0.400000    0.00100000  24 t-inv F
  0.300000  0.300000 -0.100000    0.00100000  24 t-inv F
  0.400000  0.100000  0.400000    0.00100000  24 t-inv F
 -0.300000 -0.400000  0.000000    0.00100000  24 t-inv F
 -0.100000  0.300000  0.300000    0.00100000  24 t-inv F
  0.400000  0.400000  0.100000    0.00100000  24 t-inv F
  0.000000 -0.300000 -0.400000    0.00100000  24 t-inv F
  0.300000 -0.100000  0.300000    0.00100000  24 t-inv F
  0.100000  0.400000  0.400000    0.00100000  24 t-inv F
 -0.400000  0.000000 -0.300000    0.00100000  24 t-inv F
  0.000000  0.500000  0.300000    0.00100000  25 t-inv F
  0.300000  0.000000  0.500000    0.00100000  25 t-inv F
 -0.300000 -0.300000  0.200000    0.00100000  25 t-inv F
 -0.500000 -0.200000 -0.500000    0.00100000  25 t-inv F
  0.300000  0.500000 -0.000000    0.00100000  25 t-inv F
  0.200000 -0.300000 -0.300000    0.00100000  25 t-inv F
 -0.500000 -0.500000 -0.200000    0.00100000  25 t-inv F
 -0.000000  0.300000  0.500000    0.00100000  25 t-inv F
 -0.300000  0.200000 -0.300000    0.00100000  25 t-inv F
 -0.200000 -0.500000 -0.500000    0.00100000  25 t-inv F
  0.500000 -0.000000  0.300000    0.00100000  25 t-inv F
 -0.500000 -0.300000 -0.000000    0.00100000  25 t-inv F
 -0.000000 -0.500000 -0.300000    0.00100000  25 t-inv F
 -0.300000 -0.000000 -0.500000    0.00100000  25 t-inv F
  0.300000  0.300000 -0.200000    0.00100000  25 t-inv F
  0.500000  0.200000  0.500000    0.00100000  25 t-inv F
 -0.300000 -0.500000  0.000000    0.00100000  25 t-inv F
 -0.200000  0.300000  0.300000    0.00100000  25 t-inv F
  0.500000  0.500000  0.200000    0.00100000  25 t-inv F
  0.000000 -0.300000 -0.500000    0.00100000  25 t-inv F
  0.300000 -0.200000  0.300000    0.00100000  25 t-inv F
  0.200000  0.500000  0.500000    0.00100000  25 t-inv F
 -0.500000  0.000000 -0.300000    0.00100000  25 t-inv F
  0.000000 -0.400000  0.300000    0.00100000  26 t-inv F
  0.300000  0.000000 -0.400000    0.00100000  26 t-inv F
 -0.300000 -0.300000 -0.700000    0.00100000  26 t-inv F
  0.400000  0.700000  0.400000    0.00100000  26 t-inv F
  0.300000 -0.400000 -0.000000    0.00100000  26 t-inv F
 -0.700000 -0.300000 -0.300000    0.00100000  26 t-inv F
  0.400000  0.400000  0.700000    0.00100000  26 t-inv F
 -0.000000  0.300000 -0.400000    0.00100000  26 t-inv F
 -0.300000 -0.700000 -0.300000    0.00100000  26 t-inv F
  0.700000  0.400000  0.400000    0.00100000  26 t-inv F
 -0.400000 -0.000000  0.300000    0.00100000  26 t-inv F
  0.400000 -0.300000 -0.000000    0.00100000  26 t-inv F
 -0.000000  0.400000 -0.300000    0.00100000  26 t-inv F
 -0.300000 -0.000000  0.400000    0.00100000  26 t-inv F
  0.300000  0.300000  0.700000    0.00100000  26 t-inv F
 -0.400000 -0.700000 -0.400000    0.00100000  26 t-inv F
 -0.300000  0.400000  0.000000    0.00100000  26 t-inv F
  0.700000  0.300000  0.300000    0.00100000  26 t-inv F
 -0.400000 -0.400000 -0.700000    0.00100000  26 t-inv F
  0.000000 -0.300000  0.400000    0.00100000  26 t-inv F
  0.300000  0.700000  0.300000    0.00100000  26 t-inv F
 -0.700000 -0.400000 -0.400000    0.00100000  26 t-inv F
  0.400000  0.000000 -0.300000    0.00100000  26 t-inv F
  0.000000 -0.300000  0.300000    0.00100000  27 t-inv F
  0.300000  0.000000 -0.300000    0.00100000  27 t-inv F
 -0.300000 -0.300000 -0.600000    0.00100000  27 t-inv F
  0.300000  0.600000  0.300000    0.00100000  27 t-inv F
  0.300000 -0.300000 -0.000000    0.00100000  27 t-inv F
 -0.600000 -0.300000 -0.300000    0.00100000  27 t-inv F
  0.300000  0.300000  0.600000    0.00100000  27 t-inv F
 -0.000000  0.300000 -0.300000    0.00100000  27 t-inv F
 -0.300000 -0.600000 -0.300000    0.00100000  27 t-inv F
  0.600000  0.300000  0.300000    0.00100000  27 t-inv F
 -0.300000 -0.000000  0.300000    0.00100000  27 t-inv F
  0.000000  0.400000  0.400000    0.00100000  28 t-inv F
  0.400000  0.000000  0.400000    0.00100000  28 t-inv F
 -0.400000 -0.400000 -0.000000    0.00100000  28 t-inv F
 -0.400000  0.000000 -0.400000    0.00100000  28 t-inv F
 -0.000000 -0.400000 -0.400000    0.00100000  28 t-inv F
  0.000000  0.500000  0.400000    0.00100000  29 t-inv F
  0.400000  0.000000  0.500000    0.00100000  29 t-inv F
 -0.400000 -0.400000  0.100000    0.00100000  29 t-inv F
 -0.500000 -0.100000 -0.500000    0.00100000  29 t-inv F
  0.400000  0.500000 -0.000000    0.00100000  29 t-inv F
  0.100000 -0.400000 -0.400000    0.00100000  29 t-inv F
 -0.500000 -0.500000 -0.100000    0.00100000  29 t-inv F
 -0.000000  0.400000  0.500000    0.00100000  29 t-inv F
 -0.400000  0.100000 -0.400000    0.00100000  29 t-inv F
 -0.100000 -0.500000 -0.500000    0.00100000  29 t-inv F
  0.500000 -0.000000  0.400000    0.00100000  29 t-inv F
 -0.500000 -0.400000 -0.000000    0.00100000  29 t-inv F
 -0.000000 -0.500000 -0.400000    0.00100000  29 t-inv F
 -0.400000 -0.000000 -0.500000    0.00100000  29 t-inv F
  0.400000  0.400000 -0.100000    0.00100000  29 t-inv F
  0.500000  0.100000  0.500000    0.00100000  29 t-inv F
 -0.400000 -0.500000  0.000000    0.00100000  29 t-inv F
 -0.100000  0.400000  0.400000    0.00100000  29 t-inv F
  0.500000  0.500000  0.100000    0.00100000  29 t-inv F
  0.000000 -0.400000 -0.500000    0.00100000  29 t-inv F
  0.400000 -0.100000  0.400000    0.00100000  29 t-inv F
  0.100000  0.500000  0.500000    0.00100000  29 t-inv F
 -0.500000  0.000000 -0.400000    0.00100000  29 t-inv F
  0.000000 -0.400000  0.400000    0.00100000  30 t-inv F
  0.400000  0.000000 -0.400000    0.00100000  30 t-inv F
 -0.400000 -0.400000 -0.800000    0.00100000  30 t-inv F
  0.400000  0.800000  0.400000    0.00100000  30 t-inv F
  0.400000 -0.400000 -0.000000    0.00100000  30 t-inv F
 -0.800000 -0.400000 -0.400000    0.00100000  30 t-inv F
  0.400000  0.400000  0.800000    0.00100000  30 t-inv F
 -0.000000  0.400000 -0.400000    0.00100000  30 t-inv F
 -0.400000 -0.800000 -0.400000    0.00100000  30 t-inv F
  0.800000  0.400000  0.400000    0.00100000  30 t-inv F
 -0.400000 -0.000000  0.400000    0.00100000  30 t-inv F
  0.000000  0.500000  0.500000    0.00100000  31 t-inv F
  0.500000  0.000000  0.500000    0.00100000  31 t-inv F
  0.100000  0.300000  0.200000    0.00100000  32 t-inv F
  0.200000  0.100000  0.300000    0.00100000  32 t-inv F
 -0.200000 -0.100000  0.100000    0.00100000  32 t-inv F
 -0.300000 -0.100000 -0.200000    0.00100000  32 t-inv F
 -0.100000  0.200000  0.100000    0.00100000  32 t-inv F
  0.100000  0.200000 -0.100000    0.00100000  32 t-inv F
  0.100000 -0.100000 -0.200000    0.00100000  32 t-inv F
 -0.200000 -0.100000 -0.300000    0.00100000  32 t-inv F
 -0.200000 -0.300000 -0.100000    0.00100000  32 t-inv F
  0.100000 -0.100000  0.200000    0.00100000  32 t-inv F
  0.100000 -0.200000 -0.100000    0.00100000  32 t-inv F
 -0.100000  0.100000  0.200000    0.00100000  32 t-inv F
 -0.200000  0.100000 -0.100000    0.00100000  32 t-inv F
 -0.300000 -0.200000 -0.100000    0.00100000  32 t-inv F
 -0.100000 -0.200000 -0.300000    0.00100000  32 t-inv F
  0.200000  0.100000 -0.100000    0.00100000  32 t-inv F
 -0.100000  0.100000 -0.200000    0.00100000  32 t-inv F
  0.200000 -0.100000  0.100000    0.00100000  32 t-inv F
 -0.100000 -0.200000  0.100000    0.00100000  32 t-inv F
 -0.100000 -0.300000 -0.200000    0.00100000  32 t-inv F
  0.300000  0.100000  0.200000    0.00100000  32 t-inv F
  0.200000  0.300000  0.100000    0.00100000  32 t-inv F
  0.100000  0.200000  0.300000    0.00100000  32 t-inv F
  0.100000  0.400000  0.200000    0.00100000  33 t-inv F
  0.200000  0.100000  0.400000    0.00100000  33 t-inv F
 -0.200000 -0.100000  0.200000    0.00100000  33 t-inv F
 -0.400000 -0.200000 -0.300000    0.00100000  33 t-inv F
 -0.100000  0.300000  0.100000    0.00100000  33 t-inv F
  0.100000  0.300000 -0.100000    0.00100000  33 t-inv F
  0.200000 -0.100000 -0.200000    0.00100000  33 t-inv F
 -0.300000 -0.200000 -0.400000    0.00100000  33 t-inv F
 -0.300000 -0.400000 -0.200000    0.00100000  33 t-inv F
  0.100000 -0.100000  0.300000    0.00100000  33 t-inv F
  0.200000 -0.200000 -0.100000    0.00100000  33 t-inv F
 -0.100000  0.100000  0.300000    0.00100000  33 t-inv F
 -0.200000  0.200000 -0.100000    0.00100000  33 t-inv F
 -0.400000 -0.300000 -0.200000    0.00100000  33 t-inv F
 -0.200000 -0.300000 -0.400000    0.00100000  33 t-inv F
  0.300000  0.100000 -0.100000    0.00100000  33 t-inv F
 -0.100000  0.200000 -0.200000    0.00100000  33 t-inv F
  0.300000 -0.100000  0.100000    0.00100000  33 t-inv F
 -0.100000 -0.200000  0.200000    0.00100000  33 t-inv F
 -0.200000 -0.400000 -0.300000    0.00100000  33 t-inv F
  0.400000  0.100000  0.200000    0.00100000  33 t-inv F
  0.200000  0.400000  0.100000    0.00100000  33 t-inv F
  0.100000  0.200000  0.400000    0.00100000  33 t-inv F
 -0.400000 -0.200000 -0.100000    0.00100000  33 t-inv F
 -0.100000 -0.400000 -0.200000    0.00100000  33 t-inv F
 -0.200000 -0.100000 -0.400000    0.00100000  33 t-inv F
  0.200000  0.100000 -0.200000    0.00100000  33 t-inv F
  0.400000  0.200000  0.300000    0.00100000  33 t-inv F
  0.100000 -0.300000 -0.100000    0.00100000  33 t-inv F
 -0.100000 -0.300000  0.100000    0.00100000  33 t-inv F
 -0.200000  0.100000  0.200000    0.00100000  33 t-inv F
  0.300000  0.200000  0.400000    0.00100000  33 t-inv F
  0.300000  0.400000  0.200000    0.00100000  33 t-inv F
 -0.100000  0.100000 -0.300000    0.00100000  33 t-inv F
 -0.200000  0.200000  0.100000    0.00100000  33 t-inv F
  0.100000 -0.100000 -0.300000    0.00100000  33 t-inv F
  0.200000 -0.200000  0.100000    0.00100000  33 t-inv F
  0.400000  0.300000  0.200000    0.00100000  33 t-inv F
  0.200000  0.300000  0.400000    0.00100000  33 t-inv F
 -0.300000 -0.100000  0.100000    0.00100000  33 t-inv F
  0.100000 -0.200000  0.200000    0.00100000  33 t-inv F
 -0.300000  0.100000 -0.100000    0.00100000  33 t-inv F
  0.100000  0.200000 -0.200000    0.00100000  33 t-inv F
  0.200000  0.400000  0.300000    0.00100000  33 t-inv F
 -0.400000 -0.100000 -0.200000    0.00100000  33 t-inv F
 -0.200000 -0.400000 -0.100000    0.00100000  33 t-inv F
 -0.100000 -0.200000 -0.400000    0.00100000  33 t-inv F
  0.100000  0.500000  0.200000    0.00100000  34 t-inv F
  0.200000  0.100000  0.500000    0.00100000  34 t-inv F
 -0.200000 -0.100000  0.300000    0.00100000  34 t-inv F
 -0.500000 -0.300000 -0.400000    0.00100000  34 t-inv F
 -0.100000  0.400000  0.100000    0.00100000  34 t-inv F
  0.100000  0.400000 -0.100000    0.00100000  34 t-inv F
  0.300000 -0.100000 -0.200000    0.00100000  34 t-inv F
 -0.400000 -0.300000 -0.500000    0.00100000  34 t-inv F
 -0.400000 -0.500000 -0.300000    0.00100000  34 t-inv F
  0.100000 -0.100000  0.400000    0.00100000  34 t-inv F
  0.300000 -0.200000 -0.100000    0.00100000  34 t-inv F
 -0.100000  0.100000  0.400000    0.00100000  34 t-inv F
 -0.200000  0.300000 -0.100000    0.00100000  34 t-inv F
 -0.500000 -0.400000 -0.300000    0.00100000  34 t-inv F
 -0.300000 -0.400000 -0.500000    0.00100000  34 t-inv F
  0.400000  0.100000 -0.100000    0.00100000  34 t-inv F
 -0.100000  0.300000 -0.200000    0.00100000  34 t-inv F
  0.400000 -0.100000  0.100000    0.00100000  34 t-inv F
 -0.100000 -0.200000  0.300000    0.00100000  34 t-inv F
 -0.300000 -0.500000 -0.400000    0.00100000  34 t-inv F
  0.500000  0.100000  0.200000    0.00100000  34 t-inv F
  0.200000  0.500000  0.100000    0.00100000  34 t-inv F
  0.100000  0.200000  0.500000    0.00100000  34 t-inv F
 -0.500000 -0.200000 -0.100000    0.00100000  34 t-inv F
 -0.100000 -0.500000 -0.200000    0.00100000  34 t-inv F
 -0.200000 -0.100000 -0.500000    0.00100000  34 t-inv F
  0.200000  0.100000 -0.300000    0.00100000  34 t-inv F
  0.500000  0.300000  0.400000    0.00100000  34 t-inv F
  0.100000 -0.400000 -0.100000    0.00100000  34 t-inv F
 -0.100000 -0.400000  0.100000    0.00100000  34 t-inv F
 -0.300000  0.100000  0.200000    0.00100000  34 t-inv F
  0.400000  0.300000  0.500000    0.00100000  34 t-inv F
  0.400000  0.500000  0.300000    0.00100000  34 t-inv F
 -0.100000  0.100000 -0.400000    0.00100000  34 t-inv F
 -0.300000  0.200000  0.100000    0.00100000  34 t-inv F
  0.100000 -0.100000 -0.400000    0.00100000  34 t-inv F
  0.200000 -0.300000  0.100000    0.00100000  34 t-inv F
  0.500000  0.400000  0.300000    0.00100000  34 t-inv F
  0.300000  0.400000  0.500000    0.00100000  34 t-inv F
 -0.400000 -0.100000  0.100000    0.00100000  34 t-inv F
  0.100000 -0.300000  0.200000    0.00100000  34 t-inv F
 -0.400000  0.100000 -0.100000    0.00100000  34 t-inv F
  0.100000  0.200000 -0.300000    0.00100000  34 t-inv F
  0.300000  0.500000  0.400000    0.00100000  34 t-inv F
 -0.500000 -0.100000 -0.200000    0.00100000  34 t-inv F
 -0.200000 -0.500000 -0.100000    0.00100000  34 t-inv F
 -0.100000 -0.200000 -0.500000    0.00100000  34 t-inv F
  0.100000 -0.400000  0.200000    0.00100000  35 t-inv F
  0.200000  0.100000 -0.400000    0.00100000  35 t-inv F
 -0.200000 -0.100000 -0.600000    0.00100000  35 t-inv F
  0.400000  0.600000  0.500000    0.00100000  35 t-inv F
 -0.100000 -0.500000  0.100000    0.00100000  35 t-inv F
  0.100000 -0.500000 -0.100000    0.00100000  35 t-inv F
 -0.600000 -0.100000 -0.200000    0.00100000  35 t-inv F
  0.500000  0.600000  0.400000    0.00100000  35 t-inv F
  0.500000  0.400000  0.600000    0.00100000  35 t-inv F
  0.100000 -0.100000 -0.500000    0.00100000  35 t-inv F
 -0.600000 -0.200000 -0.100000    0.00100000  35 t-inv F
 -0.100000  0.100000 -0.500000    0.00100000  35 t-inv F
 -0.200000 -0.600000 -0.100000    0.00100000  35 t-inv F
  0.400000  0.500000  0.600000    0.00100000  35 t-inv F
  0.600000  0.500000  0.400000    0.00100000  35 t-inv F
 -0.500000  0.100000 -0.100000    0.00100000  35 t-inv F
 -0.100000 -0.600000 -0.200000    0.00100000  35 t-inv F
 -0.500000 -0.100000  0.100000    0.00100000  35 t-inv F
 -0.100000 -0.200000 -0.600000    0.00100000  35 t-inv F
  0.600000  0.400000  0.500000    0.00100000  35 t-inv F
 -0.400000  0.100000  0.200000    0.00100000  35 t-inv F
  0.200000 -0.400000  0.100000    0.00100000  35 t-inv F
  0.100000  0.200000 -0.400000    0.00100000  35 t-inv F
  0.100000  0.400000  0.300000    0.00100000  36 t-inv F
  0.300000  0.100000  0.400000    0.00100000  36 t-inv F
 -0.300000 -0.200000  0.100000    0.00100000  36 t-inv F
 -0.400000 -0.100000 -0.300000    0.00100000  36 t-inv F
 -0.100000  0.300000  0.200000    0.00100000  36 t-inv F
  0.200000  0.300000 -0.100000    0.00100000  36 t-inv F
  0.100000 -0.200000 -0.300000    0.00100000  36 t-inv F
 -0.300000 -0.100000 -0.400000    0.00100000  36 t-inv F
 -0.300000 -0.400000 -0.100000    0.00100000  36 t-inv F
  0.200000 -0.100000  0.300000    0.00100000  36 t-inv F
  0.100000 -0.300000 -0.200000    0.00100000  36 t-inv F
 -0.100000  0.200000  0.300000    0.00100000  36 t-inv F
 -0.300000  0.100000 -0.200000    0.00100000  36 t-inv F
 -0.400000 -0.300000 -0.100000    0.00100000  36 t-inv F
 -0.100000 -0.300000 -0.400000    0.00100000  36 t-inv F
  0.300000  0.200000 -0.100000    0.00100000  36 t-inv F
 -0.200000  0.100000 -0.300000    0.00100000  36 t-inv F
  0.300000 -0.100000  0.200000    0.00100000  36 t-inv F
 -0.200000 -0.300000  0.100000    0.00100000  36 t-inv F
 -0.100000 -0.400000 -0.300000    0.00100000  36 t-inv F
  0.400000  0.100000  0.300000    0.00100000  36 t-inv F
  0.300000  0.400000  0.100000    0.00100000  36 t-inv F
  0.100000  0.300000  0.400000    0.00100000  36 t-inv F
  0.100000  0.500000  0.300000    0.00100000  37 t-inv F
  0.300000  0.100000  0.500000    0.00100000  37 t-inv F
 -0.300000 -0.200000  0.200000    0.00100000  37 t-inv F
 -0.500000 -0.200000 -0.400000    0.00100000  37 t-inv F
 -0.100000  0.400000  0.200000    0.00100000  37 t-inv F
  0.200000  0.400000 -0.100000    0.00100000  37 t-inv F
  0.200000 -0.200000 -0.300000    0.00100000  37 t-inv F
 -0.400000 -0.200000 -0.500000    0.00100000  37 t-inv F
 -0.400000 -0.500000 -0.200000    0.00100000  37 t-inv F
  0.200000 -0.100000  0.400000    0.00100000  37 t-inv F
  0.200000 -0.300000 -0.200000    0.00100000  37 t-inv F
 -0.100000  0.200000  0.400000    0.00100000  37 t-inv F
 -0.300000  0.200000 -0.200000    0.00100000  37 t-inv F
 -0.500000 -0.400000 -0.200000    0.00100000  37 t-inv F
 -0.200000 -0.400000 -0.500000    0.00100000  37 t-inv F
  0.400000  0.200000 -0.100000    0.00100000  37 t-inv F
 -0.200000  0.200000 -0.300000    0.00100000  37 t-inv F
  0.400000 -0.100000  0.200000    0.00100000  37 t-inv F
 -0.200000 -0.300000  0.200000    0.00100000  37 t-inv F
 -0.200000 -0.500000 -0.400000    0.00100000  37 t-inv F
  0.500000  0.100000  0.300000    0.00100000  37 t-inv F
  0.300000  0.500000  0.100000    0.00100000  37 t-inv F
  0.100000  0.300000  0.500000    0.00100000  37 t-inv F
 -0.500000 -0.300000 -0.100000    0.00100000  37 t-inv F
 -0.100000 -0.500000 -0.300000    0.00100000  37 t-inv F
 -0.300000 -0.100000 -0.500000    0.00100000  37 t-inv F
  0.300000  0.200000 -0.200000    0.00100000  37 t-inv F
  0.500000  0.200000  0.400000    0.00100000  37 t-inv F
  0.100000 -0.400000 -0.200000    0.00100000  37 t-inv F
 -0.200000 -0.400000  0.100000    0.00100000  37 t-inv F
 -0.200000  0.200000  0.300000    0.00100000  37 t-inv F
  0.400000  0.200000  0.500000    0.00100000  37 t-inv F
  0.400000  0.500000  0.200000    0.00100000  37 t-inv F
 -0.200000  0.100000 -0.400000    0.00100000  37 t-inv F
 -0.200000  0.300000  0.200000    0.00100000  37 t-inv F
  0.100000 -0.200000 -0.400000    0.00100000  37 t-inv F
  0.300000 -0.200000  0.200000    0.00100000  37 t-inv F
  0.500000  0.400000  0.200000    0.00100000  37 t-inv F
  0.200000  0.400000  0.500000    0.00100000  37 t-inv F
 -0.400000 -0.200000  0.100000    0.00100000  37 t-inv F
  0.200000 -0.200000  0.300000    0.00100000  37 t-inv F
 -0.400000  0.100000 -0.200000    0.00100000  37 t-inv F
  0.200000  0.300000 -0.200000    0.00100000  37 t-inv F
  0.200000  0.500000  0.400000    0.00100000  37 t-inv F
 -0.500000 -0.100000 -0.300000    0.00100000  37 t-inv F
 -0.300000 -0.500000 -0.100000    0.00100000  37 t-inv F
 -0.100000 -0.300000 -0.500000    0.00100000  37 t-inv F
  0.100000 -0.400000  0.300000    0.00100000  38 t-inv F
  0.300000  0.100000 -0.400000    0.00100000  38 t-inv F
 -0.300000 -0.200000 -0.700000    0.00100000  38 t-inv F
  0.400000  0.700000  0.500000    0.00100000  38 t-inv F
 -0.100000 -0.500000  0.200000    0.00100000  38 t-inv F
  0.200000 -0.500000 -0.100000    0.00100000  38 t-inv F
 -0.700000 -0.200000 -0.300000    0.00100000  38 t-inv F
  0.500000  0.700000  0.400000    0.00100000  38 t-inv F
  0.500000  0.400000  0.700000    0.00100000  38 t-inv F
  0.200000 -0.100000 -0.500000    0.00100000  38 t-inv F
 -0.700000 -0.300000 -0.200000    0.00100000  38 t-inv F
 -0.100000  0.200000 -0.500000    0.00100000  38 t-inv F
 -0.300000 -0.700000 -0.200000    0.00100000  38 t-inv F
  0.400000  0.500000  0.700000    0.00100000  38 t-inv F
  0.700000  0.500000  0.400000    0.00100000  38 t-inv F
 -0.500000  0.200000 -0.100000    0.00100000  38 t-inv F
 -0.200000 -0.700000 -0.300000    0.00100000  38 t-inv F
 -0.500000 -0.100000  0.200000    0.00100000  38 t-inv F
 -0.200000 -0.300000 -0.700000    0.00100000  38 t-inv F
  0.700000  0.400000  0.500000    0.00100000  38 t-inv F
 -0.400000  0.100000  0.300000    0.00100000  38 t-inv F
  0.300000 -0.400000  0.100000    0.00100000  38 t-inv F
  0.100000  0.300000 -0.400000    0.00100000  38 t-inv F
  0.400000 -0.300000 -0.100000    0.00100000  38 t-inv F
 -0.100000  0.400000 -0.300000    0.00100000  38 t-inv F
 -0.300000 -0.100000  0.400000    0.00100000  38 t-inv F
  0.300000  0.200000  0.700000    0.00100000  38 t-inv F
 -0.400000 -0.700000 -0.500000    0.00100000  38 t-inv F
  0.100000  0.500000 -0.200000    0.00100000  38 t-inv F
 -0.200000  0.500000  0.100000    0.00100000  38 t-inv F
  0.700000  0.200000  0.300000    0.00100000  38 t-inv F
 -0.500000 -0.700000 -0.400000    0.00100000  38 t-inv F
 -0.500000 -0.400000 -0.700000    0.00100000  38 t-inv F
 -0.200000  0.100000  0.500000    0.00100000  38 t-inv F
  0.700000  0.300000  0.200000    0.00100000  38 t-inv F
  0.100000 -0.200000  0.500000    0.00100000  38 t-inv F
  0.300000  0.700000  0.200000    0.00100000  38 t-inv F
 -0.400000 -0.500000 -0.700000    0.00100000  38 t-inv F
 -0.700000 -0.500000 -0.400000    0.00100000  38 t-inv F
  0.500000 -0.200000  0.100000    0.00100000  38 t-inv F
  0.200000  0.700000  0.300000    0.00100000  38 t-inv F
  0.500000  0.100000 -0.200000    0.00100000  38 t-inv F
  0.200000  0.300000  0.700000    0.00100000  38 t-inv F
 -0.700000 -0.400000 -0.500000    0.00100000  38 t-inv F
  0.400000 -0.100000 -0.300000    0.00100000  38 t-inv F
 -0.300000  0.400000 -0.100000    0.00100000  38 t-inv F
 -0.100000 -0.300000  0.400000    0.00100000  38 t-inv F
  0.100000 -0.300000  0.300000    0.00100000  39 t-inv F
  0.300000  0.100000 -0.300000    0.00100000  39 t-inv F
 -0.300000 -0.200000 -0.600000    0.00100000  39 t-inv F
  0.300000  0.600000  0.400000    0.00100000  39 t-inv F
 -0.100000 -0.400000  0.200000    0.00100000  39 t-inv F
  0.200000 -0.400000 -0.100000    0.00100000  39 t-inv F
 -0.600000 -0.200000 -0.300000    0.00100000  39 t-inv F
  0.400000  0.600000  0.300000    0.00100000  39 t-inv F
  0.400000  0.300000  0.600000    0.00100000  39 t-inv F
  0.200000 -0.100000 -0.400000    0.00100000  39 t-inv F
 -0.600000 -0.300000 -0.200000    0.00100000  39 t-inv F
 -0.100000  0.200000 -0.400000    0.00100000  39 t-inv F
 -0.300000 -0.600000 -0.200000    0.00100000  39 t-inv F
  0.300000  0.400000  0.600000    0.00100000  39 t-inv F
  0.600000  0.400000  0.300000    0.00100000  39 t-inv F
 -0.400000  0.200000 -0.100000    0.00100000  39 t-inv F
 -0.200000 -0.600000 -0.300000    0.00100000  39 t-inv F
 -0.400000 -0.100000  0.200000    0.00100000  39 t-inv F
 -0.200000 -0.300000 -0.600000    0.00100000  39 t-inv F
  0.600000  0.300000  0.400000    0.00100000  39 t-inv F
 -0.300000  0.100000  0.300000    0.00100000  39 t-inv F
  0.300000 -0.300000  0.100000    0.00100000  39 t-inv F
  0.100000  0.300000 -0.300000    0.00100000  39 t-inv F
  0.300000 -0.300000 -0.100000    0.00100000  39 t-inv F
 -0.100000  0.300000 -0.300000    0.00100000  39 t-inv F
 -0.300000 -0.100000  0.300000    0.00100000  39 t-inv F
  0.300000  0.200000  0.600000    0.00100000  39 t-inv F
 -0.300000 -0.600000 -0.400000    0.00100000  39 t-inv F
  0.100000  0.400000 -0.200000    0.00100000  39 t-inv F
 -0.200000  0.400000  0.100000    0.00100000  39 t-inv F
  0.600000  0.200000  0.300000    0.00100000  39 t-inv F
 -0.400000 -0.600000 -0.300000    0.00100000  39 t-inv F
 -0.400000 -0.300000 -0.600000    0.00100000  39 t-inv F
 -0.200000  0.100000  0.400000    0.00100000  39 t-inv F
  0.600000  0.300000  0.200000    0.00100000  39 t-inv F
  0.100000 -0.200000  0.400000    0.00100000  39 t-inv F
  0.300000  0.600000  0.200000    0.00100000  39 t-inv F
 -0.300000 -0.400000 -0.600000    0.00100000  39 t-inv F
 -0.600000 -0.400000 -0.300000    0.00100000  39 t-inv F
  0.400000 -0.200000  0.100000    0.00100000  39 t-inv F
  0.200000  0.600000  0.300000    0.00100000  39 t-inv F
  0.400000  0.100000 -0.200000    0.00100000  39 t-inv F
  0.200000  0.300000  0.600000    0.00100000  39 t-inv F
 -0.600000 -0.300000 -0.400000    0.00100000  39 t-inv F
  0.300000 -0.100000 -0.300000    0.00100000  39 t-inv F
 -0.300000  0.300000 -0.100000    0.00100000  39 t-inv F
 -0.100000 -0.300000  0.300000    0.00100000  39 t-inv F
  0.100000 -0.200000  0.300000    0.00100000  40 t-inv F
  0.300000  0.100000 -0.200000    0.00100000  40 t-inv F
 -0.300000 -0.200000 -0.500000    0.00100000  40 t-inv F
  0.200000  0.500000  0.300000    0.00100000  40 t-inv F
 -0.100000 -0.300000  0.200000    0.00100000  40 t-inv F
  0.200000 -0.300000 -0.100000    0.00100000  40 t-inv F
 -0.500000 -0.200000 -0.300000    0.00100000  40 t-inv F
  0.300000  0.500000  0.200000    0.00100000  40 t-inv F
  0.300000  0.200000  0.500000    0.00100000  40 t-inv F
  0.200000 -0.100000 -0.300000    0.00100000  40 t-inv F
 -0.500000 -0.300000 -0.200000    0.00100000  40 t-inv F
 -0.100000  0.200000 -0.300000    0.00100000  40 t-inv F
 -0.300000 -0.500000 -0.200000    0.00100000  40 t-inv F
  0.200000  0.300000  0.500000    0.00100000  40 t-inv F
  0.500000  0.300000  0.200000    0.00100000  40 t-inv F
 -0.300000  0.200000 -0.100000    0.00100000  40 t-inv F
 -0.200000 -0.500000 -0.300000    0.00100000  40 t-inv F
 -0.300000 -0.100000  0.200000    0.00100000  40 t-inv F
 -0.200000 -0.300000 -0.500000    0.00100000  40 t-inv F
  0.500000  0.200000  0.300000    0.00100000  40 t-inv F
 -0.200000  0.100000  0.300000    0.00100000  40 t-inv F
  0.300000 -0.200000  0.100000    0.00100000  40 t-inv F
  0.100000  0.300000 -0.200000    0.00100000  40 t-inv F
  0.100000  0.500000  0.400000    0.00100000  41 t-inv F
  0.400000  0.100000  0.500000    0.00100000  41 t-inv F
 -0.400000 -0.300000  0.100000    0.00100000  41 t-inv F
 -0.500000 -0.100000 -0.400000    0.00100000  41 t-inv F
 -0.100000  0.400000  0.300000    0.00100000  41 t-inv F
  0.300000  0.400000 -0.100000    0.00100000  41 t-inv F
  0.100000 -0.300000 -0.400000    0.00100000  41 t-inv F
 -0.400000 -0.100000 -0.500000    0.00100000  41 t-inv F
 -0.400000 -0.500000 -0.100000    0.00100000  41 t-inv F
  0.300000 -0.100000  0.400000    0.00100000  41 t-inv F
  0.100000 -0.400000 -0.300000    0.00100000  41 t-inv F
 -0.100000  0.300000  0.400000    0.00100000  41 t-inv F
 -0.400000  0.100000 -0.300000    0.00100000  41 t-inv F
 -0.500000 -0.400000 -0.100000    0.00100000  41 t-inv F
 -0.100000 -0.400000 -0.500000    0.00100000  41 t-inv F
  0.400000  0.300000 -0.100000    0.00100000  41 t-inv F
 -0.300000  0.100000 -0.400000    0.00100000  41 t-inv F
  0.400000 -0.100000  0.300000    0.00100000  41 t-inv F
 -0.300000 -0.400000  0.100000    0.00100000  41 t-inv F
 -0.100000 -0.500000 -0.400000    0.00100000  41 t-inv F
  0.500000  0.100000  0.400000    0.00100000  41 t-inv F
  0.400000  0.500000  0.100000    0.00100000  41 t-inv F
  0.100000  0.400000  0.500000    0.00100000  41 t-inv F
  0.100000 -0.400000  0.400000    0.00100000  42 t-inv F
  0.400000  0.100000 -0.400000    0.00100000  42 t-inv F
 -0.400000 -0.300000 -0.800000    0.00100000  42 t-inv F
  0.400000  0.800000  0.500000    0.00100000  42 t-inv F
 -0.100000 -0.500000  0.300000    0.00100000  42 t-inv F
  0.300000 -0.500000 -0.100000    0.00100000  42 t-inv F
 -0.800000 -0.300000 -0.400000    0.00100000  42 t-inv F
  0.500000  0.800000  0.400000    0.00100000  42 t-inv F
  0.500000  0.400000  0.800000    0.00100000  42 t-inv F
  0.300000 -0.100000 -0.500000    0.00100000  42 t-inv F
 -0.800000 -0.400000 -0.300000    0.00100000  42 t-inv F
 -0.100000  0.300000 -0.500000    0.00100000  42 t-inv F
 -0.400000 -0.800000 -0.300000    0.00100000  42 t-inv F
  0.400000  0.500000  0.800000    0.00100000  42 t-inv F
  0.800000  0.500000  0.400000    0.00100000  42 t-inv F
 -0.500000  0.300000 -0.100000    0.00100000  42 t-inv F
 -0.300000 -0.800000 -0.400000    0.00100000  42 t-inv F
 -0.500000 -0.100000  0.300000    0.00100000  42 t-inv F
 -0.300000 -0.400000 -0.800000    0.00100000  42 t-inv F
  0.800000  0.400000  0.500000    0.00100000  42 t-inv F
 -0.400000  0.100000  0.400000    0.00100000  42 t-inv F
  0.400000 -0.400000  0.100000    0.00100000  42 t-inv F
  0.100000  0.400000 -0.400000    0.00100000  42 t-inv F
  0.400000 -0.400000 -0.100000    0.00100000  42 t-inv F
 -0.100000  0.400000 -0.400000    0.00100000  42 t-inv F
 -0.400000 -0.100000  0.400000    0.00100000  42 t-inv F
  0.400000  0.300000  0.800000    0.00100000  42 t-inv F
 -0.400000 -0.800000 -0.500000    0.00100000  42 t-inv F
  0.100000  0.500000 -0.300000    0.00100000  42 t-inv F
 -0.300000  0.500000  0.100000    0.00100000  42 t-inv F
  0.800000  0.300000  0.400000    0.00100000  42 t-inv F
 -0.500000 -0.800000 -0.400000    0.00100000  42 t-inv F
 -0.500000 -0.400000 -0.800000    0.00100000  42 t-inv F
 -0.300000  0.100000  0.500000    0.00100000  42 t-inv F
  0.800000  0.400000  0.300000    0.00100000  42 t-inv F
  0.100000 -0.300000  0.500000    0.00100000  42 t-inv F
  0.400000  0.800000  0.300000    0.00100000  42 t-inv F
 -0.400000 -0.500000 -0.800000    0.00100000  42 t-inv F
 -0.800000 -0.500000 -0.400000    0.00100000  42 t-inv F
  0.500000 -0.300000  0.100000    0.00100000  42 t-inv F
  0.300000  0.800000  0.400000    0.00100000  42 t-inv F
  0.500000  0.100000 -0.300000    0.00100000  42 t-inv F
  0.300000  0.400000  0.800000    0.00100000  42 t-inv F
 -0.800000 -0.400000 -0.500000    0.00100000  42 t-inv F
  0.400000 -0.100000 -0.400000    0.00100000  42 t-inv F
 -0.400000  0.400000 -0.100000    0.00100000  42 t-inv F
 -0.100000 -0.400000  0.400000    0.00100000  42 t-inv F
  0.100000 -0.300000  0.400000    0.00100000  43 t-inv F
  0.400000  0.100000 -0.300000    0.00100000  43 t-inv F
 -0.400000 -0.300000 -0.700000    0.00100000  43 t-inv F
  0.300000  0.700000  0.400000    0.00100000  43 t-inv F
 -0.100000 -0.400000  0.300000    0.00100000  43 t-inv F
  0.300000 -0.400000 -0.100000    0.00100000  43 t-inv F
 -0.700000 -0.300000 -0.400000    0.00100000  43 t-inv F
  0.400000  0.700000  0.300000    0.00100000  43 t-inv F
  0.400000  0.300000  0.700000    0.00100000  43 t-inv F
  0.300000 -0.100000 -0.400000    0.00100000  43 t-inv F
 -0.700000 -0.400000 -0.300000    0.00100000  43 t-inv F
 -0.100000  0.300000 -0.400000    0.00100000  43 t-inv F
 -0.400000 -0.700000 -0.300000    0.00100000  43 t-inv F
  0.300000  0.400000  0.700000    0.00100000  43 t-inv F
  0.700000  0.400000  0.300000    0.00100000  43 t-inv F
 -0.400000  0.300000 -0.100000    0.00100000  43 t-inv F
 -0.300000 -0.700000 -0.400000    0.00100000  43 t-inv F
 -0.400000 -0.100000  0.300000    0.00100000  43 t-inv F
 -0.300000 -0.400000 -0.700000    0.00100000  43 t-inv F
  0.700000  0.300000  0.400000    0.00100000  43 t-inv F
 -0.300000  0.100000  0.400000    0.00100000  43 t-inv F
  0.400000 -0.300000  0.100000    0.00100000  43 t-inv F
  0.100000  0.400000 -0.300000    0.00100000  43 t-inv F
  0.100000 -0.400000  0.500000    0.00100000  44 t-inv F
  0.500000  0.100000 -0.400000    0.00100000  44 t-inv F
 -0.500000 -0.400000 -0.900000    0.00100000  44 t-inv F
  0.400000  0.900000  0.500000    0.00100000  44 t-inv F
 -0.100000 -0.500000  0.400000    0.00100000  44 t-inv F
  0.400000 -0.500000 -0.100000    0.00100000  44 t-inv F
  0.500000  0.900000  0.400000    0.00100000  44 t-inv F
  0.500000  0.400000  0.900000    0.00100000  44 t-inv F
 -0.900000 -0.500000 -0.400000    0.00100000  44 t-inv F
 -0.100000  0.400000 -0.500000    0.00100000  44 t-inv F
 -0.400000 -0.900000 -0.500000    0.00100000  44 t-inv F
  0.200000 -0.400000  0.400000    0.00100000  45 t-inv F
  0.400000  0.200000 -0.400000    0.00100000  45 t-inv F
 -0.400000 -0.200000 -0.800000    0.00100000  45 t-inv F
  0.400000  0.800000  0.600000    0.00100000  45 t-inv F
 -0.200000 -0.600000  0.200000    0.00100000  45 t-inv F
  0.200000 -0.600000 -0.200000    0.00100000  45 t-inv F
 -0.800000 -0.200000 -0.400000    0.00100000  45 t-inv F
  0.600000  0.800000  0.400000    0.00100000  45 t-inv F
  0.600000  0.400000  0.800000    0.00100000  45 t-inv F
  0.200000 -0.200000 -0.600000    0.00100000  45 t-inv F
 -0.800000 -0.400000 -0.200000    0.00100000  45 t-inv F
 -0.200000  0.200000 -0.600000    0.00100000  45 t-inv F
 -0.400000 -0.800000 -0.200000    0.00100000  45 t-inv F
  0.400000  0.600000  0.800000    0.00100000  45 t-inv F
  0.800000  0.600000  0.400000    0.00100000  45 t-inv F
 -0.600000  0.200000 -0.200000    0.00100000  45 t-inv F
 -0.200000 -0.800000 -0.400000    0.00100000  45 t-inv F
 -0.600000 -0.200000  0.200000    0.00100000  45 t-inv F
 -0.200000 -0.400000 -0.800000    0.00100000  45 t-inv F
  0.800000  0.400000  0.600000    0.00100000  45 t-inv F
 -0.400000  0.200000  0.400000    0.00100000  45 t-inv F
  0.400000 -0.400000  0.200000    0.00100000  45 t-inv F
  0.200000  0.400000 -0.400000    0.00100000  45 t-inv F
  0.200000 -0.300000  0.400000    0.00100000  46 t-inv F
  0.400000  0.200000 -0.300000    0.00100000  46 t-inv F
 -0.400000 -0.200000 -0.700000    0.00100000  46 t-inv F
  0.300000  0.700000  0.500000    0.00100000  46 t-inv F
 -0.200000 -0.500000  0.200000    0.00100000  46 t-inv F
  0.200000 -0.500000 -0.200000    0.00100000  46 t-inv F
 -0.700000 -0.200000 -0.400000    0.00100000  46 t-inv F
  0.500000  0.700000  0.300000    0.00100000  46 t-inv F
  0.500000  0.300000  0.700000    0.00100000  46 t-inv F
  0.200000 -0.200000 -0.500000    0.00100000  46 t-inv F
 -0.700000 -0.400000 -0.200000    0.00100000  46 t-inv F
 -0.200000  0.200000 -0.500000    0.00100000  46 t-inv F
 -0.400000 -0.700000 -0.200000    0.00100000  46 t-inv F
  0.300000  0.500000  0.700000    0.00100000  46 t-inv F
  0.700000  0.500000  0.300000    0.00100000  46 t-inv F
 -0.500000  0.200000 -0.200000    0.00100000  46 t-inv F
 -0.200000 -0.700000 -0.400000    0.00100000  46 t-inv F
 -0.500000 -0.200000  0.200000    0.00100000  46 t-inv F
 -0.200000 -0.400000 -0.700000    0.00100000  46 t-inv F
  0.700000  0.300000  0.500000    0.00100000  46 t-inv F
 -0.300000  0.200000  0.400000    0.00100000  46 t-inv F
  0.400000 -0.300000  0.200000    0.00100000  46 t-inv F
  0.200000  0.400000 -0.300000    0.00100000  46 t-inv F
  0.200000 -0.300000  0.500000    0.00100000  47 t-inv F
  0.500000  0.200000 -0.300000    0.00100000  47 t-inv F
 -0.500000 -0.300000 -0.800000    0.00100000  47 t-inv F
  0.300000  0.800000  0.500000    0.00100000  47 t-inv F
 -0.200000 -0.500000  0.300000    0.00100000  47 t-inv F
  0.300000 -0.500000 -0.200000    0.00100000  47 t-inv F
  0.500000  0.800000  0.300000    0.00100000  47 t-inv F
  0.500000  0.300000  0.800000    0.00100000  47 t-inv F
 -0.800000 -0.500000 -0.300000    0.00100000  47 t-inv F
 -0.200000  0.300000 -0.500000    0.00100000  47 t-inv F
 -0.300000 -0.800000 -0.500000    0.00100000  47 t-inv F


--------------------------------------------------------------------------------------------------------




 Dimension of arrays:
   k-points           NKPTS =     47   k-points in BZ     NKDIM =   1000   number of bands    NBANDS=      8
   number of dos      NEDOS =    301   number of ions     NIONS =      2
   non local maximal  LDIM  =      4   non local SUM 2l+1 LMDIM =      8
   total plane-waves  NPLWV =   2744
   max r-space proj   IRMAX =      1   max aug-charges    IRDMAX=   3037
   dimension x,y,z NGX =    14 NGY =   14 NGZ =   14
   dimension x,y,z NGXF=    28 NGYF=   28 NGZF=   28
   support grid    NGXF=    28 NGYF=   28 NGZF=   28
   ions per type =               2
   NGX,Y,Z   is equivalent  to a cutoff of   9.21,  9.21,  9.21 a.u.
   NGXF,Y,Z  is equivalent  to a cutoff of  18.42, 18.42, 18.42 a.u.

 SYSTEM =  unknown system                          
 POSCAR =  C8                                      

 Startparameter for this run:
   NWRITE =      2    write-flag & timer
   PREC   = normal    normal or accurate (medium, high low for compatibility)
   ISTART =      0    job   : 0-new  1-cont  2-samecut
   ICHARG =      2    charge: 1-file 2-atom 10-const
   ISPIN  =      1    spin polarized calculation?
   LNONCOLLINEAR =      F non collinear calculations
   LSORBIT =      F    spin-orbit coupling
   INIWAV =      1    electr: 0-lowe 1-rand  2-diag
   LASPH  =      F    aspherical Exc in radial PAW
 Electronic Relaxation 1
   ENCUT  =  500.0 eV  36.75 Ry    6.06 a.u.   4.61  4.61  4.61*2*pi/ulx,y,z
   ENINI  =  500.0     initial cutoff
   ENAUG  =  644.9 eV  augmentation charge cutoff
   NELM   =     60;   NELMIN=  4; NELMDL= -5     # of ELM steps 
   EDIFF  = 0.1E-05   stopping-criterion for ELM
   LREAL  =      F    real-space projection
   NLSPLINE    = F    spline interpolate recip. space projectors
   LCOMPAT=      F    compatible to vasp.4.4
   GGA_COMPAT  = T    GGA compatible to vasp.4.4-vasp.4.6
   LMAXPAW     = -100 max onsite density
   LMAXMIX     =    2 max onsite mixed and CHGCAR
   VOSKOWN=      0    Vosko Wilk Nusair interpolation
   ROPT   =    0.00000
 Ionic relaxation
   EDIFFG = 0.1E-04   stopping-criterion for IOM
   NSW    =     30    number of steps for IOM
   NBLOCK =      1;   KBLOCK =     30    inner block; outer block 
   IBRION =      2    ionic relax: 0-MD 1-quasi-New 2-CG
   NFREE  =      1    steps in history (QN), initial steepest desc. (CG)
   ISIF   =      3    stress and relaxation
   IWAVPR =     11    prediction:  0-non 1-charg 2-wave 3-comb
   ISYM   =      3    0-nonsym 1-usesym 2-fastsym
   LCORR  =      T    Harris-Foulkes like correction to forces

   POTIM  = 0.5000    time-step for ionic-motion
   TEIN   =    0.0    initial temperature
   TEBEG  =    0.0;   TEEND  =   0.0 temperature during run
   SMASS  =  -3.00    Nose mass-parameter (am)
   estimated Nose-frequenzy (Omega)   =  0.10E-29 period in steps = 0.13E+47 mass=  -0.146E-27a.u.
   SCALEE = 1.0000    scale energy and forces
   NPACO  =    256;   APACO  = 10.0  distance and # of slots for P.C.
   PSTRESS=    0.0 pullay stress

  Mass of Ions in am
   POMASS =  12.01
  Ionic Valenz
   ZVAL   =   4.00
  Atomic Wigner-Seitz radii
   RWIGS  =  -1.00
  virtual crystal weights 
   VCA    =   1.00
   NELECT =       8.0000    total number of electrons
   NUPDOWN=      -1.0000    fix difference up-down

 DOS related values:
   EMIN   =  10.00;   EMAX   =-10.00  energy-range for DOS
   EFERMI =   0.00;   METHOD = LEGACY      
   ISMEAR =     0;   SIGMA  =   0.01  broadening in eV -4-tet -1-fermi 0-gaus
   EFERMI_NEDOS =   21; number of points for ismear=-14 and -15

 Electronic relaxation 2 (details)
   IALGO  =     53    algorithm
   LDIAG  =      T    sub-space diagonalisation (order eigenvalues)
   LSUBROT=      F    optimize rotation matrix (better conditioning)
   LROBUST=      F    robust break criterion during scf (extrapolated energy error)
   ISEARCH=      0    line search for conjugate gradient (0, 1=use gradient)
   TURBO    =      0    0=normal 1=particle mesh
   IRESTART =      0    0=no restart 2=restart with 2 vectors
   NREBOOT  =      0    no. of reboots
   NMIN     =      0    reboot dimension
   EREF     =   0.00    reference energy to select bands
   IMIX   =      4    mixing-type and parameters
     AMIX     =   0.40;   BMIX     =  1.00
     AMIX_MAG =   1.60;   BMIX_MAG =  1.00
     AMIN     =   0.10
     WC   =   100.;   INIMIX=   1;  MIXPRE=   1;  MAXMIX= -45

 Intra band minimization:
   WEIMIN = 0.0010     energy-eigenvalue tresh-hold
   EBREAK =  0.31E-07  absolut break condition
   DEPER  =   0.30     relativ break condition  

   TIME   =   0.40     timestep for ELM

  volume/ion in A,a.u.               =       5.71        38.50
  Fermi-wavevector in a.u.,A,eV,Ry     =   1.454360  2.748342 28.778546  2.115163
  Thomas-Fermi vector in A             =   2.571520
 
 Write flags
   LWAVE        =      F    write WAVECAR
   LDOWNSAMPLE  =      F    k-point downsampling of WAVECAR
   LCHARG       =      T    write CHGCAR
   LVTOT        =      F    write LOCPOT, total local potential
   LVHAR        =      F    write LOCPOT, Hartree potential only
   WRT_POTENTIAL= false  ! write potential to hdf5 file
   LELF         =      F    write electronic localiz. function (ELF)
   LORBIT       =      0    0 simple, 1 ext, 2 COOP (PROOUT), +10 PAW based schemes


 Python interface
   PLUGINS active      =      F    recompile with -DPLUGINS to activate
 
 Dipole corrections
   LMONO      =      F    monopole corrections only (constant potential shift)
   LDIPOL     =      F    correct potential (dipole corrections)
   IDIPOL     =      0    1-x, 2-y, 3-z, 4-all directions 
   EPSILON    =  1.0000000 bulk dielectric constant
   LVACPOTAV  =      F  vacuum potentials using an averaging scheme for the charge density
   VACPOTFLAT =  0.1000000 required flatness to determine vacuum potential
 
Coulomb truncation method
  LTRUNCATE          =      F  Coulomb kernel truncation to be used

 
 Exchange correlation treatment:
   GGA     = PE    functional components
   XC_C    = 1    coefficients multiplying the functional components
   LIBXC   =     F    Libxc                    
   VOSKOWN =     0    Vosko Wilk Nusair interpolation
   EXXOEP  =     0    0=HF, 1=EXX-LHF (local Hartree Fock) 2=EXX OEP
   LHFCALC =     T    Hartree Fock is set to
   LSYMGRAD=     F    symmetrize gradient (conserves proper symmetry)
   PRECFOCK=normal    Normal, Fast or Accurate (Low or Medium for compatibility)
   LRHFCALC=     F    long range Hartree Fock
   LRSCOR  =     F    long range correlation only (use DFT for short range part)
   LTHOMAS =     F    Thomas Fermi screening in HF
   LMODELHF=     F    short range full HF, long range fraction AEXX
   FOCKCORR=     1    mode to apply convergence corrections
   LFOCKACE=     T    use Adeptively-Compressed-Exchange operator
   ENCUT4O =  -1.0   cutoff for four orbital integrals eV
   LMAXFOCK=     4    L truncation for augmentation on plane wave grid
   LMAXFOCKAE=  -1    L truncation for all-electron charge restoration on plane wave grid
   NMAXFOCKAE=   1    number of basis functions for all-electron charge restoration
   LFOCKAEDFT=     F  apply the AE augmentation even for DFT
   NKREDX  =     1    reduce k-point grid by
   NKREDY  =     1    reduce k-point grid by
   NKREDZ  =     1    reduce k-point grid by
   SHIFTRED=     F    shift reduced grid of Gamma
   HFKIDENT=     F    idential grid for each k-point
   ODDONLY =     F    use only odd q-grid points
   EVENONLY=     F    use only even q-grid points
   HFALPHA =   -1.0000 decay constant for conv. correction
   MCALPHA =    0.0000 extent of test-charge in conv. correction in multipole expansion
   AEXX    =    0.2500 exact exchange contribution
   HFSCREEN=    0.2000 screening length (either q_TF or 0.3 A-1)
   HFSCREENC=   0.2000 screening length for correlation (either q_TF or 0.3 A-1)
   HFRCUT  =    0.0000 spherical cutoff for potential kernel
   ALDAX   =    0.7500 LDA exchange part
   AGGAX   =    0.7500 GGA exchange part
   AMGGAX  =    0.7500 meta-GGA exchange part
   ALDAC   =    1.0000 LDA correlation
   AGGAC   =    1.0000 GGA correlation
   AMGGAC  =    1.0000 meta-GGA correlation
   ENCUTFOCK=  -1.0 apply spherical cutoff to Coloumb kernel
   NBANDSGWLOW=     1    first orbital included in HF term
   NBLOCK_FOCK=    64    blocking factor in FOCK_ACC

 Parameters of functionals:
   PE:
     No parameter
 
 Van der Waals corrections
   IVDW    =     0    specifies the selected vdW correction

 Linear response parameters
   LEPSILON=     F    determine dielectric tensor
   LRPA    =     F    only Hartree local field effects (RPA)
   LNABLA  =     F    use nabla operator in PAW spheres
   LVEL    =     F    velocity operator in full k-point grid
   CSHIFT  =0.1000    complex shift for real part using Kramers Kronig
   OMEGAMAX=  -1.0    maximum frequency
   DEG_THRESHOLD= 0.2000000E-02 threshold for treating states as degnerate
   RTIME   =   -0.100 relaxation time in fs
  (WPLASMAI=    0.000 imaginary part of plasma frequency in eV, 0.658/RTIME)
   DFIELD  = 0.0000000 0.0000000 0.0000000 field for delta impulse in time
 
  Optional k-point grid parameters
   LKPOINTS_OPT  =     F    use optional k-point grid
   KPOINTS_OPT_MODE=     1    mode for optional k-point grid
 
 Orbital magnetization related:
   ORBITALMAG=     F  switch on orbital magnetization
   LCHIMAG   =     F  perturbation theory with respect to B field
   DQ        =  0.001000  dq finite difference perturbation B field
   LLRAUG    =     F  two centre corrections for induced B field
   LBONE     =     F  B-component reconstruction in AE one-centre
   LVGVCALC  =     T  calculate vGv susceptibility
   LVGVAPPL  =     F  apply vGv susceptibility instead of pGv for G=0

 Random number generation:
   RANDOM_GENERATOR = DEFAULT
   PCG_SEED         = not used


--------------------------------------------------------------------------------------------------------


 conjugate gradient relaxation of ions
 charge density and potential will be updated during run
 non-spin polarized calculation
 Conjugate gradient for all bands (Freysoldt, et al. PRB 79, 241103 (2009))
 perform sub-space diagonalisation
    before iterative eigenvector-optimisation
 modified Broyden-mixing scheme, WC =      100.0
 initial mixing is a Kerker type mixing with AMIX =  0.4000 and BMIX =      1.0000
 Hartree-type preconditioning will be used
 using additional bands            4
 reciprocal scheme for non local part
 use partial core corrections
 no Harris-corrections to forces 
 use gradient corrections 
 use of overlap-Matrix (Vanderbilt PP)
 Gauss-broadening in eV      SIGMA  =   0.01


--------------------------------------------------------------------------------------------------------


  energy-cutoff  :      500.00
  volume of cell :       11.41
      direct lattice vectors                 reciprocal lattice vectors
     2.526995815  0.000000000  0.000000000     0.395726813 -0.228472982 -0.161554795
     1.263497908  2.188442571 -0.000000000    -0.000000000  0.456945964 -0.161554795
     1.263497908  0.729480857  2.063283443    -0.000000000  0.000000000  0.484664384

  length of vectors
     2.526995815  2.526995815  2.526995815     0.484664384  0.484664384  0.484664384


 
 k-points in units of 2pi/SCALE and weight: k-density: 4.0                          
   0.00000000  0.00000000  0.00000000       0.001
   0.03957268 -0.02284730 -0.01615548       0.008
   0.07914536 -0.04569460 -0.03231096       0.008
   0.11871804 -0.06854189 -0.04846644       0.008
   0.15829073 -0.09138919 -0.06462192       0.008
   0.19786341 -0.11423649 -0.08077740       0.004
   0.03957268  0.02284730 -0.03231096       0.006
   0.07914536 -0.00000000 -0.04846644       0.024
   0.11871804 -0.02284730 -0.06462192       0.024
   0.15829073 -0.04569460 -0.08077740       0.024
   0.19786341 -0.06854189 -0.09693288       0.024
  -0.15829073  0.13708379  0.04846644       0.024
  -0.11871804  0.11423649  0.03231096       0.024
  -0.07914536  0.09138919  0.01615548       0.024
  -0.03957268  0.06854189  0.00000000       0.012
   0.07914536  0.04569460 -0.06462192       0.006
   0.11871804  0.02284730 -0.08077740       0.024
   0.15829073 -0.00000000 -0.09693288       0.024
   0.19786341 -0.02284730 -0.11308836       0.024
  -0.15829073  0.18277839  0.03231096       0.024
  -0.11871804  0.15993109  0.01615548       0.024
  -0.07914536  0.13708379  0.00000000       0.012
   0.11871804  0.06854189 -0.09693288       0.006
   0.15829073  0.04569460 -0.11308836       0.024
   0.19786341  0.02284730 -0.12924384       0.024
  -0.15829073  0.22847298  0.01615548       0.024
  -0.11871804  0.20562568  0.00000000       0.012
   0.15829073  0.09138919 -0.12924384       0.006
   0.19786341  0.06854189 -0.14539932       0.024
  -0.15829073  0.27416758  0.00000000       0.012
   0.19786341  0.11423649 -0.16155479       0.003
   0.11871804  0.02284730 -0.03231096       0.024
   0.15829073 -0.00000000 -0.04846644       0.048
   0.19786341 -0.02284730 -0.06462192       0.048
  -0.15829073  0.18277839  0.08077740       0.024
   0.15829073  0.04569460 -0.06462192       0.024
   0.19786341  0.02284730 -0.08077740       0.048
  -0.15829073  0.22847298  0.06462192       0.048
  -0.11871804  0.20562568  0.04846644       0.048
  -0.07914536  0.18277839  0.03231096       0.024
   0.19786341  0.06854189 -0.09693288       0.024
  -0.15829073  0.27416758  0.04846644       0.048
  -0.11871804  0.25132028  0.03231096       0.024
  -0.15829073  0.31986217  0.03231096       0.012
  -0.15829073  0.27416758  0.09693288       0.024
  -0.11871804  0.25132028  0.08077740       0.024
  -0.11871804  0.29701488  0.06462192       0.012
 
 k-points in reciprocal lattice and weights: k-density: 4.0                          
   0.00000000  0.00000000  0.00000000       0.001
   0.10000000  0.00000000  0.00000000       0.008
   0.20000000  0.00000000  0.00000000       0.008
   0.30000000  0.00000000  0.00000000       0.008
   0.40000000  0.00000000  0.00000000       0.008
   0.50000000  0.00000000  0.00000000       0.004
   0.10000000  0.10000000  0.00000000       0.006
   0.20000000  0.10000000  0.00000000       0.024
   0.30000000  0.10000000  0.00000000       0.024
   0.40000000  0.10000000  0.00000000       0.024
   0.50000000  0.10000000  0.00000000       0.024
  -0.40000000  0.10000000  0.00000000       0.024
  -0.30000000  0.10000000  0.00000000       0.024
  -0.20000000  0.10000000  0.00000000       0.024
  -0.10000000  0.10000000  0.00000000       0.012
   0.20000000  0.20000000  0.00000000       0.006
   0.30000000  0.20000000  0.00000000       0.024
   0.40000000  0.20000000  0.00000000       0.024
   0.50000000  0.20000000  0.00000000       0.024
  -0.40000000  0.20000000  0.00000000       0.024
  -0.30000000  0.20000000  0.00000000       0.024
  -0.20000000  0.20000000  0.00000000       0.012
   0.30000000  0.30000000  0.00000000       0.006
   0.40000000  0.30000000  0.00000000       0.024
   0.50000000  0.30000000  0.00000000       0.024
  -0.40000000  0.30000000  0.00000000       0.024
  -0.30000000  0.30000000  0.00000000       0.012
   0.40000000  0.40000000  0.00000000       0.006
   0.50000000  0.40000000  0.00000000       0.024
  -0.40000000  0.40000000  0.00000000       0.012
   0.50000000  0.50000000  0.00000000       0.003
   0.30000000  0.20000000  0.10000000       0.024
   0.40000000  0.20000000  0.10000000       0.048
   0.50000000  0.20000000  0.10000000       0.048
  -0.40000000  0.20000000  0.10000000       0.024
   0.40000000  0.30000000  0.10000000       0.024
   0.50000000  0.30000000  0.10000000       0.048
  -0.40000000  0.30000000  0.10000000       0.048
  -0.30000000  0.30000000  0.10000000       0.048
  -0.20000000  0.30000000  0.10000000       0.024
   0.50000000  0.40000000  0.10000000       0.024
  -0.40000000  0.40000000  0.10000000       0.048
  -0.30000000  0.40000000  0.10000000       0.024
  -0.40000000  0.50000000  0.10000000       0.012
  -0.40000000  0.40000000  0.20000000       0.024
  -0.30000000  0.40000000  0.20000000       0.024
  -0.30000000  0.50000000  0.20000000       0.012
 
 position of ions in fractional coordinates (direct lattice) 
   0.25000000  0.25000000  0.25000000
   0.00000000  0.00000000  0.00000000
 
 position of ions in cartesian coordinates  (Angst):
   1.26349791  0.72948086  0.51582086
   0.00000000  0.00000000  0.00000000
 


--------------------------------------------------------------------------------------------------------


 k-point     1 :   0.0000 0.0000 0.0000  plane waves:     283
 k-point     2 :   0.1000 0.0000 0.0000  plane waves:     295
 k-point     3 :   0.2000 0.0000 0.0000  plane waves:     295
 k-point     4 :   0.3000 0.0000 0.0000  plane waves:     290
 k-point     5 :   0.4000 0.0000 0.0000  plane waves:     281
 k-point     6 :   0.5000 0.0000 0.0000  plane waves:     272
 k-point     7 :   0.1000 0.1000 0.0000  plane waves:     299
 k-point     8 :   0.2000 0.1000 0.0000  plane waves:     295
 k-point     9 :   0.3000 0.1000 0.0000  plane waves:     296
 k-point    10 :   0.4000 0.1000 0.0000  plane waves:     291
 k-point    11 :   0.5000 0.1000 0.0000  plane waves:     282
 k-point    12 :  -0.4000 0.1000 0.0000  plane waves:     283
 k-point    13 :  -0.3000 0.1000 0.0000  plane waves:     292
 k-point    14 :  -0.2000 0.1000 0.0000  plane waves:     292
 k-point    15 :  -0.1000 0.1000 0.0000  plane waves:     291
 k-point    16 :   0.2000 0.2000 0.0000  plane waves:     295
 k-point    17 :   0.3000 0.2000 0.0000  plane waves:     297
 k-point    18 :   0.4000 0.2000 0.0000  plane waves:     290
 k-point    19 :   0.5000 0.2000 0.0000  plane waves:     289
 k-point    20 :  -0.4000 0.2000 0.0000  plane waves:     289
 k-point    21 :  -0.3000 0.2000 0.0000  plane waves:     287
 k-point    22 :  -0.2000 0.2000 0.0000  plane waves:     295
 k-point    23 :   0.3000 0.3000 0.0000  plane waves:     298
 k-point    24 :   0.4000 0.3000 0.0000  plane waves:     293
 k-point    25 :   0.5000 0.3000 0.0000  plane waves:     294
 k-point    26 :  -0.4000 0.3000 0.0000  plane waves:     282
 k-point    27 :  -0.3000 0.3000 0.0000  plane waves:     285
 k-point    28 :   0.4000 0.4000 0.0000  plane waves:     290
 k-point    29 :   0.5000 0.4000 0.0000  plane waves:     293
 k-point    30 :  -0.4000 0.4000 0.0000  plane waves:     280
 k-point    31 :   0.5000 0.5000 0.0000  plane waves:     302
 k-point    32 :   0.3000 0.2000 0.1000  plane waves:     294
 k-point    33 :   0.4000 0.2000 0.1000  plane waves:     293
 k-point    34 :   0.5000 0.2000 0.1000  plane waves:     288
 k-point    35 :  -0.4000 0.2000 0.1000  plane waves:     290
 k-point    36 :   0.4000 0.3000 0.1000  plane waves:     291
 k-point    37 :   0.5000 0.3000 0.1000  plane waves:     289
 k-point    38 :  -0.4000 0.3000 0.1000  plane waves:     290
 k-point    39 :  -0.3000 0.3000 0.1000  plane waves:     286
 k-point    40 :  -0.2000 0.3000 0.1000  plane waves:     291
 k-point    41 :   0.5000 0.4000 0.1000  plane waves:     290
 k-point    42 :  -0.4000 0.4000 0.1000  plane waves:     287
 k-point    43 :  -0.3000 0.4000 0.1000  plane waves:     282
 k-point    44 :  -0.4000 0.5000 0.1000  plane waves:     288
 k-point    45 :  -0.4000 0.4000 0.2000  plane waves:     287
 k-point    46 :  -0.3000 0.4000 0.2000  plane waves:     284
 k-point    47 :  -0.3000 0.5000 0.2000  plane waves:     286

 maximum and minimum number of plane-waves per node :        51       33

 maximum number of plane-waves:       302
 maximum index in each direction: 
   IXMAX=    5   IYMAX=    4   IZMAX=    4
   IXMIN=   -5   IYMIN=   -5   IZMIN=   -4


 parallel 3D FFT for wavefunctions:
    minimum data exchange during FFTs selected (reduces bandwidth)
 parallel 3D FFT for charge:
    minimum data exchange during FFTs selected (reduces bandwidth)

 
 Radii for the augmentation spheres in the non-local exchange
 for species   1 augmentation radius   0.874 (default was   0.699)
       energy cutoff for augmentation   2000.0

 real space projection operators:
  total allocation   :         95.41 KBytes
  max/ min on nodes  :         13.99         13.36

 Maximum index for augmentation-charges in exchange          108
  SETUP_FOCK is finished

 total amount of memory used by VASP MPI-rank0    30641. kBytes
=======================================================================

   base                                    :      30000. kBytes
   nonl-proj                               :        182. kBytes
   fftplans                                :         51. kBytes
   grid                                    :         55. kBytes
   one-center                              :          3. kBytes
   HF                                      :          4. kBytes
   nonlr-proj                              :         40. kBytes
   wavefun                                 :        306. kBytes
 
     INWAV:  cpu time      0.0000: real time      0.0001
 Broyden mixing: mesh for mixing (old mesh)
   NGX =  9   NGY =  9   NGZ =  9
  (NGX  = 28   NGY  = 28   NGZ  = 28)
  gives a total of    729 points

 initial charge density was supplied:
 charge density of overlapping atoms calculated
 number of electron       8.0000000 magnetization 
 keeping initial charge density in first step


--------------------------------------------------------------------------------------------------------


 Maximum index for augmentation-charges          211 (set IRDMAX)


--------------------------------------------------------------------------------------------------------


 First call to EWALD:  gamma=   0.787
 Maximum number of real-space cells   3x   3x   3
 Maximum number of reciprocal cells   3x   3x   3

    FEWALD:  cpu time      0.0011: real time      0.0011


--------------------------------------- Ionic step        1  -------------------------------------------




--------------------------------------- Iteration      1(   1)  ---------------------------------------


    POTLOK:  cpu time      0.0041: real time      0.0042
    SETDIJ:  cpu time      0.0036: real time      0.0036
    TRIAL :  cpu time      0.0701: real time      0.0707
    CORREC:  cpu time      0.0002: real time      0.0002
    --------------------------------------------
      LOOP:  cpu time      0.0782: real time      0.0790

 eigenvalue-minimisations  :  1032
 total energy-change (2. order) :-0.2862868E+02  (-0.4778457E+03)
 number of electron       8.0000000 magnetization 
 augmentation part        8.0000000 magnetization 

 Free energy of the ion-electron system (eV)
  ---------------------------------------------------
  alpha Z        PSCENC =        28.79729048
  Ewald energy   TEWEN  =      -347.28596645
  -Hartree energ DENC   =       -17.74214055
  -exchange      EXHF   =         0.00000000
  -V(xc)+E(xc)   XCENC  =        27.36858595
  PAW double counting   =       217.04409276     -263.28656513
  entropy T*S    EENTRO =        -0.00001543
  eigenvalues    EBANDS =        35.67316116
  atomic energy  EATOM  =       290.80287429
  ---------------------------------------------------
  free energy    TOTEN  =       -28.62868292 eV

  energy without entropy =      -28.62866749  energy(sigma->0) =      -28.62867521
  exchange ACFDT corr.  =         0.00000000  see jH, gK, PRB 81, 115126


--------------------------------------------------------------------------------------------------------




--------------------------------------- Iteration      1(   2)  ---------------------------------------


    TRIAL :  cpu time      0.1013: real time      0.1021
    CORREC:  cpu time      0.0001: real time      0.0001
    --------------------------------------------
      LOOP:  cpu time      0.1017: real time      0.1029

 eigenvalue-minimisations  :  1504
 total energy-change (2. order) :-0.3865648E+02  (-0.3625499E+02)
 number of electron       8.0000000 magnetization 
 augmentation part        8.0000000 magnetization 

 Free energy of the ion-electron system (eV)
  ---------------------------------------------------
  alpha Z        PSCENC =        28.79729048
  Ewald energy   TEWEN  =      -347.28596645
  -Hartree energ DENC   =       -17.74214055
  -exchange      EXHF   =         0.00000000
  -V(xc)+E(xc)   XCENC  =        27.36858595
  PAW double counting   =       217.04409276     -263.28656513
  entropy T*S    EENTRO =        -0.00000000
  eigenvalues    EBANDS =        -2.98333169
  atomic energy  EATOM  =       290.80287429
  ---------------------------------------------------
  free energy    TOTEN  =       -67.28516034 eV

  energy without entropy =      -67.28516034  energy(sigma->0) =      -67.28516034
  exchange ACFDT corr.  =         0.00000000  see jH, gK, PRB 81, 115126


--------------------------------------------------------------------------------------------------------




--------------------------------------- Iteration      1(   3)  ---------------------------------------


    TRIAL :  cpu time      0.0975: real time      0.0982
    CORREC:  cpu time      0.0001: real time      0.0001
    --------------------------------------------
      LOOP:  cpu time      0.0977: real time      0.0985

 eigenvalue-minimisations  :  1480
 total energy-change (2. order) :-0.2143602E+01  (-0.2143602E+01)
 number of electron       8.0000000 magnetization 
 augmentation part        8.0000000 magnetization 

 Free energy of the ion-electron system (eV)
  ---------------------------------------------------
  alpha Z        PSCENC =        28.79729048
  Ewald energy   TEWEN  =      -347.28596645
  -Hartree energ DENC   =       -17.74214055
  -exchange      EXHF   =         0.00000000
  -V(xc)+E(xc)   XCENC  =        27.36858595
  PAW double counting   =       217.04409276     -263.28656513
  entropy T*S    EENTRO =        -0.00000000
  eigenvalues    EBANDS =        -5.12693408
  atomic energy  EATOM  =       290.80287429
  ---------------------------------------------------
  free energy    TOTEN  =       -69.42876273 eV

  energy without entropy =      -69.42876273  energy(sigma->0) =      -69.42876273
  exchange ACFDT corr.  =         0.00000000  see jH, gK, PRB 81, 115126


--------------------------------------------------------------------------------------------------------




--------------------------------------- Iteration      1(   4)  ---------------------------------------


    TRIAL :  cpu time      0.0983: real time      0.0991
    CORREC:  cpu time      0.0001: real time      0.0001
    --------------------------------------------
      LOOP:  cpu time      0.0985: real time      0.0993

 eigenvalue-minimisations  :  1480
 total energy-change (2. order) :-0.1383378E+00  (-0.1383378E+00)
 number of electron       8.0000000 magnetization 
 augmentation part        8.0000000 magnetization 

 Free energy of the ion-electron system (eV)
  ---------------------------------------------------
  alpha Z        PSCENC =        28.79729048
  Ewald energy   TEWEN  =      -347.28596645
  -Hartree energ DENC   =       -17.74214055
  -exchange      EXHF   =         0.00000000
  -V(xc)+E(xc)   XCENC  =        27.36858595
  PAW double counting   =       217.04409276     -263.28656513
  entropy T*S    EENTRO =        -0.00000000
  eigenvalues    EBANDS =        -5.26527185
  atomic energy  EATOM  =       290.80287429
  ---------------------------------------------------
  free energy    TOTEN  =       -69.56710050 eV

  energy without entropy =      -69.56710050  energy(sigma->0) =      -69.56710050
  exchange ACFDT corr.  =         0.00000000  see jH, gK, PRB 81, 115126


--------------------------------------------------------------------------------------------------------




--------------------------------------- Iteration      1(   5)  ---------------------------------------


    POTLOK:  cpu time      0.0026: real time      0.0027
    SETDIJ:  cpu time      0.0423: real time      0.0425
    TRIAL :  cpu time     25.7067: real time     25.8206
    CORREC:  cpu time      0.0001: real time      0.0001
    CHARGE:  cpu time      0.0319: real time      0.0321
    --------------------------------------------
      LOOP:  cpu time     25.7840: real time     25.8982

 eigenvalue-minimisations  :  1488
 total energy-change (2. order) : 0.4767719E+02  (-0.1065958E+00)
 number of electron       8.0000000 magnetization 
 augmentation part        0.1953496 magnetization 

 Free energy of the ion-electron system (eV)
  ---------------------------------------------------
  alpha Z        PSCENC =        28.79729048
  Ewald energy   TEWEN  =      -347.28596645
  -Hartree energ DENC   =       -17.74214055
  -exchange      EXHF   =        18.58874894
  -V(xc)+E(xc)   XCENC  =        21.02757835
  PAW double counting   =       221.88759051     -222.63354230
  entropy T*S    EENTRO =         0.00000000
  eigenvalues    EBANDS =       -15.33234824
  atomic energy  EATOM  =       290.80287429
  ---------------------------------------------------
  free energy    TOTEN  =       -21.88991497 eV

  energy without entropy =      -21.88991497  energy(sigma->0) =      -21.88991497
  exchange ACFDT corr.  =         0.00000000  see jH, gK, PRB 81, 115126


--------------------------------------------------------------------------------------------------------




--------------------------------------- Iteration      1(   6)  ---------------------------------------


    POTLOK:  cpu time      0.0024: real time      0.0024
    SETDIJ:  cpu time      0.0419: real time      0.0421
    TRIAL :  cpu time     25.6858: real time     25.7950
    CORREC:  cpu time      0.0001: real time      0.0001
    CHARGE:  cpu time      0.0315: real time      0.0317
    --------------------------------------------
      LOOP:  cpu time     25.7620: real time     25.8715

 eigenvalue-minimisations  :     0
 total energy-change (2. order) : 0.1074070E+01  (-0.2794439E+00)
 number of electron       8.0000000 magnetization 
 augmentation part        0.1909135 magnetization 

 Free energy of the ion-electron system (eV)
  ---------------------------------------------------
  alpha Z        PSCENC =        28.79729048
  Ewald energy   TEWEN  =      -347.28596645
  -Hartree energ DENC   =       -29.50608741
  -exchange      EXHF   =        18.63742242
  -V(xc)+E(xc)   XCENC  =        21.86841542
  PAW double counting   =       776.48957310     -777.43052466
  entropy T*S    EENTRO =         0.00000000
  eigenvalues    EBANDS =        -3.18884233
  atomic energy  EATOM  =       290.80287429
  ---------------------------------------------------
  free energy    TOTEN  =       -20.81584514 eV

  energy without entropy =      -20.81584514  energy(sigma->0) =      -20.81584514
  exchange ACFDT corr.  =         0.00000000  see jH, gK, PRB 81, 115126


--------------------------------------------------------------------------------------------------------




--------------------------------------- Iteration      1(   7)  ---------------------------------------


    POTLOK:  cpu time      0.0021: real time      0.0021
    SETDIJ:  cpu time      0.0412: real time      0.0414
    TRIAL :  cpu time     25.7041: real time     25.8129
    CORREC:  cpu time      0.0001: real time      0.0001
    CHARGE:  cpu time      0.0318: real time      0.0320
    --------------------------------------------
      LOOP:  cpu time     25.7799: real time     25.8910

 eigenvalue-minimisations  :     0
 total energy-change (2. order) :-0.1985575E+00  (-0.1026433E+00)
 number of electron       8.0000000 magnetization 
 augmentation part        0.1868112 magnetization 

 Free energy of the ion-electron system (eV)
  ---------------------------------------------------
  alpha Z        PSCENC =        28.79729048
  Ewald energy   TEWEN  =      -347.28596645
  -Hartree energ DENC   =       -27.74767520
  -exchange      EXHF   =        18.49630506
  -V(xc)+E(xc)   XCENC  =        21.74865690
  PAW double counting   =       807.91582971     -808.81866149
  entropy T*S    EENTRO =        -0.00000000
  eigenvalues    EBANDS =        -4.92305595
  atomic energy  EATOM  =       290.80287429
  ---------------------------------------------------
  free energy    TOTEN  =       -21.01440266 eV

  energy without entropy =      -21.01440266  energy(sigma->0) =      -21.01440266
  exchange ACFDT corr.  =         0.00000000  see jH, gK, PRB 81, 115126


--------------------------------------------------------------------------------------------------------




--------------------------------------- Iteration      1(   8)  ---------------------------------------


    POTLOK:  cpu time      0.0021: real time      0.0021
    SETDIJ:  cpu time      0.0412: real time      0.0414
    TRIAL :  cpu time     25.6367: real time     25.7461
    CORREC:  cpu time      0.0001: real time      0.0001
    CHARGE:  cpu time      0.0315: real time      0.0317
    --------------------------------------------
      LOOP:  cpu time     25.7121: real time     25.8230

 eigenvalue-minimisations  :     0
 total energy-change (2. order) :-0.5088187E-01  (-0.1147856E-01)
 number of electron       8.0000000 magnetization 
 augmentation part        0.1849161 magnetization 

 Free energy of the ion-electron system (eV)
  ---------------------------------------------------
  alpha Z        PSCENC =        28.79729048
  Ewald energy   TEWEN  =      -347.28596645
  -Hartree energ DENC   =       -26.34167171
  -exchange      EXHF   =        18.38314950
  -V(xc)+E(xc)   XCENC  =        21.65191770
  PAW double counting   =       837.85309009     -838.72274906
  entropy T*S    EENTRO =         0.00000000
  eigenvalues    EBANDS =        -6.20321937
  atomic energy  EATOM  =       290.80287429
  ---------------------------------------------------
  free energy    TOTEN  =       -21.06528453 eV

  energy without entropy =      -21.06528453  energy(sigma->0) =      -21.06528453
  exchange ACFDT corr.  =         0.00000000  see jH, gK, PRB 81, 115126


--------------------------------------------------------------------------------------------------------




--------------------------------------- Iteration      1(   9)  ---------------------------------------


    POTLOK:  cpu time      0.0020: real time      0.0021
    SETDIJ:  cpu time      0.0413: real time      0.0414
    TRIAL :  cpu time     25.6724: real time     25.7814
    CORREC:  cpu time      0.0001: real time      0.0001
    CHARGE:  cpu time      0.0317: real time      0.0318
    --------------------------------------------
      LOOP:  cpu time     25.7478: real time     25.8579

 eigenvalue-minimisations  :     0
 total energy-change (2. order) :-0.4363356E-02  (-0.1165586E-01)
 number of electron       8.0000000 magnetization 
 augmentation part        0.1847034 magnetization 

 Free energy of the ion-electron system (eV)
  ---------------------------------------------------
  alpha Z        PSCENC =        28.79729048
  Ewald energy   TEWEN  =      -347.28596645
  -Hartree energ DENC   =       -25.88489266
  -exchange      EXHF   =        18.34499052
  -V(xc)+E(xc)   XCENC  =        21.62021663
  PAW double counting   =       850.76020060     -851.61628720
  entropy T*S    EENTRO =        -0.00000000
  eigenvalues    EBANDS =        -6.60807409
  atomic energy  EATOM  =       290.80287429
  ---------------------------------------------------
  free energy    TOTEN  =       -21.06964788 eV

  energy without entropy =      -21.06964788  energy(sigma->0) =      -21.06964788
  exchange ACFDT corr.  =         0.00000000  see jH, gK, PRB 81, 115126


--------------------------------------------------------------------------------------------------------




--------------------------------------- Iteration      1(  10)  ---------------------------------------


    POTLOK:  cpu time      0.0020: real time      0.0021
    SETDIJ:  cpu time      0.0412: real time      0.0413
    TRIAL :  cpu time     25.6707: real time     25.7803
    CORREC:  cpu time      0.0001: real time      0.0001
    CHARGE:  cpu time      0.0317: real time      0.0318
    --------------------------------------------
      LOOP:  cpu time     25.7460: real time     25.8572

 eigenvalue-minimisations  :     0
 total energy-change (2. order) :-0.8754320E-02  (-0.7015570E-02)
 number of electron       8.0000000 magnetization 
 augmentation part        0.1851194 magnetization 

 Free energy of the ion-electron system (eV)
  ---------------------------------------------------
  alpha Z        PSCENC =        28.79729048
  Ewald energy   TEWEN  =      -347.28596645
  -Hartree energ DENC   =       -25.95738199
  -exchange      EXHF   =        18.34725499
  -V(xc)+E(xc)   XCENC  =        21.62506685
  PAW double counting   =       851.28631808     -852.14175735
  entropy T*S    EENTRO =         0.00000000
  eigenvalues    EBANDS =        -6.55210111
  atomic energy  EATOM  =       290.80287429
  ---------------------------------------------------
  free energy    TOTEN  =       -21.07840220 eV

  energy without entropy =      -21.07840220  energy(sigma->0) =      -21.07840220
  exchange ACFDT corr.  =         0.00000000  see jH, gK, PRB 81, 115126


--------------------------------------------------------------------------------------------------------




--------------------------------------- Iteration      1(  11)  ---------------------------------------


    POTLOK:  cpu time      0.0021: real time      0.0021
    SETDIJ:  cpu time      0.0412: real time      0.0414
    TRIAL :  cpu time     25.6784: real time     25.7869
    CORREC:  cpu time      0.0001: real time      0.0001
    CHARGE:  cpu time      0.0317: real time      0.0318
    --------------------------------------------
      LOOP:  cpu time     25.7540: real time     25.8649

 eigenvalue-minimisations  :     0
 total energy-change (2. order) :-0.4713151E-02  (-0.1935431E-02)
 number of electron       8.0000000 magnetization 
 augmentation part        0.1855456 magnetization 

 Free energy of the ion-electron system (eV)
  ---------------------------------------------------
  alpha Z        PSCENC =        28.79729048
  Ewald energy   TEWEN  =      -347.28596645
  -Hartree energ DENC   =       -26.13121416
  -exchange      EXHF   =        18.35679426
  -V(xc)+E(xc)   XCENC  =        21.63695179
  PAW double counting   =       847.35724772     -848.21599100
  entropy T*S    EENTRO =         0.00000000
  eigenvalues    EBANDS =        -6.40110228
  atomic energy  EATOM  =       290.80287429
  ---------------------------------------------------
  free energy    TOTEN  =       -21.08311535 eV

  energy without entropy =      -21.08311535  energy(sigma->0) =      -21.08311535
  exchange ACFDT corr.  =         0.00000000  see jH, gK, PRB 81, 115126


--------------------------------------------------------------------------------------------------------




--------------------------------------- Iteration      1(  12)  ---------------------------------------


    POTLOK:  cpu time      0.0023: real time      0.0023
    SETDIJ:  cpu time      0.0412: real time      0.0414
    TRIAL :  cpu time     25.6974: real time     25.8057
    CORREC:  cpu time      0.0001: real time      0.0001
    CHARGE:  cpu time      0.0314: real time      0.0315
    --------------------------------------------
      LOOP:  cpu time     25.7728: real time     25.8821

 eigenvalue-minimisations  :     0
 total energy-change (2. order) :-0.1153378E-02  (-0.5400036E-03)
 number of electron       8.0000000 magnetization 
 augmentation part        0.1858148 magnetization 

 Free energy of the ion-electron system (eV)
  ---------------------------------------------------
  alpha Z        PSCENC =        28.79729048
  Ewald energy   TEWEN  =      -347.28596645
  -Hartree energ DENC   =       -26.23224482
  -exchange      EXHF   =        18.36104178
  -V(xc)+E(xc)   XCENC  =        21.64385907
  PAW double counting   =       843.26134823     -844.12298289
  entropy T*S    EENTRO =        -0.00000000
  eigenvalues    EBANDS =        -6.30948842
  atomic energy  EATOM  =       290.80287429
  ---------------------------------------------------
  free energy    TOTEN  =       -21.08426873 eV

  energy without entropy =      -21.08426873  energy(sigma->0) =      -21.08426873
  exchange ACFDT corr.  =         0.00000000  see jH, gK, PRB 81, 115126


--------------------------------------------------------------------------------------------------------




--------------------------------------- Iteration      1(  13)  ---------------------------------------


    POTLOK:  cpu time      0.0020: real time      0.0021
    SETDIJ:  cpu time      0.0412: real time      0.0414
    TRIAL :  cpu time     25.6401: real time     25.7555
    CORREC:  cpu time      0.0001: real time      0.0001
    CHARGE:  cpu time      0.0315: real time      0.0317
    --------------------------------------------
      LOOP:  cpu time     25.7156: real time     25.8320

 eigenvalue-minimisations  :     0
 total energy-change (2. order) :-0.3343313E-03  (-0.2502778E-03)
 number of electron       8.0000000 magnetization 
 augmentation part        0.1859445 magnetization 

 Free energy of the ion-electron system (eV)
  ---------------------------------------------------
  alpha Z        PSCENC =        28.79729048
  Ewald energy   TEWEN  =      -347.28596645
  -Hartree energ DENC   =       -26.24947676
  -exchange      EXHF   =        18.35966288
  -V(xc)+E(xc)   XCENC  =        21.64502577
  PAW double counting   =       840.37375931     -841.23685092
  entropy T*S    EENTRO =        -0.00000000
  eigenvalues    EBANDS =        -6.29092166
  atomic energy  EATOM  =       290.80287429
  ---------------------------------------------------
  free energy    TOTEN  =       -21.08460306 eV

  energy without entropy =      -21.08460306  energy(sigma->0) =      -21.08460306
  exchange ACFDT corr.  =         0.00000000  see jH, gK, PRB 81, 115126


--------------------------------------------------------------------------------------------------------




--------------------------------------- Iteration      1(  14)  ---------------------------------------


    POTLOK:  cpu time      0.0021: real time      0.0022
    SETDIJ:  cpu time      0.0413: real time      0.0414
    TRIAL :  cpu time     25.6556: real time     25.7651
    CORREC:  cpu time      0.0001: real time      0.0001
    CHARGE:  cpu time      0.0315: real time      0.0316
    --------------------------------------------
      LOOP:  cpu time     25.7314: real time     25.8420

 eigenvalue-minimisations  :     0
 total energy-change (2. order) :-0.1550315E-03  (-0.9437527E-04)
 number of electron       8.0000000 magnetization 
 augmentation part        0.1859843 magnetization 

 Free energy of the ion-electron system (eV)
  ---------------------------------------------------
  alpha Z        PSCENC =        28.79729048
  Ewald energy   TEWEN  =      -347.28596645
  -Hartree energ DENC   =       -26.22620397
  -exchange      EXHF   =        18.35619963
  -V(xc)+E(xc)   XCENC  =        21.64341064
  PAW double counting   =       838.76794002     -839.63153707
  entropy T*S    EENTRO =        -0.00000000
  eigenvalues    EBANDS =        -6.30876566
  atomic energy  EATOM  =       290.80287429
  ---------------------------------------------------
  free energy    TOTEN  =       -21.08475809 eV

  energy without entropy =      -21.08475809  energy(sigma->0) =      -21.08475809
  exchange ACFDT corr.  =         0.00000000  see jH, gK, PRB 81, 115126


--------------------------------------------------------------------------------------------------------




--------------------------------------- Iteration      1(  15)  ---------------------------------------


    POTLOK:  cpu time      0.0022: real time      0.0022
    SETDIJ:  cpu time      0.0412: real time      0.0414
    TRIAL :  cpu time     25.6536: real time     25.7624
    CORREC:  cpu time      0.0001: real time      0.0001
    CHARGE:  cpu time      0.0316: real time      0.0317
    --------------------------------------------
      LOOP:  cpu time     25.7290: real time     25.8389

 eigenvalue-minimisations  :     0
 total energy-change (2. order) :-0.5380671E-04  (-0.3003939E-04)
 number of electron       8.0000000 magnetization 
 augmentation part        0.1859890 magnetization 

 Free energy of the ion-electron system (eV)
  ---------------------------------------------------
  alpha Z        PSCENC =        28.79729048
  Ewald energy   TEWEN  =      -347.28596645
  -Hartree energ DENC   =       -26.20092889
  -exchange      EXHF   =        18.35355342
  -V(xc)+E(xc)   XCENC  =        21.64165825
  PAW double counting   =       838.04213971     -838.90579420
  entropy T*S    EENTRO =        -0.00000000
  eigenvalues    EBANDS =        -6.32963851
  atomic energy  EATOM  =       290.80287429
  ---------------------------------------------------
  free energy    TOTEN  =       -21.08481190 eV

  energy without entropy =      -21.08481190  energy(sigma->0) =      -21.08481190
  exchange ACFDT corr.  =         0.00000000  see jH, gK, PRB 81, 115126


--------------------------------------------------------------------------------------------------------




--------------------------------------- Iteration      1(  16)  ---------------------------------------


    POTLOK:  cpu time      0.0020: real time      0.0021
    SETDIJ:  cpu time      0.0412: real time      0.0414
    TRIAL :  cpu time     25.6647: real time     25.7749
    CORREC:  cpu time      0.0001: real time      0.0001
    CHARGE:  cpu time      0.0319: real time      0.0321
    --------------------------------------------
      LOOP:  cpu time     25.7407: real time     25.8529

 eigenvalue-minimisations  :     0
 total energy-change (2. order) :-0.1579564E-04  (-0.9505046E-05)
 number of electron       8.0000000 magnetization 
 augmentation part        0.1859896 magnetization 

 Free energy of the ion-electron system (eV)
  ---------------------------------------------------
  alpha Z        PSCENC =        28.79729048
  Ewald energy   TEWEN  =      -347.28596645
  -Hartree energ DENC   =       -26.18834037
  -exchange      EXHF   =        18.35247762
  -V(xc)+E(xc)   XCENC  =        21.64078056
  PAW double counting   =       837.81104973     -838.67470695
  entropy T*S    EENTRO =        -0.00000000
  eigenvalues    EBANDS =        -6.34028661
  atomic energy  EATOM  =       290.80287429
  ---------------------------------------------------
  free energy    TOTEN  =       -21.08482770 eV

  energy without entropy =      -21.08482770  energy(sigma->0) =      -21.08482770
  exchange ACFDT corr.  =         0.00000000  see jH, gK, PRB 81, 115126


--------------------------------------------------------------------------------------------------------




--------------------------------------- Iteration      1(  17)  ---------------------------------------


    POTLOK:  cpu time      0.0024: real time      0.0024
    SETDIJ:  cpu time      0.0412: real time      0.0414
    TRIAL :  cpu time     25.6542: real time     25.7632
    CORREC:  cpu time      0.0001: real time      0.0001
    CHARGE:  cpu time      0.0316: real time      0.0318
    --------------------------------------------
      LOOP:  cpu time     25.7299: real time     25.8399

 eigenvalue-minimisations  :     0
 total energy-change (2. order) :-0.4878830E-05  (-0.3602894E-05)
 number of electron       8.0000000 magnetization 
 augmentation part        0.1859932 magnetization 

 Free energy of the ion-electron system (eV)
  ---------------------------------------------------
  alpha Z        PSCENC =        28.79729048
  Ewald energy   TEWEN  =      -347.28596645
  -Hartree energ DENC   =       -26.18653516
  -exchange      EXHF   =        18.35244623
  -V(xc)+E(xc)   XCENC  =        21.64064816
  PAW double counting   =       837.81910512     -838.68277704
  entropy T*S    EENTRO =        -0.00000000
  eigenvalues    EBANDS =        -6.34191820
  atomic energy  EATOM  =       290.80287429
  ---------------------------------------------------
  free energy    TOTEN  =       -21.08483258 eV

  energy without entropy =      -21.08483258  energy(sigma->0) =      -21.08483258
  exchange ACFDT corr.  =         0.00000000  see jH, gK, PRB 81, 115126


--------------------------------------------------------------------------------------------------------




--------------------------------------- Iteration      1(  18)  ---------------------------------------


    POTLOK:  cpu time      0.0022: real time      0.0022
    SETDIJ:  cpu time      0.0412: real time      0.0413
    TRIAL :  cpu time     25.6583: real time     25.7689
    CORREC:  cpu time      0.0001: real time      0.0001
    CHARGE:  cpu time      0.0315: real time      0.0316
    --------------------------------------------
      LOOP:  cpu time     25.7341: real time     25.8460

 eigenvalue-minimisations  :     0
 total energy-change (2. order) :-0.2119285E-05  (-0.1784874E-05)
 number of electron       8.0000000 magnetization 
 augmentation part        0.1859970 magnetization 

 Free energy of the ion-electron system (eV)
  ---------------------------------------------------
  alpha Z        PSCENC =        28.79729048
  Ewald energy   TEWEN  =      -347.28596645
  -Hartree energ DENC   =       -26.18915117
  -exchange      EXHF   =        18.35276740
  -V(xc)+E(xc)   XCENC  =        21.64082442
  PAW double counting   =       837.91791604     -838.78160943
  entropy T*S    EENTRO =        -0.00000000
  eigenvalues    EBANDS =        -6.33978027
  atomic energy  EATOM  =       290.80287429
  ---------------------------------------------------
  free energy    TOTEN  =       -21.08483469 eV

  energy without entropy =      -21.08483469  energy(sigma->0) =      -21.08483469
  exchange ACFDT corr.  =         0.00000000  see jH, gK, PRB 81, 115126


--------------------------------------------------------------------------------------------------------




--------------------------------------- Iteration      1(  19)  ---------------------------------------


    POTLOK:  cpu time      0.0020: real time      0.0021
    SETDIJ:  cpu time      0.0412: real time      0.0414
    TRIAL :  cpu time     25.6310: real time     25.7407
    CORREC:  cpu time      0.0001: real time      0.0001
    CHARGE:  cpu time      0.0316: real time      0.0317
    --------------------------------------------
      LOOP:  cpu time     25.7067: real time     25.8176

 eigenvalue-minimisations  :     0
 total energy-change (2. order) :-0.1241582E-05  (-0.8883238E-06)
 number of electron       8.0000000 magnetization 
 augmentation part        0.1859990 magnetization 

 Free energy of the ion-electron system (eV)
  ---------------------------------------------------
  alpha Z        PSCENC =        28.79729048
  Ewald energy   TEWEN  =      -347.28596645
  -Hartree energ DENC   =       -26.19185440
  -exchange      EXHF   =        18.35305128
  -V(xc)+E(xc)   XCENC  =        21.64101017
  PAW double counting   =       838.02972253     -838.89342535
  entropy T*S    EENTRO =        -0.00000000
  eigenvalues    EBANDS =        -6.33753849
  atomic energy  EATOM  =       290.80287429
  ---------------------------------------------------
  free energy    TOTEN  =       -21.08483594 eV

  energy without entropy =      -21.08483594  energy(sigma->0) =      -21.08483594
  exchange ACFDT corr.  =         0.00000000  see jH, gK, PRB 81, 115126


--------------------------------------------------------------------------------------------------------




--------------------------------------- Iteration      1(  20)  ---------------------------------------


    POTLOK:  cpu time      0.0021: real time      0.0021
    SETDIJ:  cpu time      0.0412: real time      0.0413
    TRIAL :  cpu time     25.6721: real time     25.7820
    CORREC:  cpu time      0.0001: real time      0.0001
    EDDIAG:  cpu time     25.6610: real time     25.7735
    CHARGE:  cpu time      0.0318: real time      0.0319
    --------------------------------------------
      LOOP:  cpu time     51.4087: real time     51.6321

 eigenvalue-minimisations  :     0
 total energy-change (2. order) :-0.6373340E-06  (-0.3424599E-06)
 number of electron       8.0000000 magnetization 
 augmentation part        0.1859990 magnetization 

 Free energy of the ion-electron system (eV)
  ---------------------------------------------------
  alpha Z        PSCENC =        28.79729048
  Ewald energy   TEWEN  =      -347.28596645
  -Hartree energ DENC   =       -26.19330218
  -exchange      EXHF   =        18.35325812
  -V(xc)+E(xc)   XCENC  =        21.64111081
  PAW double counting   =       838.11973766     -838.98343802
  entropy T*S    EENTRO =        -0.00000000
  eigenvalues    EBANDS =        -6.33634347
  atomic energy  EATOM  =       290.80287429
  ---------------------------------------------------
  free energy    TOTEN  =       -21.08483657 eV

  energy without entropy =      -21.08483657  energy(sigma->0) =      -21.08483657
  exchange ACFDT corr.  =         0.00000000  see jH, gK, PRB 81, 115126


--------------------------------------------------------------------------------------------------------


  average scaling for gradient   0.8080


 average (electrostatic) potential at core
  the test charge radii are     0.6991
  (the norm of the test charge is              1.0000)
       1 -41.7256       2 -41.7256
 
 
 
 E-fermi :   9.0593     XC(G=0): -10.7874     alpha+bet :-17.5671

 WARNING: Could not determine fundamental gap because eigenvalues are not
     sorted.

 Fermi energy:         9.0593329740

 k-point     1 :       0.0000    0.0000    0.0000
  band No.  band energies     occupation 
      1     -14.4415      2.00000
      2       9.0186      2.00000
      3       9.0187      2.00000
      4       9.0187      2.00000
      5      15.9926      0.00000
      6      15.9926      0.00000
      7      15.9926      0.00000
      8      24.1626      0.00000

 k-point     2 :       0.1000    0.0000    0.0000
  band No.  band energies     occupation 
      1     -14.1433      2.00000
      2       7.2260      2.00000
      3       8.5488      2.00000
      4       8.5488      2.00000
      5      16.6159      0.00000
      6      16.6160      0.00000
      7      16.9492      0.00000
      8      24.4286      0.00000

 k-point     3 :       0.2000    0.0000    0.0000
  band No.  band energies     occupation 
      1     -13.2534      2.00000
      2       3.7114      2.00000
      3       7.6013      2.00000
      4       7.6013      2.00000
      5      17.8357      0.00000
      6      17.8358      0.00000
      7      18.1924      0.00000
      8      25.1692      0.00000

 k-point     4 :       0.3000    0.0000    0.0000
  band No.  band energies     occupation 
      1     -11.7937      2.00000
      2      -0.0254      2.00000
      3       6.7305      2.00000
      4       6.7306      2.00000
      5      18.7136      0.00000
      6      18.7136      0.00000
      7      18.8877      0.00000
      8      26.0100      0.00000

 k-point     5 :       0.4000    0.0000    0.0000
  band No.  band energies     occupation 
      1      -9.8472      2.00000
      2      -3.4443      2.00000
      3       6.1627      2.00000
      4       6.1628      2.00000
      5      19.0029      0.00000
      6      19.0029      0.00000
      7      19.2048      0.00000
      8      26.4965      0.00000

 k-point     6 :       0.5000    0.0000    0.0000
  band No.  band energies     occupation 
      1      -8.2598      2.00000
      2      -5.5367      2.00000
      3       5.9684      2.00000
      4       5.9685      2.00000
      5      19.0327      0.00000
      6      19.0327      0.00000
      7      19.2972      0.00000
      8      26.6168      0.00000

 k-point     7 :       0.1000    0.1000    0.0000
  band No.  band energies     occupation 
      1     -14.0439      2.00000
      2       7.7269      2.00000
      3       7.7270      2.00000
      4       8.0509      2.00000
      5      15.6737      0.00000
      6      17.6245      0.00000
      7      17.6245      0.00000
      8      24.2797      0.00000

 k-point     8 :       0.2000    0.1000    0.0000
  band No.  band energies     occupation 
      1     -13.3513      2.00000
      2       4.9298      2.00000
      3       6.6744      2.00000
      4       7.5629      2.00000
      5      16.1153      0.00000
      6      18.9997      0.00000
      7      19.0570      0.00000
      8      24.1650      0.00000

 k-point     9 :       0.3000    0.1000    0.0000
  band No.  band energies     occupation 
      1     -12.0805      2.00000
      2       1.3335      2.00000
      3       5.8494      2.00000
      4       6.6191      2.00000
      5      17.2223      0.00000
      6      19.8616      0.00000
      7      20.0554      0.00000
      8      24.3576      0.00000

 k-point    10 :       0.4000    0.1000    0.0000
  band No.  band energies     occupation 
      1     -10.2827      2.00000
      2      -2.1677      2.00000
      3       5.4258      2.00000
      4       5.6683      2.00000
      5      17.9676      0.00000
      6      20.2386      0.00000
      7      20.2729      0.00000
      8      25.3484      0.00000

 k-point    11 :       0.5000    0.1000    0.0000
  band No.  band energies     occupation 
      1      -8.2998      2.00000
      2      -4.9632      2.00000
      3       4.9787      2.00000
      4       5.4458      2.00000
      5      18.3782      0.00000
      6      20.0023      0.00000
      7      20.3435      0.00000
      8      26.4613      0.00000

 k-point    12 :      -0.4000    0.1000    0.0000
  band No.  band energies     occupation 
      1      -8.9073      2.00000
      2      -4.1878      2.00000
      3       4.6670      2.00000
      4       5.8889      2.00000
      5      18.7998      0.00000
      6      19.5716      0.00000
      7      20.2724      0.00000
      8      26.5779      0.00000

 k-point    13 :      -0.3000    0.1000    0.0000
  band No.  band energies     occupation 
      1     -10.9345      2.00000
      2      -1.0284      2.00000
      3       4.7896      2.00000
      4       6.6839      2.00000
      5      18.9443      0.00000
      6      19.1661      0.00000
      7      19.9773      0.00000
      8      25.6759      0.00000

 k-point    14 :      -0.2000    0.1000    0.0000
  band No.  band energies     occupation 
      1     -12.5670      2.00000
      2       2.5586      2.00000
      3       5.3664      2.00000
      4       7.6750      2.00000
      5      17.9133      0.00000
      6      19.0572      0.00000
      7      19.1769      0.00000
      8      24.8968      0.00000

 k-point    15 :      -0.1000    0.1000    0.0000
  band No.  band energies     occupation 
      1     -13.6477      2.00000
      2       5.8280      2.00000
      3       6.5471      2.00000
      4       8.5004      2.00000
      5      16.8135      0.00000
      6      17.7911      0.00000
      7      18.2001      0.00000
      8      24.6177      0.00000

 k-point    16 :       0.2000    0.2000    0.0000
  band No.  band energies     occupation 
      1     -12.8581      2.00000
      2       5.5511      2.00000
      3       5.5511      2.00000
      4       5.5885      2.00000
      5      14.9963      0.00000
      6      20.7805      0.00000
      7      20.7805      0.00000
      8      22.4323      0.00000

 k-point    17 :       0.3000    0.2000    0.0000
  band No.  band energies     occupation 
      1     -11.7844      2.00000
      2       2.6319      2.00000
      3       4.6822      2.00000
      4       5.0396      2.00000
      5      15.4382      0.00000
      6      21.2963      0.00000
      7      22.0856      0.00000
      8      22.1556      0.00000

 k-point    18 :       0.4000    0.2000    0.0000
  band No.  band energies     occupation 
      1     -10.1659      2.00000
      2      -0.6075      2.00000
      3       3.8874      2.00000
      4       4.2518      2.00000
      5      16.4337      0.00000
      6      21.8070      0.00000
      7      22.6527      0.00000
      8      22.6728      0.00000

 k-point    19 :       0.5000    0.2000    0.0000
  band No.  band energies     occupation 
      1      -8.1673      2.00000
      2      -3.5769      2.00000
      3       2.7992      2.00000
      4       4.3128      2.00000
      5      17.0237      0.00000
      6      22.3695      0.00000
      7      22.8325      0.00000
      8      24.0571      0.00000

 k-point    20 :      -0.4000    0.2000    0.0000
  band No.  band energies     occupation 
      1      -7.5941      2.00000
      2      -4.2700      2.00000
      3       2.0744      2.00000
      4       4.8466      2.00000
      5      17.6227      0.00000
      6      21.6606      0.00000
      7      22.7828      0.00000
      8      26.4913      0.00000

 k-point    21 :      -0.3000    0.2000    0.0000
  band No.  band energies     occupation 
      1      -9.5371      2.00000
      2      -1.5737      2.00000
      3       1.8501      2.00000
      4       5.7652      2.00000
      5      18.4229      0.00000
      6      20.6014      0.00000
      7      22.4339      0.00000
      8      25.4318      0.00000

 k-point    22 :      -0.2000    0.2000    0.0000
  band No.  band energies     occupation 
      1     -11.3096      2.00000
      2       1.3531      2.00000
      3       2.5344      2.00000
      4       6.8589      2.00000
      5      19.1161      0.00000
      6      19.1624      0.00000
      7      21.1172      0.00000
      8      24.5153      0.00000

 k-point    23 :       0.3000    0.3000    0.0000
  band No.  band energies     occupation 
      1     -10.9106      2.00000
      2       2.2829      2.00000
      3       3.7294      2.00000
      4       3.7294      2.00000
      5      14.4356      0.00000
      6      19.0397      0.00000
      7      24.0984      0.00000
      8      24.0987      0.00000

 k-point    24 :       0.4000    0.3000    0.0000
  band No.  band energies     occupation 
      1      -9.4860      2.00000
      2       0.1260      2.00000
      3       2.5367      2.00000
      4       3.2107      2.00000
      5      15.0161      0.00000
      6      18.3561      0.00000
      7      25.1666      0.00000
      8      25.2045      0.00000

 k-point    25 :       0.5000    0.3000    0.0000
  band No.  band energies     occupation 
      1      -7.6078      2.00000
      2      -2.2349      2.00000
      3       0.8606      2.00000
      4       3.2005      2.00000
      5      15.8060      0.00000
      6      20.0518      0.00000
      7      25.1413      0.00000
      8      25.5728      0.00000

 k-point    26 :      -0.4000    0.3000    0.0000
  band No.  band energies     occupation 
      1      -6.1819      2.00000
      2      -3.7468      2.00000
      3      -0.3942      2.00000
      4       3.6953      2.00000
      5      16.4112      0.00000
      6      23.3948      0.00000
      7      24.3165      0.00000
      8      25.6067      0.00000

 k-point    27 :      -0.3000    0.3000    0.0000
  band No.  band energies     occupation 
      1      -7.7057      2.00000
      2      -2.1353      2.00000
      3      -0.5823      2.00000
      4       4.6180      2.00000
      5      17.3153      0.00000
      6      22.6607      0.00000
      7      25.1689      0.00000
      8      25.5662      0.00000

 k-point    28 :       0.4000    0.4000    0.0000
  band No.  band energies     occupation 
      1      -8.2590      2.00000
      2      -1.3917      2.00000
      3       2.5746      2.00000
      4       2.5746      2.00000
      5      14.3356      0.00000
      6      16.4441      0.00000
      7      26.9231      0.00000
      8      26.9272      0.00000

 k-point    29 :       0.5000    0.4000    0.0000
  band No.  band energies     occupation 
      1      -6.5499      2.00000
      2      -3.1764      2.00000
      3       1.3867      2.00000
      4       2.4453      2.00000
      5      15.0324      0.00000
      6      16.5759      0.00000
      7      27.3397      0.00000
      8      27.5274      0.00000

 k-point    30 :      -0.4000    0.4000    0.0000
  band No.  band energies     occupation 
      1      -4.9996      2.00000
      2      -4.2903      2.00000
      3      -0.4605      2.00000
      4       2.8378      2.00000
      5      15.5670      0.00000
      6      19.4803      0.00000
      7      26.3734      0.00000
      8      27.3101      0.00000

 k-point    31 :       0.5000    0.5000    0.0000
  band No.  band energies     occupation 
      1      -5.0166      2.00000
      2      -5.0166      2.00000
      3       2.1818      2.00000
      4       2.1818      2.00000
      5      14.9338      0.00000
      6      14.9338      0.00000
      7      28.1682      0.00000
      8      28.1727      0.00000

 k-point    32 :       0.3000    0.2000    0.1000
  band No.  band energies     occupation 
      1     -12.4678      2.00000
      2       3.4987      2.00000
      3       4.4802      2.00000
      4       6.9503      2.00000
      5      16.5277      0.00000
      6      20.0540      0.00000
      7      20.6853      0.00000
      8      23.3116      0.00000

 k-point    33 :       0.4000    0.2000    0.1000
  band No.  band energies     occupation 
      1     -11.0213      2.00000
      2       0.4169      2.00000
      3       3.4931      2.00000
      4       5.9831      2.00000
      5      17.7305      0.00000
      6      20.1870      0.00000
      7      22.0021      0.00000
      8      23.4157      0.00000

 k-point    34 :       0.5000    0.2000    0.1000
  band No.  band energies     occupation 
      1      -9.1004      2.00000
      2      -2.8149      2.00000
      3       3.2114      2.00000
      4       5.0470      2.00000
      5      18.4827      0.00000
      6      19.8804      0.00000
      7      22.5777      0.00000
      8      25.0079      0.00000

 k-point    35 :      -0.4000    0.2000    0.1000
  band No.  band energies     occupation 
      1      -7.5507      2.00000
      2      -4.8280      2.00000
      3       3.1918      2.00000
      4       4.6372      2.00000
      5      18.6574      0.00000
      6      19.7256      0.00000
      7      22.7522      0.00000
      8      26.4452      0.00000

 k-point    36 :       0.4000    0.3000    0.1000
  band No.  band energies     occupation 
      1     -10.5347      2.00000
      2       1.2234      2.00000
      3       2.7369      2.00000
      4       4.3147      2.00000
      5      16.0172      0.00000
      6      20.2022      0.00000
      7      22.6651      0.00000
      8      24.1143      0.00000

 k-point    37 :       0.5000    0.3000    0.1000
  band No.  band energies     occupation 
      1      -8.7778      2.00000
      2      -1.3088      2.00000
      3       1.7322      2.00000
      4       3.4189      2.00000
      5      17.2091      0.00000
      6      20.7941      0.00000
      7      22.6353      0.00000
      8      25.2727      0.00000

 k-point    38 :      -0.4000    0.3000    0.1000
  band No.  band energies     occupation 
      1      -6.8725      2.00000
      2      -3.7354      2.00000
      3       1.0157      2.00000
      4       3.2408      2.00000
      5      17.8269      0.00000
      6      21.6956      0.00000
      7      23.8415      0.00000
      8      25.5198      0.00000

 k-point    39 :      -0.3000    0.3000    0.1000
  band No.  band energies     occupation 
      1      -7.4786      2.00000
      2      -2.9667      2.00000
      3       0.5212      2.00000
      4       3.8534      2.00000
      5      18.5063      0.00000
      6      21.0121      0.00000
      7      24.4448      0.00000
      8      25.6276      0.00000

 k-point    40 :      -0.2000    0.3000    0.1000
  band No.  band energies     occupation 
      1      -9.4311      2.00000
      2      -0.5267      2.00000
      3       0.8996      2.00000
      4       4.9144      2.00000
      5      19.4273      0.00000
      6      19.4840      0.00000
      7      23.3696      0.00000
      8      24.2539      0.00000

 k-point    41 :       0.5000    0.4000    0.1000
  band No.  band energies     occupation 
      1      -7.9188      2.00000
      2      -1.5000      2.00000
      3       1.6695      2.00000
      4       2.2123      2.00000
      5      15.9065      0.00000
      6      17.8223      0.00000
      7      25.3320      0.00000
      8      26.8755      0.00000

 k-point    42 :      -0.4000    0.4000    0.1000
  band No.  band energies     occupation 
      1      -6.0154      2.00000
      2      -3.1776      2.00000
      3      -0.0036      2.00000
      4       2.0720      2.00000
      5      16.9126      0.00000
      6      19.7312      0.00000
      7      24.9367      0.00000
      8      26.7257      0.00000

 k-point    43 :      -0.3000    0.4000    0.1000
  band No.  band energies     occupation 
      1      -5.7191      2.00000
      2      -3.3448      2.00000
      3      -1.0487      2.00000
      4       2.7350      2.00000
      5      17.5698      0.00000
      6      23.0534      0.00000
      7      23.9671      0.00000
      8      25.3189      0.00000

 k-point    44 :      -0.4000    0.5000    0.1000
  band No.  band energies     occupation 
      1      -4.7791      2.00000
      2      -4.7791      2.00000
      3       1.4289      2.00000
      4       1.4289      2.00000
      5      16.4408      0.00000
      6      16.4408      0.00000
      7      27.3003      0.00000
      8      27.3028      0.00000

 k-point    45 :      -0.4000    0.4000    0.2000
  band No.  band energies     occupation 
      1      -6.9637      2.00000
      2      -2.1915      2.00000
      3       0.0112      2.00000
      4       2.1208      2.00000
      5      19.4951      0.00000
      6      20.3287      0.00000
      7      22.5676      0.00000
      8      26.2999      0.00000

 k-point    46 :      -0.3000    0.4000    0.2000
  band No.  band energies     occupation 
      1      -5.5088      2.00000
      2      -3.4731      2.00000
      3      -0.3450      2.00000
      4       1.4978      2.00000
      5      19.9345      0.00000
      6      21.1989      0.00000
      7      23.8931      0.00000
      8      24.2023      0.00000

 k-point    47 :      -0.3000    0.5000    0.2000
  band No.  band energies     occupation 
      1      -4.2935      2.00000
      2      -4.2935      2.00000
      3       0.2418      2.00000
      4       0.2418      2.00000
      5      19.8744      0.00000
      6      19.8745      0.00000
      7      24.4581      0.00000
      8      24.4607      0.00000


--------------------------------------------------------------------------------------------------------


 soft charge-density along one line, spin component           1
         0         1         2         3         4         5         6         7         8         9
 total charge-density along one line
 
 pseudopotential strength for first ion, spin component:           1
  9.169  12.173  -0.000  -0.000  -0.000   0.000   0.000   0.000
 12.173  16.160  -0.000  -0.000  -0.000   0.000   0.000   0.000
 -0.000  -0.000  -3.495  -0.000  -0.000   6.819   0.000   0.000
 -0.000  -0.000  -0.000  -3.495  -0.000   0.000   6.819   0.000
 -0.000  -0.000  -0.000  -0.000  -3.495   0.000   0.000   6.819
  0.000   0.000   6.819   0.000   0.000 -15.376  -0.000  -0.000
  0.000   0.000   0.000   6.819   0.000  -0.000 -15.376  -0.000
  0.000   0.000   0.000   0.000   6.819  -0.000  -0.000 -15.376
 total augmentation occupancy for first ion, spin component:           1
  8.383  -3.834   0.000   0.000  -0.000   0.000   0.000  -0.000
 -3.834   1.821  -0.000  -0.000   0.000  -0.000  -0.000   0.000
  0.000  -0.000   1.578  -0.000   0.000   0.139  -0.000   0.000
  0.000  -0.000  -0.000   1.578   0.000  -0.000   0.139   0.000
 -0.000   0.000   0.000   0.000   1.578   0.000  -0.000   0.139
  0.000  -0.000   0.139  -0.000   0.000   0.014  -0.000   0.000
  0.000  -0.000  -0.000   0.139  -0.000  -0.000   0.014   0.000
 -0.000   0.000   0.000   0.000   0.139   0.000   0.000   0.014


------------------------ aborting loop because EDIFF is reached ----------------------------------------


    FORLOC:  cpu time      0.0001: real time      0.0001
    FORHF :  cpu time     29.9334: real time     30.0660
    FORNL :  cpu time      0.0015: real time      0.0015
    STRESS:  cpu time      0.0095: real time      0.0096
    FORCOR:  cpu time      0.0020: real time      0.0020
    OFIELD:  cpu time      0.0000: real time      0.0000

  FORCE on cell =-STRESS in cart. coord.  units (eV):
  Direction    XX          YY          ZZ          XY          YZ          ZX
  --------------------------------------------------------------------------------------
  Alpha Z    28.79729    28.79729    28.79729
  Ewald    -115.76204  -115.76204  -115.76204    -0.00000     0.00000    -0.00000
  Hartree     8.73126     8.73127     8.73127     0.00000    -0.00000     0.00000
  E(xc)     -23.09114   -23.09114   -23.09114    -0.00000    -0.00000    -0.00000
  Local     -11.65612   -11.65682   -11.65697     0.00057     0.00024     0.00041
  n-local    -5.96342    -5.78494    -6.46363    -0.69532    -0.05689     0.22303
  augment    -0.70126    -0.70122    -0.70121    -0.00003    -0.00001    -0.00002
  Kinetic   124.31175   126.29329   129.96010     5.28495     1.77134     1.08828
  Fock       -7.80292    -7.78784    -7.80075     0.02289     0.02193    -0.00456
  -------------------------------------------------------------------------------------
  Total      -0.69528    -0.69528    -0.69528    -0.00000     0.00000    -0.00000
  in kB     -97.62719   -97.62719   -97.62719    -0.00000     0.00000    -0.00000
  external pressure =      -97.63 kB  Pullay stress =        0.00 kB


 VOLUME and BASIS-vectors are now :
 -----------------------------------------------------------------------------
  energy-cutoff  :      500.00
  volume of cell :       11.41
      direct lattice vectors                 reciprocal lattice vectors
     2.526995815  0.000000000  0.000000000     0.395726813 -0.228472982 -0.161554795
     1.263497908  2.188442571 -0.000000000    -0.000000000  0.456945964 -0.161554795
     1.263497908  0.729480857  2.063283443    -0.000000000  0.000000000  0.484664384

  length of vectors
     2.526995815  2.526995815  2.526995815     0.484664384  0.484664384  0.484664384


 FORCES acting on ions:
    Electron-Ion                     Ewald-Force                    Non-Local-Force
 -----------------------------------------------------------------------------------------------
   0.248E-05 0.139E-04 0.336E-05   -.514E-08 0.327E-08 -.272E-08   -.561E-16 -.578E-16 -.311E-16
   -.166E-05 -.147E-04 -.269E-05   0.514E-08 -.327E-08 0.272E-08   0.586E-16 0.485E-16 0.223E-16
 -----------------------------------------------------------------------------------------------
   0.722E-06 -.877E-06 0.627E-06   0.151E-14 0.170E-15 -.706E-16   0.246E-17 -.934E-17 -.877E-17
 
 
 POSITION                                       TOTAL-FORCE (eV/Angst)
 -----------------------------------------------------------------------------------
      1.26350      0.72948      0.51582        -0.000000     -0.000000     -0.000000
      0.00000      0.00000      0.00000         0.000000      0.000000      0.000000
 -----------------------------------------------------------------------------------
    total drift:                                0.000001     -0.000001      0.000001


--------------------------------------------------------------------------------------------------------



  FREE ENERGIE OF THE ION-ELECTRON SYSTEM (eV)
  ---------------------------------------------------
  free  energy   TOTEN  =       -21.08483657 eV

  energy  without entropy=      -21.08483657  energy(sigma->0) =      -21.08483657
 


--------------------------------------------------------------------------------------------------------


    POTLOK:  cpu time      0.0434: real time      0.0435


--------------------------------------------------------------------------------------------------------




--------------------------------------------------------------------------------------------------------


      MLFF:  cpu time      0.0199: real time      0.0257
    WAVPRE:  cpu time      0.0002: real time      0.0003
    FEWALD:  cpu time      0.0007: real time      0.0007
    GENKIN:  cpu time      0.0008: real time      0.0008
    ORTHCH:  cpu time      0.0160: real time      0.0160
    POTLOK:  cpu time      0.0436: real time      0.0439
    EDDIAG:  cpu time     25.7366: real time     25.8475
    CHARGE:  cpu time      0.0314: real time      0.0316
     LOOP+:  cpu time    493.9270: real time    496.0750


--------------------------------------- Ionic step        2  -------------------------------------------




--------------------------------------- Iteration      2(   1)  ---------------------------------------


    POTLOK:  cpu time      0.0020: real time      0.0020
    SETDIJ:  cpu time      0.0412: real time      0.0414
    TRIAL :  cpu time     25.6859: real time     25.7971
    CORREC:  cpu time      0.0001: real time      0.0001
    CHARGE:  cpu time      0.0317: real time      0.0318
    --------------------------------------------
      LOOP:  cpu time     25.7610: real time     25.8728

 eigenvalue-minimisations  :     0
 total energy-change (2. order) : 0.6425176E-01  (-0.5363549E-01)
 number of electron       7.9999996 magnetization 
 augmentation part        0.1982138 magnetization 

 Free energy of the ion-electron system (eV)
  ---------------------------------------------------
  alpha Z        PSCENC =        30.29616387
  Ewald energy   TEWEN  =      -353.20965961
  -Hartree energ DENC   =       -26.42889086
  -exchange      EXHF   =        18.66403516
  -V(xc)+E(xc)   XCENC  =        21.97097257
  PAW double counting   =       818.59144009     -819.53215258
  entropy T*S    EENTRO =         0.00000000
  eigenvalues    EBANDS =        -2.17536711
  atomic energy  EATOM  =       290.80287429
  ---------------------------------------------------
  free energy    TOTEN  =       -21.02058418 eV

  energy without entropy =      -21.02058418  energy(sigma->0) =      -21.02058418
  exchange ACFDT corr.  =         0.00000000  see jH, gK, PRB 81, 115126


--------------------------------------------------------------------------------------------------------




--------------------------------------- Iteration      2(   2)  ---------------------------------------


    POTLOK:  cpu time      0.0020: real time      0.0020
    SETDIJ:  cpu time      0.0412: real time      0.0413
    TRIAL :  cpu time     25.7116: real time     25.8224
    CORREC:  cpu time      0.0001: real time      0.0001
    CHARGE:  cpu time      0.0316: real time      0.0317
    --------------------------------------------
      LOOP:  cpu time     25.7872: real time     25.8999

 eigenvalue-minimisations  :     0
 total energy-change (2. order) :-0.3997470E-01  (-0.2518739E-01)
 number of electron       7.9999996 magnetization 
 augmentation part        0.1963921 magnetization 

 Free energy of the ion-electron system (eV)
  ---------------------------------------------------
  alpha Z        PSCENC =        30.29616387
  Ewald energy   TEWEN  =      -353.20965961
  -Hartree energ DENC   =       -25.87432194
  -exchange      EXHF   =        18.63454031
  -V(xc)+E(xc)   XCENC  =        21.93430752
  PAW double counting   =       852.38938853     -853.30618559
  entropy T*S    EENTRO =         0.00000000
  eigenvalues    EBANDS =        -2.72766625
  atomic energy  EATOM  =       290.80287429
  ---------------------------------------------------
  free energy    TOTEN  =       -21.06055888 eV

  energy without entropy =      -21.06055888  energy(sigma->0) =      -21.06055888
  exchange ACFDT corr.  =         0.00000000  see jH, gK, PRB 81, 115126


--------------------------------------------------------------------------------------------------------




--------------------------------------- Iteration      2(   3)  ---------------------------------------


    POTLOK:  cpu time      0.0021: real time      0.0022
    SETDIJ:  cpu time      0.0412: real time      0.0413
    TRIAL :  cpu time     25.7121: real time     25.8209
    CORREC:  cpu time      0.0001: real time      0.0001
    CHARGE:  cpu time      0.0317: real time      0.0318
    --------------------------------------------
      LOOP:  cpu time     25.7875: real time     25.8972

 eigenvalue-minimisations  :     0
 total energy-change (2. order) :-0.1477858E-01  (-0.3964639E-02)
 number of electron       7.9999996 magnetization 
 augmentation part        0.1953189 magnetization 

 Free energy of the ion-electron system (eV)
  ---------------------------------------------------
  alpha Z        PSCENC =        30.29616387
  Ewald energy   TEWEN  =      -353.20965961
  -Hartree energ DENC   =       -25.43843585
  -exchange      EXHF   =        18.61583598
  -V(xc)+E(xc)   XCENC  =        21.90599873
  PAW double counting   =       888.40890021     -889.30284198
  entropy T*S    EENTRO =         0.00000000
  eigenvalues    EBANDS =        -3.15417311
  atomic energy  EATOM  =       290.80287429
  ---------------------------------------------------
  free energy    TOTEN  =       -21.07533746 eV

  energy without entropy =      -21.07533746  energy(sigma->0) =      -21.07533746
  exchange ACFDT corr.  =         0.00000000  see jH, gK, PRB 81, 115126


--------------------------------------------------------------------------------------------------------




--------------------------------------- Iteration      2(   4)  ---------------------------------------


    POTLOK:  cpu time      0.0020: real time      0.0020
    SETDIJ:  cpu time      0.0412: real time      0.0413
    TRIAL :  cpu time     25.6995: real time     25.8094
    CORREC:  cpu time      0.0001: real time      0.0001
    CHARGE:  cpu time      0.0314: real time      0.0316
    --------------------------------------------
      LOOP:  cpu time     25.7745: real time     25.8846

 eigenvalue-minimisations  :     0
 total energy-change (2. order) :-0.1689976E-02  (-0.1121810E-02)
 number of electron       7.9999996 magnetization 
 augmentation part        0.1948943 magnetization 

 Free energy of the ion-electron system (eV)
  ---------------------------------------------------
  alpha Z        PSCENC =        30.29616387
  Ewald energy   TEWEN  =      -353.20965961
  -Hartree energ DENC   =       -25.32124036
  -exchange      EXHF   =        18.61708925
  -V(xc)+E(xc)   XCENC  =        21.89908906
  PAW double counting   =       908.78654893     -909.66883772
  entropy T*S    EENTRO =         0.00000000
  eigenvalues    EBANDS =        -3.27905516
  atomic energy  EATOM  =       290.80287429
  ---------------------------------------------------
  free energy    TOTEN  =       -21.07702744 eV

  energy without entropy =      -21.07702744  energy(sigma->0) =      -21.07702744
  exchange ACFDT corr.  =         0.00000000  see jH, gK, PRB 81, 115126


--------------------------------------------------------------------------------------------------------




--------------------------------------- Iteration      2(   5)  ---------------------------------------


    POTLOK:  cpu time      0.0020: real time      0.0020
    SETDIJ:  cpu time      0.0412: real time      0.0413
    TRIAL :  cpu time     25.6778: real time     25.7900
    CORREC:  cpu time      0.0001: real time      0.0001
    CHARGE:  cpu time      0.0316: real time      0.0318
    --------------------------------------------
      LOOP:  cpu time     25.7535: real time     25.8676

 eigenvalue-minimisations  :     0
 total energy-change (2. order) :-0.5833728E-03  (-0.6141081E-03)
 number of electron       7.9999996 magnetization 
 augmentation part        0.1948218 magnetization 

 Free energy of the ion-electron system (eV)
  ---------------------------------------------------
  alpha Z        PSCENC =        30.29616387
  Ewald energy   TEWEN  =      -353.20965961
  -Hartree energ DENC   =       -25.37377327
  -exchange      EXHF   =        18.62624785
  -V(xc)+E(xc)   XCENC  =        21.90326095
  PAW double counting   =       915.26251279     -916.14148188
  entropy T*S    EENTRO =         0.00000000
  eigenvalues    EBANDS =        -3.24375581
  atomic energy  EATOM  =       290.80287429
  ---------------------------------------------------
  free energy    TOTEN  =       -21.07761081 eV

  energy without entropy =      -21.07761081  energy(sigma->0) =      -21.07761081
  exchange ACFDT corr.  =         0.00000000  see jH, gK, PRB 81, 115126


--------------------------------------------------------------------------------------------------------




--------------------------------------- Iteration      2(   6)  ---------------------------------------


    POTLOK:  cpu time      0.0020: real time      0.0020
    SETDIJ:  cpu time      0.0412: real time      0.0413
    TRIAL :  cpu time     25.7170: real time     25.8271
    CORREC:  cpu time      0.0002: real time      0.0002
    CHARGE:  cpu time      0.0316: real time      0.0317
    --------------------------------------------
      LOOP:  cpu time     25.7922: real time     25.9034

 eigenvalue-minimisations  :     0
 total energy-change (2. order) :-0.3739251E-03  (-0.2896564E-03)
 number of electron       7.9999996 magnetization 
 augmentation part        0.1948749 magnetization 

 Free energy of the ion-electron system (eV)
  ---------------------------------------------------
  alpha Z        PSCENC =        30.29616387
  Ewald energy   TEWEN  =      -353.20965961
  -Hartree energ DENC   =       -25.45226422
  -exchange      EXHF   =        18.63385664
  -V(xc)+E(xc)   XCENC  =        21.90882498
  PAW double counting   =       914.74266778     -915.62208554
  entropy T*S    EENTRO =         0.00000000
  eigenvalues    EBANDS =        -3.17836294
  atomic energy  EATOM  =       290.80287429
  ---------------------------------------------------
  free energy    TOTEN  =       -21.07798474 eV

  energy without entropy =      -21.07798474  energy(sigma->0) =      -21.07798474
  exchange ACFDT corr.  =         0.00000000  see jH, gK, PRB 81, 115126


--------------------------------------------------------------------------------------------------------




--------------------------------------- Iteration      2(   7)  ---------------------------------------


    POTLOK:  cpu time      0.0020: real time      0.0020
    SETDIJ:  cpu time      0.0412: real time      0.0414
    TRIAL :  cpu time     25.6994: real time     25.8114
    CORREC:  cpu time      0.0001: real time      0.0001
    CHARGE:  cpu time      0.0320: real time      0.0321
    --------------------------------------------
      LOOP:  cpu time     25.7749: real time     25.8872

 eigenvalue-minimisations  :     0
 total energy-change (2. order) :-0.1963739E-03  (-0.1668317E-03)
 number of electron       7.9999996 magnetization 
 augmentation part        0.1949665 magnetization 

 Free energy of the ion-electron system (eV)
  ---------------------------------------------------
  alpha Z        PSCENC =        30.29616387
  Ewald energy   TEWEN  =      -353.20965961
  -Hartree energ DENC   =       -25.50085119
  -exchange      EXHF   =        18.63739065
  -V(xc)+E(xc)   XCENC  =        21.91213312
  PAW double counting   =       911.90681803     -912.78761708
  entropy T*S    EENTRO =         0.00000000
  eigenvalues    EBANDS =        -3.13543320
  atomic energy  EATOM  =       290.80287429
  ---------------------------------------------------
  free energy    TOTEN  =       -21.07818111 eV

  energy without entropy =      -21.07818111  energy(sigma->0) =      -21.07818111
  exchange ACFDT corr.  =         0.00000000  see jH, gK, PRB 81, 115126


--------------------------------------------------------------------------------------------------------




--------------------------------------- Iteration      2(   8)  ---------------------------------------


    POTLOK:  cpu time      0.0020: real time      0.0020
    SETDIJ:  cpu time      0.0411: real time      0.0413
    TRIAL :  cpu time     25.6833: real time     25.7921
    CORREC:  cpu time      0.0001: real time      0.0001
    CHARGE:  cpu time      0.0316: real time      0.0317
    --------------------------------------------
      LOOP:  cpu time     25.7589: real time     25.8695

 eigenvalue-minimisations  :     0
 total energy-change (2. order) :-0.1189454E-03  (-0.7879339E-04)
 number of electron       7.9999996 magnetization 
 augmentation part        0.1950545 magnetization 

 Free energy of the ion-electron system (eV)
  ---------------------------------------------------
  alpha Z        PSCENC =        30.29616387
  Ewald energy   TEWEN  =      -353.20965961
  -Hartree energ DENC   =       -25.51789562
  -exchange      EXHF   =        18.63782267
  -V(xc)+E(xc)   XCENC  =        21.91319946
  PAW double counting   =       908.98006041     -909.86214651
  entropy T*S    EENTRO =         0.00000000
  eigenvalues    EBANDS =        -3.11871902
  atomic energy  EATOM  =       290.80287429
  ---------------------------------------------------
  free energy    TOTEN  =       -21.07830006 eV

  energy without entropy =      -21.07830006  energy(sigma->0) =      -21.07830006
  exchange ACFDT corr.  =         0.00000000  see jH, gK, PRB 81, 115126


--------------------------------------------------------------------------------------------------------




--------------------------------------- Iteration      2(   9)  ---------------------------------------


    POTLOK:  cpu time      0.0023: real time      0.0023
    SETDIJ:  cpu time      0.0412: real time      0.0414
    TRIAL :  cpu time     25.6893: real time     25.8006
    CORREC:  cpu time      0.0001: real time      0.0001
    CHARGE:  cpu time      0.0316: real time      0.0317
    --------------------------------------------
      LOOP:  cpu time     25.7649: real time     25.8771

 eigenvalue-minimisations  :     0
 total energy-change (2. order) :-0.5185239E-04  (-0.2580718E-04)
 number of electron       7.9999996 magnetization 
 augmentation part        0.1951203 magnetization 

 Free energy of the ion-electron system (eV)
  ---------------------------------------------------
  alpha Z        PSCENC =        30.29616387
  Ewald energy   TEWEN  =      -353.20965961
  -Hartree energ DENC   =       -25.51803612
  -exchange      EXHF   =        18.63699470
  -V(xc)+E(xc)   XCENC  =        21.91310179
  PAW double counting   =       906.90327044     -907.78627963
  entropy T*S    EENTRO =         0.00000000
  eigenvalues    EBANDS =        -3.11678164
  atomic energy  EATOM  =       290.80287429
  ---------------------------------------------------
  free energy    TOTEN  =       -21.07835191 eV

  energy without entropy =      -21.07835191  energy(sigma->0) =      -21.07835191
  exchange ACFDT corr.  =         0.00000000  see jH, gK, PRB 81, 115126


--------------------------------------------------------------------------------------------------------




--------------------------------------- Iteration      2(  10)  ---------------------------------------


    POTLOK:  cpu time      0.0020: real time      0.0020
    SETDIJ:  cpu time      0.0412: real time      0.0413
    TRIAL :  cpu time     25.6973: real time     25.8062
    CORREC:  cpu time      0.0001: real time      0.0001
    CHARGE:  cpu time      0.0316: real time      0.0317
    --------------------------------------------
      LOOP:  cpu time     25.7724: real time     25.8816

 eigenvalue-minimisations  :     0
 total energy-change (2. order) :-0.1514228E-04  (-0.6935726E-05)
 number of electron       7.9999996 magnetization 
 augmentation part        0.1951609 magnetization 

 Free energy of the ion-electron system (eV)
  ---------------------------------------------------
  alpha Z        PSCENC =        30.29616387
  Ewald energy   TEWEN  =      -353.20965961
  -Hartree energ DENC   =       -25.51475700
  -exchange      EXHF   =        18.63623799
  -V(xc)+E(xc)   XCENC  =        21.91280033
  PAW double counting   =       905.80404838     -906.68761087
  entropy T*S    EENTRO =         0.00000000
  eigenvalues    EBANDS =        -3.11846444
  atomic energy  EATOM  =       290.80287429
  ---------------------------------------------------
  free energy    TOTEN  =       -21.07836705 eV

  energy without entropy =      -21.07836705  energy(sigma->0) =      -21.07836705
  exchange ACFDT corr.  =         0.00000000  see jH, gK, PRB 81, 115126


--------------------------------------------------------------------------------------------------------




--------------------------------------- Iteration      2(  11)  ---------------------------------------


    POTLOK:  cpu time      0.0023: real time      0.0023
    SETDIJ:  cpu time      0.0412: real time      0.0413
    TRIAL :  cpu time     25.7404: real time     25.8495
    CORREC:  cpu time      0.0001: real time      0.0001
    CHARGE:  cpu time      0.0316: real time      0.0317
    --------------------------------------------
      LOOP:  cpu time     25.8163: real time     25.9275

 eigenvalue-minimisations  :     0
 total energy-change (2. order) :-0.3415322E-05  (-0.1830905E-05)
 number of electron       7.9999996 magnetization 
 augmentation part        0.1951803 magnetization 

 Free energy of the ion-electron system (eV)
  ---------------------------------------------------
  alpha Z        PSCENC =        30.29616387
  Ewald energy   TEWEN  =      -353.20965961
  -Hartree energ DENC   =       -25.51308874
  -exchange      EXHF   =        18.63590401
  -V(xc)+E(xc)   XCENC  =        21.91264321
  PAW double counting   =       905.43127607     -906.31510035
  entropy T*S    EENTRO =         0.00000000
  eigenvalues    EBANDS =        -3.11938324
  atomic energy  EATOM  =       290.80287429
  ---------------------------------------------------
  free energy    TOTEN  =       -21.07837047 eV

  energy without entropy =      -21.07837047  energy(sigma->0) =      -21.07837047
  exchange ACFDT corr.  =         0.00000000  see jH, gK, PRB 81, 115126


--------------------------------------------------------------------------------------------------------




--------------------------------------- Iteration      2(  12)  ---------------------------------------


    POTLOK:  cpu time      0.0024: real time      0.0024
    SETDIJ:  cpu time      0.0412: real time      0.0413
    TRIAL :  cpu time     25.6979: real time     25.8068
    CORREC:  cpu time      0.0001: real time      0.0001
    EDDIAG:  cpu time     25.6437: real time     25.7542
    CHARGE:  cpu time      0.0316: real time      0.0317
    --------------------------------------------
      LOOP:  cpu time     51.4172: real time     51.6376

 eigenvalue-minimisations  :     0
 total energy-change (2. order) :-0.7819556E-06  (-0.8170463E-06)
 number of electron       7.9999996 magnetization 
 augmentation part        0.1951856 magnetization 

 Free energy of the ion-electron system (eV)
  ---------------------------------------------------
  alpha Z        PSCENC =        30.29616387
  Ewald energy   TEWEN  =      -353.20965961
  -Hartree energ DENC   =       -25.51301879
  -exchange      EXHF   =        18.63590345
  -V(xc)+E(xc)   XCENC  =        21.91262394
  PAW double counting   =       905.47050032     -906.35441454
  entropy T*S    EENTRO =         0.00000000
  eigenvalues    EBANDS =        -3.11929924
  atomic energy  EATOM  =       290.80287429
  ---------------------------------------------------
  free energy    TOTEN  =       -21.07837125 eV

  energy without entropy =      -21.07837125  energy(sigma->0) =      -21.07837125
  exchange ACFDT corr.  =         0.00000000  see jH, gK, PRB 81, 115126


--------------------------------------------------------------------------------------------------------


  average scaling for gradient   1.1591


 average (electrostatic) potential at core
  the test charge radii are     0.6991
  (the norm of the test charge is              1.0000)
       1 -40.9595       2 -40.9595
 
 
 
 E-fermi :   9.9170     XC(G=0): -10.9828     alpha+bet :-18.4814

 WARNING: Could not determine fundamental gap because eigenvalues are not
     sorted.

 Fermi energy:         9.9169607432

 k-point     1 :       0.0000    0.0000    0.0000
  band No.  band energies     occupation 
      1     -14.4309      2.00000
      2       9.7550      2.00000
      3       9.7550      2.00000
      4       9.7550      2.00000
      5      16.8834      0.00000
      6      16.8834      0.00000
      7      16.8834      0.00000
      8      26.1324      0.00000

 k-point     2 :       0.1000    0.0000    0.0000
  band No.  band energies     occupation 
      1     -14.1224      2.00000
      2       7.8912      2.00000
      3       9.2586      2.00000
      4       9.2586      2.00000
      5      17.5413      0.00000
      6      17.5414      0.00000
      7      17.9276      0.00000
      8      26.3354      0.00000

 k-point     3 :       0.2000    0.0000    0.0000
  band No.  band energies     occupation 
      1     -13.2014      2.00000
      2       4.2534      2.00000
      3       8.2642      2.00000
      4       8.2642      2.00000
      5      18.8159      0.00000
      6      18.8159      0.00000
      7      19.3437      0.00000
      8      26.8753      0.00000

 k-point     4 :       0.3000    0.0000    0.0000
  band No.  band energies     occupation 
      1     -11.6878      2.00000
      2       0.3878      2.00000
      3       7.3554      2.00000
      4       7.3554      2.00000
      5      19.7080      0.00000
      6      19.7080      0.00000
      7      20.2083      0.00000
      8      27.4634      0.00000

 k-point     5 :       0.4000    0.0000    0.0000
  band No.  band energies     occupation 
      1      -9.6556      2.00000
      2      -3.1641      2.00000
      3       6.7647      2.00000
      4       6.7647      2.00000
      5      19.9764      0.00000
      6      19.9765      0.00000
      7      20.6358      0.00000
      8      27.7523      0.00000

 k-point     6 :       0.5000    0.0000    0.0000
  band No.  band energies     occupation 
      1      -7.9381      2.00000
      2      -5.4029      2.00000
      3       6.5628      2.00000
      4       6.5628      2.00000
      5      19.9936      0.00000
      6      19.9936      0.00000
      7      20.7654      0.00000
      8      27.7980      0.00000

 k-point     7 :       0.1000    0.1000    0.0000
  band No.  band energies     occupation 
      1     -14.0197      2.00000
      2       8.3869      2.00000
      3       8.3869      2.00000
      4       8.7891      2.00000
      5      16.5642      0.00000
      6      18.6104      0.00000
      7      18.6105      0.00000
      8      26.1159      0.00000

 k-point     8 :       0.2000    0.1000    0.0000
  band No.  band energies     occupation 
      1     -13.3029      2.00000
      2       5.5167      2.00000
      3       7.2825      2.00000
      4       8.2601      2.00000
      5      17.0353      0.00000
      6      20.1043      0.00000
      7      20.1123      0.00000
      8      25.7308      0.00000

 k-point     9 :       0.3000    0.1000    0.0000
  band No.  band energies     occupation 
      1     -11.9863      2.00000
      2       1.7986      2.00000
      3       6.4225      2.00000
      4       7.2718      2.00000
      5      18.1882      0.00000
      6      21.1140      0.00000
      7      21.1369      0.00000
      8      25.6981      0.00000

 k-point    10 :       0.4000    0.1000    0.0000
  band No.  band energies     occupation 
      1     -10.1157      2.00000
      2      -1.8308      2.00000
      3       5.9845      2.00000
      4       6.2769      2.00000
      5      18.9408      0.00000
      6      21.3281      0.00000
      7      21.6034      0.00000
      8      26.6304      0.00000

 k-point    11 :       0.5000    0.1000    0.0000
  band No.  band energies     occupation 
      1      -8.0066      2.00000
      2      -4.7788      2.00000
      3       5.5534      2.00000
      4       6.0103      2.00000
      5      19.3484      0.00000
      6      21.0217      0.00000
      7      21.7656      0.00000
      8      27.7377      0.00000

 k-point    12 :      -0.4000    0.1000    0.0000
  band No.  band energies     occupation 
      1      -8.6655      2.00000
      2      -3.9467      2.00000
      3       5.2225      2.00000
      4       6.4770      2.00000
      5      19.8012      0.00000
      6      20.5747      0.00000
      7      21.6726      0.00000
      8      27.8701      0.00000

 k-point    13 :      -0.3000    0.1000    0.0000
  band No.  band energies     occupation 
      1     -10.7954      2.00000
      2      -0.6478      2.00000
      3       5.3431      2.00000
      4       7.3108      2.00000
      5      19.9441      0.00000
      6      20.2397      0.00000
      7      21.2652      0.00000
      8      27.0783      0.00000

 k-point    14 :      -0.2000    0.1000    0.0000
  band No.  band energies     occupation 
      1     -12.4906      2.00000
      2       3.0681      2.00000
      3       5.9354      2.00000
      4       8.3498      2.00000
      5      18.8877      0.00000
      6      20.1709      0.00000
      7      20.3170      0.00000
      8      26.4508      0.00000

 k-point    15 :      -0.1000    0.1000    0.0000
  band No.  band energies     occupation 
      1     -13.6097      2.00000
      2       6.4618      2.00000
      3       7.1490      2.00000
      4       9.2151      2.00000
      5      17.7411      0.00000
      6      18.8156      0.00000
      7      19.2512      0.00000
      8      26.3871      0.00000

 k-point    16 :       0.2000    0.2000    0.0000
  band No.  band energies     occupation 
      1     -12.7928      2.00000
      2       6.1033      2.00000
      3       6.1033      2.00000
      4       6.2984      2.00000
      5      15.8812      0.00000
      6      21.9277      0.00000
      7      21.9277      0.00000
      8      23.6833      0.00000

 k-point    17 :       0.3000    0.2000    0.0000
  band No.  band energies     occupation 
      1     -11.6806      2.00000
      2       3.1694      2.00000
      3       5.1963      2.00000
      4       5.6430      2.00000
      5      16.3455      0.00000
      6      22.3774      0.00000
      7      23.3539      0.00000
      8      23.3614      0.00000

 k-point    18 :       0.4000    0.2000    0.0000
  band No.  band energies     occupation 
      1      -9.9997      2.00000
      2      -0.1895      2.00000
      3       4.4407      2.00000
      4       4.7499      2.00000
      5      17.3615      0.00000
      6      22.8665      0.00000
      7      23.8540      0.00000
      8      24.0879      0.00000

 k-point    19 :       0.5000    0.2000    0.0000
  band No.  band energies     occupation 
      1      -7.9005      2.00000
      2      -3.2953      2.00000
      3       3.3036      2.00000
      4       4.8175      2.00000
      5      17.9482      0.00000
      6      23.5320      0.00000
      7      24.2363      0.00000
      8      25.3139      0.00000

 k-point    20 :      -0.4000    0.2000    0.0000
  band No.  band energies     occupation 
      1      -7.2780      2.00000
      2      -4.0431      2.00000
      3       2.5424      2.00000
      4       5.3792      2.00000
      5      18.5686      0.00000
      6      22.7883      0.00000
      7      24.2221      0.00000
      8      27.7692      0.00000

 k-point    21 :      -0.3000    0.2000    0.0000
  band No.  band energies     occupation 
      1      -9.3416      2.00000
      2      -1.1970      2.00000
      3       2.2950      2.00000
      4       6.3438      2.00000
      5      19.4277      0.00000
      6      21.6963      0.00000
      7      23.7769      0.00000
      8      26.9031      0.00000

 k-point    22 :      -0.2000    0.2000    0.0000
  band No.  band energies     occupation 
      1     -11.1867      2.00000
      2       1.8675      2.00000
      3       2.9657      2.00000
      4       7.4928      2.00000
      5      20.1984      0.00000
      6      20.2061      0.00000
      7      22.3176      0.00000
      8      26.0173      0.00000

 k-point    23 :       0.3000    0.3000    0.0000
  band No.  band energies     occupation 
      1     -10.7762      2.00000
      2       2.9061      2.00000
      3       4.2000      2.00000
      4       4.2000      2.00000
      5      15.3087      0.00000
      6      19.9986      0.00000
      7      25.4133      0.00000
      8      25.4133      0.00000

 k-point    24 :       0.4000    0.3000    0.0000
  band No.  band energies     occupation 
      1      -9.2983      2.00000
      2       0.6637      2.00000
      3       2.9641      2.00000
      4       3.6598      2.00000
      5      15.9040      0.00000
      6      19.2910      0.00000
      7      26.5273      0.00000
      8      26.6216      0.00000

 k-point    25 :       0.5000    0.3000    0.0000
  band No.  band energies     occupation 
      1      -7.3379      2.00000
      2      -1.8069      2.00000
      3       1.2264      2.00000
      4       3.6515      2.00000
      5      16.6925      0.00000
      6      21.0903      0.00000
      7      26.4827      0.00000
      8      27.0669      0.00000

 k-point    26 :      -0.4000    0.3000    0.0000
  band No.  band energies     occupation 
      1      -5.7992      2.00000
      2      -3.4447      2.00000
      3      -0.0738      2.00000
      4       4.1709      2.00000
      5      17.3081      0.00000
      6      24.6076      0.00000
      7      25.5669      0.00000
      8      27.1199      0.00000

 k-point    27 :      -0.3000    0.3000    0.0000
  band No.  band energies     occupation 
      1      -7.4262      2.00000
      2      -1.7086      2.00000
      3      -0.2983      2.00000
      4       5.1386      2.00000
      5      18.2514      0.00000
      6      23.8716      0.00000
      7      26.6265      0.00000
      8      27.1157      0.00000

 k-point    28 :       0.4000    0.4000    0.0000
  band No.  band energies     occupation 
      1      -8.0275      2.00000
      2      -0.8985      2.00000
      3       2.9957      2.00000
      4       2.9957      2.00000
      5      15.1950      0.00000
      6      17.3143      0.00000
      7      28.3985      0.00000
      8      28.3988      0.00000

 k-point    29 :       0.5000    0.4000    0.0000
  band No.  band energies     occupation 
      1      -6.2500      2.00000
      2      -2.7435      2.00000
      3       1.7467      2.00000
      4       2.8616      2.00000
      5      15.8965      0.00000
      6      17.4804      0.00000
      7      28.8374      0.00000
      8      29.0698      0.00000

 k-point    30 :      -0.4000    0.4000    0.0000
  band No.  band energies     occupation 
      1      -4.5860      2.00000
      2      -3.9176      2.00000
      3      -0.2129      2.00000
      4       3.2728      2.00000
      5      16.4358      0.00000
      6      20.5169      0.00000
      7      27.7982      0.00000
      8      28.8447      0.00000

 k-point    31 :       0.5000    0.5000    0.0000
  band No.  band energies     occupation 
      1      -4.6622      2.00000
      2      -4.6622      2.00000
      3       2.5863      2.00000
      4       2.5863      2.00000
      5      15.7861      0.00000
      6      15.7861      0.00000
      7      29.7291      0.00000
      8      29.7295      0.00000

 k-point    32 :       0.3000    0.2000    0.1000
  band No.  band energies     occupation 
      1     -12.3882      2.00000
      2       4.0718      2.00000
      3       4.9895      2.00000
      4       7.6080      2.00000
      5      17.4718      0.00000
      6      21.2023      0.00000
      7      21.8375      0.00000
      8      24.6362      0.00000

 k-point    33 :       0.4000    0.2000    0.1000
  band No.  band energies     occupation 
      1     -10.8877      2.00000
      2       0.8652      2.00000
      3       3.9946      2.00000
      4       6.5855      2.00000
      5      18.7171      0.00000
      6      21.3096      0.00000
      7      23.2697      0.00000
      8      24.6913      0.00000

 k-point    34 :       0.5000    0.2000    0.1000
  band No.  band energies     occupation 
      1      -8.8820      2.00000
      2      -2.4989      2.00000
      3       3.7216      2.00000
      4       5.5937      2.00000
      5      19.4384      0.00000
      6      21.0282      0.00000
      7      23.9460      0.00000
      8      26.3072      0.00000

 k-point    35 :      -0.4000    0.2000    0.1000
  band No.  band energies     occupation 
      1      -7.2095      2.00000
      2      -4.6509      2.00000
      3       3.7141      2.00000
      4       5.1542      2.00000
      5      19.5675      0.00000
      6      20.9159      0.00000
      7      24.1369      0.00000
      8      27.7377      0.00000

 k-point    36 :       0.4000    0.3000    0.1000
  band No.  band energies     occupation 
      1     -10.3850      2.00000
      2       1.7707      2.00000
      3       3.1706      2.00000
      4       4.8354      2.00000
      5      16.9499      0.00000
      6      21.1848      0.00000
      7      23.9874      0.00000
      8      25.4361      0.00000

 k-point    37 :       0.5000    0.3000    0.1000
  band No.  band energies     occupation 
      1      -8.5562      2.00000
      2      -0.8788      2.00000
      3       2.1714      2.00000
      4       3.8743      2.00000
      5      18.1636      0.00000
      6      21.7765      0.00000
      7      24.0240      0.00000
      8      26.6780      0.00000

 k-point    38 :      -0.4000    0.3000    0.1000
  band No.  band energies     occupation 
      1      -6.5339      2.00000
      2      -3.4540      2.00000
      3       1.4430      2.00000
      4       3.6840      2.00000
      5      18.7659      0.00000
      6      22.8441      0.00000
      7      25.2237      0.00000
      8      26.9093      0.00000

 k-point    39 :      -0.3000    0.3000    0.1000
  band No.  band energies     occupation 
      1      -7.1840      2.00000
      2      -2.6333      2.00000
      3       0.9124      2.00000
      4       4.3345      2.00000
      5      19.4587      0.00000
      6      22.1708      0.00000
      7      25.9093      0.00000
      8      27.0702      0.00000

 k-point    40 :      -0.2000    0.3000    0.1000
  band No.  band energies     occupation 
      1      -9.2343      2.00000
      2      -0.0500      2.00000
      3       1.2597      2.00000
      4       5.4540      2.00000
      5      20.4344      0.00000
      6      20.5529      0.00000
      7      24.7627      0.00000
      8      25.5944      0.00000

 k-point    41 :       0.5000    0.4000    0.1000
  band No.  band energies     occupation 
      1      -7.6698      2.00000
      2      -0.9970      2.00000
      3       2.0535      2.00000
      4       2.5998      2.00000
      5      16.8244      0.00000
      6      18.7438      0.00000
      7      26.7503      0.00000
      8      28.3533      0.00000

 k-point    42 :      -0.4000    0.4000    0.1000
  band No.  band energies     occupation 
      1      -5.6731      2.00000
      2      -2.7347      2.00000
      3       0.2806      2.00000
      4       2.4623      2.00000
      5      17.8350      0.00000
      6      20.7582      0.00000
      7      26.3421      0.00000
      8      28.2331      0.00000

 k-point    43 :      -0.3000    0.4000    0.1000
  band No.  band energies     occupation 
      1      -5.3279      2.00000
      2      -2.9353      2.00000
      3      -0.8250      2.00000
      4       3.1606      2.00000
      5      18.5023      0.00000
      6      24.1610      0.00000
      7      25.3605      0.00000
      8      26.7830      0.00000

 k-point    44 :      -0.4000    0.5000    0.1000
  band No.  band energies     occupation 
      1      -4.4041      2.00000
      2      -4.4041      2.00000
      3       1.7919      2.00000
      4       1.7919      2.00000
      5      17.3500      0.00000
      6      17.3500      0.00000
      7      28.8218      0.00000
      8      28.8220      0.00000

 k-point    45 :      -0.4000    0.4000    0.2000
  band No.  band energies     occupation 
      1      -6.6601      2.00000
      2      -1.7183      2.00000
      3       0.3162      2.00000
      4       2.5024      2.00000
      5      20.5487      0.00000
      6      21.2448      0.00000
      7      24.0010      0.00000
      8      27.7838      0.00000

 k-point    46 :      -0.3000    0.4000    0.2000
  band No.  band energies     occupation 
      1      -5.1064      2.00000
      2      -3.0921      2.00000
      3      -0.0405      2.00000
      4       1.8418      2.00000
      5      20.8759      0.00000
      6      22.3408      0.00000
      7      25.2649      0.00000
      8      25.6132      0.00000

 k-point    47 :      -0.3000    0.5000    0.2000
  band No.  band energies     occupation 
      1      -3.8650      2.00000
      2      -3.8650      2.00000
      3       0.5237      2.00000
      4       0.5237      2.00000
      5      20.8854      0.00000
      6      20.8854      0.00000
      7      25.8648      0.00000
      8      25.8650      0.00000


--------------------------------------------------------------------------------------------------------


 soft charge-density along one line, spin component           1
         0         1         2         3         4         5         6         7         8         9
 total charge-density along one line
 
 pseudopotential strength for first ion, spin component:           1
  9.126  12.114  -0.000  -0.000  -0.000   0.000   0.000   0.000
 12.114  16.080  -0.000  -0.000  -0.000   0.000   0.000   0.000
 -0.000  -0.000  -3.453  -0.000  -0.000   6.733   0.000   0.000
 -0.000  -0.000  -0.000  -3.453  -0.000   0.000   6.733   0.000
 -0.000  -0.000  -0.000  -0.000  -3.453   0.000   0.000   6.733
  0.000   0.000   6.733   0.000   0.000 -15.201  -0.000  -0.000
  0.000   0.000   0.000   6.733   0.000  -0.000 -15.201  -0.000
  0.000   0.000   0.000   0.000   6.733  -0.000  -0.000 -15.201
 total augmentation occupancy for first ion, spin component:           1
  8.881  -4.130   0.000   0.000  -0.000   0.000   0.000  -0.000
 -4.130   1.988  -0.000  -0.000   0.000  -0.000  -0.000   0.000
  0.000  -0.000   1.637  -0.000   0.000   0.147  -0.000   0.000
  0.000  -0.000  -0.000   1.637   0.000  -0.000   0.147   0.000
 -0.000   0.000   0.000   0.000   1.637   0.000   0.000   0.147
  0.000  -0.000   0.147  -0.000   0.000   0.015  -0.000   0.000
  0.000  -0.000  -0.000   0.147   0.000  -0.000   0.015   0.000
 -0.000   0.000   0.000   0.000   0.147   0.000   0.000   0.015


------------------------ aborting loop because EDIFF is reached ----------------------------------------


    FORLOC:  cpu time      0.0001: real time      0.0001
    FORHF :  cpu time     30.0178: real time     30.1451
    FORNL :  cpu time      0.0015: real time      0.0015
    STRESS:  cpu time      0.0095: real time      0.0096
    FORCOR:  cpu time      0.0020: real time      0.0020
    OFIELD:  cpu time      0.0000: real time      0.0000

  FORCE on cell =-STRESS in cart. coord.  units (eV):
  Direction    XX          YY          ZZ          XY          YZ          ZX
  --------------------------------------------------------------------------------------
  Alpha Z    30.29616    30.29616    30.29616
  Ewald    -117.73661  -117.73661  -117.73661    -0.00000     0.00000    -0.00000
  Hartree     8.50445     8.50445     8.50445     0.00000    -0.00000     0.00000
  E(xc)     -23.36426   -23.36426   -23.36426     0.00000     0.00000     0.00000
  Local     -10.80581   -10.80625   -10.80635     0.00038     0.00016     0.00027
  n-local    -6.52302    -6.24969    -6.88526    -0.72962    -0.05172     0.39103
  augment    -0.75252    -0.75248    -0.75247    -0.00004    -0.00001    -0.00003
  Kinetic   126.87191   128.75502   132.38137     5.62149     1.77828     0.62999
  Fock       -7.95537    -7.93776    -7.95079     0.02376     0.02205    -0.00304
  -------------------------------------------------------------------------------------
  Total       0.97660     0.97660     0.97660     0.00000    -0.00000     0.00000
  in kB     144.26561   144.26561   144.26561     0.00000    -0.00000     0.00000
  external pressure =      144.27 kB  Pullay stress =        0.00 kB


 VOLUME and BASIS-vectors are now :
 -----------------------------------------------------------------------------
  energy-cutoff  :      500.00
  volume of cell :       10.85
      direct lattice vectors                 reciprocal lattice vectors
     2.484615469 -0.000000000 -0.000000000     0.402476767 -0.232370070 -0.164310452
     1.242307734  2.151740115  0.000000000     0.000000000  0.464740139 -0.164310452
     1.242307734  0.717246705  2.028680035     0.000000000 -0.000000000  0.492931356

  length of vectors
     2.484615469  2.484615469  2.484615469     0.492931356  0.492931356  0.492931356


 FORCES acting on ions:
    Electron-Ion                     Ewald-Force                    Non-Local-Force
 -----------------------------------------------------------------------------------------------
   0.248E-05 0.434E-05 0.105E-05   -.513E-08 0.327E-08 -.272E-08   -.110E-15 0.309E-18 -.486E-17
   -.225E-05 -.422E-05 -.956E-06   0.513E-08 -.327E-08 0.272E-08   0.896E-16 0.424E-17 0.707E-17
 -----------------------------------------------------------------------------------------------
   0.251E-06 0.131E-06 0.104E-06   0.168E-15 -.152E-15 -.551E-16   -.200E-16 0.455E-17 0.221E-17
 
 
 POSITION                                       TOTAL-FORCE (eV/Angst)
 -----------------------------------------------------------------------------------
      1.24231      0.71725      0.50717         0.000000      0.000000     -0.000000
      0.00000      0.00000      0.00000        -0.000000     -0.000000      0.000000
 -----------------------------------------------------------------------------------
    total drift:                                0.000000      0.000000      0.000000


--------------------------------------------------------------------------------------------------------



  FREE ENERGIE OF THE ION-ELECTRON SYSTEM (eV)
  ---------------------------------------------------
  free  energy   TOTEN  =       -21.07837125 eV

  energy  without entropy=      -21.07837125  energy(sigma->0) =      -21.07837125
 d Force = 0.0000000E+00[ 0.000E+00, 0.000E+00]  d Energy =-0.6465323E-02 0.647E-02
 d Force = 0.0000000E+00[ 0.000E+00, 0.000E+00]  d Ewald  = 0.5923693E+01-0.592E+01
 


--------------------------------------------------------------------------------------------------------


    POTLOK:  cpu time      0.0434: real time      0.0435


--------------------------------------------------------------------------------------------------------


 Steepest descent step on ions:
 trial-energy change:    0.006465  1 .order    0.007077   -0.034982    0.049136
  (g-gl).g = 0.350E-01      g.g   = 0.350E-01  gl.gl    = 0.000E+00
 g(Force)  = 0.158E-43   g(Stress)= 0.350E-01 ortho     = 0.000E+00
 gamma     =   0.00000
 trial     =   1.00000
 opt step  =   0.42654  (harmonic =   0.41587) maximal distance =0.00000000
 next E    =   -21.092345   (d E  =  -0.00751)


--------------------------------------------------------------------------------------------------------


      MLFF:  cpu time      0.0005: real time      0.0026
    WAVPRE:  cpu time      0.0002: real time      0.0003
    FEWALD:  cpu time      0.0007: real time      0.0007
    GENKIN:  cpu time      0.0008: real time      0.0008
    ORTHCH:  cpu time      0.0159: real time      0.0160
    POTLOK:  cpu time      0.0432: real time      0.0434
    EDDIAG:  cpu time     25.6321: real time     25.7448
    CHARGE:  cpu time      0.0316: real time      0.0317
     LOOP+:  cpu time    390.9171: real time    392.6080


--------------------------------------- Ionic step        3  -------------------------------------------




--------------------------------------- Iteration      3(   1)  ---------------------------------------


    POTLOK:  cpu time      0.0020: real time      0.0021
    SETDIJ:  cpu time      0.0412: real time      0.0414
    TRIAL :  cpu time     25.7220: real time     25.8334
    CORREC:  cpu time      0.0001: real time      0.0001
    CHARGE:  cpu time      0.0316: real time      0.0317
    --------------------------------------------
      LOOP:  cpu time     25.7970: real time     25.9089

 eigenvalue-minimisations  :     0
 total energy-change (2. order) : 0.4368007E-02  (-0.1454148E-01)
 number of electron       7.9999998 magnetization 
 augmentation part        0.1880770 magnetization 

 Free energy of the ion-electron system (eV)
  ---------------------------------------------------
  alpha Z        PSCENC =        29.42424385
  Ewald energy   TEWEN  =      -349.78817923
  -Hartree energ DENC   =       -25.38930545
  -exchange      EXHF   =        18.45678018
  -V(xc)+E(xc)   XCENC  =        21.72300731
  PAW double counting   =       915.74687238     -916.58760756
  entropy T*S    EENTRO =        -0.00000000
  eigenvalues    EBANDS =        -5.46268822
  atomic energy  EATOM  =       290.80287429
  ---------------------------------------------------
  free energy    TOTEN  =       -21.07400246 eV

  energy without entropy =      -21.07400246  energy(sigma->0) =      -21.07400246
  exchange ACFDT corr.  =         0.00000000  see jH, gK, PRB 81, 115126


--------------------------------------------------------------------------------------------------------




--------------------------------------- Iteration      3(   2)  ---------------------------------------


    POTLOK:  cpu time      0.0023: real time      0.0023
    SETDIJ:  cpu time      0.0412: real time      0.0413
    TRIAL :  cpu time     25.6726: real time     25.7811
    CORREC:  cpu time      0.0001: real time      0.0001
    CHARGE:  cpu time      0.0318: real time      0.0319
    --------------------------------------------
      LOOP:  cpu time     25.7489: real time     25.8590

 eigenvalue-minimisations  :     0
 total energy-change (2. order) :-0.1143650E-01  (-0.7859351E-02)
 number of electron       7.9999998 magnetization 
 augmentation part        0.1889899 magnetization 

 Free energy of the ion-electron system (eV)
  ---------------------------------------------------
  alpha Z        PSCENC =        29.42424385
  Ewald energy   TEWEN  =      -349.78817923
  -Hartree energ DENC   =       -25.64830619
  -exchange      EXHF   =        18.47037288
  -V(xc)+E(xc)   XCENC  =        21.74002549
  PAW double counting   =       898.91337514     -899.76535754
  entropy T*S    EENTRO =        -0.00000000
  eigenvalues    EBANDS =        -5.23448766
  atomic energy  EATOM  =       290.80287429
  ---------------------------------------------------
  free energy    TOTEN  =       -21.08543896 eV

  energy without entropy =      -21.08543896  energy(sigma->0) =      -21.08543896
  exchange ACFDT corr.  =         0.00000000  see jH, gK, PRB 81, 115126


--------------------------------------------------------------------------------------------------------




--------------------------------------- Iteration      3(   3)  ---------------------------------------


    POTLOK:  cpu time      0.0020: real time      0.0020
    SETDIJ:  cpu time      0.0412: real time      0.0414
    TRIAL :  cpu time     25.7069: real time     25.8175
    CORREC:  cpu time      0.0001: real time      0.0001
    CHARGE:  cpu time      0.0317: real time      0.0318
    --------------------------------------------
      LOOP:  cpu time     25.7822: real time     25.8936

 eigenvalue-minimisations  :     0
 total energy-change (2. order) :-0.5373086E-02  (-0.2071068E-02)
 number of electron       7.9999998 magnetization 
 augmentation part        0.1896163 magnetization 

 Free energy of the ion-electron system (eV)
  ---------------------------------------------------
  alpha Z        PSCENC =        29.42424385
  Ewald energy   TEWEN  =      -349.78817923
  -Hartree energ DENC   =       -25.86623218
  -exchange      EXHF   =        18.48005338
  -V(xc)+E(xc)   XCENC  =        21.75418022
  PAW double counting   =       882.83731986     -883.70026234
  entropy T*S    EENTRO =        -0.00000000
  eigenvalues    EBANDS =        -5.03480990
  atomic energy  EATOM  =       290.80287429
  ---------------------------------------------------
  free energy    TOTEN  =       -21.09081205 eV

  energy without entropy =      -21.09081205  energy(sigma->0) =      -21.09081205
  exchange ACFDT corr.  =         0.00000000  see jH, gK, PRB 81, 115126


--------------------------------------------------------------------------------------------------------




--------------------------------------- Iteration      3(   4)  ---------------------------------------


    POTLOK:  cpu time      0.0020: real time      0.0020
    SETDIJ:  cpu time      0.0412: real time      0.0413
    TRIAL :  cpu time     25.7034: real time     25.8134
    CORREC:  cpu time      0.0001: real time      0.0001
    CHARGE:  cpu time      0.0315: real time      0.0316
    --------------------------------------------
      LOOP:  cpu time     25.7784: real time     25.8887

 eigenvalue-minimisations  :     0
 total energy-change (2. order) :-0.1205008E-02  (-0.4487844E-03)
 number of electron       7.9999998 magnetization 
 augmentation part        0.1899280 magnetization 

 Free energy of the ion-electron system (eV)
  ---------------------------------------------------
  alpha Z        PSCENC =        29.42424385
  Ewald energy   TEWEN  =      -349.78817923
  -Hartree energ DENC   =       -25.96648617
  -exchange      EXHF   =        18.48210878
  -V(xc)+E(xc)   XCENC  =        21.76043305
  PAW double counting   =       871.80292906     -872.67287086
  entropy T*S    EENTRO =        -0.00000000
  eigenvalues    EBANDS =        -4.93706983
  atomic energy  EATOM  =       290.80287429
  ---------------------------------------------------
  free energy    TOTEN  =       -21.09201705 eV

  energy without entropy =      -21.09201705  energy(sigma->0) =      -21.09201705
  exchange ACFDT corr.  =         0.00000000  see jH, gK, PRB 81, 115126


--------------------------------------------------------------------------------------------------------




--------------------------------------- Iteration      3(   5)  ---------------------------------------


    POTLOK:  cpu time      0.0023: real time      0.0023
    SETDIJ:  cpu time      0.0412: real time      0.0413
    TRIAL :  cpu time     25.6739: real time     25.7812
    CORREC:  cpu time      0.0001: real time      0.0001
    CHARGE:  cpu time      0.0314: real time      0.0315
    --------------------------------------------
      LOOP:  cpu time     25.7493: real time     25.8591

 eigenvalue-minimisations  :     0
 total energy-change (2. order) :-0.2364919E-03  (-0.1731324E-03)
 number of electron       7.9999998 magnetization 
 augmentation part        0.1900079 magnetization 

 Free energy of the ion-electron system (eV)
  ---------------------------------------------------
  alpha Z        PSCENC =        29.42424385
  Ewald energy   TEWEN  =      -349.78817923
  -Hartree energ DENC   =       -25.97108008
  -exchange      EXHF   =        18.47891850
  -V(xc)+E(xc)   XCENC  =        21.76036790
  PAW double counting   =       866.05994964     -866.93304577
  entropy T*S    EENTRO =        -0.00000000
  eigenvalues    EBANDS =        -4.92630265
  atomic energy  EATOM  =       290.80287429
  ---------------------------------------------------
  free energy    TOTEN  =       -21.09225354 eV

  energy without entropy =      -21.09225354  energy(sigma->0) =      -21.09225354
  exchange ACFDT corr.  =         0.00000000  see jH, gK, PRB 81, 115126


--------------------------------------------------------------------------------------------------------




--------------------------------------- Iteration      3(   6)  ---------------------------------------


    POTLOK:  cpu time      0.0020: real time      0.0020
    SETDIJ:  cpu time      0.0412: real time      0.0413
    TRIAL :  cpu time     25.6751: real time     25.7845
    CORREC:  cpu time      0.0001: real time      0.0001
    CHARGE:  cpu time      0.0316: real time      0.0317
    --------------------------------------------
      LOOP:  cpu time     25.7502: real time     25.8606

 eigenvalue-minimisations  :     0
 total energy-change (2. order) :-0.9134744E-04  (-0.6538210E-04)
 number of electron       7.9999998 magnetization 
 augmentation part        0.1899753 magnetization 

 Free energy of the ion-electron system (eV)
  ---------------------------------------------------
  alpha Z        PSCENC =        29.42424385
  Ewald energy   TEWEN  =      -349.78817923
  -Hartree energ DENC   =       -25.93615391
  -exchange      EXHF   =        18.47470418
  -V(xc)+E(xc)   XCENC  =        21.75780106
  PAW double counting   =       864.17052439     -865.04413760
  entropy T*S    EENTRO =        -0.00000000
  eigenvalues    EBANDS =        -4.95402191
  atomic energy  EATOM  =       290.80287429
  ---------------------------------------------------
  free energy    TOTEN  =       -21.09234489 eV

  energy without entropy =      -21.09234489  energy(sigma->0) =      -21.09234489
  exchange ACFDT corr.  =         0.00000000  see jH, gK, PRB 81, 115126


--------------------------------------------------------------------------------------------------------




--------------------------------------- Iteration      3(   7)  ---------------------------------------


    POTLOK:  cpu time      0.0020: real time      0.0020
    SETDIJ:  cpu time      0.0412: real time      0.0413
    TRIAL :  cpu time     25.7319: real time     25.8423
    CORREC:  cpu time      0.0001: real time      0.0001
    CHARGE:  cpu time      0.0316: real time      0.0317
    --------------------------------------------
      LOOP:  cpu time     25.8070: real time     25.9177

 eigenvalue-minimisations  :     0
 total energy-change (2. order) :-0.3433832E-04  (-0.2790029E-04)
 number of electron       7.9999998 magnetization 
 augmentation part        0.1899265 magnetization 

 Free energy of the ion-electron system (eV)
  ---------------------------------------------------
  alpha Z        PSCENC =        29.42424385
  Ewald energy   TEWEN  =      -349.78817923
  -Hartree energ DENC   =       -25.90695358
  -exchange      EXHF   =        18.47227400
  -V(xc)+E(xc)   XCENC  =        21.75576738
  PAW double counting   =       864.33696419     -865.21006595
  entropy T*S    EENTRO =        -0.00000000
  eigenvalues    EBANDS =        -4.97930417
  atomic energy  EATOM  =       290.80287429
  ---------------------------------------------------
  free energy    TOTEN  =       -21.09237923 eV

  energy without entropy =      -21.09237923  energy(sigma->0) =      -21.09237923
  exchange ACFDT corr.  =         0.00000000  see jH, gK, PRB 81, 115126


--------------------------------------------------------------------------------------------------------




--------------------------------------- Iteration      3(   8)  ---------------------------------------


    POTLOK:  cpu time      0.0020: real time      0.0020
    SETDIJ:  cpu time      0.0412: real time      0.0413
    TRIAL :  cpu time     25.8795: real time     25.9903
    CORREC:  cpu time      0.0001: real time      0.0001
    CHARGE:  cpu time      0.0315: real time      0.0316
    --------------------------------------------
      LOOP:  cpu time     25.9549: real time     26.0678

 eigenvalue-minimisations  :     0
 total energy-change (2. order) :-0.1801250E-04  (-0.1445262E-04)
 number of electron       7.9999998 magnetization 
 augmentation part        0.1898942 magnetization 

 Free energy of the ion-electron system (eV)
  ---------------------------------------------------
  alpha Z        PSCENC =        29.42424385
  Ewald energy   TEWEN  =      -349.78817923
  -Hartree energ DENC   =       -25.89671775
  -exchange      EXHF   =        18.47177608
  -V(xc)+E(xc)   XCENC  =        21.75509630
  PAW double counting   =       865.06052223     -865.93305926
  entropy T*S    EENTRO =        -0.00000000
  eigenvalues    EBANDS =        -4.98895375
  atomic energy  EATOM  =       290.80287429
  ---------------------------------------------------
  free energy    TOTEN  =       -21.09239724 eV

  energy without entropy =      -21.09239724  energy(sigma->0) =      -21.09239724
  exchange ACFDT corr.  =         0.00000000  see jH, gK, PRB 81, 115126


--------------------------------------------------------------------------------------------------------




--------------------------------------- Iteration      3(   9)  ---------------------------------------


    POTLOK:  cpu time      0.0022: real time      0.0022
    SETDIJ:  cpu time      0.0413: real time      0.0414
    TRIAL :  cpu time     25.6816: real time     25.7918
    CORREC:  cpu time      0.0001: real time      0.0001
    CHARGE:  cpu time      0.0315: real time      0.0316
    --------------------------------------------
      LOOP:  cpu time     25.7570: real time     25.8680

 eigenvalue-minimisations  :     0
 total energy-change (2. order) :-0.9745428E-05  (-0.5005767E-05)
 number of electron       7.9999998 magnetization 
 augmentation part        0.1898781 magnetization 

 Free energy of the ion-electron system (eV)
  ---------------------------------------------------
  alpha Z        PSCENC =        29.42424385
  Ewald energy   TEWEN  =      -349.78817923
  -Hartree energ DENC   =       -25.89756056
  -exchange      EXHF   =        18.47212482
  -V(xc)+E(xc)   XCENC  =        21.75519507
  PAW double counting   =       865.68321621     -866.55543153
  entropy T*S    EENTRO =        -0.00000000
  eigenvalues    EBANDS =        -4.98888990
  atomic energy  EATOM  =       290.80287429
  ---------------------------------------------------
  free energy    TOTEN  =       -21.09240699 eV

  energy without entropy =      -21.09240699  energy(sigma->0) =      -21.09240699
  exchange ACFDT corr.  =         0.00000000  see jH, gK, PRB 81, 115126


--------------------------------------------------------------------------------------------------------




--------------------------------------- Iteration      3(  10)  ---------------------------------------


    POTLOK:  cpu time      0.0020: real time      0.0020
    SETDIJ:  cpu time      0.0412: real time      0.0413
    TRIAL :  cpu time     25.6962: real time     25.8053
    CORREC:  cpu time      0.0001: real time      0.0001
    CHARGE:  cpu time      0.0317: real time      0.0318
    --------------------------------------------
      LOOP:  cpu time     25.7714: real time     25.8807

 eigenvalue-minimisations  :     0
 total energy-change (2. order) :-0.3137254E-05  (-0.1278777E-05)
 number of electron       7.9999998 magnetization 
 augmentation part        0.1898711 magnetization 

 Free energy of the ion-electron system (eV)
  ---------------------------------------------------
  alpha Z        PSCENC =        29.42424385
  Ewald energy   TEWEN  =      -349.78817923
  -Hartree energ DENC   =       -25.90082322
  -exchange      EXHF   =        18.47252737
  -V(xc)+E(xc)   XCENC  =        21.75544730
  PAW double counting   =       866.05384833     -866.92591533
  entropy T*S    EENTRO =        -0.00000000
  eigenvalues    EBANDS =        -4.98643349
  atomic energy  EATOM  =       290.80287429
  ---------------------------------------------------
  free energy    TOTEN  =       -21.09241013 eV

  energy without entropy =      -21.09241013  energy(sigma->0) =      -21.09241013
  exchange ACFDT corr.  =         0.00000000  see jH, gK, PRB 81, 115126


--------------------------------------------------------------------------------------------------------




--------------------------------------- Iteration      3(  11)  ---------------------------------------


    POTLOK:  cpu time      0.0020: real time      0.0020
    SETDIJ:  cpu time      0.0412: real time      0.0414
    TRIAL :  cpu time     25.7087: real time     25.8186
    CORREC:  cpu time      0.0001: real time      0.0001
    EDDIAG:  cpu time     25.6210: real time     25.7305
    CHARGE:  cpu time      0.0316: real time      0.0317
    --------------------------------------------
      LOOP:  cpu time     51.4051: real time     51.6264

 eigenvalue-minimisations  :     0
 total energy-change (2. order) :-0.7829937E-06  (-0.5047998E-06)
 number of electron       7.9999998 magnetization 
 augmentation part        0.1898688 magnetization 

 Free energy of the ion-electron system (eV)
  ---------------------------------------------------
  alpha Z        PSCENC =        29.42424385
  Ewald energy   TEWEN  =      -349.78817923
  -Hartree energ DENC   =       -25.90285412
  -exchange      EXHF   =        18.47275110
  -V(xc)+E(xc)   XCENC  =        21.75560164
  PAW double counting   =       866.23585842     -867.10786826
  entropy T*S    EENTRO =        -0.00000000
  eigenvalues    EBANDS =        -4.98481579
  atomic energy  EATOM  =       290.80287429
  ---------------------------------------------------
  free energy    TOTEN  =       -21.09241091 eV

  energy without entropy =      -21.09241091  energy(sigma->0) =      -21.09241091
  exchange ACFDT corr.  =         0.00000000  see jH, gK, PRB 81, 115126


--------------------------------------------------------------------------------------------------------


  average scaling for gradient   0.7371


 average (electrostatic) potential at core
  the test charge radii are     0.6991
  (the norm of the test charge is              1.0000)
       1 -41.4022       2 -41.4022
 
 
 
 E-fermi :   9.4200     XC(G=0): -10.8700     alpha+bet :-17.9495

 val. band max:        9.3277081699   @ k =   0.0000   0.0000   0.0000
 cond. band min:      14.6967050468   @ k =   0.4000   0.4000   0.0000
 fundamental gap:      5.3689968769
 Fermi energy:         9.4199631931

 k-point     1 :       0.0000    0.0000    0.0000
  band No.  band energies     occupation 
      1     -14.4372      2.00000
      2       9.3277      2.00000
      3       9.3277      2.00000
      4       9.3277      2.00000
      5      16.3672      0.00000
      6      16.3672      0.00000
      7      16.3672      0.00000
      8      24.9911      0.00000

 k-point     2 :       0.1000    0.0000    0.0000
  band No.  band energies     occupation 
      1     -14.1347      2.00000
      2       7.5055      2.00000
      3       8.8467      2.00000
      4       8.8468      2.00000
      5      17.0050      0.00000
      6      17.0050      0.00000
      7      17.3606      0.00000
      8      25.2312      0.00000

 k-point     3 :       0.2000    0.0000    0.0000
  band No.  band energies     occupation 
      1     -13.2317      2.00000
      2       3.9393      2.00000
      3       7.8796      2.00000
      4       7.8796      2.00000
      5      18.2478      0.00000
      6      18.2479      0.00000
      7      18.6772      0.00000
      8      25.8810      0.00000

 k-point     4 :       0.3000    0.0000    0.0000
  band No.  band energies     occupation 
      1     -11.7492      2.00000
      2       0.1483      2.00000
      3       6.9928      2.00000
      4       6.9929      2.00000
      5      19.1319      0.00000
      6      19.1320      0.00000
      7      19.4437      0.00000
      8      26.6213      0.00000

 k-point     5 :       0.4000    0.0000    0.0000
  band No.  band energies     occupation 
      1      -9.7664      2.00000
      2      -3.3267      2.00000
      3       6.4154      2.00000
      4       6.4154      2.00000
      5      19.4127      0.00000
      6      19.4128      0.00000
      7      19.8066      0.00000
      8      27.0276      0.00000

 k-point     6 :       0.5000    0.0000    0.0000
  band No.  band energies     occupation 
      1      -8.1252      2.00000
      2      -5.4799      2.00000
      3       6.2179      2.00000
      4       6.2179      2.00000
      5      19.4373      0.00000
      6      19.4373      0.00000
      7      19.9143      0.00000
      8      27.1086      0.00000

 k-point     7 :       0.1000    0.1000    0.0000
  band No.  band energies     occupation 
      1     -14.0339      2.00000
      2       8.0041      2.00000
      3       8.0041      2.00000
      4       8.3610      2.00000
      5      16.0481      0.00000
      6      18.0389      0.00000
      7      18.0389      0.00000
      8      25.0556      0.00000

 k-point     8 :       0.2000    0.1000    0.0000
  band No.  band energies     occupation 
      1     -13.3311      2.00000
      2       5.1767      2.00000
      3       6.9298      2.00000
      4       7.8555      2.00000
      5      16.5020      0.00000
      6      19.4645      0.00000
      7      19.5006      0.00000
      8      24.8318      0.00000

 k-point     9 :       0.3000    0.1000    0.0000
  band No.  band energies     occupation 
      1     -12.0409      2.00000
      2       1.5291      2.00000
      3       6.0901      2.00000
      4       6.8931      2.00000
      5      17.6289      0.00000
      6      20.3893      0.00000
      7      20.5102      0.00000
      8      24.9262      0.00000

 k-point    10 :       0.4000    0.1000    0.0000
  band No.  band energies     occupation 
      1     -10.2123      2.00000
      2      -2.0262      2.00000
      3       5.6603      2.00000
      4       5.9237      2.00000
      5      18.3787      0.00000
      6      20.7169      0.00000
      7      20.8118      0.00000
      8      25.8894      0.00000

 k-point    11 :       0.5000    0.1000    0.0000
  band No.  band energies     occupation 
      1      -8.1765      2.00000
      2      -4.8856      2.00000
      3       5.2199      2.00000
      4       5.6828      2.00000
      5      18.7892      0.00000
      6      20.4314      0.00000
      7      20.9390      0.00000
      8      26.9999      0.00000

 k-point    12 :      -0.4000    0.1000    0.0000
  band No.  band energies     occupation 
      1      -8.8054      2.00000
      2      -4.0866      2.00000
      3       4.9002      2.00000
      4       6.1357      2.00000
      5      19.2250      0.00000
      6      19.9939      0.00000
      7      20.8574      0.00000
      8      27.1096      0.00000

 k-point    13 :      -0.3000    0.1000    0.0000
  band No.  band energies     occupation 
      1     -10.8759      2.00000
      2      -0.8684      2.00000
      3       5.0220      2.00000
      4       6.9471      2.00000
      5      19.3650      0.00000
      6      19.6235      0.00000
      7      20.5140      0.00000
      8      26.2678      0.00000

 k-point    14 :      -0.2000    0.1000    0.0000
  band No.  band energies     occupation 
      1     -12.5349      2.00000
      2       2.7730      2.00000
      3       5.6052      2.00000
      4       7.9582      2.00000
      5      18.3231      0.00000
      6      19.5355      0.00000
      7      19.6472      0.00000
      8      25.5536      0.00000

 k-point    15 :      -0.1000    0.1000    0.0000
  band No.  band energies     occupation 
      1     -13.6319      2.00000
      2       6.0945      2.00000
      3       6.7998      2.00000
      4       8.8003      2.00000
      5      17.2036      0.00000
      6      18.2215      0.00000
      7      18.6425      0.00000
      8      25.3638      0.00000

 k-point    16 :       0.2000    0.2000    0.0000
  band No.  band energies     occupation 
      1     -12.8308      2.00000
      2       5.7830      2.00000
      3       5.7830      2.00000
      4       5.8870      2.00000
      5      15.3681      0.00000
      6      21.2626      0.00000
      7      21.2626      0.00000
      8      22.9673      0.00000

 k-point    17 :       0.3000    0.2000    0.0000
  band No.  band energies     occupation 
      1     -11.7408      2.00000
      2       2.8586      2.00000
      3       4.8981      2.00000
      4       5.2923      2.00000
      5      15.8195      0.00000
      6      21.7593      0.00000
      7      22.6152      0.00000
      8      22.6624      0.00000

 k-point    18 :       0.4000    0.2000    0.0000
  band No.  band energies     occupation 
      1     -10.0959      2.00000
      2      -0.4314      2.00000
      3       4.1194      2.00000
      4       4.4609      2.00000
      5      16.8243      0.00000
      6      22.2594      0.00000
      7      23.1579      0.00000
      8      23.2625      0.00000

 k-point    19 :       0.5000    0.2000    0.0000
  band No.  band energies     occupation 
      1      -8.0549      2.00000
      2      -3.4584      2.00000
      3       3.0107      2.00000
      4       4.5247      2.00000
      5      17.4138      0.00000
      6      22.8587      0.00000
      7      23.4259      0.00000
      8      24.5789      0.00000

 k-point    20 :      -0.4000    0.2000    0.0000
  band No.  band energies     occupation 
      1      -7.4612      2.00000
      2      -4.1742      2.00000
      3       2.2706      2.00000
      4       5.0702      2.00000
      5      18.0223      0.00000
      6      22.1351      0.00000
      7      23.3779      0.00000
      8      26.9322      0.00000

 k-point    21 :      -0.3000    0.2000    0.0000
  band No.  band energies     occupation 
      1      -9.4547      2.00000
      2      -1.4150      2.00000
      3       2.0365      2.00000
      4       6.0081      2.00000
      5      18.8477      0.00000
      6      21.0619      0.00000
      7      22.9957      0.00000
      8      26.0444      0.00000

 k-point    22 :      -0.2000    0.2000    0.0000
  band No.  band energies     occupation 
      1     -11.2579      2.00000
      2       1.5696      2.00000
      3       2.7153      2.00000
      4       7.1250      2.00000
      5      19.5767      0.00000
      6      19.5981      0.00000
      7      21.6210      0.00000
      8      25.1474      0.00000

 k-point    23 :       0.3000    0.3000    0.0000
  band No.  band energies     occupation 
      1     -10.8541      2.00000
      2       2.5450      2.00000
      3       3.9271      2.00000
      4       3.9271      2.00000
      5      14.8024      0.00000
      6      19.4461      0.00000
      7      24.6509      0.00000
      8      24.6510      0.00000

 k-point    24 :       0.4000    0.3000    0.0000
  band No.  band energies     occupation 
      1      -9.4070      2.00000
      2       0.3523      2.00000
      3       2.7159      2.00000
      4       3.3993      2.00000
      5      15.3893      0.00000
      6      18.7514      0.00000
      7      25.7385      0.00000
      8      25.7995      0.00000

 k-point    25 :       0.5000    0.3000    0.0000
  band No.  band energies     occupation 
      1      -7.4941      2.00000
      2      -2.0545      2.00000
      3       1.0136      2.00000
      4       3.3899      2.00000
      5      16.1793      0.00000
      6      20.4901      0.00000
      7      25.7053      0.00000
      8      26.1917      0.00000

 k-point    26 :      -0.4000    0.3000    0.0000
  band No.  band energies     occupation 
      1      -6.0214      2.00000
      2      -3.6184      2.00000
      3      -0.2606      2.00000
      4       3.8950      2.00000
      5      16.7893      0.00000
      6      23.8968      0.00000
      7      24.8051      0.00000
      8      26.2300      0.00000

 k-point    27 :      -0.3000    0.3000    0.0000
  band No.  band energies     occupation 
      1      -7.5880      2.00000
      2      -1.9557      2.00000
      3      -0.4636      2.00000
      4       4.8366      2.00000
      5      17.7104      0.00000
      6      23.1695      0.00000
      7      25.7680      0.00000
      8      26.1964      0.00000

 k-point    28 :       0.4000    0.4000    0.0000
  band No.  band energies     occupation 
      1      -8.1615      2.00000
      2      -1.1841      2.00000
      3       2.7515      2.00000
      4       2.7515      2.00000
      5      14.6967      0.00000
      6      16.8112      0.00000
      7      27.5429      0.00000
      8      27.5430      0.00000

 k-point    29 :       0.5000    0.4000    0.0000
  band No.  band energies     occupation 
      1      -6.4236      2.00000
      2      -2.9942      2.00000
      3       1.5379      2.00000
      4       2.6201      2.00000
      5      15.3959      0.00000
      6      16.9569      0.00000
      7      27.9688      0.00000
      8      28.1737      0.00000

 k-point    30 :      -0.4000    0.4000    0.0000
  band No.  band energies     occupation 
      1      -4.8259      2.00000
      2      -4.1334      2.00000
      3      -0.3564      2.00000
      4       3.0205      2.00000
      5      15.9328      0.00000
      6      19.9171      0.00000
      7      26.9678      0.00000
      8      27.9081      0.00000

 k-point    31 :       0.5000    0.5000    0.0000
  band No.  band energies     occupation 
      1      -4.8673      2.00000
      2      -4.8673      2.00000
      3       2.3517      2.00000
      4       2.3517      2.00000
      5      15.2924      0.00000
      6      15.2924      0.00000
      7      28.8237      0.00000
      8      28.8238      0.00000

 k-point    32 :       0.3000    0.2000    0.1000
  band No.  band energies     occupation 
      1     -12.4344      2.00000
      2       3.7400      2.00000
      3       4.6939      2.00000
      4       7.2262      2.00000
      5      16.9245      0.00000
      6      20.5385      0.00000
      7      21.1694      0.00000
      8      23.8747      0.00000

 k-point    33 :       0.4000    0.2000    0.1000
  band No.  band energies     occupation 
      1     -10.9651      2.00000
      2       0.6057      2.00000
      3       3.7035      2.00000
      4       6.2359      2.00000
      5      18.1457      0.00000
      6      20.6622      0.00000
      7      22.5342      0.00000
      8      23.9528      0.00000

 k-point    34 :       0.5000    0.2000    0.1000
  band No.  band energies     occupation 
      1      -9.0084      2.00000
      2      -2.6820      2.00000
      3       3.4255      2.00000
      4       5.2765      2.00000
      5      18.8862      0.00000
      6      20.3651      0.00000
      7      23.1513      0.00000
      8      25.5545      0.00000

 k-point    35 :      -0.4000    0.2000    0.1000
  band No.  band energies     occupation 
      1      -7.4077      2.00000
      2      -4.7528      2.00000
      3       3.4109      2.00000
      4       4.8543      2.00000
      5      19.0409      0.00000
      6      20.2291      0.00000
      7      23.3250      0.00000
      8      26.9223      0.00000

 k-point    36 :       0.4000    0.3000    0.1000
  band No.  band energies     occupation 
      1     -10.4717      2.00000
      2       1.4540      2.00000
      3       2.9189      2.00000
      4       4.5331      2.00000
      5      16.4092      0.00000
      6      20.6195      0.00000
      7      23.2198      0.00000
      8      24.6697      0.00000

 k-point    37 :       0.5000    0.3000    0.1000
  band No.  band energies     occupation 
      1      -8.6844      2.00000
      2      -1.1274      2.00000
      3       1.9159      2.00000
      4       3.6101      2.00000
      5      17.6110      0.00000
      6      21.2091      0.00000
      7      23.2189      0.00000
      8      25.8614      0.00000

 k-point    38 :      -0.4000    0.3000    0.1000
  band No.  band energies     occupation 
      1      -6.7302      2.00000
      2      -3.6163      2.00000
      3       1.1943      2.00000
      4       3.4270      2.00000
      5      18.2231      0.00000
      6      22.1799      0.00000
      7      24.4225      0.00000
      8      26.0382      0.00000

 k-point    39 :      -0.3000    0.3000    0.1000
  band No.  band energies     occupation 
      1      -7.3545      2.00000
      2      -2.8259      2.00000
      3       0.6847      2.00000
      4       4.0553      2.00000
      5      18.9086      0.00000
      6      21.4998      0.00000
      7      25.0526      0.00000
      8      26.2276      0.00000

 k-point    40 :      -0.2000    0.3000    0.1000
  band No.  band energies     occupation 
      1      -9.3482      2.00000
      2      -0.3260      2.00000
      3       1.0505      2.00000
      4       5.1409      2.00000
      5      19.8535      0.00000
      6      19.9335      0.00000
      7      23.9553      0.00000
      8      24.8113      0.00000

 k-point    41 :       0.5000    0.4000    0.1000
  band No.  band energies     occupation 
      1      -7.8139      2.00000
      2      -1.2885      2.00000
      3       1.8306      2.00000
      4       2.3752      2.00000
      5      16.2924      0.00000
      6      18.2114      0.00000
      7      25.9266      0.00000
      8      27.4897      0.00000

 k-point    42 :      -0.4000    0.4000    0.1000
  band No.  band energies     occupation 
      1      -5.8713      2.00000
      2      -2.9914      2.00000
      3       0.1157      2.00000
      4       2.2359      2.00000
      5      17.3012      0.00000
      6      20.1644      0.00000
      7      25.5258      0.00000
      8      27.3514      0.00000

 k-point    43 :      -0.3000    0.4000    0.1000
  band No.  band energies     occupation 
      1      -5.5548      2.00000
      2      -3.1724      2.00000
      3      -0.9548      2.00000
      4       2.9137      2.00000
      5      17.9631      0.00000
      6      23.5138      0.00000
      7      24.5483      0.00000
      8      25.9147      0.00000

 k-point    44 :      -0.4000    0.5000    0.1000
  band No.  band energies     occupation 
      1      -4.6213      2.00000
      2      -4.6213      2.00000
      3       1.5813      2.00000
      4       1.5813      2.00000
      5      16.8236      0.00000
      6      16.8236      0.00000
      7      27.9392      0.00000
      8      27.9392      0.00000

 k-point    45 :      -0.4000    0.4000    0.2000
  band No.  band energies     occupation 
      1      -6.8359      2.00000
      2      -1.9925      2.00000
      3       0.1389      2.00000
      4       2.2811      2.00000
      5      19.9386      0.00000
      6      20.7146      0.00000
      7      23.1705      0.00000
      8      26.9152      0.00000

 k-point    46 :      -0.3000    0.4000    0.2000
  band No.  band energies     occupation 
      1      -5.3400      2.00000
      2      -3.3117      2.00000
      3      -0.2182      2.00000
      4       1.6424      2.00000
      5      20.3313      0.00000
      6      21.6811      0.00000
      7      24.4662      0.00000
      8      24.7935      0.00000

 k-point    47 :      -0.3000    0.5000    0.2000
  band No.  band energies     occupation 
      1      -4.1135      2.00000
      2      -4.1135      2.00000
      3       0.3603      2.00000
      4       0.3603      2.00000
      5      20.3010      0.00000
      6      20.3010      0.00000
      7      25.0482      0.00000
      8      25.0482      0.00000


--------------------------------------------------------------------------------------------------------


 soft charge-density along one line, spin component           1
         0         1         2         3         4         5         6         7         8         9
 total charge-density along one line
 
 pseudopotential strength for first ion, spin component:           1
  9.151  12.148  -0.000  -0.000  -0.000   0.000   0.000   0.000
 12.148  16.126  -0.000  -0.000  -0.000   0.000   0.000   0.000
 -0.000  -0.000  -3.477  -0.000  -0.000   6.783   0.000   0.000
 -0.000  -0.000  -0.000  -3.477  -0.000   0.000   6.783   0.000
 -0.000  -0.000  -0.000  -0.000  -3.477   0.000   0.000   6.783
  0.000   0.000   6.783   0.000   0.000 -15.302  -0.000  -0.000
  0.000   0.000   0.000   6.783   0.000  -0.000 -15.302  -0.000
  0.000   0.000   0.000   0.000   6.783  -0.000  -0.000 -15.302
 total augmentation occupancy for first ion, spin component:           1
  8.594  -3.959   0.000   0.000  -0.000   0.000   0.000  -0.000
 -3.959   1.892  -0.000  -0.000   0.000  -0.000  -0.000   0.000
  0.000  -0.000   1.603  -0.000   0.000   0.142  -0.000   0.000
  0.000  -0.000  -0.000   1.603   0.000  -0.000   0.142   0.000
 -0.000   0.000   0.000   0.000   1.603   0.000  -0.000   0.142
  0.000  -0.000   0.142  -0.000   0.000   0.014  -0.000   0.000
  0.000  -0.000  -0.000   0.142  -0.000  -0.000   0.014   0.000
 -0.000   0.000   0.000   0.000   0.142   0.000   0.000   0.014


------------------------ aborting loop because EDIFF is reached ----------------------------------------


    FORLOC:  cpu time      0.0000: real time      0.0000
    FORHF :  cpu time     30.0159: real time     30.1405
    FORNL :  cpu time      0.0017: real time      0.0017
    STRESS:  cpu time      0.0095: real time      0.0096
    FORCOR:  cpu time      0.0020: real time      0.0020
    OFIELD:  cpu time      0.0000: real time      0.0000

  FORCE on cell =-STRESS in cart. coord.  units (eV):
  Direction    XX          YY          ZZ          XY          YZ          ZX
  --------------------------------------------------------------------------------------
  Alpha Z    29.42424    29.42424    29.42424
  Ewald    -116.59611  -116.59611  -116.59611    -0.00000     0.00000    -0.00000
  Hartree     8.63443     8.63443     8.63443     0.00000    -0.00000     0.00000
  E(xc)     -23.20625   -23.20625   -23.20625    -0.00000    -0.00000    -0.00000
  Local     -11.29649   -11.29707   -11.29721     0.00049     0.00020     0.00034
  n-local    -6.20041    -5.98231    -6.64305    -0.70979    -0.05466     0.29332
  augment    -0.72254    -0.72250    -0.72249    -0.00004    -0.00001    -0.00002
  Kinetic   125.38564   127.32468   130.97411     5.42667     1.77428     0.89409
  Fock       -7.86721    -7.85110    -7.86407     0.02327     0.02198    -0.00398
  -------------------------------------------------------------------------------------
  Total      -0.00436    -0.00436    -0.00436    -0.00000     0.00000    -0.00000
  in kB      -0.62623    -0.62623    -0.62623    -0.00000     0.00000    -0.00000
  external pressure =       -0.63 kB  Pullay stress =        0.00 kB


 VOLUME and BASIS-vectors are now :
 -----------------------------------------------------------------------------
  energy-cutoff  :      500.00
  volume of cell :       11.17
      direct lattice vectors                 reciprocal lattice vectors
     2.508918929 -0.000000000 -0.000000000     0.398578044 -0.230119141 -0.162718805
     1.254459464  2.172787528  0.000000000     0.000000000  0.460238282 -0.162718805
     1.254459464  0.724262509  2.048523727     0.000000000 -0.000000000  0.488156416

  length of vectors
     2.508918929  2.508918929  2.508918929     0.488156416  0.488156416  0.488156416


 FORCES acting on ions:
    Electron-Ion                     Ewald-Force                    Non-Local-Force
 -----------------------------------------------------------------------------------------------
   0.372E-05 0.110E-04 0.300E-05   -.513E-08 0.327E-08 -.272E-08   -.104E-15 -.576E-16 -.698E-16
   -.327E-05 -.108E-04 -.282E-05   0.513E-08 -.327E-08 0.272E-08   0.102E-15 0.532E-16 0.586E-16
 -----------------------------------------------------------------------------------------------
   0.405E-06 0.205E-06 0.156E-06   -.395E-16 -.101E-16 0.167E-15   -.192E-17 -.447E-17 -.111E-16
 
 
 POSITION                                       TOTAL-FORCE (eV/Angst)
 -----------------------------------------------------------------------------------
      1.25446      0.72426      0.51213         0.000000     -0.000000     -0.000000
      0.00000      0.00000      0.00000        -0.000000      0.000000      0.000000
 -----------------------------------------------------------------------------------
    total drift:                                0.000000      0.000000      0.000000


--------------------------------------------------------------------------------------------------------



  FREE ENERGIE OF THE ION-ELECTRON SYSTEM (eV)
  ---------------------------------------------------
  free  energy   TOTEN  =       -21.09241091 eV

  energy  without entropy=      -21.09241091  energy(sigma->0) =      -21.09241091
 d Force = 0.0000000E+00[ 0.000E+00, 0.000E+00]  d Energy = 0.1403966E-01-0.140E-01
 d Force = 0.0000000E+00[ 0.000E+00, 0.000E+00]  d Ewald  =-0.3421480E+01 0.342E+01
 


--------------------------------------------------------------------------------------------------------


    POTLOK:  cpu time      0.0434: real time      0.0435


--------------------------------------------------------------------------------------------------------




--------------------------------------------------------------------------------------------------------


  
 reached required accuracy - stopping structural energy minimisation
     LOOP+:  cpu time    339.4178: real time    340.8760
    4ORBIT:  cpu time      0.0000: real time      0.0000

 total amount of memory used by VASP MPI-rank0    31407. kBytes
=======================================================================

   base                                    :      30000. kBytes
   nonl-proj                               :        182. kBytes
   fftplans                                :         51. kBytes
   grid                                    :         55. kBytes
   one-center                              :          3. kBytes
   HF                                      :          4. kBytes
   nonlr-proj                              :        688. kBytes
   wavefun                                 :        306. kBytes
   fock_wrk                                :        118. kBytes
 
  
  
 General timing and accounting informations for this job:
 ========================================================
  
                  Total CPU time used (sec):     1225.913
                            User time (sec):     1225.275
                          System time (sec):        0.638
                         Elapsed time (sec):     1231.666
  
                   Maximum memory used (kb):      285876.
                   Average memory used (kb):          N/A
  
                          Minor page faults:        15225
                          Major page faults:           68
                 Voluntary context switches:         1296
