   2   2   0   0
  0.5639752E+01  0.2517300E-09  0.2517300E-09  0.2517300E-09  0.5000000E-15
  1.000000000000000E-004
  CAR 
 unknown system                          
     28.70781347    -13.74091948  301     10.59663044      1.00000000
    -13.741  0.0000E+00  0.0000E+00
    -13.599  0.0000E+00  0.0000E+00
    -13.458  0.0000E+00  0.0000E+00
    -13.316  0.0000E+00  0.0000E+00
    -13.175  0.0000E+00  0.0000E+00
    -13.033  0.0000E+00  0.0000E+00
    -12.892  0.3139E-17  0.4441E-18
    -12.750  0.6668E-14  0.9439E-15
    -12.609  0.5902E-11  0.8361E-12
    -12.467  0.1963E-08  0.2786E-09
    -12.326  0.2469E-06  0.3522E-07
    -12.184  0.1186E-04  0.1713E-05
    -12.043  0.2214E-03  0.3304E-04
    -11.901  0.1694E-02  0.2728E-03
    -11.760  0.6656E-02  0.1215E-02
    -11.618  0.2157E-01  0.4267E-02
    -11.477  0.5489E-01  0.1203E-01
    -11.335  0.7366E-01  0.2246E-01
    -11.194  0.5599E-01  0.3038E-01
    -11.052  0.6072E-01  0.3897E-01
    -10.911  0.9694E-01  0.5269E-01
    -10.770  0.1482E+00  0.7365E-01
    -10.628  0.1755E+00  0.9848E-01
    -10.487  0.1109E+00  0.1142E+00
    -10.345  0.5064E-01  0.1213E+00
    -10.204  0.6283E-01  0.1302E+00
    -10.062  0.1445E+00  0.1507E+00
     -9.921  0.2456E+00  0.1854E+00
     -9.779  0.2169E+00  0.2161E+00
     -9.638  0.1447E+00  0.2366E+00
     -9.496  0.1622E+00  0.2595E+00
     -9.355  0.1946E+00  0.2871E+00
     -9.213  0.2008E+00  0.3155E+00
     -9.072  0.1292E+00  0.3338E+00
     -8.930  0.6794E-01  0.3434E+00
     -8.789  0.1033E+00  0.3580E+00
     -8.647  0.2331E+00  0.3910E+00
     -8.506  0.3997E+00  0.4476E+00
     -8.364  0.3548E+00  0.4978E+00
     -8.223  0.1912E+00  0.5248E+00
     -8.081  0.1688E+00  0.5487E+00
     -7.940  0.2185E+00  0.5796E+00
     -7.798  0.2660E+00  0.6173E+00
     -7.657  0.2230E+00  0.6488E+00
     -7.515  0.1191E+00  0.6657E+00
     -7.374  0.1016E+00  0.6801E+00
     -7.232  0.2214E+00  0.7114E+00
     -7.091  0.3798E+00  0.7651E+00
     -6.949  0.3527E+00  0.8150E+00
     -6.808  0.3117E+00  0.8591E+00
     -6.666  0.3899E+00  0.9143E+00
     -6.525  0.4460E+00  0.9774E+00
     -6.383  0.3825E+00  0.1032E+01
     -6.242  0.1944E+00  0.1059E+01
     -6.100  0.1395E+00  0.1079E+01
     -5.959  0.2664E+00  0.1116E+01
     -5.817  0.3265E+00  0.1163E+01
     -5.676  0.2702E+00  0.1201E+01
     -5.534  0.2766E+00  0.1240E+01
     -5.393  0.4658E+00  0.1306E+01
     -5.251  0.6524E+00  0.1398E+01
     -5.110  0.4756E+00  0.1466E+01
     -4.968  0.1932E+00  0.1493E+01
     -4.827  0.1969E+00  0.1521E+01
     -4.685  0.3587E+00  0.1572E+01
     -4.544  0.3589E+00  0.1622E+01
     -4.402  0.2383E+00  0.1656E+01
     -4.261  0.1504E+00  0.1677E+01
     -4.119  0.1490E+00  0.1698E+01
     -3.978  0.2907E+00  0.1740E+01
     -3.836  0.3748E+00  0.1793E+01
     -3.695  0.2911E+00  0.1834E+01
     -3.553  0.2413E+00  0.1868E+01
     -3.412  0.2286E+00  0.1900E+01
     -3.270  0.1831E+00  0.1926E+01
     -3.129  0.2039E+00  0.1955E+01
     -2.987  0.3338E+00  0.2002E+01
     -2.846  0.3696E+00  0.2055E+01
     -2.704  0.2641E+00  0.2092E+01
     -2.563  0.1901E+00  0.2119E+01
     -2.421  0.3032E+00  0.2162E+01
     -2.280  0.4362E+00  0.2223E+01
     -2.138  0.3382E+00  0.2271E+01
     -1.997  0.3086E+00  0.2315E+01
     -1.855  0.4830E+00  0.2383E+01
     -1.714  0.5099E+00  0.2455E+01
     -1.572  0.4233E+00  0.2515E+01
     -1.431  0.4514E+00  0.2579E+01
     -1.289  0.6451E+00  0.2670E+01
     -1.148  0.7864E+00  0.2782E+01
     -1.006  0.6147E+00  0.2869E+01
     -0.865  0.2794E+00  0.2908E+01
     -0.723  0.8649E-01  0.2920E+01
     -0.582  0.1486E+00  0.2942E+01
     -0.440  0.3703E+00  0.2994E+01
     -0.299  0.4118E+00  0.3052E+01
     -0.157  0.2082E+00  0.3082E+01
     -0.016  0.1100E+00  0.3097E+01
      0.126  0.2095E+00  0.3127E+01
      0.267  0.4009E+00  0.3184E+01
      0.409  0.5641E+00  0.3263E+01
      0.550  0.5012E+00  0.3334E+01
      0.692  0.2878E+00  0.3375E+01
      0.833  0.2080E+00  0.3404E+01
      0.975  0.3834E+00  0.3459E+01
      1.116  0.5817E+00  0.3541E+01
      1.258  0.5388E+00  0.3617E+01
      1.399  0.4952E+00  0.3687E+01
      1.541  0.5360E+00  0.3763E+01
      1.682  0.4799E+00  0.3831E+01
      1.824  0.4958E+00  0.3901E+01
      1.965  0.6007E+00  0.3986E+01
      2.107  0.5322E+00  0.4062E+01
      2.248  0.4263E+00  0.4122E+01
      2.390  0.4607E+00  0.4187E+01
      2.531  0.4678E+00  0.4253E+01
      2.673  0.5737E+00  0.4334E+01
      2.814  0.7742E+00  0.4444E+01
      2.956  0.7155E+00  0.4545E+01
      3.097  0.6136E+00  0.4632E+01
      3.239  0.6299E+00  0.4721E+01
      3.380  0.7289E+00  0.4824E+01
      3.522  0.7108E+00  0.4925E+01
      3.663  0.5617E+00  0.5004E+01
      3.805  0.6659E+00  0.5099E+01
      3.946  0.8448E+00  0.5218E+01
      4.088  0.7525E+00  0.5325E+01
      4.229  0.5286E+00  0.5399E+01
      4.371  0.7052E+00  0.5499E+01
      4.512  0.1127E+01  0.5659E+01
      4.654  0.1126E+01  0.5818E+01
      4.795  0.8888E+00  0.5944E+01
      4.937  0.7324E+00  0.6047E+01
      5.078  0.6207E+00  0.6135E+01
      5.220  0.4259E+00  0.6195E+01
      5.361  0.3768E+00  0.6249E+01
      5.503  0.5168E+00  0.6322E+01
      5.644  0.5885E+00  0.6405E+01
      5.785  0.7063E+00  0.6505E+01
      5.927  0.8737E+00  0.6629E+01
      6.068  0.9761E+00  0.6767E+01
      6.210  0.8503E+00  0.6887E+01
      6.351  0.5677E+00  0.6967E+01
      6.493  0.5064E+00  0.7039E+01
      6.634  0.5362E+00  0.7115E+01
      6.776  0.6117E+00  0.7201E+01
      6.917  0.7547E+00  0.7308E+01
      7.059  0.6878E+00  0.7406E+01
      7.200  0.4005E+00  0.7462E+01
      7.342  0.1939E+00  0.7490E+01
      7.483  0.2539E+00  0.7526E+01
      7.625  0.4852E+00  0.7594E+01
      7.766  0.5404E+00  0.7671E+01
      7.908  0.3774E+00  0.7724E+01
      8.049  0.2105E+00  0.7754E+01
      8.191  0.1111E+00  0.7770E+01
      8.332  0.1325E+00  0.7788E+01
      8.474  0.3000E+00  0.7831E+01
      8.615  0.3873E+00  0.7886E+01
      8.757  0.2311E+00  0.7918E+01
      8.898  0.8080E-01  0.7930E+01
      9.040  0.4327E-01  0.7936E+01
      9.181  0.5727E-01  0.7944E+01
      9.323  0.1240E+00  0.7961E+01
      9.464  0.1456E+00  0.7982E+01
      9.606  0.7276E-01  0.7992E+01
      9.747  0.2409E-01  0.7996E+01
      9.889  0.1726E-01  0.7998E+01
     10.030  0.9930E-02  0.8000E+01
     10.172  0.2395E-02  0.8000E+01
     10.313  0.2275E-03  0.8000E+01
     10.455  0.8396E-05  0.8000E+01
     10.596  0.1189E-06  0.8000E+01
     10.738  0.6398E-09  0.8000E+01
     10.879  0.1298E-11  0.8000E+01
     11.021  0.9886E-15  0.8000E+01
     11.162  0.0000E+00  0.8000E+01
     11.304  0.0000E+00  0.8000E+01
     11.445  0.0000E+00  0.8000E+01
     11.587  0.0000E+00  0.8000E+01
     11.728  0.0000E+00  0.8000E+01
     11.870  0.0000E+00  0.8000E+01
     12.011  0.0000E+00  0.8000E+01
     12.153  0.0000E+00  0.8000E+01
     12.294  0.0000E+00  0.8000E+01
     12.436  0.0000E+00  0.8000E+01
     12.577  0.0000E+00  0.8000E+01
     12.719  0.0000E+00  0.8000E+01
     12.860  0.4708E-16  0.8000E+01
     13.002  0.9889E-13  0.8000E+01
     13.143  0.7911E-10  0.8000E+01
     13.285  0.2402E-07  0.8000E+01
     13.426  0.2799E-05  0.8000E+01
     13.568  0.1270E-03  0.8000E+01
     13.709  0.2285E-02  0.8000E+01
     13.851  0.1661E-01  0.8003E+01
     13.992  0.4962E-01  0.8010E+01
     14.134  0.6195E-01  0.8018E+01
     14.275  0.3850E-01  0.8024E+01
     14.417  0.6349E-01  0.8033E+01
     14.558  0.2062E+00  0.8062E+01
     14.700  0.3224E+00  0.8108E+01
     14.841  0.2535E+00  0.8144E+01
     14.983  0.1947E+00  0.8171E+01
     15.124  0.2077E+00  0.8201E+01
     15.266  0.2399E+00  0.8234E+01
     15.407  0.3721E+00  0.8287E+01
     15.549  0.4922E+00  0.8357E+01
     15.690  0.3913E+00  0.8412E+01
     15.832  0.3542E+00  0.8462E+01
     15.973  0.6245E+00  0.8551E+01
     16.115  0.7275E+00  0.8654E+01
     16.256  0.5178E+00  0.8727E+01
     16.398  0.4689E+00  0.8793E+01
     16.539  0.6210E+00  0.8881E+01
     16.681  0.6480E+00  0.8973E+01
     16.822  0.4992E+00  0.9043E+01
     16.964  0.5075E+00  0.9115E+01
     17.105  0.8585E+00  0.9237E+01
     17.247  0.1084E+01  0.9390E+01
     17.388  0.8782E+00  0.9514E+01
     17.530  0.5074E+00  0.9586E+01
     17.671  0.4362E+00  0.9648E+01
     17.813  0.7766E+00  0.9758E+01
     17.954  0.1050E+01  0.9906E+01
     18.096  0.9672E+00  0.1004E+02
     18.237  0.9394E+00  0.1018E+02
     18.379  0.9894E+00  0.1032E+02
     18.520  0.8338E+00  0.1043E+02
     18.662  0.6944E+00  0.1053E+02
     18.803  0.7416E+00  0.1064E+02
     18.945  0.7680E+00  0.1075E+02
     19.086  0.1016E+01  0.1089E+02
     19.228  0.1462E+01  0.1110E+02
     19.369  0.1510E+01  0.1131E+02
     19.511  0.1277E+01  0.1149E+02
     19.652  0.1097E+01  0.1165E+02
     19.794  0.8452E+00  0.1177E+02
     19.935  0.5360E+00  0.1184E+02
     20.077  0.4883E+00  0.1191E+02
     20.218  0.5993E+00  0.1200E+02
     20.360  0.5044E+00  0.1207E+02
     20.501  0.3475E+00  0.1212E+02
     20.643  0.3391E+00  0.1216E+02
     20.784  0.4336E+00  0.1223E+02
     20.926  0.5249E+00  0.1230E+02
     21.067  0.6661E+00  0.1239E+02
     21.209  0.7112E+00  0.1249E+02
     21.350  0.5168E+00  0.1257E+02
     21.492  0.5789E+00  0.1265E+02
     21.633  0.1119E+01  0.1281E+02
     21.775  0.1373E+01  0.1300E+02
     21.916  0.9483E+00  0.1314E+02
     22.058  0.4931E+00  0.1321E+02
     22.199  0.2789E+00  0.1325E+02
     22.341  0.2841E+00  0.1329E+02
     22.482  0.5177E+00  0.1336E+02
     22.623  0.6807E+00  0.1346E+02
     22.765  0.6699E+00  0.1355E+02
     22.906  0.7763E+00  0.1366E+02
     23.048  0.8851E+00  0.1378E+02
     23.189  0.9281E+00  0.1392E+02
     23.331  0.9240E+00  0.1405E+02
     23.472  0.8207E+00  0.1416E+02
     23.614  0.5843E+00  0.1425E+02
     23.755  0.5439E+00  0.1432E+02
     23.897  0.8978E+00  0.1445E+02
     24.038  0.1329E+01  0.1464E+02
     24.180  0.1418E+01  0.1484E+02
     24.321  0.1313E+01  0.1502E+02
     24.463  0.1151E+01  0.1519E+02
     24.604  0.7453E+00  0.1529E+02
     24.746  0.3344E+00  0.1534E+02
     24.887  0.2231E+00  0.1537E+02
     25.029  0.3701E+00  0.1542E+02
     25.170  0.5084E+00  0.1550E+02
     25.312  0.6050E+00  0.1558E+02
     25.453  0.7454E+00  0.1569E+02
     25.595  0.6205E+00  0.1577E+02
     25.736  0.3279E+00  0.1582E+02
     25.878  0.2887E+00  0.1586E+02
     26.019  0.3805E+00  0.1592E+02
     26.161  0.3091E+00  0.1596E+02
     26.302  0.1533E+00  0.1598E+02
     26.444  0.4557E-01  0.1599E+02
     26.585  0.1943E-01  0.1599E+02
     26.727  0.3086E-01  0.1599E+02
     26.868  0.2699E-01  0.1600E+02
     27.010  0.9475E-02  0.1600E+02
     27.151  0.1313E-02  0.1600E+02
     27.293  0.7096E-04  0.1600E+02
     27.434  0.1479E-05  0.1600E+02
     27.576  0.1175E-07  0.1600E+02
     27.717  0.3533E-10  0.1600E+02
     27.859  0.3990E-13  0.1600E+02
     28.000  0.1883E-16  0.1600E+02
     28.142  0.0000E+00  0.1600E+02
     28.283  0.0000E+00  0.1600E+02
     28.425  0.0000E+00  0.1600E+02
     28.566  0.0000E+00  0.1600E+02
     28.708  0.0000E+00  0.1600E+02
