   2   2   0   0
  0.5639752E+01  0.2517300E-09  0.2517300E-09  0.2517300E-09  0.5000000E-15
  1.000000000000000E-004
  CAR 
 unknown system                          
     28.69785958    -13.74328493  301     10.58991423      1.00000000
    -13.743  0.0000E+00  0.0000E+00
    -13.602  0.0000E+00  0.0000E+00
    -13.460  0.0000E+00  0.0000E+00
    -13.319  0.0000E+00  0.0000E+00
    -13.177  0.0000E+00  0.0000E+00
    -13.036  0.0000E+00  0.0000E+00
    -12.894  0.3139E-17  0.4441E-18
    -12.753  0.6609E-14  0.9354E-15
    -12.612  0.5850E-11  0.8286E-12
    -12.470  0.1946E-08  0.2762E-09
    -12.329  0.2450E-06  0.3494E-07
    -12.187  0.1178E-04  0.1702E-05
    -12.046  0.2202E-03  0.3286E-04
    -11.904  0.1688E-02  0.2717E-03
    -11.763  0.6638E-02  0.1211E-02
    -11.621  0.2151E-01  0.4254E-02
    -11.480  0.5480E-01  0.1201E-01
    -11.338  0.7369E-01  0.2243E-01
    -11.197  0.5609E-01  0.3037E-01
    -11.055  0.6075E-01  0.3896E-01
    -10.914  0.9694E-01  0.5267E-01
    -10.772  0.1482E+00  0.7364E-01
    -10.631  0.1755E+00  0.9847E-01
    -10.489  0.1110E+00  0.1142E+00
    -10.348  0.5070E-01  0.1213E+00
    -10.207  0.6294E-01  0.1303E+00
    -10.065  0.1447E+00  0.1507E+00
     -9.924  0.2457E+00  0.1855E+00
     -9.782  0.2169E+00  0.2162E+00
     -9.641  0.1447E+00  0.2366E+00
     -9.499  0.1623E+00  0.2596E+00
     -9.358  0.1948E+00  0.2871E+00
     -9.216  0.2008E+00  0.3156E+00
     -9.075  0.1290E+00  0.3338E+00
     -8.933  0.6796E-01  0.3434E+00
     -8.792  0.1037E+00  0.3581E+00
     -8.650  0.2338E+00  0.3912E+00
     -8.509  0.4001E+00  0.4478E+00
     -8.367  0.3543E+00  0.4979E+00
     -8.226  0.1910E+00  0.5249E+00
     -8.084  0.1690E+00  0.5488E+00
     -7.943  0.2189E+00  0.5798E+00
     -7.802  0.2662E+00  0.6174E+00
     -7.660  0.2226E+00  0.6489E+00
     -7.519  0.1188E+00  0.6657E+00
     -7.377  0.1018E+00  0.6801E+00
     -7.236  0.2223E+00  0.7116E+00
     -7.094  0.3802E+00  0.7654E+00
     -6.953  0.3524E+00  0.8152E+00
     -6.811  0.3120E+00  0.8594E+00
     -6.670  0.3904E+00  0.9146E+00
     -6.528  0.4462E+00  0.9777E+00
     -6.387  0.3818E+00  0.1032E+01
     -6.245  0.1937E+00  0.1059E+01
     -6.104  0.1398E+00  0.1079E+01
     -5.962  0.2670E+00  0.1117E+01
     -5.821  0.3265E+00  0.1163E+01
     -5.679  0.2701E+00  0.1201E+01
     -5.538  0.2771E+00  0.1240E+01
     -5.397  0.4670E+00  0.1306E+01
     -5.255  0.6525E+00  0.1399E+01
     -5.114  0.4742E+00  0.1466E+01
     -4.972  0.1926E+00  0.1493E+01
     -4.831  0.1977E+00  0.1521E+01
     -4.689  0.3593E+00  0.1572E+01
     -4.548  0.3585E+00  0.1623E+01
     -4.406  0.2378E+00  0.1656E+01
     -4.265  0.1501E+00  0.1677E+01
     -4.123  0.1494E+00  0.1699E+01
     -3.982  0.2916E+00  0.1740E+01
     -3.840  0.3747E+00  0.1793E+01
     -3.699  0.2907E+00  0.1834E+01
     -3.557  0.2413E+00  0.1868E+01
     -3.416  0.2284E+00  0.1900E+01
     -3.274  0.1830E+00  0.1926E+01
     -3.133  0.2046E+00  0.1955E+01
     -2.992  0.3346E+00  0.2003E+01
     -2.850  0.3693E+00  0.2055E+01
     -2.709  0.2634E+00  0.2092E+01
     -2.567  0.1902E+00  0.2119E+01
     -2.426  0.3042E+00  0.2162E+01
     -2.284  0.4363E+00  0.2224E+01
     -2.143  0.3374E+00  0.2271E+01
     -2.001  0.3091E+00  0.2315E+01
     -1.860  0.4837E+00  0.2384E+01
     -1.718  0.5096E+00  0.2456E+01
     -1.577  0.4233E+00  0.2516E+01
     -1.435  0.4520E+00  0.2580E+01
     -1.294  0.6459E+00  0.2671E+01
     -1.152  0.7861E+00  0.2782E+01
     -1.011  0.6135E+00  0.2869E+01
     -0.869  0.2785E+00  0.2908E+01
     -0.728  0.8637E-01  0.2921E+01
     -0.587  0.1492E+00  0.2942E+01
     -0.445  0.3709E+00  0.2994E+01
     -0.304  0.4115E+00  0.3052E+01
     -0.162  0.2076E+00  0.3082E+01
     -0.021  0.1099E+00  0.3097E+01
      0.121  0.2099E+00  0.3127E+01
      0.262  0.4013E+00  0.3184E+01
      0.404  0.5639E+00  0.3263E+01
      0.545  0.5008E+00  0.3334E+01
      0.687  0.2876E+00  0.3375E+01
      0.828  0.2080E+00  0.3404E+01
      0.970  0.3834E+00  0.3459E+01
      1.111  0.5816E+00  0.3541E+01
      1.253  0.5387E+00  0.3617E+01
      1.394  0.4949E+00  0.3687E+01
      1.536  0.5361E+00  0.3763E+01
      1.677  0.4804E+00  0.3831E+01
      1.818  0.4958E+00  0.3901E+01
      1.960  0.6005E+00  0.3986E+01
      2.101  0.5323E+00  0.4061E+01
      2.243  0.4262E+00  0.4122E+01
      2.384  0.4607E+00  0.4187E+01
      2.526  0.4681E+00  0.4253E+01
      2.667  0.5736E+00  0.4334E+01
      2.809  0.7740E+00  0.4444E+01
      2.950  0.7157E+00  0.4545E+01
      3.092  0.6136E+00  0.4632E+01
      3.233  0.6297E+00  0.4721E+01
      3.375  0.7287E+00  0.4824E+01
      3.516  0.7114E+00  0.4925E+01
      3.658  0.5621E+00  0.5004E+01
      3.799  0.6653E+00  0.5098E+01
      3.941  0.8446E+00  0.5218E+01
      4.082  0.7533E+00  0.5324E+01
      4.223  0.5290E+00  0.5399E+01
      4.365  0.7039E+00  0.5499E+01
      4.506  0.1126E+01  0.5658E+01
      4.648  0.1126E+01  0.5817E+01
      4.789  0.8898E+00  0.5943E+01
      4.931  0.7328E+00  0.6047E+01
      5.072  0.6212E+00  0.6135E+01
      5.214  0.4267E+00  0.6195E+01
      5.355  0.3765E+00  0.6248E+01
      5.497  0.5162E+00  0.6321E+01
      5.638  0.5883E+00  0.6405E+01
      5.780  0.7057E+00  0.6504E+01
      5.921  0.8732E+00  0.6628E+01
      6.063  0.9762E+00  0.6766E+01
      6.204  0.8516E+00  0.6887E+01
      6.346  0.5686E+00  0.6967E+01
      6.487  0.5064E+00  0.7039E+01
      6.628  0.5363E+00  0.7114E+01
      6.770  0.6112E+00  0.7201E+01
      6.911  0.7544E+00  0.7308E+01
      7.053  0.6889E+00  0.7405E+01
      7.194  0.4019E+00  0.7462E+01
      7.336  0.1941E+00  0.7489E+01
      7.477  0.2528E+00  0.7525E+01
      7.619  0.4842E+00  0.7594E+01
      7.760  0.5411E+00  0.7670E+01
      7.902  0.3785E+00  0.7724E+01
      8.043  0.2113E+00  0.7754E+01
      8.185  0.1114E+00  0.7769E+01
      8.326  0.1319E+00  0.7788E+01
      8.468  0.2989E+00  0.7830E+01
      8.609  0.3877E+00  0.7885E+01
      8.751  0.2324E+00  0.7918E+01
      8.892  0.8134E-01  0.7930E+01
      9.033  0.4335E-01  0.7936E+01
      9.175  0.5708E-01  0.7944E+01
      9.316  0.1237E+00  0.7961E+01
      9.458  0.1458E+00  0.7982E+01
      9.599  0.7321E-01  0.7992E+01
      9.741  0.2419E-01  0.7996E+01
      9.882  0.1728E-01  0.7998E+01
     10.024  0.1000E-01  0.8000E+01
     10.165  0.2431E-02  0.8000E+01
     10.307  0.2328E-03  0.8000E+01
     10.448  0.8662E-05  0.8000E+01
     10.590  0.1237E-06  0.8000E+01
     10.731  0.6720E-09  0.8000E+01
     10.873  0.1377E-11  0.8000E+01
     11.014  0.1056E-14  0.8000E+01
     11.156  0.0000E+00  0.8000E+01
     11.297  0.0000E+00  0.8000E+01
     11.438  0.0000E+00  0.8000E+01
     11.580  0.0000E+00  0.8000E+01
     11.721  0.0000E+00  0.8000E+01
     11.863  0.0000E+00  0.8000E+01
     12.004  0.0000E+00  0.8000E+01
     12.146  0.0000E+00  0.8000E+01
     12.287  0.0000E+00  0.8000E+01
     12.429  0.0000E+00  0.8000E+01
     12.570  0.0000E+00  0.8000E+01
     12.712  0.0000E+00  0.8000E+01
     12.853  0.3767E-16  0.8000E+01
     12.995  0.8207E-13  0.8000E+01
     13.136  0.6727E-10  0.8000E+01
     13.278  0.2093E-07  0.8000E+01
     13.419  0.2500E-05  0.8000E+01
     13.561  0.1162E-03  0.8000E+01
     13.702  0.2142E-02  0.8000E+01
     13.843  0.1594E-01  0.8003E+01
     13.985  0.4876E-01  0.8009E+01
     14.126  0.6227E-01  0.8018E+01
     14.268  0.3899E-01  0.8024E+01
     14.409  0.6121E-01  0.8032E+01
     14.551  0.2012E+00  0.8061E+01
     14.692  0.3218E+00  0.8106E+01
     14.834  0.2568E+00  0.8143E+01
     14.975  0.1953E+00  0.8170E+01
     15.117  0.2072E+00  0.8200E+01
     15.258  0.2378E+00  0.8233E+01
     15.400  0.3679E+00  0.8285E+01
     15.541  0.4925E+00  0.8355E+01
     15.683  0.3955E+00  0.8411E+01
     15.824  0.3503E+00  0.8461E+01
     15.966  0.6167E+00  0.8548E+01
     16.107  0.7304E+00  0.8651E+01
     16.248  0.5230E+00  0.8725E+01
     16.390  0.4658E+00  0.8791E+01
     16.531  0.6178E+00  0.8878E+01
     16.673  0.6509E+00  0.8971E+01
     16.814  0.5035E+00  0.9042E+01
     16.956  0.5034E+00  0.9113E+01
     17.097  0.8496E+00  0.9233E+01
     17.239  0.1083E+01  0.9386E+01
     17.380  0.8864E+00  0.9512E+01
     17.522  0.5156E+00  0.9585E+01
     17.663  0.4320E+00  0.9646E+01
     17.805  0.7652E+00  0.9754E+01
     17.946  0.1049E+01  0.9903E+01
     18.088  0.9736E+00  0.1004E+02
     18.229  0.9411E+00  0.1017E+02
     18.371  0.9908E+00  0.1031E+02
     18.512  0.8376E+00  0.1043E+02
     18.653  0.6946E+00  0.1053E+02
     18.795  0.7400E+00  0.1064E+02
     18.936  0.7665E+00  0.1074E+02
     19.078  0.1007E+01  0.1089E+02
     19.219  0.1456E+01  0.1109E+02
     19.361  0.1514E+01  0.1131E+02
     19.502  0.1281E+01  0.1149E+02
     19.644  0.1100E+01  0.1164E+02
     19.785  0.8533E+00  0.1176E+02
     19.927  0.5411E+00  0.1184E+02
     20.068  0.4855E+00  0.1191E+02
     20.210  0.5988E+00  0.1199E+02
     20.351  0.5085E+00  0.1207E+02
     20.493  0.3487E+00  0.1211E+02
     20.634  0.3372E+00  0.1216E+02
     20.776  0.4328E+00  0.1222E+02
     20.917  0.5251E+00  0.1230E+02
     21.058  0.6656E+00  0.1239E+02
     21.200  0.7133E+00  0.1249E+02
     21.341  0.5196E+00  0.1257E+02
     21.483  0.5761E+00  0.1265E+02
     21.624  0.1113E+01  0.1281E+02
     21.766  0.1375E+01  0.1300E+02
     21.907  0.9546E+00  0.1314E+02
     22.049  0.4963E+00  0.1321E+02
     22.190  0.2795E+00  0.1324E+02
     22.332  0.2817E+00  0.1328E+02
     22.473  0.5127E+00  0.1336E+02
     22.615  0.6816E+00  0.1345E+02
     22.756  0.6752E+00  0.1355E+02
     22.898  0.7785E+00  0.1366E+02
     23.039  0.8850E+00  0.1378E+02
     23.181  0.9270E+00  0.1392E+02
     23.322  0.9224E+00  0.1405E+02
     23.463  0.8200E+00  0.1416E+02
     23.605  0.5858E+00  0.1425E+02
     23.746  0.5457E+00  0.1432E+02
     23.888  0.8990E+00  0.1445E+02
     24.029  0.1332E+01  0.1464E+02
     24.171  0.1422E+01  0.1484E+02
     24.312  0.1316E+01  0.1503E+02
     24.454  0.1150E+01  0.1519E+02
     24.595  0.7416E+00  0.1529E+02
     24.737  0.3331E+00  0.1534E+02
     24.878  0.2258E+00  0.1537E+02
     25.020  0.3734E+00  0.1542E+02
     25.161  0.5097E+00  0.1550E+02
     25.303  0.6081E+00  0.1558E+02
     25.444  0.7474E+00  0.1569E+02
     25.586  0.6160E+00  0.1578E+02
     25.727  0.3248E+00  0.1582E+02
     25.868  0.2910E+00  0.1586E+02
     26.010  0.3812E+00  0.1592E+02
     26.151  0.3064E+00  0.1596E+02
     26.293  0.1500E+00  0.1598E+02
     26.434  0.4380E-01  0.1599E+02
     26.576  0.1910E-01  0.1599E+02
     26.717  0.3086E-01  0.1599E+02
     26.859  0.2696E-01  0.1600E+02
     27.000  0.9448E-02  0.1600E+02
     27.142  0.1307E-02  0.1600E+02
     27.283  0.7058E-04  0.1600E+02
     27.425  0.1470E-05  0.1600E+02
     27.566  0.1168E-07  0.1600E+02
     27.708  0.3510E-10  0.1600E+02
     27.849  0.3965E-13  0.1600E+02
     27.991  0.1883E-16  0.1600E+02
     28.132  0.0000E+00  0.1600E+02
     28.273  0.0000E+00  0.1600E+02
     28.415  0.0000E+00  0.1600E+02
     28.556  0.0000E+00  0.1600E+02
     28.698  0.0000E+00  0.1600E+02
