    2    2    1    1
  0.5639752E+01  0.2517300E-09  0.2517300E-09  0.2517300E-09  0.5000000E-15
  1.000000000000000E-004
  CAR 
 unknown system                          
      8     47      8
 
  0.1276756E-14  0.1276756E-14  0.1276756E-14  0.1000000E-02
      1        -11.743285   1.000000
      2          9.807369   1.000000
      3          9.807369   1.000000
      4          9.807370   1.000000
      5         15.414074   0.000000
      6         15.414074   0.000000
      7         15.414075   0.000000
      8         23.269165   0.000000
 
  0.1000000E+00  0.1257202E-14  0.1278733E-14  0.8000000E-02
      1        -11.465511   1.000000
      2          8.124357   1.000000
      3          9.357968   1.000000
      4          9.357969   1.000000
      5         16.003949   0.000000
      6         16.003950   0.000000
      7         16.366850   0.000000
      8         23.499581   0.000000
 
  0.2000000E+00  0.1255815E-14  0.1296939E-14  0.8000000E-02
      1        -10.637213   1.000000
      2          4.906665   1.000000
      3          8.476970   1.000000
      4          8.476971   1.000000
      5         17.140329   0.000000
      6         17.140330   0.000000
      7         17.592111   0.000000
      8         24.138121   0.000000
 
  0.3000000E+00  0.1203015E-14  0.1309915E-14  0.8000000E-02
      1         -9.278151   1.000000
      2          1.495087   1.000000
      3          7.682376   1.000000
      4          7.682377   1.000000
      5         17.965024   0.000000
      6         17.965025   0.000000
      7         18.300144   0.000000
      8         24.915844   0.000000
 
  0.4000000E+00  0.1224943E-14  0.1342384E-14  0.8000000E-02
      1         -7.459570   1.000000
      2         -1.649645   1.000000
      3          7.168052   1.000000
      4          7.168052   1.000000
      5         18.254027   0.000000
      6         18.254028   0.000000
      7         18.633990   0.000000
      8         25.422652   0.000000
 
  0.5000000E+00  0.1216617E-14  0.1247647E-14  0.4000000E-02
      1         -5.936578   1.000000
      2         -3.627623   1.000000
      3          6.992496   1.000000
      4          6.992497   1.000000
      5         18.291089   0.000000
      6         18.291089   0.000000
      7         18.732706   0.000000
      8         25.557632   0.000000
 
  0.1000000E+00  0.1000000E+00  0.1257559E-14  0.6000000E-02
      1        -11.373006   1.000000
      2          8.573097   1.000000
      3          8.573098   1.000000
      4          8.936435   1.000000
      5         15.138860   0.000000
      6         16.965800   0.000000
      7         16.965801   0.000000
      8         23.366060   0.000000
 
  0.2000000E+00  0.1000000E+00  0.1290028E-14  0.2400000E-01
      1        -10.728401   1.000000
      2          6.025885   1.000000
      3          7.600572   1.000000
      4          8.466574   1.000000
      5         15.566913   0.000000
      6         18.274051   0.000000
      7         18.295373   0.000000
      8         23.267767   0.000000
 
  0.3000000E+00  0.1000000E+00  0.1316497E-14  0.2400000E-01
      1         -9.545703   1.000000
      2          2.741973   1.000000
      3          6.851289   1.000000
      4          7.594884   1.000000
      5         16.609170   0.000000
      6         19.133427   0.000000
      7         19.225720   0.000000
      8         23.455285   0.000000
 
  0.4000000E+00  0.1000000E+00  0.1363612E-14  0.2400000E-01
      1         -7.869973   1.000000
      2         -0.468649   1.000000
      3          6.473485   1.000000
      4          6.721356   1.000000
      5         17.327931   0.000000
      6         19.442534   0.000000
      7         19.539299   0.000000
      8         24.342900   0.000000
 
  0.5000000E+00  0.1000000E+00  0.1297399E-14  0.2400000E-01
      1         -5.992824   1.000000
      2         -3.077842   1.000000
      3          6.084331   1.000000
      4          6.502200   1.000000
      5         17.732797   0.000000
      6         19.193555   0.000000
      7         19.670860   0.000000
      8         25.344086   0.000000
 
 -0.4000000E+00  0.1000000E+00  0.1241531E-14  0.2400000E-01
      1         -6.576645   1.000000
      2         -2.342742   1.000000
      3          5.789268   1.000000
      4          6.916518   1.000000
      5         18.131685   0.000000
      6         18.772815   0.000000
      7         19.608850   0.000000
      8         25.419202   0.000000
 
 -0.3000000E+00  0.1000000E+00  0.1259737E-14  0.2400000E-01
      1         -8.478254   1.000000
      2          0.579207   1.000000
      3          5.889148   1.000000
      4          7.650787   1.000000
      5         18.156821   0.000000
      6         18.459549   0.000000
      7         19.306357   0.000000
      8         24.611121   0.000000
 
 -0.2000000E+00  0.1000000E+00  0.1280036E-14  0.2400000E-01
      1         -9.998508   1.000000
      2          3.863583   1.000000
      3          6.402457   1.000000
      4          8.564970   1.000000
      5         17.180533   0.000000
      6         18.332850   0.000000
      7         18.511813   0.000000
      8         23.912100   0.000000
 
 -0.1000000E+00  0.1000000E+00  0.1258124E-14  0.1200000E-01
      1        -11.004249   1.000000
      2          6.864294   1.000000
      3          7.464320   1.000000
      4          9.329741   1.000000
      5         16.162561   0.000000
      6         17.188653   0.000000
      7         17.505506   0.000000
      8         23.660723   0.000000
 
  0.2000000E+00  0.2000000E+00  0.1282348E-14  0.6000000E-02
      1        -10.269747   1.000000
      2          6.562932   1.000000
      3          6.562932   1.000000
      4          6.716217   1.000000
      5         14.546696   0.000000
      6         19.892754   0.000000
      7         19.892755   0.000000
      8         21.703471   0.000000
 
  0.3000000E+00  0.2000000E+00  0.1309202E-14  0.2400000E-01
      1         -9.271118   1.000000
      2          3.956451   1.000000
      3          5.769787   1.000000
      4          6.147188   1.000000
      5         14.976098   0.000000
      6         20.642144   0.000000
      7         21.133498   0.000000
      8         21.168749   0.000000
 
  0.4000000E+00  0.2000000E+00  0.1328561E-14  0.2400000E-01
      1         -7.764947   1.000000
      2          0.982376   1.000000
      3          5.086146   1.000000
      4          5.382431   1.000000
      5         15.925903   0.000000
      6         21.083632   0.000000
      7         21.643267   0.000000
      8         21.737455   0.000000
 
  0.5000000E+00  0.2000000E+00  0.1290872E-14  0.2400000E-01
      1         -5.892245   1.000000
      2         -1.767825   1.000000
      3          4.083066   1.000000
      4          5.447353   1.000000
      5         16.506102   0.000000
      6         21.383203   0.000000
      7         21.931772   0.000000
      8         23.119567   0.000000
 
 -0.4000000E+00  0.2000000E+00  0.1234619E-14  0.2400000E-01
      1         -5.342252   1.000000
      2         -2.425952   1.000000
      3          3.408998   1.000000
      4          5.946705   1.000000
      5         17.078647   0.000000
      6         20.699385   0.000000
      7         21.905681   0.000000
      8         25.104240   0.000000
 
 -0.3000000E+00  0.2000000E+00  0.1260149E-14  0.2400000E-01
      1         -7.177583   1.000000
      2          0.092536   1.000000
      3          3.186747   1.000000
      4          6.798718   1.000000
      5         17.817753   0.000000
      6         19.676762   0.000000
      7         21.592430   0.000000
      8         24.330437   0.000000
 
 -0.2000000E+00  0.2000000E+00  0.1301415E-14  0.1200000E-01
      1         -8.828618   1.000000
      2          2.806621   1.000000
      3          3.773149   1.000000
      4          7.811477   1.000000
      5         18.326394   0.000000
      6         18.426633   0.000000
      7         20.346580   0.000000
      8         23.549029   0.000000
 
  0.3000000E+00  0.3000000E+00  0.1302674E-14  0.6000000E-02
      1         -8.459560   1.000000
      2          3.714878   1.000000
      3          4.894136   1.000000
      4          4.894137   1.000000
      5         14.056797   0.000000
      6         18.514818   0.000000
      7         22.961725   0.000000
      8         22.961726   0.000000
 
  0.4000000E+00  0.3000000E+00  0.1321265E-14  0.2400000E-01
      1         -7.135807   1.000000
      2          1.731579   1.000000
      3          3.793574   1.000000
      4          4.420862   1.000000
      5         14.615926   0.000000
      6         17.850370   0.000000
      7         23.953361   0.000000
      8         24.014204   0.000000
 
  0.5000000E+00  0.3000000E+00  0.1311331E-14  0.2400000E-01
      1         -5.385753   1.000000
      2         -0.459119   1.000000
      3          2.252128   1.000000
      4          4.417162   1.000000
      5         15.382239   0.000000
      6         19.394480   0.000000
      7         23.930999   0.000000
      8         24.399245   0.000000
 
 -0.4000000E+00  0.3000000E+00  0.1248716E-14  0.2400000E-01
      1         -4.025748   1.000000
      2         -1.901472   1.000000
      3          1.099682   1.000000
      4          4.879001   1.000000
      5         15.962540   0.000000
      6         22.438311   0.000000
      7         23.087597   0.000000
      8         24.481793   0.000000
 
 -0.3000000E+00  0.3000000E+00  0.1270508E-14  0.1200000E-01
      1         -5.469394   1.000000
      2         -0.366777   1.000000
      3          0.899703   1.000000
      4          5.735100   1.000000
      5         16.806871   0.000000
      6         21.580804   0.000000
      7         24.000125   0.000000
      8         24.399388   0.000000
 
  0.4000000E+00  0.4000000E+00  0.1238198E-14  0.6000000E-02
      1         -5.998412   1.000000
      2          0.347796   1.000000
      3          3.835502   1.000000
      4          3.835502   1.000000
      5         13.990711   0.000000
      6         16.033310   0.000000
      7         25.563117   0.000000
      8         25.563118   0.000000
 
  0.5000000E+00  0.4000000E+00  0.1219232E-14  0.2400000E-01
      1         -4.412245   1.000000
      2         -1.291367   1.000000
      3          2.720902   1.000000
      4          3.718543   1.000000
      5         14.663411   0.000000
      6         16.135402   0.000000
      7         25.940408   0.000000
      8         26.131116   0.000000
 
 -0.4000000E+00  0.4000000E+00  0.1231745E-14  0.1200000E-01
      1         -2.941179   1.000000
      2         -2.332633   1.000000
      3          0.984095   1.000000
      4          4.083937   1.000000
      5         15.175030   0.000000
      6         18.837650   0.000000
      7         25.030851   0.000000
      8         25.885096   0.000000
 
  0.5000000E+00  0.5000000E+00  0.1193213E-14  0.3000000E-02
      1         -2.995918   1.000000
      2         -2.995918   1.000000
      3          3.474811   1.000000
      4          3.474812   1.000000
      5         14.579933   0.000000
      6         14.579933   0.000000
      7         26.697858   0.000000
      8         26.697860   0.000000
 
  0.3000000E+00  0.2000000E+00  0.1000000E+00  0.2400000E-01
      1         -9.906484   1.000000
      2          4.755597   1.000000
      3          5.563089   1.000000
      4          7.898154   1.000000
      5         15.960254   0.000000
      6         19.248501   0.000000
      7         19.837958   0.000000
      8         22.506014   0.000000
 
  0.4000000E+00  0.2000000E+00  0.1000000E+00  0.4800000E-01
      1         -8.560560   1.000000
      2          1.917604   1.000000
      3          4.690727   1.000000
      4          6.999849   1.000000
      5         17.090240   0.000000
      6         19.422566   0.000000
      7         21.086079   0.000000
      8         22.571550   0.000000
 
  0.5000000E+00  0.2000000E+00  0.1000000E+00  0.4800000E-01
      1         -6.767382   1.000000
      2         -1.061213   1.000000
      3          4.453303   1.000000
      4          6.128356   1.000000
      5         17.831564   0.000000
      6         19.162390   0.000000
      7         21.634347   0.000000
      8         23.992858   0.000000
 
 -0.4000000E+00  0.2000000E+00  0.1000000E+00  0.2400000E-01
      1         -5.284855   1.000000
      2         -2.961940   1.000000
      3          4.447185   1.000000
      4          5.742556   1.000000
      5         18.021134   0.000000
      6         19.016793   0.000000
      7         21.794031   0.000000
      8         25.142602   0.000000
 
  0.4000000E+00  0.3000000E+00  0.1000000E+00  0.2400000E-01
      1         -8.109369   1.000000
      2          2.716070   1.000000
      3          3.967373   1.000000
      4          5.450049   1.000000
      5         15.529597   0.000000
      6         19.609823   0.000000
      7         21.678930   0.000000
      8         22.990717   0.000000
 
  0.5000000E+00  0.3000000E+00  0.1000000E+00  0.4800000E-01
      1         -6.473999   1.000000
      2          0.368428   1.000000
      3          3.080578   1.000000
      4          4.605856   1.000000
      5         16.667216   0.000000
      6         20.125921   0.000000
      7         21.673173   0.000000
      8         24.076728   0.000000
 
 -0.4000000E+00  0.3000000E+00  0.1000000E+00  0.4800000E-01
      1         -4.676846   1.000000
      2         -1.908601   1.000000
      3          2.436279   1.000000
      4          4.439823   1.000000
      5         17.278708   0.000000
      6         20.861741   0.000000
      7         22.810786   0.000000
      8         24.245562   0.000000
 
 -0.3000000E+00  0.3000000E+00  0.1000000E+00  0.4800000E-01
      1         -5.253879   1.000000
      2         -1.181966   1.000000
      3          1.966323   1.000000
      4          5.015224   1.000000
      5         17.922412   0.000000
      6         20.169938   0.000000
      7         23.358057   0.000000
      8         24.410932   0.000000
 
 -0.2000000E+00  0.3000000E+00  0.1000000E+00  0.2400000E-01
      1         -7.080936   1.000000
      2          1.104883   1.000000
      3          2.271924   1.000000
      4          6.003580   1.000000
      5         18.715062   0.000000
      6         18.768874   0.000000
      7         22.480310   0.000000
      8         23.164420   0.000000
 
  0.5000000E+00  0.4000000E+00  0.1000000E+00  0.2400000E-01
      1         -5.680236   1.000000
      2          0.256941   1.000000
      3          2.987055   1.000000
      4          3.480852   1.000000
      5         15.462089   0.000000
      6         17.333621   0.000000
      7         24.147890   0.000000
      8         25.504880   0.000000
 
 -0.4000000E+00  0.4000000E+00  0.1000000E+00  0.4800000E-01
      1         -3.903182   1.000000
      2         -1.288088   1.000000
      3          1.419516   1.000000
      4          3.356960   1.000000
      5         16.433893   0.000000
      6         19.082757   0.000000
      7         23.792568   0.000000
      8         25.388957   0.000000
 
 -0.3000000E+00  0.4000000E+00  0.1000000E+00  0.2400000E-01
      1         -3.604886   1.000000
      2         -1.460873   1.000000
      3          0.442349   1.000000
      4          3.976036   1.000000
      5         17.056101   0.000000
      6         22.145545   0.000000
      7         22.843916   0.000000
      8         24.170816   0.000000
 
 -0.4000000E+00  0.5000000E+00  0.1000000E+00  0.1200000E-01
      1         -2.769173   1.000000
      2         -2.769173   1.000000
      3          2.761643   1.000000
      4          2.761643   1.000000
      5         15.997698   0.000000
      6         15.997698   0.000000
      7         25.924063   0.000000
      8         25.924064   0.000000
 
 -0.4000000E+00  0.4000000E+00  0.2000000E+00  0.2400000E-01
      1         -4.783786   1.000000
      2         -0.384539   1.000000
      3          1.444793   1.000000
      4          3.390921   1.000000
      5         18.796450   0.000000
      6         19.688707   0.000000
      7         21.631053   0.000000
      8         24.976249   0.000000
 
 -0.3000000E+00  0.4000000E+00  0.2000000E+00  0.2400000E-01
      1         -3.407322   1.000000
      2         -1.598534   1.000000
      3          1.130234   1.000000
      4          2.806227   1.000000
      5         19.283294   0.000000
      6         20.404910   0.000000
      7         22.886501   0.000000
      8         23.113356   0.000000
 
 -0.3000000E+00  0.5000000E+00  0.2000000E+00  0.1200000E-01
      1         -2.297766   1.000000
      2         -2.297766   1.000000
      3          1.637657   1.000000
      4          1.637658   1.000000
      5         19.215280   0.000000
      6         19.215281   0.000000
      7         23.369024   0.000000
      8         23.369025   0.000000
