real-time non-blocking time  (microseconds, -R) unlimited
core file size              (blocks, -c) unlimited
data seg size               (kbytes, -d) unlimited
scheduling priority                 (-e) 0
file size                   (blocks, -f) unlimited
pending signals                     (-i) 509951
max locked memory           (kbytes, -l) unlimited
max memory size             (kbytes, -m) 117440512
open files                          (-n) 1024
pipe size                (512 bytes, -p) 8
POSIX message queues         (bytes, -q) 819200
real-time priority                  (-r) 0
stack size                  (kbytes, -s) unlimited
cpu time                   (seconds, -t) unlimited
max user processes                  (-u) 125621
virtual memory              (kbytes, -v) unlimited
file locks                          (-x) unlimited
 running   28 mpi-ranks, with    1 threads/rank, on    1 nodes
 distrk:  each k-point on   28 cores,    1 groups
 distr:  one band on    7 cores,    4 groups
 vasp.6.5.1 10Mar25 (build Feb 13 2026 23:13:13) complex                        
  
 POSCAR found type information on POSCAR C 
 POSCAR found :  1 types and       2 ions
 scaLAPACK will be used
 LDA part: xc-table for (Slater+PW92), standard interpolation
 POSCAR, INCAR and KPOINTS ok, starting setup
 FFT: planning ... GRIDC
 FFT: planning ... GRID_SOFT
 FFT: planning ... GRID
 WAVECAR not read
 entering main loop
       N       E                     dE             d eps       ncg     rms          rms(c)
DAV:   1     0.945903538222E+01    0.94590E+01   -0.65028E+03   752   0.140E+03
DAV:   2    -0.186597175658E+02   -0.28119E+02   -0.26737E+02  1184   0.144E+02
DAV:   3    -0.188450235734E+02   -0.18531E+00   -0.18531E+00   824   0.160E+01
DAV:   4    -0.188452757099E+02   -0.25214E-03   -0.25214E-03  1072   0.610E-01
DAV:   5    -0.188452757638E+02   -0.53948E-07   -0.53947E-07   792   0.737E-03    0.558E+00
RMM:   6    -0.183576142982E+02    0.48766E+00   -0.27931E-01   764   0.472E+00    0.331E+00
RMM:   7    -0.181937396825E+02    0.16387E+00   -0.43234E-01   837   0.626E+00    0.729E-01
RMM:   8    -0.181974392880E+02   -0.36996E-02   -0.23041E-02   784   0.182E+00    0.117E-01
RMM:   9    -0.181976505855E+02   -0.21130E-03   -0.36293E-03   832   0.666E-01    0.514E-02
RMM:  10    -0.181976770426E+02   -0.26457E-04   -0.41265E-04   788   0.229E-01    0.206E-02
RMM:  11    -0.181976806655E+02   -0.36229E-05   -0.59836E-05   841   0.866E-02    0.523E-03
RMM:  12    -0.181976817024E+02   -0.10369E-05   -0.78220E-06   759   0.332E-02    0.600E-03
RMM:  13    -0.181976819593E+02   -0.25691E-06   -0.60474E-07   541   0.893E-03
   1 F= -.18197682E+02 E0= -.18197682E+02  d E =-.759948E-10
