<?xml version="1.0" encoding="ISO-8859-1"?>
<modeling>
 <generator>
  <i name="program" type="string">vasp </i>
  <i name="version" type="string">6.5.1  </i>
  <i name="subversion" type="string">10Mar25 (build Feb 13 2026 23:13:13) complex                          parallel </i>
  <i name="platform" type="string">LinuxIFC </i>
  <i name="date" type="string">2026 06 23 </i>
  <i name="time" type="string">04:04:29 </i>
 </generator>
 <incar>
  <i type="string" name="PREC">Normal</i>
  <i type="string" name="ALGO">Fast</i>
  <i type="int" name="ISPIN">     1</i>
  <i type="int" name="NELMIN">     4</i>
  <i name="EDIFF">      0.00000100</i>
  <i type="int" name="NSW">     0</i>
  <i name="ENCUT">    800.00000000</i>
  <i type="logical" name="LREAL"> F  </i>
  <i type="int" name="ISMEAR">     0</i>
  <i name="SIGMA">      0.20000000</i>
  <i type="logical" name="LWAVE"> F  </i>
 </incar>
 <primitive_cell>
  <structure name="primitive_cell" >
   <crystal>
    <varray name="basis" >
     <v>       2.51730013       0.00000000       0.00000000 </v>
     <v>       1.25865006       2.18004586       0.00000000 </v>
     <v>       1.25865006       0.72668195       2.05536695 </v>
    </varray>
    <i name="volume">     11.27950384 </i>
    <varray name="rec_basis" >
     <v>       0.39725100      -0.22935297      -0.16217704 </v>
     <v>       0.00000000       0.45870595      -0.16217704 </v>
     <v>       0.00000000       0.00000000       0.48653113 </v>
    </varray>
   </crystal>
   <varray name="positions" >
    <v>       0.25000000       0.25000000       0.25000000 </v>
    <v>       0.00000000       0.00000000       0.00000000 </v>
   </varray>
  </structure>
  <varray name="primitive_index" >
   <v type="int" >        1 </v>
   <v type="int" >        2 </v>
  </varray>
 </primitive_cell>
 <kpoints>
  <generation param="Gamma">
   <v type="int" name="divisions">      10       10       10 </v>
   <v name="usershift">      0.00000000       0.00000000       0.00000000 </v>
   <v name="genvec1">      0.10000000      -0.00000000      -0.00000000 </v>
   <v name="genvec2">      0.00000000       0.10000000      -0.00000000 </v>
   <v name="genvec3">      0.00000000       0.00000000       0.10000000 </v>
   <v name="shift">      0.00000000       0.00000000       0.00000000 </v>
  </generation>
  <varray name="kpointlist" >
   <v>       0.00000000       0.00000000       0.00000000 </v>
   <v>       0.10000000       0.00000000       0.00000000 </v>
   <v>       0.20000000       0.00000000       0.00000000 </v>
   <v>       0.30000000       0.00000000       0.00000000 </v>
   <v>       0.40000000       0.00000000       0.00000000 </v>
   <v>       0.50000000       0.00000000       0.00000000 </v>
   <v>       0.10000000       0.10000000       0.00000000 </v>
   <v>       0.20000000       0.10000000       0.00000000 </v>
   <v>       0.30000000       0.10000000       0.00000000 </v>
   <v>       0.40000000       0.10000000       0.00000000 </v>
   <v>       0.50000000       0.10000000       0.00000000 </v>
   <v>      -0.40000000       0.10000000       0.00000000 </v>
   <v>      -0.30000000       0.10000000       0.00000000 </v>
   <v>      -0.20000000       0.10000000       0.00000000 </v>
   <v>      -0.10000000       0.10000000       0.00000000 </v>
   <v>       0.20000000       0.20000000       0.00000000 </v>
   <v>       0.30000000       0.20000000       0.00000000 </v>
   <v>       0.40000000       0.20000000       0.00000000 </v>
   <v>       0.50000000       0.20000000       0.00000000 </v>
   <v>      -0.40000000       0.20000000       0.00000000 </v>
   <v>      -0.30000000       0.20000000       0.00000000 </v>
   <v>      -0.20000000       0.20000000       0.00000000 </v>
   <v>       0.30000000       0.30000000       0.00000000 </v>
   <v>       0.40000000       0.30000000       0.00000000 </v>
   <v>       0.50000000       0.30000000       0.00000000 </v>
   <v>      -0.40000000       0.30000000       0.00000000 </v>
   <v>      -0.30000000       0.30000000       0.00000000 </v>
   <v>       0.40000000       0.40000000       0.00000000 </v>
   <v>       0.50000000       0.40000000       0.00000000 </v>
   <v>      -0.40000000       0.40000000       0.00000000 </v>
   <v>       0.50000000       0.50000000       0.00000000 </v>
   <v>       0.30000000       0.20000000       0.10000000 </v>
   <v>       0.40000000       0.20000000       0.10000000 </v>
   <v>       0.50000000       0.20000000       0.10000000 </v>
   <v>      -0.40000000       0.20000000       0.10000000 </v>
   <v>       0.40000000       0.30000000       0.10000000 </v>
   <v>       0.50000000       0.30000000       0.10000000 </v>
   <v>      -0.40000000       0.30000000       0.10000000 </v>
   <v>      -0.30000000       0.30000000       0.10000000 </v>
   <v>      -0.20000000       0.30000000       0.10000000 </v>
   <v>       0.50000000       0.40000000       0.10000000 </v>
   <v>      -0.40000000       0.40000000       0.10000000 </v>
   <v>      -0.30000000       0.40000000       0.10000000 </v>
   <v>      -0.40000000       0.50000000       0.10000000 </v>
   <v>      -0.40000000       0.40000000       0.20000000 </v>
   <v>      -0.30000000       0.40000000       0.20000000 </v>
   <v>      -0.30000000       0.50000000       0.20000000 </v>
  </varray>
  <varray name="weights" >
   <v>       0.00100000 </v>
   <v>       0.00800000 </v>
   <v>       0.00800000 </v>
   <v>       0.00800000 </v>
   <v>       0.00800000 </v>
   <v>       0.00400000 </v>
   <v>       0.00600000 </v>
   <v>       0.02400000 </v>
   <v>       0.02400000 </v>
   <v>       0.02400000 </v>
   <v>       0.02400000 </v>
   <v>       0.02400000 </v>
   <v>       0.02400000 </v>
   <v>       0.02400000 </v>
   <v>       0.01200000 </v>
   <v>       0.00600000 </v>
   <v>       0.02400000 </v>
   <v>       0.02400000 </v>
   <v>       0.02400000 </v>
   <v>       0.02400000 </v>
   <v>       0.02400000 </v>
   <v>       0.01200000 </v>
   <v>       0.00600000 </v>
   <v>       0.02400000 </v>
   <v>       0.02400000 </v>
   <v>       0.02400000 </v>
   <v>       0.01200000 </v>
   <v>       0.00600000 </v>
   <v>       0.02400000 </v>
   <v>       0.01200000 </v>
   <v>       0.00300000 </v>
   <v>       0.02400000 </v>
   <v>       0.04800000 </v>
   <v>       0.04800000 </v>
   <v>       0.02400000 </v>
   <v>       0.02400000 </v>
   <v>       0.04800000 </v>
   <v>       0.04800000 </v>
   <v>       0.04800000 </v>
   <v>       0.02400000 </v>
   <v>       0.02400000 </v>
   <v>       0.04800000 </v>
   <v>       0.02400000 </v>
   <v>       0.01200000 </v>
   <v>       0.02400000 </v>
   <v>       0.02400000 </v>
   <v>       0.01200000 </v>
  </varray>
 </kpoints>
 <parameters>
  <separator name="general" >
   <i type="string" name="SYSTEM">unknown system</i>
   <i type="logical" name="LCOMPAT"> F  </i>
  </separator>
  <separator name="electronic" >
   <i type="string" name="PREC">normal</i>
   <i name="ENMAX">    800.00000000</i>
   <i name="ENAUG">    644.87300000</i>
   <i name="EDIFF">      0.00000100</i>
   <i type="int" name="IALGO">    68</i>
   <i type="int" name="IWAVPR">    10</i>
   <i type="int" name="NBANDS">     8</i>
   <i type="int" name="NBANDSLOW">    -1</i>
   <i type="int" name="NBANDSHIGH">    -1</i>
   <i name="NELECT">      8.00000000</i>
   <i type="int" name="TURBO">     0</i>
   <i type="int" name="IRESTART">     0</i>
   <i type="int" name="NREBOOT">     0</i>
   <i type="int" name="NMIN">     0</i>
   <i name="EREF">      0.00000000</i>
   <separator name="electronic smearing" >
    <i type="int" name="ISMEAR">     0</i>
    <i name="SIGMA">      0.20000000</i>
    <i name="KSPACING">      0.50000000</i>
    <i type="logical" name="KGAMMA"> T  </i>
    <i type="logical" name="KBLOWUP"> T  </i>
   </separator>
   <separator name="electronic projectors" >
    <i type="logical" name="LREAL"> F  </i>
    <v name="ROPT">      0.00000000</v>
    <i type="int" name="LMAXPAW">  -100</i>
    <i type="int" name="LMAXMIX">     2</i>
    <i type="logical" name="NLSPLINE"> F  </i>
   </separator>
   <separator name="electronic startup" >
    <i type="int" name="ISTART">     0</i>
    <i type="int" name="ICHARG">     2</i>
    <i type="int" name="INIWAV">     1</i>
   </separator>
   <separator name="electronic spin" >
    <i type="int" name="ISPIN">     1</i>
    <i type="logical" name="LNONCOLLINEAR"> F  </i>
    <v name="MAGMOM">      1.00000000      1.00000000</v>
    <i name="NUPDOWN">     -1.00000000</i>
    <i type="logical" name="LSORBIT"> F  </i>
    <v name="SAXIS">      0.00000000      0.00000000      1.00000000</v>
    <i type="logical" name="LSPIRAL"> F  </i>
    <v name="QSPIRAL">      0.00000000      0.00000000      0.00000000</v>
    <i type="logical" name="LZEROZ"> F  </i>
   </separator>
   <separator name="electronic exchange-correlation" >
    <i type="logical" name="LASPH"> F  </i>
   </separator>
   <separator name="electronic convergence" >
    <i type="int" name="NELM">    60</i>
    <i type="int" name="NELMDL">    -5</i>
    <i type="int" name="NELMIN">     4</i>
    <i name="ENINI">    800.00000000</i>
    <separator name="electronic convergence detail" >
     <i type="logical" name="LDIAG"> T  </i>
     <i type="logical" name="LSUBROT"> F  </i>
     <i type="logical" name="LROBUST"> F  </i>
     <i type="int" name="ISEARCH">     0</i>
     <i name="WEIMIN">      0.00000000</i>
     <i name="EBREAK">      0.00000003</i>
     <i name="DEPER">      0.30000000</i>
     <i type="int" name="NRMM">     4</i>
     <i name="TIME">      0.40000000</i>
    </separator>
   </separator>
   <separator name="electronic mixer" >
    <i name="AMIX">      0.40000000</i>
    <i name="BMIX">      1.00000000</i>
    <i name="AMIN">      0.10000000</i>
    <i name="AMIX_MAG">      1.60000000</i>
    <i name="BMIX_MAG">      1.00000000</i>
    <separator name="electronic mixer details" >
     <i type="int" name="IMIX">     4</i>
     <i type="logical" name="MIXFIRST"> F  </i>
     <i type="int" name="MAXMIX">   -45</i>
     <i name="WC">    100.00000000</i>
     <i type="int" name="INIMIX">     1</i>
     <i type="int" name="MIXPRE">     1</i>
     <i type="int" name="MREMOVE">     5</i>
    </separator>
   </separator>
   <separator name="electronic dipolcorrection" >
    <i type="logical" name="LDIPOL"> F  </i>
    <i type="logical" name="LMONO"> F  </i>
    <i type="int" name="IDIPOL">     0</i>
    <i name="EPSILON">      1.00000000</i>
    <v name="DIPOL">   -100.00000000   -100.00000000   -100.00000000</v>
    <i name="EFIELD">      0.00000000</i>
    <i type="logical" name="LVACPOTAV"> F  </i>
   </separator>
  </separator>
  <separator name="grids" >
   <i type="int" name="NGX">    18</i>
   <i type="int" name="NGY">    18</i>
   <i type="int" name="NGZ">    18</i>
   <i type="int" name="NGXF">    36</i>
   <i type="int" name="NGYF">    36</i>
   <i type="int" name="NGZF">    36</i>
   <i type="logical" name="ADDGRID"> F  </i>
  </separator>
  <separator name="ionic" >
   <i type="int" name="NSW">     0</i>
   <i type="int" name="IBRION">    -1</i>
   <i type="int" name="MDALGO">     0</i>
   <i type="int" name="ISIF">     2</i>
   <i name="PSTRESS">      0.00000000</i>
   <i name="EDIFFG">      0.00001000</i>
   <i type="int" name="NFREE">     0</i>
   <i name="POTIM">      0.50000000</i>
   <i name="SMASS">     -3.00000000</i>
   <i name="SCALEE">      1.00000000</i>
  </separator>
  <separator name="ionic md" >
   <i name="TEBEG">      0.00010000</i>
   <i name="TEEND">      0.00010000</i>
   <i type="int" name="NBLOCK">     1</i>
   <i type="int" name="KBLOCK">     1</i>
   <i type="int" name="NPACO">   256</i>
   <i name="APACO">     10.00000000</i>
  </separator>
  <separator name="symmetry" >
   <i type="int" name="ISYM">     2</i>
   <i name="SYMPREC">      0.00001000</i>
  </separator>
  <separator name="dos" >
   <i type="int" name="LORBIT">     0</i>
   <v name="RWIGS">     -1.00000000</v>
   <i type="int" name="NEDOS">   301</i>
   <i name="EMIN">     10.00000000</i>
   <i name="EMAX">    -10.00000000</i>
   <i name="EFERMI">      0.00000000</i>
  </separator>
  <separator name="writing" >
   <i type="int" name="NWRITE">     2</i>
   <i type="logical" name="LWAVE"> F  </i>
   <i type="logical" name="LDOWNSAMPLE"> F  </i>
   <i type="logical" name="LCHARG"> T  </i>
   <i type="logical" name="LPARD"> F  </i>
   <i type="logical" name="LVTOT"> F  </i>
   <i type="logical" name="LVHAR"> F  </i>
   <i type="logical" name="LELF"> F  </i>
   <i type="logical" name="LOPTICS"> F  </i>
   <v name="STM">      0.00000000      0.00000000      0.00000000      0.00000000      0.00000000      0.00000000      0.00000000</v>
  </separator>
  <separator name="performance" >
   <i type="int" name="NPAR">     4</i>
   <i type="int" name="NSIM">     4</i>
   <i type="int" name="NBLK">    -1</i>
   <i type="logical" name="LPLANE"> T  </i>
   <i type="logical" name="LSCALAPACK"> T  </i>
   <i type="logical" name="LSCAAWARE"> F  </i>
   <i type="logical" name="LSCALU"> F  </i>
   <i type="logical" name="LASYNC"> F  </i>
   <i type="logical" name="LORBITALREAL"> F  </i>
  </separator>
  <separator name="miscellaneous" >
   <i type="int" name="IDIOT">     3</i>
   <i type="int" name="PHON_NSTRUCT">    -1</i>
   <i type="logical" name="LMUSIC"> F  </i>
   <v name="POMASS">     12.01100000</v>
   <v name="DARWINR">      0.00000000</v>
   <v name="DARWINV">      1.00000000</v>
   <i type="logical" name="LCORR"> T  </i>
  </separator>
  <i type="logical" name="GGA_COMPAT"> T  </i>
  <i type="logical" name="LBERRY"> F  </i>
  <i type="int" name="ICORELEVEL">     0</i>
  <i type="logical" name="LDAU"> F  </i>
  <i type="int" name="I_CONSTRAINED_M">     0</i>
  <separator name="electronic exchange-correlation" >
   <i type="string" name="GGA    ">PE</i>
   <i type="string" name="XC_C">1</i>
   <i type="int" name="VOSKOWN">     0</i>
   <i type="logical" name="LHFCALC"> F  </i>
   <i type="string" name="PRECFOCK"></i>
   <i type="logical" name="LSYMGRAD"> F  </i>
   <i type="logical" name="LHFONE"> F  </i>
   <i type="logical" name="LRHFCALC"> F  </i>
   <i type="logical" name="LTHOMAS"> F  </i>
   <i type="logical" name="LMODELHF"> F  </i>
   <i type="logical" name="LFOCKACE"> F  </i>
   <i name="ENCUT4O">     -1.00000000</i>
   <i type="int" name="EXXOEP">     0</i>
   <i type="int" name="FOURORBIT">     0</i>
   <i name="AEXX">      0.00000000</i>
   <i name="HFALPHA">      0.00000000</i>
   <i name="MCALPHA">      0.00000000</i>
   <i name="ALDAX">      1.00000000</i>
   <i name="AGGAX">      1.00000000</i>
   <i name="AMGGAX">      1.00000000</i>
   <i name="ALDAC">      1.00000000</i>
   <i name="AGGAC">      1.00000000</i>
   <i name="AMGGAC">      1.00000000</i>
   <i type="int" name="NKREDX">     1</i>
   <i type="int" name="NKREDY">     1</i>
   <i type="int" name="NKREDZ">     1</i>
   <i type="logical" name="SHIFTRED"> F  </i>
   <i type="logical" name="ODDONLY"> F  </i>
   <i type="logical" name="EVENONLY"> F  </i>
   <i type="int" name="LMAXFOCK">     0</i>
   <i type="int" name="NMAXFOCKAE">     0</i>
   <i type="logical" name="LFOCKAEDFT"> F  </i>
   <i name="HFSCREEN">      0.00000000</i>
   <i name="HFSCREENC">      0.00000000</i>
   <i type="int" name="NBANDSGWLOW">     0</i>
  </separator>
  <separator name="vdW DFT" >
   <i type="logical" name="LUSE_VDW"> F  </i>
   <i type="int" name="IVDW_NL">    -1</i>
   <i type="logical" name="LSPIN_VDW"> F  </i>
   <i name="ZAB_VDW">     -0.84910000</i>
   <i name="GAMMA_VDW">      1.39626340</i>
   <i name="ALPHA_VDW">      0.00000000</i>
   <i name="PARAM1">      0.12340000</i>
   <i name="PARAM2">      1.00000000</i>
   <i name="BPARAM">      6.30000000</i>
   <i name="CPARAM">      0.00930000</i>
  </separator>
  <separator name="model GW" >
   <i type="int" name="MODEL_GW">     0</i>
   <i name="MODEL_EPS0">      3.38385115</i>
   <i name="MODEL_ALPHA">      1.00000000</i>
  </separator>
  <separator name="linear response parameters" >
   <i type="logical" name="LEPSILON"> F  </i>
   <i type="logical" name="LRPA"> F  </i>
   <i type="logical" name="LNABLA"> F  </i>
   <i type="logical" name="LVEL"> F  </i>
   <i name="CSHIFT">      0.10000000</i>
   <i name="OMEGAMAX">     -1.00000000</i>
   <i name="DEG_THRESHOLD">      0.00200000</i>
   <i name="RTIME">     -0.10000000</i>
   <i name="WPLASMAI">      0.00000000</i>
   <v name="DFIELD">      0.00000000      0.00000000      0.00000000</v>
   <v name="WPLASMA">      0.00000000      0.00000000      0.00000000      0.00000000      0.00000000      0.00000000      0.00000000      0.00000000      0.00000000</v>
  </separator>
  <separator name="orbital magnetization" >
   <i type="logical" name="NUCIND"> F  </i>
   <v name="MAGPOS">      0.00000000      0.00000000      0.00000000</v>
   <i type="logical" name="LNICSALL"> T  </i>
   <i type="logical" name="ORBITALMAG"> F  </i>
   <i type="logical" name="LMAGBLOCH"> F  </i>
   <i type="logical" name="LCHIMAG"> F  </i>
   <i type="logical" name="LGAUGE"> T  </i>
   <i type="int" name="MAGATOM">     0</i>
   <v name="MAGDIPOL">      0.00000000      0.00000000      0.00000000</v>
   <v name="AVECCONST">      0.00000000      0.00000000      0.00000000</v>
  </separator>
  <separator name="response functions" >
   <i type="logical" name="LALL_IN_ONE"> F  </i>
   <i type="int" name="IALL_IN_ONE">    -1</i>
   <i type="int" name="NBANDS_WAVE">    -1</i>
   <i type="logical" name="LFINITE_TEMPERATURE"> F  </i>
   <i type="logical" name="LADDER"> F  </i>
   <i type="logical" name="LRPAFORCE"> F  </i>
   <i type="logical" name="LFXC"> F  </i>
   <i type="logical" name="LHARTREE"> T  </i>
   <i type="int" name="IBSE">     2</i>
   <v type="int" name="KPOINT">    -1     0     0     0</v>
   <i type="logical" name="LTCTC"> F  </i>
   <i type="logical" name="LTCTE"> F  </i>
   <i type="logical" name="LTETE"> F  </i>
   <i type="logical" name="LTRIPLET"> F  </i>
   <i type="logical" name="LFXCEPS"> F  </i>
   <i type="logical" name="LFXHEG"> F  </i>
   <i type="int" name="NATURALO">     2</i>
   <i type="logical" name="LHOLEGF"> F  </i>
   <i type="logical" name="L2ORDER"> F  </i>
   <i type="logical" name="LDMP1"> F  </i>
   <i type="logical" name="LMP2LT"> F  </i>
   <i type="logical" name="LSMP2LT"> F  </i>
   <i type="logical" name="LGWLF"> F  </i>
   <i name="ENCUTGW">     -1.60000002</i>
   <i name="ENCUTGWSOFT">     -1.60000002</i>
   <i name="ENCUTLF">     -1.00000000</i>
   <i type="logical" name="ESF_SPLINES"> F  </i>
   <i name="ESF_CONV">      0.01000000</i>
   <i type="int" name="ESF_NINTER">    15</i>
   <i type="int" name="LMAXMP2">    -1</i>
   <i name="SCISSOR">      0.00000000</i>
   <i type="int" name="NOMEGA">     0</i>
   <i type="int" name="NOMEGAR">     0</i>
   <i type="int" name="NBANDSGW">    -1</i>
   <i type="int" name="NBANDSO">    -1</i>
   <i type="int" name="NBANDSV">    -1</i>
   <i type="int" name="NELMGW">     1</i>
   <i type="int" name="NELMHF">     1</i>
   <i type="int" name="DIM">     3</i>
   <i type="int" name="IESPILON">     4</i>
   <i type="int" name="ANTIRES">     0</i>
   <i name="OMEGAMAX">    -30.00000000</i>
   <i name="OMEGAMIN">    -30.00000000</i>
   <i name="OMEGATL">   -200.00000000</i>
   <i type="int" name="OMEGAGRID">     0</i>
   <i name="CSHIFT">     -0.10000000</i>
   <i type="logical" name="LSELFENERGY"> F  </i>
   <i type="logical" name="LSPECTRAL"> F  </i>
   <i type="logical" name="LSPECTRALGW"> F  </i>
   <i type="logical" name="LSINGLES"> F  </i>
   <i type="logical" name="LFERMIGW"> F  </i>
   <i type="logical" name="ODDONLYGW"> F  </i>
   <i type="logical" name="EVENONLYGW"> F  </i>
   <i type="int" name="NKREDLFX">     1</i>
   <i type="int" name="NKREDLFY">     1</i>
   <i type="int" name="NKREDLFZ">     1</i>
   <i type="int" name="MAXMEM">  2800</i>
   <i type="int" name="TELESCOPE">     0</i>
   <i type="int" name="NTAUPAR">    -1</i>
   <i type="int" name="NOMEGAPAR">    -1</i>
   <i name="DAMP_NEWTON">      0.80000001</i>
   <i name="LAMBDA">      1.00000000</i>
  </separator>
  <separator name="External order field" >
   <i name="OFIELD_KAPPA">      0.00000000</i>
   <v name="OFIELD_K">      0.00000000      0.00000000      0.00000000</v>
   <i name="OFIELD_Q6_NEAR">      0.00000000</i>
   <i name="OFIELD_Q6_FAR">      0.00000000</i>
   <i name="OFIELD_A">      0.00000000</i>
  </separator>
  <separator name="optional k-points parameters" >
   <i type="int" name="KPOINTS_OPT_MODE">     1</i>
   <i type="logical" name="LKPOINTS_OPT"> F  </i>
  </separator>
 </parameters>
 <atominfo>
  <atoms>       2 </atoms>
  <types>       1 </types>
  <array name="atoms" >
   <dimension dim="1">ion</dimension>
   <field type="string">element</field>
   <field type="int">atomtype</field>
   <set>
    <rc><c>C </c><c>   1</c></rc>
    <rc><c>C </c><c>   1</c></rc>
   </set>
  </array>
  <array name="atomtypes" >
   <dimension dim="1">type</dimension>
   <field type="int">atomspertype</field>
   <field type="string">element</field>
   <field>mass</field>
   <field>valence</field>
   <field type="string">pseudopotential</field>
   <set>
    <rc><c>   2</c><c>C </c><c>     12.01100000</c><c>      4.00000000</c><c>  PAW_PBE C 08Apr2002                   </c></rc>
   </set>
  </array>
 </atominfo>
 <structure name="initialpos" >
  <crystal>
   <varray name="basis" >
    <v>       2.51730013       0.00000000       0.00000000 </v>
    <v>       1.25865006       2.18004586       0.00000000 </v>
    <v>       1.25865006       0.72668195       2.05536695 </v>
   </varray>
   <i name="volume">     11.27950384 </i>
   <varray name="rec_basis" >
    <v>       0.39725100      -0.22935297      -0.16217704 </v>
    <v>       0.00000000       0.45870595      -0.16217704 </v>
    <v>       0.00000000       0.00000000       0.48653113 </v>
   </varray>
  </crystal>
  <varray name="positions" >
   <v>       0.25000000       0.25000000       0.25000000 </v>
   <v>       0.00000000       0.00000000       0.00000000 </v>
  </varray>
 </structure>
 <calculation>
  <scstep>
   <time name="dav">    0.06    0.06</time>
   <time name="total">    0.06    0.07</time>
   <energy>
    <i name="alphaZ">     29.13132251 </i>
    <i name="ewald">   -348.62358043 </i>
    <i name="hartreedc">    -17.48913657 </i>
    <i name="XCdc">     27.44127266 </i>
    <i name="pawpsdc">    217.04409276 </i>
    <i name="pawaedc">   -218.18290438 </i>
    <i name="eentropy">     -0.00847489 </i>
    <i name="bandstr">     25.83759681 </i>
    <i name="atom">    294.30884690 </i>
    <i name="e_fr_energy">      9.45903538 </i>
    <i name="e_wo_entrp">      9.46751027 </i>
    <i name="e_0_energy">      9.46327283 </i>
   </energy>
  </scstep>
  <scstep>
   <time name="dav">    0.09    0.09</time>
   <time name="total">    0.09    0.09</time>
   <energy>
    <i name="e_fr_energy">    -18.65971757 </i>
    <i name="e_wo_entrp">    -18.65971757 </i>
    <i name="e_0_energy">    -18.65971757 </i>
   </energy>
  </scstep>
  <scstep>
   <time name="dav">    0.06    0.06</time>
   <time name="total">    0.06    0.06</time>
   <energy>
    <i name="e_fr_energy">    -18.84502357 </i>
    <i name="e_wo_entrp">    -18.84502357 </i>
    <i name="e_0_energy">    -18.84502357 </i>
   </energy>
  </scstep>
  <scstep>
   <time name="dav">    0.07    0.07</time>
   <time name="total">    0.07    0.07</time>
   <energy>
    <i name="e_fr_energy">    -18.84527571 </i>
    <i name="e_wo_entrp">    -18.84527571 </i>
    <i name="e_0_energy">    -18.84527571 </i>
   </energy>
  </scstep>
  <scstep>
   <time name="dav">    0.05    0.05</time>
   <time name="total">    0.06    0.06</time>
   <energy>
    <i name="e_fr_energy">    -18.84527576 </i>
    <i name="e_wo_entrp">    -18.84527576 </i>
    <i name="e_0_energy">    -18.84527576 </i>
   </energy>
  </scstep>
  <scstep>
   <time name="diag">    0.04    0.04</time>
   <time name="diis">    0.02    0.02</time>
   <time name="orth">    0.00    0.00</time>
   <time name="total">    0.07    0.07</time>
   <energy>
    <i name="e_fr_energy">    -18.35761430 </i>
    <i name="e_wo_entrp">    -18.35761430 </i>
    <i name="e_0_energy">    -18.35761430 </i>
   </energy>
  </scstep>
  <scstep>
   <time name="diag">    0.03    0.03</time>
   <time name="diis">    0.02    0.02</time>
   <time name="orth">    0.00    0.00</time>
   <time name="total">    0.07    0.07</time>
   <energy>
    <i name="e_fr_energy">    -18.19373968 </i>
    <i name="e_wo_entrp">    -18.19373968 </i>
    <i name="e_0_energy">    -18.19373968 </i>
   </energy>
  </scstep>
  <scstep>
   <time name="diag">    0.03    0.03</time>
   <time name="diis">    0.02    0.02</time>
   <time name="orth">    0.00    0.00</time>
   <time name="total">    0.06    0.06</time>
   <energy>
    <i name="e_fr_energy">    -18.19743929 </i>
    <i name="e_wo_entrp">    -18.19743929 </i>
    <i name="e_0_energy">    -18.19743929 </i>
   </energy>
  </scstep>
  <scstep>
   <time name="diag">    0.03    0.03</time>
   <time name="diis">    0.02    0.02</time>
   <time name="orth">    0.00    0.00</time>
   <time name="total">    0.07    0.07</time>
   <energy>
    <i name="e_fr_energy">    -18.19765059 </i>
    <i name="e_wo_entrp">    -18.19765059 </i>
    <i name="e_0_energy">    -18.19765059 </i>
   </energy>
  </scstep>
  <scstep>
   <time name="diag">    0.03    0.03</time>
   <time name="diis">    0.02    0.02</time>
   <time name="orth">    0.00    0.00</time>
   <time name="total">    0.06    0.06</time>
   <energy>
    <i name="e_fr_energy">    -18.19767704 </i>
    <i name="e_wo_entrp">    -18.19767704 </i>
    <i name="e_0_energy">    -18.19767704 </i>
   </energy>
  </scstep>
  <scstep>
   <time name="diag">    0.03    0.03</time>
   <time name="diis">    0.02    0.02</time>
   <time name="orth">    0.00    0.00</time>
   <time name="total">    0.06    0.06</time>
   <energy>
    <i name="e_fr_energy">    -18.19768067 </i>
    <i name="e_wo_entrp">    -18.19768067 </i>
    <i name="e_0_energy">    -18.19768067 </i>
   </energy>
  </scstep>
  <scstep>
   <time name="diag">    0.03    0.03</time>
   <time name="diis">    0.02    0.02</time>
   <time name="orth">    0.00    0.00</time>
   <time name="total">    0.06    0.06</time>
   <energy>
    <i name="e_fr_energy">    -18.19768170 </i>
    <i name="e_wo_entrp">    -18.19768170 </i>
    <i name="e_0_energy">    -18.19768170 </i>
   </energy>
  </scstep>
  <scstep>
   <time name="diag">    0.03    0.03</time>
   <time name="diis">    0.02    0.02</time>
   <time name="orth">    0.00    0.00</time>
   <time name="total">    0.05    0.05</time>
   <energy>
    <i name="alphaZ">     29.13132251 </i>
    <i name="ewald">   -348.62358043 </i>
    <i name="hartreedc">    -26.32331778 </i>
    <i name="XCdc">     28.24937607 </i>
    <i name="pawpsdc">    771.83385982 </i>
    <i name="pawaedc">   -773.16721992 </i>
    <i name="eentropy">     -0.00000000 </i>
    <i name="bandstr">      6.39303087 </i>
    <i name="atom">    294.30884690 </i>
    <i name="e_fr_energy">    -18.19768196 </i>
    <i name="e_wo_entrp">    -18.19768196 </i>
    <i name="e_0_energy">    -18.19768196 </i>
   </energy>
  </scstep>
  <structure>
   <crystal>
    <varray name="basis" >
     <v>       2.51730013       0.00000000       0.00000000 </v>
     <v>       1.25865006       2.18004586       0.00000000 </v>
     <v>       1.25865006       0.72668195       2.05536695 </v>
    </varray>
    <i name="volume">     11.27950384 </i>
    <varray name="rec_basis" >
     <v>       0.39725100      -0.22935297      -0.16217704 </v>
     <v>       0.00000000       0.45870595      -0.16217704 </v>
     <v>       0.00000000       0.00000000       0.48653113 </v>
    </varray>
   </crystal>
   <varray name="positions" >
    <v>       0.25000000       0.25000000       0.25000000 </v>
    <v>       0.00000000       0.00000000       0.00000000 </v>
   </varray>
  </structure>
  <varray name="forces" >
   <v>      -0.00000000      -0.00000000       0.00000000 </v>
   <v>       0.00000000       0.00000000      -0.00000000 </v>
  </varray>
  <varray name="stress" >
   <v>      43.14812685       0.00000000       0.00000000 </v>
   <v>       0.00000000      43.14812685      -0.00000000 </v>
   <v>       0.00000000      -0.00000000      43.14812684 </v>
  </varray>
  <energy>
   <i name="e_fr_energy">    -18.19768196 </i>
   <i name="e_wo_entrp">    -18.19768196 </i>
   <i name="e_0_energy">    -18.19768196 </i>
  </energy>
  <time name="totalsc">    0.91    0.93</time>
  <eigenvalues>
   <array>
    <dimension dim="1">band</dimension>
    <dimension dim="2">kpoint</dimension>
    <dimension dim="3">spin</dimension>
    <field>eigene</field>
    <field>occ</field>
    <set>
     <set comment="spin 1">
      <set comment="kpoint 1">
       <r>  -11.7433    1.0000 </r>
       <r>    9.8074    1.0000 </r>
       <r>    9.8074    1.0000 </r>
       <r>    9.8074    1.0000 </r>
       <r>   15.4141    0.0000 </r>
       <r>   15.4141    0.0000 </r>
       <r>   15.4141    0.0000 </r>
       <r>   23.2692    0.0000 </r>
      </set>
      <set comment="kpoint 2">
       <r>  -11.4655    1.0000 </r>
       <r>    8.1244    1.0000 </r>
       <r>    9.3580    1.0000 </r>
       <r>    9.3580    1.0000 </r>
       <r>   16.0039    0.0000 </r>
       <r>   16.0040    0.0000 </r>
       <r>   16.3668    0.0000 </r>
       <r>   23.4996    0.0000 </r>
      </set>
      <set comment="kpoint 3">
       <r>  -10.6372    1.0000 </r>
       <r>    4.9067    1.0000 </r>
       <r>    8.4770    1.0000 </r>
       <r>    8.4770    1.0000 </r>
       <r>   17.1403    0.0000 </r>
       <r>   17.1403    0.0000 </r>
       <r>   17.5921    0.0000 </r>
       <r>   24.1381    0.0000 </r>
      </set>
      <set comment="kpoint 4">
       <r>   -9.2782    1.0000 </r>
       <r>    1.4951    1.0000 </r>
       <r>    7.6824    1.0000 </r>
       <r>    7.6824    1.0000 </r>
       <r>   17.9650    0.0000 </r>
       <r>   17.9650    0.0000 </r>
       <r>   18.3001    0.0000 </r>
       <r>   24.9158    0.0000 </r>
      </set>
      <set comment="kpoint 5">
       <r>   -7.4596    1.0000 </r>
       <r>   -1.6496    1.0000 </r>
       <r>    7.1681    1.0000 </r>
       <r>    7.1681    1.0000 </r>
       <r>   18.2540    0.0000 </r>
       <r>   18.2540    0.0000 </r>
       <r>   18.6340    0.0000 </r>
       <r>   25.4227    0.0000 </r>
      </set>
      <set comment="kpoint 6">
       <r>   -5.9366    1.0000 </r>
       <r>   -3.6276    1.0000 </r>
       <r>    6.9925    1.0000 </r>
       <r>    6.9925    1.0000 </r>
       <r>   18.2911    0.0000 </r>
       <r>   18.2911    0.0000 </r>
       <r>   18.7327    0.0000 </r>
       <r>   25.5576    0.0000 </r>
      </set>
      <set comment="kpoint 7">
       <r>  -11.3730    1.0000 </r>
       <r>    8.5731    1.0000 </r>
       <r>    8.5731    1.0000 </r>
       <r>    8.9364    1.0000 </r>
       <r>   15.1389    0.0000 </r>
       <r>   16.9658    0.0000 </r>
       <r>   16.9658    0.0000 </r>
       <r>   23.3661    0.0000 </r>
      </set>
      <set comment="kpoint 8">
       <r>  -10.7284    1.0000 </r>
       <r>    6.0259    1.0000 </r>
       <r>    7.6006    1.0000 </r>
       <r>    8.4666    1.0000 </r>
       <r>   15.5669    0.0000 </r>
       <r>   18.2741    0.0000 </r>
       <r>   18.2954    0.0000 </r>
       <r>   23.2678    0.0000 </r>
      </set>
      <set comment="kpoint 9">
       <r>   -9.5457    1.0000 </r>
       <r>    2.7420    1.0000 </r>
       <r>    6.8513    1.0000 </r>
       <r>    7.5949    1.0000 </r>
       <r>   16.6092    0.0000 </r>
       <r>   19.1334    0.0000 </r>
       <r>   19.2257    0.0000 </r>
       <r>   23.4553    0.0000 </r>
      </set>
      <set comment="kpoint 10">
       <r>   -7.8700    1.0000 </r>
       <r>   -0.4686    1.0000 </r>
       <r>    6.4735    1.0000 </r>
       <r>    6.7214    1.0000 </r>
       <r>   17.3279    0.0000 </r>
       <r>   19.4425    0.0000 </r>
       <r>   19.5393    0.0000 </r>
       <r>   24.3429    0.0000 </r>
      </set>
      <set comment="kpoint 11">
       <r>   -5.9928    1.0000 </r>
       <r>   -3.0778    1.0000 </r>
       <r>    6.0843    1.0000 </r>
       <r>    6.5022    1.0000 </r>
       <r>   17.7328    0.0000 </r>
       <r>   19.1936    0.0000 </r>
       <r>   19.6709    0.0000 </r>
       <r>   25.3441    0.0000 </r>
      </set>
      <set comment="kpoint 12">
       <r>   -6.5766    1.0000 </r>
       <r>   -2.3427    1.0000 </r>
       <r>    5.7893    1.0000 </r>
       <r>    6.9165    1.0000 </r>
       <r>   18.1317    0.0000 </r>
       <r>   18.7728    0.0000 </r>
       <r>   19.6088    0.0000 </r>
       <r>   25.4192    0.0000 </r>
      </set>
      <set comment="kpoint 13">
       <r>   -8.4783    1.0000 </r>
       <r>    0.5792    1.0000 </r>
       <r>    5.8891    1.0000 </r>
       <r>    7.6508    1.0000 </r>
       <r>   18.1568    0.0000 </r>
       <r>   18.4595    0.0000 </r>
       <r>   19.3064    0.0000 </r>
       <r>   24.6111    0.0000 </r>
      </set>
      <set comment="kpoint 14">
       <r>   -9.9985    1.0000 </r>
       <r>    3.8636    1.0000 </r>
       <r>    6.4025    1.0000 </r>
       <r>    8.5650    1.0000 </r>
       <r>   17.1805    0.0000 </r>
       <r>   18.3328    0.0000 </r>
       <r>   18.5118    0.0000 </r>
       <r>   23.9121    0.0000 </r>
      </set>
      <set comment="kpoint 15">
       <r>  -11.0042    1.0000 </r>
       <r>    6.8643    1.0000 </r>
       <r>    7.4643    1.0000 </r>
       <r>    9.3297    1.0000 </r>
       <r>   16.1626    0.0000 </r>
       <r>   17.1887    0.0000 </r>
       <r>   17.5055    0.0000 </r>
       <r>   23.6607    0.0000 </r>
      </set>
      <set comment="kpoint 16">
       <r>  -10.2697    1.0000 </r>
       <r>    6.5629    1.0000 </r>
       <r>    6.5629    1.0000 </r>
       <r>    6.7162    1.0000 </r>
       <r>   14.5467    0.0000 </r>
       <r>   19.8928    0.0000 </r>
       <r>   19.8928    0.0000 </r>
       <r>   21.7035    0.0000 </r>
      </set>
      <set comment="kpoint 17">
       <r>   -9.2711    1.0000 </r>
       <r>    3.9565    1.0000 </r>
       <r>    5.7698    1.0000 </r>
       <r>    6.1472    1.0000 </r>
       <r>   14.9761    0.0000 </r>
       <r>   20.6421    0.0000 </r>
       <r>   21.1335    0.0000 </r>
       <r>   21.1687    0.0000 </r>
      </set>
      <set comment="kpoint 18">
       <r>   -7.7649    1.0000 </r>
       <r>    0.9824    1.0000 </r>
       <r>    5.0861    1.0000 </r>
       <r>    5.3824    1.0000 </r>
       <r>   15.9259    0.0000 </r>
       <r>   21.0836    0.0000 </r>
       <r>   21.6433    0.0000 </r>
       <r>   21.7375    0.0000 </r>
      </set>
      <set comment="kpoint 19">
       <r>   -5.8922    1.0000 </r>
       <r>   -1.7678    1.0000 </r>
       <r>    4.0831    1.0000 </r>
       <r>    5.4474    1.0000 </r>
       <r>   16.5061    0.0000 </r>
       <r>   21.3832    0.0000 </r>
       <r>   21.9318    0.0000 </r>
       <r>   23.1196    0.0000 </r>
      </set>
      <set comment="kpoint 20">
       <r>   -5.3423    1.0000 </r>
       <r>   -2.4260    1.0000 </r>
       <r>    3.4090    1.0000 </r>
       <r>    5.9467    1.0000 </r>
       <r>   17.0786    0.0000 </r>
       <r>   20.6994    0.0000 </r>
       <r>   21.9057    0.0000 </r>
       <r>   25.1042    0.0000 </r>
      </set>
      <set comment="kpoint 21">
       <r>   -7.1776    1.0000 </r>
       <r>    0.0925    1.0000 </r>
       <r>    3.1867    1.0000 </r>
       <r>    6.7987    1.0000 </r>
       <r>   17.8178    0.0000 </r>
       <r>   19.6768    0.0000 </r>
       <r>   21.5924    0.0000 </r>
       <r>   24.3304    0.0000 </r>
      </set>
      <set comment="kpoint 22">
       <r>   -8.8286    1.0000 </r>
       <r>    2.8066    1.0000 </r>
       <r>    3.7731    1.0000 </r>
       <r>    7.8115    1.0000 </r>
       <r>   18.3264    0.0000 </r>
       <r>   18.4266    0.0000 </r>
       <r>   20.3466    0.0000 </r>
       <r>   23.5490    0.0000 </r>
      </set>
      <set comment="kpoint 23">
       <r>   -8.4596    1.0000 </r>
       <r>    3.7149    1.0000 </r>
       <r>    4.8941    1.0000 </r>
       <r>    4.8941    1.0000 </r>
       <r>   14.0568    0.0000 </r>
       <r>   18.5148    0.0000 </r>
       <r>   22.9617    0.0000 </r>
       <r>   22.9617    0.0000 </r>
      </set>
      <set comment="kpoint 24">
       <r>   -7.1358    1.0000 </r>
       <r>    1.7316    1.0000 </r>
       <r>    3.7936    1.0000 </r>
       <r>    4.4209    1.0000 </r>
       <r>   14.6159    0.0000 </r>
       <r>   17.8504    0.0000 </r>
       <r>   23.9534    0.0000 </r>
       <r>   24.0142    0.0000 </r>
      </set>
      <set comment="kpoint 25">
       <r>   -5.3858    1.0000 </r>
       <r>   -0.4591    1.0000 </r>
       <r>    2.2521    1.0000 </r>
       <r>    4.4172    1.0000 </r>
       <r>   15.3822    0.0000 </r>
       <r>   19.3945    0.0000 </r>
       <r>   23.9310    0.0000 </r>
       <r>   24.3992    0.0000 </r>
      </set>
      <set comment="kpoint 26">
       <r>   -4.0257    1.0000 </r>
       <r>   -1.9015    1.0000 </r>
       <r>    1.0997    1.0000 </r>
       <r>    4.8790    1.0000 </r>
       <r>   15.9625    0.0000 </r>
       <r>   22.4383    0.0000 </r>
       <r>   23.0876    0.0000 </r>
       <r>   24.4818    0.0000 </r>
      </set>
      <set comment="kpoint 27">
       <r>   -5.4694    1.0000 </r>
       <r>   -0.3668    1.0000 </r>
       <r>    0.8997    1.0000 </r>
       <r>    5.7351    1.0000 </r>
       <r>   16.8069    0.0000 </r>
       <r>   21.5808    0.0000 </r>
       <r>   24.0001    0.0000 </r>
       <r>   24.3994    0.0000 </r>
      </set>
      <set comment="kpoint 28">
       <r>   -5.9984    1.0000 </r>
       <r>    0.3478    1.0000 </r>
       <r>    3.8355    1.0000 </r>
       <r>    3.8355    1.0000 </r>
       <r>   13.9907    0.0000 </r>
       <r>   16.0333    0.0000 </r>
       <r>   25.5631    0.0000 </r>
       <r>   25.5631    0.0000 </r>
      </set>
      <set comment="kpoint 29">
       <r>   -4.4122    1.0000 </r>
       <r>   -1.2914    1.0000 </r>
       <r>    2.7209    1.0000 </r>
       <r>    3.7185    1.0000 </r>
       <r>   14.6634    0.0000 </r>
       <r>   16.1354    0.0000 </r>
       <r>   25.9404    0.0000 </r>
       <r>   26.1311    0.0000 </r>
      </set>
      <set comment="kpoint 30">
       <r>   -2.9412    1.0000 </r>
       <r>   -2.3326    1.0000 </r>
       <r>    0.9841    1.0000 </r>
       <r>    4.0839    1.0000 </r>
       <r>   15.1750    0.0000 </r>
       <r>   18.8376    0.0000 </r>
       <r>   25.0309    0.0000 </r>
       <r>   25.8851    0.0000 </r>
      </set>
      <set comment="kpoint 31">
       <r>   -2.9959    1.0000 </r>
       <r>   -2.9959    1.0000 </r>
       <r>    3.4748    1.0000 </r>
       <r>    3.4748    1.0000 </r>
       <r>   14.5799    0.0000 </r>
       <r>   14.5799    0.0000 </r>
       <r>   26.6979    0.0000 </r>
       <r>   26.6979    0.0000 </r>
      </set>
      <set comment="kpoint 32">
       <r>   -9.9065    1.0000 </r>
       <r>    4.7556    1.0000 </r>
       <r>    5.5631    1.0000 </r>
       <r>    7.8982    1.0000 </r>
       <r>   15.9603    0.0000 </r>
       <r>   19.2485    0.0000 </r>
       <r>   19.8380    0.0000 </r>
       <r>   22.5060    0.0000 </r>
      </set>
      <set comment="kpoint 33">
       <r>   -8.5606    1.0000 </r>
       <r>    1.9176    1.0000 </r>
       <r>    4.6907    1.0000 </r>
       <r>    6.9998    1.0000 </r>
       <r>   17.0902    0.0000 </r>
       <r>   19.4226    0.0000 </r>
       <r>   21.0861    0.0000 </r>
       <r>   22.5715    0.0000 </r>
      </set>
      <set comment="kpoint 34">
       <r>   -6.7674    1.0000 </r>
       <r>   -1.0612    1.0000 </r>
       <r>    4.4533    1.0000 </r>
       <r>    6.1284    1.0000 </r>
       <r>   17.8316    0.0000 </r>
       <r>   19.1624    0.0000 </r>
       <r>   21.6343    0.0000 </r>
       <r>   23.9929    0.0000 </r>
      </set>
      <set comment="kpoint 35">
       <r>   -5.2849    1.0000 </r>
       <r>   -2.9619    1.0000 </r>
       <r>    4.4472    1.0000 </r>
       <r>    5.7426    1.0000 </r>
       <r>   18.0211    0.0000 </r>
       <r>   19.0168    0.0000 </r>
       <r>   21.7940    0.0000 </r>
       <r>   25.1426    0.0000 </r>
      </set>
      <set comment="kpoint 36">
       <r>   -8.1094    1.0000 </r>
       <r>    2.7161    1.0000 </r>
       <r>    3.9674    1.0000 </r>
       <r>    5.4500    1.0000 </r>
       <r>   15.5296    0.0000 </r>
       <r>   19.6098    0.0000 </r>
       <r>   21.6789    0.0000 </r>
       <r>   22.9907    0.0000 </r>
      </set>
      <set comment="kpoint 37">
       <r>   -6.4740    1.0000 </r>
       <r>    0.3684    1.0000 </r>
       <r>    3.0806    1.0000 </r>
       <r>    4.6059    1.0000 </r>
       <r>   16.6672    0.0000 </r>
       <r>   20.1259    0.0000 </r>
       <r>   21.6732    0.0000 </r>
       <r>   24.0767    0.0000 </r>
      </set>
      <set comment="kpoint 38">
       <r>   -4.6768    1.0000 </r>
       <r>   -1.9086    1.0000 </r>
       <r>    2.4363    1.0000 </r>
       <r>    4.4398    1.0000 </r>
       <r>   17.2787    0.0000 </r>
       <r>   20.8617    0.0000 </r>
       <r>   22.8108    0.0000 </r>
       <r>   24.2456    0.0000 </r>
      </set>
      <set comment="kpoint 39">
       <r>   -5.2539    1.0000 </r>
       <r>   -1.1820    1.0000 </r>
       <r>    1.9663    1.0000 </r>
       <r>    5.0152    1.0000 </r>
       <r>   17.9224    0.0000 </r>
       <r>   20.1699    0.0000 </r>
       <r>   23.3581    0.0000 </r>
       <r>   24.4109    0.0000 </r>
      </set>
      <set comment="kpoint 40">
       <r>   -7.0809    1.0000 </r>
       <r>    1.1049    1.0000 </r>
       <r>    2.2719    1.0000 </r>
       <r>    6.0036    1.0000 </r>
       <r>   18.7151    0.0000 </r>
       <r>   18.7689    0.0000 </r>
       <r>   22.4803    0.0000 </r>
       <r>   23.1644    0.0000 </r>
      </set>
      <set comment="kpoint 41">
       <r>   -5.6802    1.0000 </r>
       <r>    0.2569    1.0000 </r>
       <r>    2.9871    1.0000 </r>
       <r>    3.4809    1.0000 </r>
       <r>   15.4621    0.0000 </r>
       <r>   17.3336    0.0000 </r>
       <r>   24.1479    0.0000 </r>
       <r>   25.5049    0.0000 </r>
      </set>
      <set comment="kpoint 42">
       <r>   -3.9032    1.0000 </r>
       <r>   -1.2881    1.0000 </r>
       <r>    1.4195    1.0000 </r>
       <r>    3.3570    1.0000 </r>
       <r>   16.4339    0.0000 </r>
       <r>   19.0828    0.0000 </r>
       <r>   23.7926    0.0000 </r>
       <r>   25.3890    0.0000 </r>
      </set>
      <set comment="kpoint 43">
       <r>   -3.6049    1.0000 </r>
       <r>   -1.4609    1.0000 </r>
       <r>    0.4423    1.0000 </r>
       <r>    3.9760    1.0000 </r>
       <r>   17.0561    0.0000 </r>
       <r>   22.1455    0.0000 </r>
       <r>   22.8439    0.0000 </r>
       <r>   24.1708    0.0000 </r>
      </set>
      <set comment="kpoint 44">
       <r>   -2.7692    1.0000 </r>
       <r>   -2.7692    1.0000 </r>
       <r>    2.7616    1.0000 </r>
       <r>    2.7616    1.0000 </r>
       <r>   15.9977    0.0000 </r>
       <r>   15.9977    0.0000 </r>
       <r>   25.9241    0.0000 </r>
       <r>   25.9241    0.0000 </r>
      </set>
      <set comment="kpoint 45">
       <r>   -4.7838    1.0000 </r>
       <r>   -0.3845    1.0000 </r>
       <r>    1.4448    1.0000 </r>
       <r>    3.3909    1.0000 </r>
       <r>   18.7965    0.0000 </r>
       <r>   19.6887    0.0000 </r>
       <r>   21.6311    0.0000 </r>
       <r>   24.9762    0.0000 </r>
      </set>
      <set comment="kpoint 46">
       <r>   -3.4073    1.0000 </r>
       <r>   -1.5985    1.0000 </r>
       <r>    1.1302    1.0000 </r>
       <r>    2.8062    1.0000 </r>
       <r>   19.2833    0.0000 </r>
       <r>   20.4049    0.0000 </r>
       <r>   22.8865    0.0000 </r>
       <r>   23.1134    0.0000 </r>
      </set>
      <set comment="kpoint 47">
       <r>   -2.2978    1.0000 </r>
       <r>   -2.2978    1.0000 </r>
       <r>    1.6377    1.0000 </r>
       <r>    1.6377    1.0000 </r>
       <r>   19.2153    0.0000 </r>
       <r>   19.2153    0.0000 </r>
       <r>   23.3690    0.0000 </r>
       <r>   23.3690    0.0000 </r>
      </set>
     </set>
    </set>
   </array>
  </eigenvalues>
  <separator name="orbital magnetization" >
   <v name="MAGDIPOLOUT">      0.00000000      0.00000000      0.00000000</v>
  </separator>
  <dos>
   <i name="efermi">     10.58991423 </i>
   <total>
    <array>
     <dimension dim="1">gridpoints</dimension>
     <dimension dim="2">spin</dimension>
     <field>energy</field>
     <field>total</field>
     <field>integrated</field>
     <set>
      <set comment="spin 1">
       <r>   -13.7433     0.0000     0.0000 </r>
       <r>   -13.6018     0.0000     0.0000 </r>
       <r>   -13.4603     0.0000     0.0000 </r>
       <r>   -13.3189     0.0000     0.0000 </r>
       <r>   -13.1774     0.0000     0.0000 </r>
       <r>   -13.0359     0.0000     0.0000 </r>
       <r>   -12.8945     0.0000     0.0000 </r>
       <r>   -12.7530     0.0000     0.0000 </r>
       <r>   -12.6115     0.0000     0.0000 </r>
       <r>   -12.4701     0.0000     0.0000 </r>
       <r>   -12.3286     0.0000     0.0000 </r>
       <r>   -12.1871     0.0000     0.0000 </r>
       <r>   -12.0456     0.0002     0.0000 </r>
       <r>   -11.9042     0.0017     0.0003 </r>
       <r>   -11.7627     0.0066     0.0012 </r>
       <r>   -11.6212     0.0215     0.0043 </r>
       <r>   -11.4798     0.0548     0.0120 </r>
       <r>   -11.3383     0.0737     0.0224 </r>
       <r>   -11.1968     0.0561     0.0304 </r>
       <r>   -11.0553     0.0607     0.0390 </r>
       <r>   -10.9139     0.0969     0.0527 </r>
       <r>   -10.7724     0.1482     0.0736 </r>
       <r>   -10.6309     0.1755     0.0985 </r>
       <r>   -10.4895     0.1110     0.1142 </r>
       <r>   -10.3480     0.0507     0.1213 </r>
       <r>   -10.2065     0.0629     0.1303 </r>
       <r>   -10.0651     0.1447     0.1507 </r>
       <r>    -9.9236     0.2457     0.1855 </r>
       <r>    -9.7821     0.2169     0.2162 </r>
       <r>    -9.6406     0.1447     0.2366 </r>
       <r>    -9.4992     0.1623     0.2596 </r>
       <r>    -9.3577     0.1948     0.2871 </r>
       <r>    -9.2162     0.2008     0.3156 </r>
       <r>    -9.0748     0.1290     0.3338 </r>
       <r>    -8.9333     0.0680     0.3434 </r>
       <r>    -8.7918     0.1037     0.3581 </r>
       <r>    -8.6503     0.2338     0.3912 </r>
       <r>    -8.5089     0.4001     0.4478 </r>
       <r>    -8.3674     0.3543     0.4979 </r>
       <r>    -8.2259     0.1910     0.5249 </r>
       <r>    -8.0845     0.1690     0.5488 </r>
       <r>    -7.9430     0.2189     0.5798 </r>
       <r>    -7.8015     0.2662     0.6174 </r>
       <r>    -7.6601     0.2226     0.6489 </r>
       <r>    -7.5186     0.1188     0.6657 </r>
       <r>    -7.3771     0.1018     0.6801 </r>
       <r>    -7.2356     0.2223     0.7116 </r>
       <r>    -7.0942     0.3802     0.7654 </r>
       <r>    -6.9527     0.3524     0.8152 </r>
       <r>    -6.8112     0.3120     0.8594 </r>
       <r>    -6.6698     0.3904     0.9146 </r>
       <r>    -6.5283     0.4462     0.9777 </r>
       <r>    -6.3868     0.3818     1.0317 </r>
       <r>    -6.2453     0.1937     1.0591 </r>
       <r>    -6.1039     0.1398     1.0789 </r>
       <r>    -5.9624     0.2670     1.1167 </r>
       <r>    -5.8209     0.3265     1.1629 </r>
       <r>    -5.6795     0.2701     1.2011 </r>
       <r>    -5.5380     0.2771     1.2403 </r>
       <r>    -5.3965     0.4670     1.3063 </r>
       <r>    -5.2551     0.6525     1.3987 </r>
       <r>    -5.1136     0.4742     1.4657 </r>
       <r>    -4.9721     0.1926     1.4930 </r>
       <r>    -4.8306     0.1977     1.5210 </r>
       <r>    -4.6892     0.3593     1.5718 </r>
       <r>    -4.5477     0.3585     1.6225 </r>
       <r>    -4.4062     0.2378     1.6561 </r>
       <r>    -4.2648     0.1501     1.6774 </r>
       <r>    -4.1233     0.1494     1.6985 </r>
       <r>    -3.9818     0.2916     1.7398 </r>
       <r>    -3.8404     0.3747     1.7928 </r>
       <r>    -3.6989     0.2907     1.8339 </r>
       <r>    -3.5574     0.2413     1.8681 </r>
       <r>    -3.4159     0.2284     1.9004 </r>
       <r>    -3.2745     0.1830     1.9263 </r>
       <r>    -3.1330     0.2046     1.9552 </r>
       <r>    -2.9915     0.3346     2.0025 </r>
       <r>    -2.8501     0.3693     2.0548 </r>
       <r>    -2.7086     0.2634     2.0920 </r>
       <r>    -2.5671     0.1902     2.1190 </r>
       <r>    -2.4256     0.3042     2.1620 </r>
       <r>    -2.2842     0.4363     2.2237 </r>
       <r>    -2.1427     0.3374     2.2715 </r>
       <r>    -2.0012     0.3091     2.3152 </r>
       <r>    -1.8598     0.4837     2.3836 </r>
       <r>    -1.7183     0.5096     2.4557 </r>
       <r>    -1.5768     0.4233     2.5156 </r>
       <r>    -1.4354     0.4520     2.5795 </r>
       <r>    -1.2939     0.6459     2.6709 </r>
       <r>    -1.1524     0.7861     2.7821 </r>
       <r>    -1.0109     0.6135     2.8689 </r>
       <r>    -0.8695     0.2785     2.9083 </r>
       <r>    -0.7280     0.0864     2.9205 </r>
       <r>    -0.5865     0.1492     2.9416 </r>
       <r>    -0.4451     0.3709     2.9941 </r>
       <r>    -0.3036     0.4115     3.0523 </r>
       <r>    -0.1621     0.2076     3.0817 </r>
       <r>    -0.0206     0.1099     3.0972 </r>
       <r>     0.1208     0.2099     3.1269 </r>
       <r>     0.2623     0.4013     3.1837 </r>
       <r>     0.4038     0.5639     3.2635 </r>
       <r>     0.5452     0.5008     3.3343 </r>
       <r>     0.6867     0.2876     3.3750 </r>
       <r>     0.8282     0.2080     3.4044 </r>
       <r>     0.9696     0.3834     3.4587 </r>
       <r>     1.1111     0.5816     3.5410 </r>
       <r>     1.2526     0.5387     3.6172 </r>
       <r>     1.3941     0.4949     3.6872 </r>
       <r>     1.5355     0.5361     3.7630 </r>
       <r>     1.6770     0.4804     3.8310 </r>
       <r>     1.8185     0.4958     3.9011 </r>
       <r>     1.9599     0.6005     3.9861 </r>
       <r>     2.1014     0.5323     4.0614 </r>
       <r>     2.2429     0.4262     4.1217 </r>
       <r>     2.3843     0.4607     4.1868 </r>
       <r>     2.5258     0.4681     4.2531 </r>
       <r>     2.6673     0.5736     4.3342 </r>
       <r>     2.8088     0.7740     4.4437 </r>
       <r>     2.9502     0.7157     4.5450 </r>
       <r>     3.0917     0.6136     4.6318 </r>
       <r>     3.2332     0.6297     4.7209 </r>
       <r>     3.3746     0.7287     4.8240 </r>
       <r>     3.5161     0.7114     4.9246 </r>
       <r>     3.6576     0.5621     5.0041 </r>
       <r>     3.7991     0.6653     5.0982 </r>
       <r>     3.9405     0.8446     5.2177 </r>
       <r>     4.0820     0.7533     5.3243 </r>
       <r>     4.2235     0.5290     5.3991 </r>
       <r>     4.3649     0.7039     5.4987 </r>
       <r>     4.5064     1.1255     5.6579 </r>
       <r>     4.6479     1.1263     5.8173 </r>
       <r>     4.7893     0.8898     5.9431 </r>
       <r>     4.9308     0.7328     6.0468 </r>
       <r>     5.0723     0.6212     6.1347 </r>
       <r>     5.2138     0.4267     6.1951 </r>
       <r>     5.3552     0.3765     6.2483 </r>
       <r>     5.4967     0.5162     6.3214 </r>
       <r>     5.6382     0.5883     6.4046 </r>
       <r>     5.7796     0.7057     6.5044 </r>
       <r>     5.9211     0.8732     6.6280 </r>
       <r>     6.0626     0.9762     6.7661 </r>
       <r>     6.2041     0.8516     6.8865 </r>
       <r>     6.3455     0.5686     6.9670 </r>
       <r>     6.4870     0.5064     7.0386 </r>
       <r>     6.6285     0.5363     7.1145 </r>
       <r>     6.7699     0.6112     7.2010 </r>
       <r>     6.9114     0.7544     7.3077 </r>
       <r>     7.0529     0.6889     7.4051 </r>
       <r>     7.1943     0.4019     7.4620 </r>
       <r>     7.3358     0.1941     7.4895 </r>
       <r>     7.4773     0.2528     7.5252 </r>
       <r>     7.6188     0.4842     7.5937 </r>
       <r>     7.7602     0.5411     7.6703 </r>
       <r>     7.9017     0.3785     7.7238 </r>
       <r>     8.0432     0.2113     7.7537 </r>
       <r>     8.1846     0.1114     7.7695 </r>
       <r>     8.3261     0.1319     7.7881 </r>
       <r>     8.4676     0.2989     7.8304 </r>
       <r>     8.6091     0.3877     7.8853 </r>
       <r>     8.7505     0.2324     7.9181 </r>
       <r>     8.8920     0.0813     7.9297 </r>
       <r>     9.0335     0.0433     7.9358 </r>
       <r>     9.1749     0.0571     7.9439 </r>
       <r>     9.3164     0.1237     7.9614 </r>
       <r>     9.4579     0.1458     7.9820 </r>
       <r>     9.5993     0.0732     7.9923 </r>
       <r>     9.7408     0.0242     7.9958 </r>
       <r>     9.8823     0.0173     7.9982 </r>
       <r>    10.0238     0.0100     7.9996 </r>
       <r>    10.1652     0.0024     8.0000 </r>
       <r>    10.3067     0.0002     8.0000 </r>
       <r>    10.4482     0.0000     8.0000 </r>
       <r>    10.5896     0.0000     8.0000 </r>
       <r>    10.7311     0.0000     8.0000 </r>
       <r>    10.8726     0.0000     8.0000 </r>
       <r>    11.0140     0.0000     8.0000 </r>
       <r>    11.1555     0.0000     8.0000 </r>
       <r>    11.2970     0.0000     8.0000 </r>
       <r>    11.4385     0.0000     8.0000 </r>
       <r>    11.5799     0.0000     8.0000 </r>
       <r>    11.7214     0.0000     8.0000 </r>
       <r>    11.8629     0.0000     8.0000 </r>
       <r>    12.0043     0.0000     8.0000 </r>
       <r>    12.1458     0.0000     8.0000 </r>
       <r>    12.2873     0.0000     8.0000 </r>
       <r>    12.4288     0.0000     8.0000 </r>
       <r>    12.5702     0.0000     8.0000 </r>
       <r>    12.7117     0.0000     8.0000 </r>
       <r>    12.8532     0.0000     8.0000 </r>
       <r>    12.9946     0.0000     8.0000 </r>
       <r>    13.1361     0.0000     8.0000 </r>
       <r>    13.2776     0.0000     8.0000 </r>
       <r>    13.4190     0.0000     8.0000 </r>
       <r>    13.5605     0.0001     8.0000 </r>
       <r>    13.7020     0.0021     8.0003 </r>
       <r>    13.8435     0.0159     8.0026 </r>
       <r>    13.9849     0.0488     8.0095 </r>
       <r>    14.1264     0.0623     8.0183 </r>
       <r>    14.2679     0.0390     8.0238 </r>
       <r>    14.4093     0.0612     8.0325 </r>
       <r>    14.5508     0.2012     8.0609 </r>
       <r>    14.6923     0.3218     8.1065 </r>
       <r>    14.8338     0.2568     8.1428 </r>
       <r>    14.9752     0.1953     8.1704 </r>
       <r>    15.1167     0.2072     8.1997 </r>
       <r>    15.2582     0.2378     8.2334 </r>
       <r>    15.3996     0.3679     8.2854 </r>
       <r>    15.5411     0.4925     8.3551 </r>
       <r>    15.6826     0.3955     8.4110 </r>
       <r>    15.8240     0.3503     8.4606 </r>
       <r>    15.9655     0.6167     8.5478 </r>
       <r>    16.1070     0.7304     8.6512 </r>
       <r>    16.2485     0.5230     8.7252 </r>
       <r>    16.3899     0.4658     8.7911 </r>
       <r>    16.5314     0.6178     8.8785 </r>
       <r>    16.6729     0.6509     8.9706 </r>
       <r>    16.8143     0.5035     9.0418 </r>
       <r>    16.9558     0.5034     9.1130 </r>
       <r>    17.0973     0.8496     9.2332 </r>
       <r>    17.2388     1.0831     9.3864 </r>
       <r>    17.3802     0.8864     9.5118 </r>
       <r>    17.5217     0.5156     9.5848 </r>
       <r>    17.6632     0.4320     9.6459 </r>
       <r>    17.8046     0.7652     9.7541 </r>
       <r>    17.9461     1.0488     9.9025 </r>
       <r>    18.0876     0.9736    10.0402 </r>
       <r>    18.2290     0.9411    10.1734 </r>
       <r>    18.3705     0.9908    10.3136 </r>
       <r>    18.5120     0.8376    10.4321 </r>
       <r>    18.6535     0.6946    10.5303 </r>
       <r>    18.7949     0.7400    10.6350 </r>
       <r>    18.9364     0.7665    10.7434 </r>
       <r>    19.0779     1.0069    10.8859 </r>
       <r>    19.2193     1.4563    11.0919 </r>
       <r>    19.3608     1.5143    11.3061 </r>
       <r>    19.5023     1.2807    11.4873 </r>
       <r>    19.6437     1.0999    11.6429 </r>
       <r>    19.7852     0.8533    11.7636 </r>
       <r>    19.9267     0.5411    11.8402 </r>
       <r>    20.0682     0.4855    11.9089 </r>
       <r>    20.2096     0.5988    11.9936 </r>
       <r>    20.3511     0.5085    12.0655 </r>
       <r>    20.4926     0.3487    12.1148 </r>
       <r>    20.6340     0.3372    12.1625 </r>
       <r>    20.7755     0.4328    12.2238 </r>
       <r>    20.9170     0.5251    12.2981 </r>
       <r>    21.0585     0.6656    12.3922 </r>
       <r>    21.1999     0.7133    12.4931 </r>
       <r>    21.3414     0.5196    12.5667 </r>
       <r>    21.4829     0.5761    12.6481 </r>
       <r>    21.6243     1.1133    12.8056 </r>
       <r>    21.7658     1.3745    13.0001 </r>
       <r>    21.9073     0.9546    13.1351 </r>
       <r>    22.0487     0.4963    13.2054 </r>
       <r>    22.1902     0.2795    13.2449 </r>
       <r>    22.3317     0.2817    13.2847 </r>
       <r>    22.4732     0.5127    13.3573 </r>
       <r>    22.6146     0.6816    13.4537 </r>
       <r>    22.7561     0.6752    13.5492 </r>
       <r>    22.8976     0.7785    13.6594 </r>
       <r>    23.0390     0.8850    13.7846 </r>
       <r>    23.1805     0.9270    13.9157 </r>
       <r>    23.3220     0.9224    14.0462 </r>
       <r>    23.4635     0.8200    14.1622 </r>
       <r>    23.6049     0.5858    14.2451 </r>
       <r>    23.7464     0.5457    14.3223 </r>
       <r>    23.8879     0.8990    14.4495 </r>
       <r>    24.0293     1.3318    14.6379 </r>
       <r>    24.1708     1.4221    14.8391 </r>
       <r>    24.3123     1.3156    15.0252 </r>
       <r>    24.4537     1.1505    15.1879 </r>
       <r>    24.5952     0.7416    15.2929 </r>
       <r>    24.7367     0.3331    15.3400 </r>
       <r>    24.8782     0.2258    15.3719 </r>
       <r>    25.0196     0.3734    15.4248 </r>
       <r>    25.1611     0.5097    15.4969 </r>
       <r>    25.3026     0.6081    15.5829 </r>
       <r>    25.4440     0.7474    15.6886 </r>
       <r>    25.5855     0.6160    15.7758 </r>
       <r>    25.7270     0.3248    15.8217 </r>
       <r>    25.8684     0.2910    15.8629 </r>
       <r>    26.0099     0.3812    15.9168 </r>
       <r>    26.1514     0.3064    15.9602 </r>
       <r>    26.2929     0.1500    15.9814 </r>
       <r>    26.4343     0.0438    15.9876 </r>
       <r>    26.5758     0.0191    15.9903 </r>
       <r>    26.7173     0.0309    15.9947 </r>
       <r>    26.8587     0.0270    15.9985 </r>
       <r>    27.0002     0.0094    15.9998 </r>
       <r>    27.1417     0.0013    16.0000 </r>
       <r>    27.2832     0.0001    16.0000 </r>
       <r>    27.4246     0.0000    16.0000 </r>
       <r>    27.5661     0.0000    16.0000 </r>
       <r>    27.7076     0.0000    16.0000 </r>
       <r>    27.8490     0.0000    16.0000 </r>
       <r>    27.9905     0.0000    16.0000 </r>
       <r>    28.1320     0.0000    16.0000 </r>
       <r>    28.2734     0.0000    16.0000 </r>
       <r>    28.4149     0.0000    16.0000 </r>
       <r>    28.5564     0.0000    16.0000 </r>
       <r>    28.6979     0.0000    16.0000 </r>
      </set>
     </set>
    </array>
   </total>
  </dos>
 </calculation>
 <structure name="finalpos" >
  <crystal>
   <varray name="basis" >
    <v>       2.51730013       0.00000000       0.00000000 </v>
    <v>       1.25865006       2.18004586       0.00000000 </v>
    <v>       1.25865006       0.72668195       2.05536695 </v>
   </varray>
   <i name="volume">     11.27950384 </i>
   <varray name="rec_basis" >
    <v>       0.39725100      -0.22935297      -0.16217704 </v>
    <v>       0.00000000       0.45870595      -0.16217704 </v>
    <v>       0.00000000       0.00000000       0.48653113 </v>
   </varray>
  </crystal>
  <varray name="positions" >
   <v>       0.25000000       0.25000000       0.25000000 </v>
   <v>       0.00000000       0.00000000       0.00000000 </v>
  </varray>
 </structure>
</modeling>
