   2   2   0   0
  0.5639752E+01  0.2517300E-09  0.2517300E-09  0.2517300E-09  0.5000000E-15
  1.000000000000000E-004
  CAR 
 unknown system                          
     28.70775857    -13.74095058  301     10.59658569      1.00000000
    -13.741  0.0000E+00  0.0000E+00
    -13.599  0.0000E+00  0.0000E+00
    -13.458  0.0000E+00  0.0000E+00
    -13.316  0.0000E+00  0.0000E+00
    -13.175  0.0000E+00  0.0000E+00
    -13.033  0.0000E+00  0.0000E+00
    -12.892  0.3923E-18  0.5551E-19
    -12.750  0.1034E-14  0.1464E-15
    -12.609  0.1035E-11  0.1466E-12
    -12.467  0.4112E-09  0.5834E-10
    -12.326  0.6609E-07  0.9410E-08
    -12.184  0.4370E-05  0.6277E-06
    -12.043  0.1212E-03  0.1778E-04
    -11.902  0.1462E-02  0.2247E-03
    -11.760  0.8251E-02  0.1392E-02
    -11.619  0.2455E-01  0.4865E-02
    -11.477  0.4504E-01  0.1124E-01
    -11.336  0.6267E-01  0.2011E-01
    -11.194  0.7660E-01  0.3095E-01
    -11.053  0.8587E-01  0.4310E-01
    -10.911  0.9929E-01  0.5714E-01
    -10.770  0.1071E+00  0.7230E-01
    -10.628  0.1097E+00  0.8781E-01
    -10.487  0.1266E+00  0.1057E+00
    -10.345  0.1351E+00  0.1248E+00
    -10.204  0.1291E+00  0.1431E+00
    -10.062  0.1404E+00  0.1630E+00
     -9.921  0.1594E+00  0.1855E+00
     -9.779  0.1648E+00  0.2088E+00
     -9.638  0.1509E+00  0.2302E+00
     -9.496  0.1572E+00  0.2524E+00
     -9.355  0.1893E+00  0.2792E+00
     -9.213  0.1948E+00  0.3068E+00
     -9.072  0.1811E+00  0.3324E+00
     -8.930  0.1736E+00  0.3570E+00
     -8.789  0.1903E+00  0.3839E+00
     -8.647  0.2252E+00  0.4158E+00
     -8.506  0.2229E+00  0.4473E+00
     -8.364  0.2060E+00  0.4764E+00
     -8.223  0.2058E+00  0.5056E+00
     -8.081  0.2100E+00  0.5353E+00
     -7.940  0.2350E+00  0.5685E+00
     -7.798  0.2632E+00  0.6058E+00
     -7.657  0.2631E+00  0.6430E+00
     -7.515  0.2259E+00  0.6750E+00
     -7.374  0.2155E+00  0.7055E+00
     -7.232  0.2605E+00  0.7423E+00
     -7.091  0.2877E+00  0.7830E+00
     -6.949  0.2925E+00  0.8244E+00
     -6.808  0.2919E+00  0.8657E+00
     -6.666  0.2717E+00  0.9042E+00
     -6.525  0.2576E+00  0.9406E+00
     -6.383  0.2937E+00  0.9822E+00
     -6.242  0.3377E+00  0.1030E+01
     -6.100  0.3509E+00  0.1080E+01
     -5.959  0.3685E+00  0.1132E+01
     -5.817  0.3713E+00  0.1184E+01
     -5.676  0.3431E+00  0.1233E+01
     -5.534  0.3224E+00  0.1278E+01
     -5.393  0.3517E+00  0.1328E+01
     -5.251  0.4000E+00  0.1385E+01
     -5.110  0.3744E+00  0.1438E+01
     -4.968  0.3058E+00  0.1481E+01
     -4.827  0.2677E+00  0.1519E+01
     -4.685  0.2802E+00  0.1559E+01
     -4.544  0.3048E+00  0.1602E+01
     -4.402  0.3207E+00  0.1647E+01
     -4.261  0.2955E+00  0.1689E+01
     -4.119  0.2362E+00  0.1722E+01
     -3.978  0.2224E+00  0.1754E+01
     -3.836  0.2505E+00  0.1789E+01
     -3.695  0.2382E+00  0.1823E+01
     -3.553  0.2375E+00  0.1857E+01
     -3.412  0.2737E+00  0.1895E+01
     -3.270  0.2747E+00  0.1934E+01
     -3.129  0.2554E+00  0.1970E+01
     -2.987  0.2614E+00  0.2007E+01
     -2.846  0.2911E+00  0.2048E+01
     -2.704  0.2871E+00  0.2089E+01
     -2.563  0.2620E+00  0.2126E+01
     -2.421  0.2729E+00  0.2165E+01
     -2.280  0.2912E+00  0.2206E+01
     -2.138  0.3232E+00  0.2252E+01
     -1.997  0.4071E+00  0.2309E+01
     -1.855  0.5393E+00  0.2386E+01
     -1.714  0.5940E+00  0.2470E+01
     -1.572  0.5461E+00  0.2547E+01
     -1.431  0.4931E+00  0.2617E+01
     -1.289  0.4927E+00  0.2686E+01
     -1.148  0.5050E+00  0.2758E+01
     -1.006  0.4175E+00  0.2817E+01
     -0.865  0.3211E+00  0.2862E+01
     -0.723  0.3023E+00  0.2905E+01
     -0.582  0.3483E+00  0.2954E+01
     -0.440  0.3909E+00  0.3010E+01
     -0.299  0.3304E+00  0.3056E+01
     -0.157  0.2304E+00  0.3089E+01
     -0.016  0.2358E+00  0.3122E+01
      0.126  0.2901E+00  0.3164E+01
      0.267  0.3086E+00  0.3207E+01
      0.409  0.3171E+00  0.3252E+01
      0.550  0.3190E+00  0.3297E+01
      0.692  0.3520E+00  0.3347E+01
      0.833  0.3985E+00  0.3403E+01
      0.975  0.4592E+00  0.3468E+01
      1.116  0.5496E+00  0.3546E+01
      1.258  0.5360E+00  0.3622E+01
      1.399  0.4613E+00  0.3687E+01
      1.541  0.4848E+00  0.3756E+01
      1.682  0.5243E+00  0.3830E+01
      1.824  0.5180E+00  0.3903E+01
      1.965  0.5225E+00  0.3977E+01
      2.107  0.5285E+00  0.4052E+01
      2.248  0.5162E+00  0.4125E+01
      2.390  0.5014E+00  0.4196E+01
      2.531  0.5501E+00  0.4274E+01
      2.673  0.5995E+00  0.4359E+01
      2.814  0.6032E+00  0.4444E+01
      2.956  0.6002E+00  0.4529E+01
      3.097  0.5658E+00  0.4609E+01
      3.239  0.6073E+00  0.4695E+01
      3.380  0.7485E+00  0.4801E+01
      3.522  0.7779E+00  0.4911E+01
      3.663  0.7405E+00  0.5016E+01
      3.805  0.7755E+00  0.5125E+01
      3.946  0.8200E+00  0.5241E+01
      4.088  0.7801E+00  0.5352E+01
      4.229  0.6734E+00  0.5447E+01
      4.370  0.6903E+00  0.5545E+01
      4.512  0.8399E+00  0.5664E+01
      4.653  0.8319E+00  0.5781E+01
      4.795  0.6988E+00  0.5880E+01
      4.936  0.6538E+00  0.5973E+01
      5.078  0.6966E+00  0.6071E+01
      5.219  0.7088E+00  0.6172E+01
      5.361  0.7048E+00  0.6271E+01
      5.502  0.7153E+00  0.6373E+01
      5.644  0.6968E+00  0.6471E+01
      5.785  0.6874E+00  0.6568E+01
      5.927  0.6668E+00  0.6663E+01
      6.068  0.6330E+00  0.6752E+01
      6.210  0.6468E+00  0.6844E+01
      6.351  0.6454E+00  0.6935E+01
      6.493  0.6373E+00  0.7025E+01
      6.634  0.6690E+00  0.7120E+01
      6.776  0.6480E+00  0.7212E+01
      6.917  0.5910E+00  0.7295E+01
      7.059  0.5545E+00  0.7374E+01
      7.200  0.5043E+00  0.7445E+01
      7.342  0.4303E+00  0.7506E+01
      7.483  0.3900E+00  0.7561E+01
      7.625  0.3845E+00  0.7616E+01
      7.766  0.3559E+00  0.7666E+01
      7.908  0.2896E+00  0.7707E+01
      8.049  0.2574E+00  0.7743E+01
      8.191  0.2593E+00  0.7780E+01
      8.332  0.2265E+00  0.7812E+01
      8.474  0.2035E+00  0.7841E+01
      8.615  0.2116E+00  0.7871E+01
      8.757  0.1847E+00  0.7897E+01
      8.898  0.1435E+00  0.7917E+01
      9.040  0.1344E+00  0.7936E+01
      9.181  0.1255E+00  0.7954E+01
      9.323  0.1023E+00  0.7968E+01
      9.464  0.8960E-01  0.7981E+01
      9.606  0.6804E-01  0.7991E+01
      9.747  0.4056E-01  0.7996E+01
      9.889  0.1882E-01  0.7999E+01
     10.030  0.5213E-02  0.8000E+01
     10.172  0.7137E-03  0.8000E+01
     10.313  0.4582E-04  0.8000E+01
     10.455  0.1333E-05  0.8000E+01
     10.596  0.1663E-07  0.8000E+01
     10.738  0.8413E-10  0.8000E+01
     10.879  0.1659E-12  0.8000E+01
     11.021  0.1236E-15  0.8000E+01
     11.162  0.0000E+00  0.8000E+01
     11.304  0.0000E+00  0.8000E+01
     11.445  0.0000E+00  0.8000E+01
     11.587  0.0000E+00  0.8000E+01
     11.728  0.0000E+00  0.8000E+01
     11.870  0.0000E+00  0.8000E+01
     12.011  0.0000E+00  0.8000E+01
     12.153  0.0000E+00  0.8000E+01
     12.294  0.0000E+00  0.8000E+01
     12.436  0.0000E+00  0.8000E+01
     12.577  0.0000E+00  0.8000E+01
     12.719  0.0000E+00  0.8000E+01
     12.860  0.4825E-16  0.8000E+01
     13.002  0.8216E-13  0.8000E+01
     13.143  0.5283E-10  0.8000E+01
     13.285  0.1296E-07  0.8000E+01
     13.426  0.1231E-05  0.8000E+01
     13.568  0.4633E-04  0.8000E+01
     13.709  0.7263E-03  0.8000E+01
     13.851  0.5255E-02  0.8001E+01
     13.992  0.2093E-01  0.8004E+01
     14.134  0.5363E-01  0.8011E+01
     14.275  0.9389E-01  0.8025E+01
     14.417  0.1261E+00  0.8043E+01
     14.558  0.1571E+00  0.8065E+01
     14.700  0.1884E+00  0.8091E+01
     14.841  0.2333E+00  0.8124E+01
     14.983  0.2942E+00  0.8166E+01
     15.124  0.3133E+00  0.8210E+01
     15.266  0.3307E+00  0.8257E+01
     15.407  0.3740E+00  0.8310E+01
     15.549  0.4197E+00  0.8370E+01
     15.690  0.4305E+00  0.8430E+01
     15.832  0.4342E+00  0.8492E+01
     15.973  0.4912E+00  0.8561E+01
     16.115  0.5387E+00  0.8638E+01
     16.256  0.5451E+00  0.8715E+01
     16.398  0.5580E+00  0.8794E+01
     16.539  0.5809E+00  0.8876E+01
     16.681  0.5821E+00  0.8958E+01
     16.822  0.5655E+00  0.9038E+01
     16.964  0.5982E+00  0.9123E+01
     17.105  0.6713E+00  0.9218E+01
     17.247  0.6979E+00  0.9317E+01
     17.388  0.7113E+00  0.9417E+01
     17.530  0.7739E+00  0.9527E+01
     17.671  0.8781E+00  0.9651E+01
     17.813  0.9489E+00  0.9785E+01
     17.954  0.9635E+00  0.9922E+01
     18.096  0.9748E+00  0.1006E+02
     18.237  0.1008E+01  0.1020E+02
     18.379  0.1008E+01  0.1034E+02
     18.520  0.9246E+00  0.1048E+02
     18.662  0.9441E+00  0.1061E+02
     18.803  0.9913E+00  0.1075E+02
     18.945  0.9139E+00  0.1088E+02
     19.086  0.8632E+00  0.1100E+02
     19.228  0.8768E+00  0.1112E+02
     19.369  0.9302E+00  0.1126E+02
     19.511  0.1007E+01  0.1140E+02
     19.652  0.9581E+00  0.1153E+02
     19.794  0.7515E+00  0.1164E+02
     19.935  0.5697E+00  0.1172E+02
     20.077  0.5835E+00  0.1180E+02
     20.218  0.6566E+00  0.1190E+02
     20.360  0.7117E+00  0.1200E+02
     20.501  0.8435E+00  0.1212E+02
     20.643  0.9309E+00  0.1225E+02
     20.784  0.7467E+00  0.1235E+02
     20.925  0.4551E+00  0.1242E+02
     21.067  0.3881E+00  0.1247E+02
     21.208  0.4644E+00  0.1254E+02
     21.350  0.5250E+00  0.1261E+02
     21.491  0.6349E+00  0.1270E+02
     21.633  0.7641E+00  0.1281E+02
     21.774  0.8171E+00  0.1293E+02
     21.916  0.7203E+00  0.1303E+02
     22.057  0.5764E+00  0.1311E+02
     22.199  0.5606E+00  0.1319E+02
     22.340  0.5917E+00  0.1327E+02
     22.482  0.6005E+00  0.1336E+02
     22.623  0.6875E+00  0.1346E+02
     22.765  0.8680E+00  0.1358E+02
     22.906  0.9850E+00  0.1372E+02
     23.048  0.9123E+00  0.1385E+02
     23.189  0.7829E+00  0.1396E+02
     23.331  0.7302E+00  0.1406E+02
     23.472  0.7335E+00  0.1417E+02
     23.614  0.8136E+00  0.1428E+02
     23.755  0.8812E+00  0.1441E+02
     23.897  0.8376E+00  0.1452E+02
     24.038  0.8409E+00  0.1464E+02
     24.180  0.9618E+00  0.1478E+02
     24.321  0.1040E+01  0.1493E+02
     24.463  0.9584E+00  0.1506E+02
     24.604  0.7445E+00  0.1517E+02
     24.746  0.6136E+00  0.1525E+02
     24.887  0.6755E+00  0.1535E+02
     25.029  0.7461E+00  0.1545E+02
     25.170  0.7536E+00  0.1556E+02
     25.312  0.6768E+00  0.1566E+02
     25.453  0.5647E+00  0.1574E+02
     25.595  0.4447E+00  0.1580E+02
     25.736  0.3158E+00  0.1584E+02
     25.878  0.2470E+00  0.1588E+02
     26.019  0.2391E+00  0.1591E+02
     26.161  0.2017E+00  0.1594E+02
     26.302  0.1426E+00  0.1596E+02
     26.444  0.1120E+00  0.1598E+02
     26.585  0.8868E-01  0.1599E+02
     26.727  0.4919E-01  0.1600E+02
     26.868  0.1528E-01  0.1600E+02
     27.010  0.2550E-02  0.1600E+02
     27.151  0.2284E-03  0.1600E+02
     27.293  0.1008E-04  0.1600E+02
     27.434  0.1938E-06  0.1600E+02
     27.576  0.1495E-08  0.1600E+02
     27.717  0.4444E-11  0.1600E+02
     27.859  0.4996E-14  0.1600E+02
     28.000  0.2354E-17  0.1600E+02
     28.142  0.0000E+00  0.1600E+02
     28.283  0.0000E+00  0.1600E+02
     28.425  0.0000E+00  0.1600E+02
     28.566  0.0000E+00  0.1600E+02
     28.708  0.0000E+00  0.1600E+02
