C  N                                    
   1.00000000000000     
    10.7211360931000002    0.0000000000000000    0.0000000000000000
     0.0000000000000000   10.7211360931000002    0.0000000000000000
     0.0000000000000000    0.0000000000000000   10.7211360931000002
   C    N 
   214     1
Direct
     0.0832314747519831    0.0834526394806119    0.0834351912480145
     0.0835216677486130    0.0834215904421711    0.4167812143490934
     0.0827544557889937    0.0833293906232271    0.7500050047080862
     0.0836330239998375    0.4168461939351786    0.0830336420001601
     0.0833453168940252    0.4169364208914317    0.4166885803263938
     0.0828548503030930    0.4166368186313960    0.7498554436310414
     0.0835016314789314    0.7500582775844151    0.0831650345210662
     0.0837202617106811    0.7501832238661166    0.4164739131628892
     0.0835034106553465    0.7498282848512829    0.7497348892621929
     0.4166616622919150    0.0833293906232271    0.0839122102110039
     0.4167792808746000    0.0835073995088038    0.4171981145760881
     0.4160991845218476    0.0824462176233425    0.7505674824781536
     0.4168112233689598    0.4166368186313960    0.0838118156969045
     0.4185352373149414    0.4174898838791350    0.4185520997719792
     0.4151506232123268    0.4158082473568356    0.7515160437876673
     0.4169317777378083    0.7498282848512829    0.0831632553446511
     0.4165054220184246    0.7504314071579117    0.4168648235719346
     0.4172161817721403    0.7490411021492420    0.7494504852278610
     0.7498854526509078    0.0834215904421711    0.0831449982513845
     0.7499234735637685    0.0838249121265875    0.4167431934362327
     0.7494685524239131    0.0835073995088038    0.7498873861254012
     0.7499780866736074    0.4169364208914317    0.0833213491059794
     0.7564535761596076    0.4126483800258427    0.4102130908403936
     0.7481145672280221    0.4174898838791350    0.7481314296850599
     0.7501927538371120    0.7501832238661166    0.0829464042893164
     0.7502053599925844    0.7498092740895075    0.4164613070074168
     0.7498018434280667    0.7504314071579117    0.7501612449815767
     0.2499960576232283    0.2499949952919138    0.0839122102110039
     0.2501740665088050    0.2501126138745988    0.4171981145760881
     0.2491128846233437    0.2494325175218464    0.7505674824781536
     0.2500882574421723    0.5832187856509066    0.0831449982513845
     0.2504915791265887    0.5832568065637673    0.4167431934362327
     0.2501740665088050    0.5828018854239119    0.7498873861254012
     0.2501193064806131    0.9165648087519855    0.0834351912480145
     0.2500882574421723    0.9168550017486155    0.4167812143490934
     0.2499960576232283    0.9160877897889961    0.7500050047080862
     0.5833034846313936    0.2501445563689586    0.0838118156969045
     0.5841565498791326    0.2518685703149401    0.4185520997719792
     0.5824749133568332    0.2484839562123256    0.7515160437876673
     0.5836030868914293    0.5833114196736062    0.0833213491059794
     0.5793150460258403    0.5897869091596064    0.4102130908403936
     0.5841565498791326    0.5814479002280208    0.7481314296850599
     0.5835128599351762    0.9169663579998399    0.0830336420001601
     0.5836030868914293    0.9166786508940206    0.4166885803263938
     0.5833034846313936    0.9161881843030955    0.7498554436310414
     0.9164949518512842    0.2502651107378071    0.0831632553446511
     0.9170980741579129    0.2498387550184233    0.4168648235719346
     0.9157077691492432    0.2505495147721390    0.7494504852278610
     0.9168498908661178    0.5835260868371108    0.0829464042893164
     0.9164759410895087    0.5835386929925832    0.4164613070074168
     0.9170980741579129    0.5831351764280654    0.7501612449815767
     0.9167249445844163    0.9168349654789338    0.0831650345210662
     0.9168498908661178    0.9170535957106836    0.4164739131628892
     0.9164949518512842    0.9168367446553489    0.7497348892621929
     0.2502076318409010    0.0835409648408998    0.2503389355359786
     0.2495320464006312    0.0828653794006300    0.5836394539974563
     0.2496413792639700    0.0829747122639688    0.9170252877360312
     0.2506547656097169    0.4168915708249159    0.2506462417210855
     0.2498416023581953    0.4163969826161633    0.5836030173838367
     0.2495320464006312    0.4163605460025437    0.9171346205993700
     0.2503292632210687    0.7500484386072159    0.2499515613927841
     0.2506547656097169    0.7493537582789145    0.5831084291750841
     0.2502076318409010    0.7496610644640214    0.9164590351591002
     0.5835582368249135    0.0839880986097157    0.2506462417210855
     0.5830636486161609    0.0831749353581941    0.5836030173838367
     0.5830272120025413    0.0828653794006300    0.9171346205993700
     0.5841014435942000    0.4174347775942024    0.2510241510694229
     0.5830636486161609    0.4163969826161633    0.9168250646418059
     0.5840637680009380    0.7511366273501423    0.2488633726498577
     0.5841014435942000    0.7489758489305771    0.5825652224057976
     0.5835582368249135    0.7493537582789145    0.9160119013902843
     0.9167151056072171    0.0836625962210675    0.2499515613927841
     0.9160204252789157    0.0839880986097157    0.5831084291750841
     0.9163277314640226    0.0835409648408998    0.9164590351591002
     0.9178032943501435    0.4173971020009404    0.2488633726498577
     0.9156425159305783    0.4174347775942024    0.5825652224057976
     0.9160204252789157    0.4168915708249159    0.9160119013902843
     0.9168425497741595    0.7501758827741583    0.2498241172258417
     0.9178032943501435    0.7511366273501423    0.5826028979990596
     0.9167151056072171    0.7500484386072159    0.9163374037789325
     0.0835034106553465    0.2502651107378071    0.2501717151487242
     0.0828548503030930    0.2501445563689586    0.5833631813686040
     0.0827544557889937    0.2499949952919138    0.9166706093767729
     0.0837202617106811    0.5835260868371108    0.2498167761338834
     0.0833453168940252    0.5833114196736062    0.5830635791085683
     0.0835216677486130    0.5832187856509066    0.9165784095578289
     0.0835016314789314    0.9168349654789338    0.2499417224155849
     0.0836330239998375    0.9169663579998399    0.5831538060648214
     0.0832314747519831    0.9165648087519855    0.9165473605193881
     0.4172161817721403    0.2505495147721390    0.2509588978507580
     0.4151506232123268    0.2484839562123256    0.5841917526431644
     0.4160991845218476    0.2494325175218464    0.9175537823766575
     0.4165054220184246    0.5831351764280654    0.2495685928420883
     0.4185352373149414    0.5814479002280208    0.5825101161208650
     0.4167792808746000    0.5828018854239119    0.9164926004911962
     0.4169317777378083    0.9168367446553489    0.2501717151487242
     0.4168112233689598    0.9161881843030955    0.5833631813686040
     0.4166616622919150    0.9160877897889961    0.9166706093767729
     0.7498018434280667    0.2498387550184233    0.2495685928420883
     0.7481145672280221    0.2518685703149401    0.5825101161208650
     0.7494685524239131    0.2501126138745988    0.9164926004911962
     0.7502053599925844    0.5835386929925832    0.2501907259104925
     0.7564535761596076    0.5897869091596064    0.5873516199741573
     0.7499234735637685    0.5832568065637673    0.9161750878734125
     0.7501927538371120    0.9170535957106836    0.2498167761338834
     0.7499780866736074    0.9166786508940206    0.5830635791085683
     0.7498854526509078    0.9168550017486155    0.9165784095578289
     0.9999008708162975    0.0001428371013290    0.9998571628986710
     0.0001366211368250    0.0003034735904990    0.3332069822340316
     0.9995981274187073    0.0003020052651124    0.6665472006854856
     0.9995981274187073    0.3334527993145144    0.9996979947348876
     0.0001368262021018    0.3337049111141965    0.3332256999378416
     0.9990363580037567    0.3339190632905087    0.6660809367094913
     0.0001366211368250    0.6667930177659684    0.9996965264095010
     0.0000817934317965    0.6667119115433806    0.3332880884566194
     0.0001368262021018    0.6667743000621584    0.6662950888858035
     0.3333153834071396    0.9997306232183902    0.0002693767816098
     0.3335930902981588    0.0001925024014824    0.3335438168329858
     0.3331323822251093    0.9993415437872031    0.6668935630071928
     0.3331323822251093    0.3331064369928072    0.0006584562127969
     0.3345342441311985    0.3337064375419132    0.3346826350358043
     0.3322649601710452    0.3325269039401277    0.6674730960598723
     0.3335930902981588    0.6664561831670142    0.9998074975985176
     0.3337324528565944    0.6666729221421974    0.3333270778578026
     0.3345342441311985    0.6653173649641957    0.6662935624580868
     0.6666108124547350    0.0000360189377915    0.9999639810622085
     0.6668081867230100    0.0003612093005501    0.3335055677370065
     0.6664976199081707    0.9998251677597096    0.6665578453791383
     0.6664976199081707    0.3334421546208617    0.0001748322402904
     0.6678891173323507    0.3353441599299103    0.3347646449070822
     0.6624082389676218    0.3334539278754676    0.6665460721245324
     0.6668081867230100    0.6664944322629935    0.9996387906994499
     0.6663500574518864    0.6666033232057060    0.3333966767942940
     0.6678891173323507    0.6652353550929178    0.6646558400700897
     0.1663972902183914    0.1666487174071420    0.0002693767816098
     0.1668591694014836    0.1669264242981612    0.3335438168329858
     0.1660082107872043    0.1664657162251117    0.6668935630071928
     0.1667026859377927    0.4999441454547338    0.9999639810622085
     0.1670278763005513    0.5001415197230088    0.3335055677370065
     0.1664918347597109    0.4998309529081695    0.6665578453791383
     0.1668095041013302    0.8332342038162963    0.9998571628986710
     0.1669701405905002    0.8334699541368238    0.3332069822340316
     0.1669686722651136    0.8329314604187061    0.6665472006854856
     0.4997731039928084    0.1664657162251117    0.0006584562127969
     0.5003731045419144    0.1678675781312009    0.3346826350358043
     0.4991935709401290    0.1655982941710477    0.6674730960598723
     0.5001088216208629    0.4998309529081695    0.0001748322402904
     0.5020108269299115    0.5012224503323495    0.3347646449070822
     0.5001205948754688    0.4957415719676206    0.6665460721245324
     0.5001194663145156    0.8329314604187061    0.9996979947348876
     0.5003715781141977    0.8334701592021005    0.3332256999378416
     0.5005857302905099    0.8323696910037555    0.6660809367094913
     0.8331228491670117    0.1669264242981612    0.9998074975985176
     0.8333395881421950    0.1670657868565968    0.3333270778578026
     0.8319840309641933    0.1678675781312009    0.6662935624580868
     0.8331610982629911    0.5001415197230088    0.9996387906994499
     0.8332699892057036    0.4996833904518851    0.3333966767942940
     0.8319020210929153    0.5012224503323495    0.6646558400700897
     0.8334596837659660    0.8334699541368238    0.9996965264095010
     0.8333785775433782    0.8334151264317953    0.3332880884566194
     0.8334409660621560    0.8334701592021005    0.6662950888858035
     0.1668095041013302    0.0001428371013290    0.1667657961837037
     0.1667026859377927    0.0000360189377915    0.5000558545452662
     0.1663972902183914    0.9997306232183902    0.8333512825928580
     0.1669686722651136    0.3334527993145144    0.1670685395812939
     0.1664918347597109    0.3334421546208617    0.5001690470918305
     0.1660082107872043    0.3331064369928072    0.8335342837748883
     0.1669701405905002    0.6667930177659684    0.1665300458631762
     0.1670278763005513    0.6664944322629935    0.4998584802769912
     0.1668591694014836    0.6664561831670142    0.8330735757018388
     0.5001194663145156    0.0003020052651124    0.1670685395812939
     0.5001088216208629    0.9998251677597096    0.5001690470918305
     0.4997731039928084    0.9993415437872031    0.8335342837748883
     0.5005857302905099    0.3339190632905087    0.1676303089962445
     0.5001205948754688    0.3334539278754676    0.5042584280323794
     0.4991935709401290    0.3325269039401277    0.8344017058289523
     0.5003715781141977    0.6667743000621584    0.1665298407978995
     0.5020108269299115    0.6652353550929178    0.4987775496676505
     0.5003731045419144    0.6653173649641957    0.8321324218687991
     0.8334596837659660    0.0003034735904990    0.1665300458631762
     0.8331610982629911    0.0003612093005501    0.4998584802769912
     0.8331228491670117    0.0001925024014824    0.8330735757018388
     0.8334409660621560    0.3337049111141965    0.1665298407978995
     0.8319020210929153    0.3353441599299103    0.4987775496676505
     0.8319840309641933    0.3337064375419132    0.8321324218687991
     0.8333785775433782    0.6667119115433806    0.1665848735682047
     0.8332699892057036    0.6666033232057060    0.5003166095481149
     0.8333395881421950    0.6666729221421974    0.8329342131434032
     0.9999689438001838    0.1670092911813725    0.1666977231998175
     0.0000193259695749    0.1667090736398222    0.4998434310820699
     0.9992901437847124    0.1669139029824365    0.8330860970175635
     0.0007307435378863    0.5001576012693718    0.1659359234621149
     0.9995770238664505    0.5003388524675145    0.4996611475324855
     0.0000193259695749    0.5001565689179301    0.8332909263601778
     0.0001649623568909    0.8334982953568897    0.1665017046431103
     0.0007307435378863    0.8340640765378851    0.4998423987306211
     0.9999689438001838    0.8333022768001825    0.8329907088186275
     0.3335805689824340    0.1669139029824365    0.1673765232152888
     0.3326781340955449    0.1660114680955473    0.5006302250761436
     0.3327741245453026    0.1661074585453051    0.8338925414546949
     0.3333757396398198    0.5001565689179301    0.1666473410304263
     0.3339695044679516    0.4997372693386453    0.5002627306613547
     0.3326781340955449    0.4993697749238564    0.8339885319044527
     0.3336759571813701    0.8333022768001825    0.1666977231998175
     0.3333757396398198    0.8333526589695737    0.4998434310820699
     0.3335805689824340    0.8326234767847112    0.8330860970175635
     0.6668232359179314    0.1667090736398222    0.1666473410304263
     0.6664039363386465    0.1673028384679540    0.5002627306613547
     0.6660364419238576    0.1660114680955473    0.8339885319044527
     0.6670055194675157    0.5003388524675145    0.1670896431335507
     0.6664039363386465    0.4997372693386453    0.8326971615320460
     0.6668242682693801    0.8340640765378851    0.1659359234621149
     0.6670055194675157    0.8329103568664493    0.4996611475324855
     0.6668232359179314    0.8333526589695737    0.8332909263601778
     0.5755392732753322    0.4088726072753346    0.5911273927246654
 
  0.00000000E+00  0.00000000E+00  0.00000000E+00
  0.00000000E+00  0.00000000E+00  0.00000000E+00
  0.00000000E+00  0.00000000E+00  0.00000000E+00
  0.00000000E+00  0.00000000E+00  0.00000000E+00
  0.00000000E+00  0.00000000E+00  0.00000000E+00
  0.00000000E+00  0.00000000E+00  0.00000000E+00
  0.00000000E+00  0.00000000E+00  0.00000000E+00
  0.00000000E+00  0.00000000E+00  0.00000000E+00
  0.00000000E+00  0.00000000E+00  0.00000000E+00
  0.00000000E+00  0.00000000E+00  0.00000000E+00
  0.00000000E+00  0.00000000E+00  0.00000000E+00
  0.00000000E+00  0.00000000E+00  0.00000000E+00
  0.00000000E+00  0.00000000E+00  0.00000000E+00
  0.00000000E+00  0.00000000E+00  0.00000000E+00
  0.00000000E+00  0.00000000E+00  0.00000000E+00
  0.00000000E+00  0.00000000E+00  0.00000000E+00
  0.00000000E+00  0.00000000E+00  0.00000000E+00
  0.00000000E+00  0.00000000E+00  0.00000000E+00
  0.00000000E+00  0.00000000E+00  0.00000000E+00
  0.00000000E+00  0.00000000E+00  0.00000000E+00
  0.00000000E+00  0.00000000E+00  0.00000000E+00
  0.00000000E+00  0.00000000E+00  0.00000000E+00
  0.00000000E+00  0.00000000E+00  0.00000000E+00
  0.00000000E+00  0.00000000E+00  0.00000000E+00
  0.00000000E+00  0.00000000E+00  0.00000000E+00
  0.00000000E+00  0.00000000E+00  0.00000000E+00
  0.00000000E+00  0.00000000E+00  0.00000000E+00
  0.00000000E+00  0.00000000E+00  0.00000000E+00
  0.00000000E+00  0.00000000E+00  0.00000000E+00
  0.00000000E+00  0.00000000E+00  0.00000000E+00
  0.00000000E+00  0.00000000E+00  0.00000000E+00
  0.00000000E+00  0.00000000E+00  0.00000000E+00
  0.00000000E+00  0.00000000E+00  0.00000000E+00
  0.00000000E+00  0.00000000E+00  0.00000000E+00
  0.00000000E+00  0.00000000E+00  0.00000000E+00
  0.00000000E+00  0.00000000E+00  0.00000000E+00
  0.00000000E+00  0.00000000E+00  0.00000000E+00
  0.00000000E+00  0.00000000E+00  0.00000000E+00
  0.00000000E+00  0.00000000E+00  0.00000000E+00
  0.00000000E+00  0.00000000E+00  0.00000000E+00
  0.00000000E+00  0.00000000E+00  0.00000000E+00
  0.00000000E+00  0.00000000E+00  0.00000000E+00
  0.00000000E+00  0.00000000E+00  0.00000000E+00
  0.00000000E+00  0.00000000E+00  0.00000000E+00
  0.00000000E+00  0.00000000E+00  0.00000000E+00
  0.00000000E+00  0.00000000E+00  0.00000000E+00
  0.00000000E+00  0.00000000E+00  0.00000000E+00
  0.00000000E+00  0.00000000E+00  0.00000000E+00
  0.00000000E+00  0.00000000E+00  0.00000000E+00
  0.00000000E+00  0.00000000E+00  0.00000000E+00
  0.00000000E+00  0.00000000E+00  0.00000000E+00
  0.00000000E+00  0.00000000E+00  0.00000000E+00
  0.00000000E+00  0.00000000E+00  0.00000000E+00
  0.00000000E+00  0.00000000E+00  0.00000000E+00
  0.00000000E+00  0.00000000E+00  0.00000000E+00
  0.00000000E+00  0.00000000E+00  0.00000000E+00
  0.00000000E+00  0.00000000E+00  0.00000000E+00
  0.00000000E+00  0.00000000E+00  0.00000000E+00
  0.00000000E+00  0.00000000E+00  0.00000000E+00
  0.00000000E+00  0.00000000E+00  0.00000000E+00
  0.00000000E+00  0.00000000E+00  0.00000000E+00
  0.00000000E+00  0.00000000E+00  0.00000000E+00
  0.00000000E+00  0.00000000E+00  0.00000000E+00
  0.00000000E+00  0.00000000E+00  0.00000000E+00
  0.00000000E+00  0.00000000E+00  0.00000000E+00
  0.00000000E+00  0.00000000E+00  0.00000000E+00
  0.00000000E+00  0.00000000E+00  0.00000000E+00
  0.00000000E+00  0.00000000E+00  0.00000000E+00
  0.00000000E+00  0.00000000E+00  0.00000000E+00
  0.00000000E+00  0.00000000E+00  0.00000000E+00
  0.00000000E+00  0.00000000E+00  0.00000000E+00
  0.00000000E+00  0.00000000E+00  0.00000000E+00
  0.00000000E+00  0.00000000E+00  0.00000000E+00
  0.00000000E+00  0.00000000E+00  0.00000000E+00
  0.00000000E+00  0.00000000E+00  0.00000000E+00
  0.00000000E+00  0.00000000E+00  0.00000000E+00
  0.00000000E+00  0.00000000E+00  0.00000000E+00
  0.00000000E+00  0.00000000E+00  0.00000000E+00
  0.00000000E+00  0.00000000E+00  0.00000000E+00
  0.00000000E+00  0.00000000E+00  0.00000000E+00
  0.00000000E+00  0.00000000E+00  0.00000000E+00
  0.00000000E+00  0.00000000E+00  0.00000000E+00
  0.00000000E+00  0.00000000E+00  0.00000000E+00
  0.00000000E+00  0.00000000E+00  0.00000000E+00
  0.00000000E+00  0.00000000E+00  0.00000000E+00
  0.00000000E+00  0.00000000E+00  0.00000000E+00
  0.00000000E+00  0.00000000E+00  0.00000000E+00
  0.00000000E+00  0.00000000E+00  0.00000000E+00
  0.00000000E+00  0.00000000E+00  0.00000000E+00
  0.00000000E+00  0.00000000E+00  0.00000000E+00
  0.00000000E+00  0.00000000E+00  0.00000000E+00
  0.00000000E+00  0.00000000E+00  0.00000000E+00
  0.00000000E+00  0.00000000E+00  0.00000000E+00
  0.00000000E+00  0.00000000E+00  0.00000000E+00
  0.00000000E+00  0.00000000E+00  0.00000000E+00
  0.00000000E+00  0.00000000E+00  0.00000000E+00
  0.00000000E+00  0.00000000E+00  0.00000000E+00
  0.00000000E+00  0.00000000E+00  0.00000000E+00
  0.00000000E+00  0.00000000E+00  0.00000000E+00
  0.00000000E+00  0.00000000E+00  0.00000000E+00
  0.00000000E+00  0.00000000E+00  0.00000000E+00
  0.00000000E+00  0.00000000E+00  0.00000000E+00
  0.00000000E+00  0.00000000E+00  0.00000000E+00
  0.00000000E+00  0.00000000E+00  0.00000000E+00
  0.00000000E+00  0.00000000E+00  0.00000000E+00
  0.00000000E+00  0.00000000E+00  0.00000000E+00
  0.00000000E+00  0.00000000E+00  0.00000000E+00
  0.00000000E+00  0.00000000E+00  0.00000000E+00
  0.00000000E+00  0.00000000E+00  0.00000000E+00
  0.00000000E+00  0.00000000E+00  0.00000000E+00
  0.00000000E+00  0.00000000E+00  0.00000000E+00
  0.00000000E+00  0.00000000E+00  0.00000000E+00
  0.00000000E+00  0.00000000E+00  0.00000000E+00
  0.00000000E+00  0.00000000E+00  0.00000000E+00
  0.00000000E+00  0.00000000E+00  0.00000000E+00
  0.00000000E+00  0.00000000E+00  0.00000000E+00
  0.00000000E+00  0.00000000E+00  0.00000000E+00
  0.00000000E+00  0.00000000E+00  0.00000000E+00
  0.00000000E+00  0.00000000E+00  0.00000000E+00
  0.00000000E+00  0.00000000E+00  0.00000000E+00
  0.00000000E+00  0.00000000E+00  0.00000000E+00
  0.00000000E+00  0.00000000E+00  0.00000000E+00
  0.00000000E+00  0.00000000E+00  0.00000000E+00
  0.00000000E+00  0.00000000E+00  0.00000000E+00
  0.00000000E+00  0.00000000E+00  0.00000000E+00
  0.00000000E+00  0.00000000E+00  0.00000000E+00
  0.00000000E+00  0.00000000E+00  0.00000000E+00
  0.00000000E+00  0.00000000E+00  0.00000000E+00
  0.00000000E+00  0.00000000E+00  0.00000000E+00
  0.00000000E+00  0.00000000E+00  0.00000000E+00
  0.00000000E+00  0.00000000E+00  0.00000000E+00
  0.00000000E+00  0.00000000E+00  0.00000000E+00
  0.00000000E+00  0.00000000E+00  0.00000000E+00
  0.00000000E+00  0.00000000E+00  0.00000000E+00
  0.00000000E+00  0.00000000E+00  0.00000000E+00
  0.00000000E+00  0.00000000E+00  0.00000000E+00
  0.00000000E+00  0.00000000E+00  0.00000000E+00
  0.00000000E+00  0.00000000E+00  0.00000000E+00
  0.00000000E+00  0.00000000E+00  0.00000000E+00
  0.00000000E+00  0.00000000E+00  0.00000000E+00
  0.00000000E+00  0.00000000E+00  0.00000000E+00
  0.00000000E+00  0.00000000E+00  0.00000000E+00
  0.00000000E+00  0.00000000E+00  0.00000000E+00
  0.00000000E+00  0.00000000E+00  0.00000000E+00
  0.00000000E+00  0.00000000E+00  0.00000000E+00
  0.00000000E+00  0.00000000E+00  0.00000000E+00
  0.00000000E+00  0.00000000E+00  0.00000000E+00
  0.00000000E+00  0.00000000E+00  0.00000000E+00
  0.00000000E+00  0.00000000E+00  0.00000000E+00
  0.00000000E+00  0.00000000E+00  0.00000000E+00
  0.00000000E+00  0.00000000E+00  0.00000000E+00
  0.00000000E+00  0.00000000E+00  0.00000000E+00
  0.00000000E+00  0.00000000E+00  0.00000000E+00
  0.00000000E+00  0.00000000E+00  0.00000000E+00
  0.00000000E+00  0.00000000E+00  0.00000000E+00
  0.00000000E+00  0.00000000E+00  0.00000000E+00
  0.00000000E+00  0.00000000E+00  0.00000000E+00
  0.00000000E+00  0.00000000E+00  0.00000000E+00
  0.00000000E+00  0.00000000E+00  0.00000000E+00
  0.00000000E+00  0.00000000E+00  0.00000000E+00
  0.00000000E+00  0.00000000E+00  0.00000000E+00
  0.00000000E+00  0.00000000E+00  0.00000000E+00
  0.00000000E+00  0.00000000E+00  0.00000000E+00
  0.00000000E+00  0.00000000E+00  0.00000000E+00
  0.00000000E+00  0.00000000E+00  0.00000000E+00
  0.00000000E+00  0.00000000E+00  0.00000000E+00
  0.00000000E+00  0.00000000E+00  0.00000000E+00
  0.00000000E+00  0.00000000E+00  0.00000000E+00
  0.00000000E+00  0.00000000E+00  0.00000000E+00
  0.00000000E+00  0.00000000E+00  0.00000000E+00
  0.00000000E+00  0.00000000E+00  0.00000000E+00
  0.00000000E+00  0.00000000E+00  0.00000000E+00
  0.00000000E+00  0.00000000E+00  0.00000000E+00
  0.00000000E+00  0.00000000E+00  0.00000000E+00
  0.00000000E+00  0.00000000E+00  0.00000000E+00
  0.00000000E+00  0.00000000E+00  0.00000000E+00
  0.00000000E+00  0.00000000E+00  0.00000000E+00
  0.00000000E+00  0.00000000E+00  0.00000000E+00
  0.00000000E+00  0.00000000E+00  0.00000000E+00
  0.00000000E+00  0.00000000E+00  0.00000000E+00
  0.00000000E+00  0.00000000E+00  0.00000000E+00
  0.00000000E+00  0.00000000E+00  0.00000000E+00
  0.00000000E+00  0.00000000E+00  0.00000000E+00
  0.00000000E+00  0.00000000E+00  0.00000000E+00
  0.00000000E+00  0.00000000E+00  0.00000000E+00
  0.00000000E+00  0.00000000E+00  0.00000000E+00
  0.00000000E+00  0.00000000E+00  0.00000000E+00
  0.00000000E+00  0.00000000E+00  0.00000000E+00
  0.00000000E+00  0.00000000E+00  0.00000000E+00
  0.00000000E+00  0.00000000E+00  0.00000000E+00
  0.00000000E+00  0.00000000E+00  0.00000000E+00
  0.00000000E+00  0.00000000E+00  0.00000000E+00
  0.00000000E+00  0.00000000E+00  0.00000000E+00
  0.00000000E+00  0.00000000E+00  0.00000000E+00
  0.00000000E+00  0.00000000E+00  0.00000000E+00
  0.00000000E+00  0.00000000E+00  0.00000000E+00
  0.00000000E+00  0.00000000E+00  0.00000000E+00
  0.00000000E+00  0.00000000E+00  0.00000000E+00
  0.00000000E+00  0.00000000E+00  0.00000000E+00
  0.00000000E+00  0.00000000E+00  0.00000000E+00
  0.00000000E+00  0.00000000E+00  0.00000000E+00
  0.00000000E+00  0.00000000E+00  0.00000000E+00
  0.00000000E+00  0.00000000E+00  0.00000000E+00
  0.00000000E+00  0.00000000E+00  0.00000000E+00
  0.00000000E+00  0.00000000E+00  0.00000000E+00
  0.00000000E+00  0.00000000E+00  0.00000000E+00
  0.00000000E+00  0.00000000E+00  0.00000000E+00
  0.00000000E+00  0.00000000E+00  0.00000000E+00
  0.00000000E+00  0.00000000E+00  0.00000000E+00
  0.00000000E+00  0.00000000E+00  0.00000000E+00
  0.00000000E+00  0.00000000E+00  0.00000000E+00
  0.00000000E+00  0.00000000E+00  0.00000000E+00
  0.00000000E+00  0.00000000E+00  0.00000000E+00
  0.00000000E+00  0.00000000E+00  0.00000000E+00
  0.00000000E+00  0.00000000E+00  0.00000000E+00
