/var/spool/slurmd/job07470/slurm_script: line 11: !#SBATCH: command not found
real-time non-blocking time  (microseconds, -R) unlimited
core file size              (blocks, -c) unlimited
data seg size               (kbytes, -d) unlimited
scheduling priority                 (-e) 0
file size                   (blocks, -f) unlimited
pending signals                     (-i) 509951
max locked memory           (kbytes, -l) unlimited
max memory size             (kbytes, -m) 110592000
open files                          (-n) 1024
pipe size                (512 bytes, -p) 8
POSIX message queues         (bytes, -q) 819200
real-time priority                  (-r) 0
stack size                  (kbytes, -s) unlimited
cpu time                   (seconds, -t) unlimited
max user processes                  (-u) 125621
virtual memory              (kbytes, -v) unlimited
file locks                          (-x) unlimited
 running   36 mpi-ranks, with    1 threads/rank, on    1 nodes
 distrk:  each k-point on   36 cores,    1 groups
 distr:  one band on    9 cores,    4 groups
 vasp.6.5.1 10Mar25 (build Feb 13 2026 23:13:13) complex                        
  
 POSCAR found type information on POSCAR C N 
 POSCAR found :  2 types and     215 ions
 -----------------------------------------------------------------------------
|                                                                             |
|           W    W    AA    RRRRR   N    N  II  N    N   GGGG   !!!           |
|           W    W   A  A   R    R  NN   N  II  NN   N  G    G  !!!           |
|           W    W  A    A  R    R  N N  N  II  N N  N  G       !!!           |
|           W WW W  AAAAAA  RRRRR   N  N N  II  N  N N  G  GGG   !            |
|           WW  WW  A    A  R   R   N   NN  II  N   NN  G    G                |
|           W    W  A    A  R    R  N    N  II  N    N   GGGG   !!!           |
|                                                                             |
|     You requested a magnetic or noncollinear calculation, but did not       |
|     specify the initial magnetic moment with the MAGMOM tag. Note that      |
|     a default of 1 will be used for all atoms. This ferromagnetic setup     |
|     may break the symmetry of the crystal, in particular it may rule        |
|     out finding an antiferromagnetic solution. Thence, we recommend         |
|     setting the initial magnetic moment manually or verifying carefully     |
|     that this magnetic setup is desired.                                    |
|                                                                             |
 -----------------------------------------------------------------------------

 scaLAPACK will be used
 LDA part: xc-table for (Slater+PW92), standard interpolation
 POSCAR, INCAR and KPOINTS ok, starting setup
 FFT: planning ... GRIDC
 FFT: planning ... GRID_SOFT
 FFT: planning ... GRID
 WAVECAR not read
 entering main loop
       N       E                     dE             d eps       ncg     rms          rms(c)
DAV:   1     0.252545435399E+04    0.25255E+04   -0.44084E+05  2592   0.127E+03
DAV:   2    -0.168574924783E+04   -0.42112E+04   -0.39782E+04  3104   0.266E+02
DAV:   3    -0.190822997664E+04   -0.22248E+03   -0.22003E+03  3352   0.555E+01
DAV:   4    -0.191199156528E+04   -0.37616E+01   -0.37425E+01  3336   0.720E+00
DAV:   5    -0.191207711761E+04   -0.85552E-01   -0.85422E-01  3336   0.106E+00BRMIX: very serious problems
 the old and the new charge density differ
 old charge density:   861.00000 new  861.99988
    0.908E+01
DAV:   6    -0.189707199985E+04    0.15005E+02   -0.91309E+01  3032   0.107E+01    0.509E+01
DAV:   7    -0.192802916207E+04   -0.30957E+02   -0.60664E+01  2944   0.848E+00    0.236E+01
DAV:   8    -0.193303589950E+04   -0.50067E+01   -0.93192E+00  3088   0.377E+00    0.719E+00
DAV:   9    -0.193308633857E+04   -0.50439E-01   -0.34299E-01  3216   0.894E-01    0.371E+00
DAV:  10    -0.193305998931E+04    0.26349E-01   -0.22676E-01  3112   0.549E-01    0.763E-01
DAV:  11    -0.193306924327E+04   -0.92540E-02   -0.28920E-02  3136   0.272E-01    0.235E-01
DAV:  12    -0.193307047008E+04   -0.12268E-02   -0.59193E-03  3232   0.873E-02    0.126E-01
DAV:  13    -0.193307086748E+04   -0.39740E-03   -0.76034E-04  3248   0.414E-02    0.702E-02
DAV:  14    -0.193307114708E+04   -0.27961E-03   -0.24621E-04  3144   0.236E-02    0.338E-02
DAV:  15    -0.193307120594E+04   -0.58856E-04   -0.70326E-05  3176   0.122E-02    0.131E-02
DAV:  16    -0.193307121242E+04   -0.64785E-05   -0.15007E-05  2960   0.486E-03    0.667E-03
DAV:  17    -0.193307121243E+04   -0.14465E-07   -0.14927E-06  2080   0.188E-03
   1 F= -.19330712E+04 E0= -.19330712E+04  d E =-.193307E+04  mag=     2.0003
 curvature:   0.00 expect dE= 0.000E+00 dE for cont linesearch  0.000E+00
 trial: gam= 0.00000 g(F)=  0.454E+00 g(S)=  0.000E+00 ort = 0.000E+00 (trialstep = 0.100E+01)
 search vector abs. value=  0.454E+00
 bond charge predicted
       N       E                     dE             d eps       ncg     rms          rms(c)
DAV:   1    -0.193300530372E+04    0.65909E-01   -0.55277E+01  2688   0.783E+00    0.171E+00
DAV:   2    -0.193306466247E+04   -0.59359E-01   -0.97557E-01  3376   0.115E+00    0.998E-01
DAV:   3    -0.193305360056E+04    0.11062E-01   -0.44065E-02  3344   0.285E-01    0.538E-01
DAV:   4    -0.193305154309E+04    0.20575E-02   -0.19073E-02  3264   0.171E-01    0.299E-01
DAV:   5    -0.193305170311E+04   -0.16001E-03   -0.21772E-03  3216   0.565E-02    0.132E-01
DAV:   6    -0.193305167599E+04    0.27117E-04   -0.33665E-04  3304   0.247E-02    0.637E-02
DAV:   7    -0.193305169575E+04   -0.19764E-04   -0.88466E-05  3312   0.132E-02    0.198E-02
DAV:   8    -0.193305169542E+04    0.32924E-06   -0.16346E-05  3160   0.557E-03    0.716E-03
DAV:   9    -0.193305169578E+04   -0.35788E-06   -0.40458E-06  2664   0.234E-03
   2 F= -.19330517E+04 E0= -.19330517E+04  d E =0.195167E-01  mag=     2.0000
 trial-energy change:    0.019517  1 .order    0.021723   -0.454442    0.497889
 step:   0.4807(harm=  0.4772)  dis= 0.03390  next Energy= -1933.180674 (dE=-0.109E+00)
 bond charge predicted
       N       E                     dE             d eps       ncg     rms          rms(c)
DAV:   1    -0.193316761528E+04   -0.11592E+00   -0.15017E+01  2680   0.421E+00    0.894E-01
DAV:   2    -0.193318470811E+04   -0.17093E-01   -0.27875E-01  3352   0.601E-01    0.556E-01
DAV:   3    -0.193318209986E+04    0.26083E-02   -0.10848E-02  3360   0.136E-01    0.355E-01
DAV:   4    -0.193318099991E+04    0.10999E-02   -0.39907E-03  3304   0.791E-02    0.206E-01
DAV:   5    -0.193318110286E+04   -0.10295E-03   -0.58683E-04  3264   0.308E-02    0.805E-02
DAV:   6    -0.193318111571E+04   -0.12846E-04   -0.68220E-05  3248   0.107E-02    0.305E-02
DAV:   7    -0.193318111882E+04   -0.31112E-05   -0.16269E-05  3264   0.615E-03    0.903E-03
DAV:   8    -0.193318111909E+04   -0.26694E-06   -0.37870E-06  2480   0.264E-03
   3 F= -.19331811E+04 E0= -.19331811E+04  d E =-.109907E+00  mag=     2.0000
 curvature:  -0.24 expect dE=-0.338E-01 dE for cont linesearch -0.397E-05
 trial: gam= 0.31780 g(F)=  0.142E+00 g(S)=  0.000E+00 ort =-0.275E-02 (trialstep = 0.896E+00)
 search vector abs. value=  0.186E+00
 bond charge predicted
       N       E                     dE             d eps       ncg     rms          rms(c)
DAV:   1    -0.193321647095E+04   -0.35352E-01   -0.18197E+01  2656   0.462E+00    0.861E-01
DAV:   2    -0.193323497594E+04   -0.18505E-01   -0.25142E-01  3360   0.568E-01    0.488E-01
DAV:   3    -0.193323386887E+04    0.11071E-02   -0.90427E-03  3328   0.122E-01    0.283E-01
DAV:   4    -0.193323344303E+04    0.42584E-03   -0.26935E-03  3320   0.660E-02    0.152E-01
DAV:   5    -0.193323352301E+04   -0.79986E-04   -0.34706E-04  3160   0.235E-02    0.641E-02
DAV:   6    -0.193323352694E+04   -0.39316E-05   -0.42989E-05  3312   0.983E-03    0.279E-02
DAV:   7    -0.193323353304E+04   -0.60982E-05   -0.13363E-05  3288   0.549E-03    0.834E-03
DAV:   8    -0.193323353320E+04   -0.16205E-06   -0.21353E-06  2088   0.206E-03
   4 F= -.19332335E+04 E0= -.19332335E+04  d E =-.524141E-01  mag=     2.0000
 trial-energy change:   -0.052414  1 .order   -0.051929   -0.126177    0.022318
 step:   0.7637(harm=  0.7614)  dis= 0.01770  next Energy= -1933.235181 (dE=-0.541E-01)
 bond charge predicted
       N       E                     dE             d eps       ncg     rms          rms(c)
DAV:   1    -0.193323488196E+04   -0.13489E-02   -0.39838E-01  2688   0.686E-01    0.129E-01
DAV:   2    -0.193323528427E+04   -0.40231E-03   -0.54880E-03  3368   0.839E-02    0.734E-02
DAV:   3    -0.193323526212E+04    0.22143E-04   -0.19587E-04  3336   0.178E-02    0.435E-02
DAV:   4    -0.193323525107E+04    0.11057E-04   -0.56007E-05  3336   0.958E-03    0.239E-02
DAV:   5    -0.193323525283E+04   -0.17634E-05   -0.80577E-06  2880   0.355E-03    0.995E-03
DAV:   6    -0.193323525290E+04   -0.72177E-07   -0.85892E-07  1752   0.143E-03
   5 F= -.19332353E+04 E0= -.19332353E+04  d E =-.541338E-01  mag=     2.0000
 curvature:  -0.50 expect dE=-0.240E-01 dE for cont linesearch -0.447E-06
 trial: gam= 0.36013 g(F)=  0.478E-01 g(S)=  0.000E+00 ort =-0.407E-03 (trialstep = 0.870E+00)
 search vector abs. value=  0.716E-01
 bond charge predicted
       N       E                     dE             d eps       ncg     rms          rms(c)
DAV:   1    -0.193324336479E+04   -0.81120E-02   -0.59858E+00  2656   0.302E+00    0.484E-01
DAV:   2    -0.193325008141E+04   -0.67166E-02   -0.89600E-02  3352   0.352E-01    0.275E-01
DAV:   3    -0.193324962147E+04    0.45994E-03   -0.27082E-03  3344   0.717E-02    0.159E-01
DAV:   4    -0.193324953474E+04    0.86729E-04   -0.76454E-04  3360   0.375E-02    0.810E-02
DAV:   5    -0.193324956475E+04   -0.30008E-04   -0.11114E-04  3200   0.145E-02    0.342E-02
DAV:   6    -0.193324956586E+04   -0.11081E-05   -0.16550E-05  3328   0.520E-03    0.142E-02
DAV:   7    -0.193324956673E+04   -0.87303E-06   -0.39324E-06  2976   0.330E-03
   6 F= -.19332496E+04 E0= -.19332496E+04  d E =-.143138E-01  mag=     2.0000
 trial-energy change:   -0.014314  1 .order   -0.013988   -0.041442    0.013466
 step:   0.6620(harm=  0.6564)  dis= 0.00798  next Energy= -1933.251170 (dE=-0.159E-01)
 bond charge predicted
       N       E                     dE             d eps       ncg     rms          rms(c)
DAV:   1    -0.193325088794E+04   -0.13221E-02   -0.34115E-01  2672   0.720E-01    0.115E-01
DAV:   2    -0.193325126768E+04   -0.37974E-03   -0.50899E-03  3352   0.839E-02    0.658E-02
DAV:   3    -0.193325124070E+04    0.26976E-04   -0.15317E-04  3328   0.170E-02    0.376E-02
DAV:   4    -0.193325123537E+04    0.53319E-05   -0.44117E-05  3360   0.903E-03    0.188E-02
DAV:   5    -0.193325123695E+04   -0.15813E-05   -0.65462E-06  2920   0.350E-03    0.801E-03
DAV:   6    -0.193325123699E+04   -0.33833E-07   -0.88919E-07  1808   0.126E-03
   7 F= -.19332512E+04 E0= -.19332512E+04  d E =-.159841E-01  mag=     2.0000
 curvature:  -0.49 expect dE=-0.850E-02 dE for cont linesearch -0.229E-05
 trial: gam= 0.35853 g(F)=  0.172E-01 g(S)=  0.000E+00 ort =-0.577E-03 (trialstep = 0.828E+00)
 search vector abs. value=  0.260E-01
 bond charge predicted
       N       E                     dE             d eps       ncg     rms          rms(c)
DAV:   1    -0.193325664101E+04   -0.54041E-02   -0.18269E+00  2656   0.177E+00    0.254E-01
DAV:   2    -0.193325854841E+04   -0.19074E-02   -0.27525E-02  3384   0.200E-01    0.156E-01
DAV:   3    -0.193325833786E+04    0.21055E-03   -0.84499E-04  3352   0.423E-02    0.775E-02
DAV:   4    -0.193325832494E+04    0.12917E-04   -0.22994E-04  3320   0.198E-02    0.337E-02
DAV:   5    -0.193325832729E+04   -0.23516E-05   -0.21020E-05  3216   0.631E-03    0.167E-02
DAV:   6    -0.193325832751E+04   -0.21749E-06   -0.41410E-06  2944   0.294E-03
   8 F= -.19332583E+04 E0= -.19332583E+04  d E =-.709052E-02  mag=     2.0000
 trial-energy change:   -0.007091  1 .order   -0.006977   -0.014111    0.000157
 step:   0.8194(harm=  0.8190)  dis= 0.00346  next Energy= -1933.258328 (dE=-0.709E-02)
 bond charge predicted
       N       E                     dE             d eps       ncg     rms          rms(c)
DAV:   1    -0.193325832806E+04   -0.76724E-06   -0.19825E-04  2752   0.184E-02    0.379E-03
DAV:   2    -0.193325832812E+04   -0.63475E-07   -0.27707E-06  2912   0.204E-03
   9 F= -.19332583E+04 E0= -.19332583E+04  d E =-.709114E-02  mag=     2.0000
 curvature:  -0.62 expect dE=-0.646E-02 dE for cont linesearch -0.825E-08
 trial: gam= 0.57104 g(F)=  0.103E-01 g(S)=  0.000E+00 ort = 0.186E-04 (trialstep = 0.826E+00)
 search vector abs. value=  0.189E-01
 bond charge predicted
       N       E                     dE             d eps       ncg     rms          rms(c)
DAV:   1    -0.193326215005E+04   -0.38220E-02   -0.12891E+00  2608   0.150E+00    0.212E-01
DAV:   2    -0.193326333160E+04   -0.11816E-02   -0.18365E-02  3376   0.163E-01    0.131E-01
DAV:   3    -0.193326317380E+04    0.15780E-03   -0.66655E-04  3344   0.367E-02    0.610E-02
DAV:   4    -0.193326316977E+04    0.40371E-05   -0.15416E-04  3344   0.160E-02    0.271E-02
DAV:   5    -0.193326317180E+04   -0.20285E-05   -0.15016E-05  3152   0.536E-03    0.141E-02
DAV:   6    -0.193326317199E+04   -0.19507E-06   -0.25300E-06  2592   0.231E-03
  10 F= -.19332632E+04 E0= -.19332632E+04  d E =-.484387E-02  mag=     2.0000
 trial-energy change:   -0.004844  1 .order   -0.004935   -0.008555   -0.001316
 step:   0.9917(harm=  0.9766)  dis= 0.00358  next Energy= -1933.263303 (dE=-0.497E-02)
 bond charge predicted
       N       E                     dE             d eps       ncg     rms          rms(c)
DAV:   1    -0.193326325866E+04   -0.86870E-04   -0.51653E-02  2640   0.300E-01    0.426E-02
DAV:   2    -0.193326330818E+04   -0.49514E-04   -0.74198E-04  3376   0.327E-02    0.265E-02
DAV:   3    -0.193326330221E+04    0.59661E-05   -0.26452E-05  3352   0.733E-03    0.124E-02
DAV:   4    -0.193326330214E+04    0.72367E-07   -0.60666E-06  3040   0.320E-03
  11 F= -.19332633E+04 E0= -.19332633E+04  d E =-.497402E-02  mag=     2.0000
 curvature:  -0.88 expect dE=-0.618E-02 dE for cont linesearch -0.343E-06
 trial: gam= 0.70616 g(F)=  0.702E-02 g(S)=  0.000E+00 ort =-0.857E-04 (trialstep = 0.859E+00)
 search vector abs. value=  0.163E-01
 bond charge predicted
       N       E                     dE             d eps       ncg     rms          rms(c)
DAV:   1    -0.193326537454E+04   -0.20723E-02   -0.11752E+00  2608   0.144E+00    0.198E-01
DAV:   2    -0.193326638197E+04   -0.10074E-02   -0.16043E-02  3376   0.151E-01    0.125E-01
DAV:   3    -0.193326623226E+04    0.14971E-03   -0.54105E-04  3328   0.338E-02    0.515E-02
DAV:   4    -0.193326623131E+04    0.94922E-06   -0.12933E-04  3344   0.144E-02    0.216E-02
DAV:   5    -0.193326623291E+04   -0.15966E-05   -0.12809E-05  3208   0.466E-03    0.117E-02
DAV:   6    -0.193326623284E+04    0.67099E-07   -0.14417E-06  2168   0.199E-03
  12 F= -.19332662E+04 E0= -.19332662E+04  d E =-.293070E-02  mag=     2.0000
 trial-energy change:   -0.002931  1 .order   -0.002896   -0.005977    0.000186
 step:   0.8344(harm=  0.8335)  dis= 0.00243  next Energy= -1933.266236 (dE=-0.293E-02)
 bond charge predicted
       N       E                     dE             d eps       ncg     rms          rms(c)
DAV:   1    -0.193326623446E+04   -0.15541E-05   -0.99152E-04  2672   0.418E-02    0.586E-03
DAV:   2    -0.193326623506E+04   -0.59715E-06   -0.12887E-05  3368   0.429E-03    0.367E-03
DAV:   3    -0.193326623489E+04    0.16752E-06   -0.45896E-07  1704   0.100E-03
  13 F= -.19332662E+04 E0= -.19332662E+04  d E =-.293275E-02  mag=     2.0000
 curvature:  -0.98 expect dE=-0.372E-02 dE for cont linesearch -0.452E-07
 trial: gam= 0.51852 g(F)=  0.382E-02 g(S)=  0.000E+00 ort = 0.275E-04 (trialstep = 0.854E+00)
 search vector abs. value=  0.823E-02
 bond charge predicted
       N       E                     dE             d eps       ncg     rms          rms(c)
DAV:   1    -0.193326734093E+04   -0.11059E-02   -0.58841E-01  2608   0.102E+00    0.143E-01
DAV:   2    -0.193326788511E+04   -0.54418E-03   -0.85734E-03  3368   0.111E-01    0.903E-02
DAV:   3    -0.193326779847E+04    0.86636E-04   -0.27450E-04  3328   0.250E-02    0.381E-02
DAV:   4    -0.193326779709E+04    0.13819E-05   -0.79422E-05  3304   0.113E-02    0.136E-02
DAV:   5    -0.193326779763E+04   -0.53755E-06   -0.73127E-06  3136   0.381E-03
  14 F= -.19332678E+04 E0= -.19332678E+04  d E =-.156274E-02  mag=     2.0000
 trial-energy change:   -0.001563  1 .order   -0.001570   -0.003273    0.000133
 step:   0.8206(harm=  0.8210)  dis= 0.00186  next Energy= -1933.267800 (dE=-0.157E-02)
 bond charge predicted
       N       E                     dE             d eps       ncg     rms          rms(c)
DAV:   1    -0.193326779972E+04   -0.26254E-05   -0.91871E-04  2672   0.402E-02    0.616E-03
DAV:   2    -0.193326780005E+04   -0.33702E-06   -0.12605E-05  3376   0.427E-03    0.386E-03
DAV:   3    -0.193326779982E+04    0.23632E-06   -0.44587E-07  1616   0.101E-03
  15 F= -.19332678E+04 E0= -.19332678E+04  d E =-.156493E-02  mag=     2.0000
 curvature:  -0.88 expect dE=-0.183E-02 dE for cont linesearch -0.321E-07
 trial: gam= 0.55604 g(F)=  0.207E-02 g(S)=  0.000E+00 ort = 0.173E-04 (trialstep = 0.848E+00)
 search vector abs. value=  0.463E-02
 bond charge predicted
       N       E                     dE             d eps       ncg     rms          rms(c)
DAV:   1    -0.193326841816E+04   -0.61810E-03   -0.32913E-01  2640   0.759E-01    0.106E-01
DAV:   2    -0.193326869889E+04   -0.28073E-03   -0.46610E-03  3400   0.812E-02    0.672E-02
DAV:   3    -0.193326864752E+04    0.51370E-04   -0.15195E-04  3360   0.182E-02    0.270E-02
DAV:   4    -0.193326864772E+04   -0.20019E-06   -0.40438E-05  3328   0.804E-03    0.121E-02
DAV:   5    -0.193326864841E+04   -0.68980E-06   -0.34297E-06  2480   0.260E-03
  16 F= -.19332686E+04 E0= -.19332686E+04  d E =-.848595E-03  mag=     2.0000
 trial-energy change:   -0.000849  1 .order   -0.000849   -0.001763    0.000065
 step:   0.8176(harm=  0.8176)  dis= 0.00121  next Energy= -1933.268650 (dE=-0.850E-03)
 bond charge predicted
       N       E                     dE             d eps       ncg     rms          rms(c)
DAV:   1    -0.193326864926E+04   -0.15422E-05   -0.41226E-04  2656   0.268E-02    0.394E-03
DAV:   2    -0.193326864938E+04   -0.11650E-06   -0.54427E-06  3376   0.279E-03
  17 F= -.19332686E+04 E0= -.19332686E+04  d E =-.849564E-03  mag=     2.0000
 curvature:  -0.91 expect dE=-0.107E-02 dE for cont linesearch -0.223E-07
 trial: gam= 0.56858 g(F)=  0.117E-02 g(S)=  0.000E+00 ort = 0.107E-04 (trialstep = 0.842E+00)
 search vector abs. value=  0.268E-02
 bond charge predicted
       N       E                     dE             d eps       ncg     rms          rms(c)
DAV:   1    -0.193326895650E+04   -0.30724E-03   -0.18565E-01  2640   0.572E-01    0.801E-02
DAV:   2    -0.193326912313E+04   -0.16663E-03   -0.26724E-03  3384   0.617E-02    0.505E-02
DAV:   3    -0.193326909626E+04    0.26874E-04   -0.89634E-05  3336   0.143E-02    0.216E-02
DAV:   4    -0.193326909591E+04    0.34089E-06   -0.25428E-05  3304   0.653E-03    0.838E-03
DAV:   5    -0.193326909623E+04   -0.32045E-06   -0.23721E-06  2232   0.221E-03
  18 F= -.19332691E+04 E0= -.19332691E+04  d E =-.446855E-03  mag=     2.0000
 trial-energy change:   -0.000447  1 .order   -0.000444   -0.000992    0.000103
 step:   0.7622(harm=  0.7622)  dis= 0.00095  next Energy= -1933.269098 (dE=-0.449E-03)
 bond charge predicted
       N       E                     dE             d eps       ncg     rms          rms(c)
DAV:   1    -0.193326909993E+04   -0.40193E-05   -0.16510E-03  2672   0.540E-02    0.750E-03
DAV:   2    -0.193326910099E+04   -0.10521E-05   -0.23018E-05  3376   0.575E-03    0.480E-03
DAV:   3    -0.193326910064E+04    0.34238E-06   -0.78343E-07  1976   0.140E-03
  19 F= -.19332691E+04 E0= -.19332691E+04  d E =-.451263E-03  mag=     2.0000
 curvature:  -0.87 expect dE=-0.300E-03 dE for cont linesearch -0.187E-07
 trial: gam= 0.25469 g(F)=  0.346E-03 g(S)=  0.000E+00 ort = 0.760E-05 (trialstep = 0.826E+00)
 search vector abs. value=  0.524E-03
 bond charge predicted
       N       E                     dE             d eps       ncg     rms          rms(c)
DAV:   1    -0.193326913020E+04   -0.29213E-04   -0.36911E-02  2672   0.254E-01    0.372E-02
DAV:   2    -0.193326917370E+04   -0.43500E-04   -0.64744E-04  3400   0.314E-02    0.236E-02
DAV:   3    -0.193326916747E+04    0.62311E-05   -0.22743E-05  3376   0.713E-03    0.114E-02
DAV:   4    -0.193326916712E+04    0.34568E-06   -0.69852E-06  3136   0.348E-03
  20 F= -.19332692E+04 E0= -.19332692E+04  d E =-.664785E-04  mag=     2.0000
 trial-energy change:   -0.000066  1 .order   -0.000070   -0.000287    0.000147
 step:   0.5464(harm=  0.5464)  dis= 0.00032  next Energy= -1933.269196 (dE=-0.951E-04)
 bond charge predicted
       N       E                     dE             d eps       ncg     rms          rms(c)
DAV:   1    -0.193326918830E+04   -0.20831E-04   -0.42137E-03  2672   0.858E-02    0.117E-02
DAV:   2    -0.193326919288E+04   -0.45777E-05   -0.73892E-05  3400   0.106E-02    0.764E-03
DAV:   3    -0.193326919207E+04    0.80244E-06   -0.26009E-06  2816   0.244E-03
  21 F= -.19332692E+04 E0= -.19332692E+04  d E =-.914306E-04  mag=     2.0000
 curvature:  -0.41 expect dE=-0.484E-04 dE for cont linesearch -0.138E-07
 trial: gam= 0.35211 g(F)=  0.118E-03 g(S)=  0.000E+00 ort =-0.420E-05 (trialstep = 0.770E+00)
 search vector abs. value=  0.180E-03
 reached required accuracy - stopping structural energy minimisation
