       N       E                     dE             d eps       ncg     rms          rms(c)
DAV:   1     0.295885655408E+04    0.29589E+04   -0.45417E+05  2160   0.153E+03
DAV:   2    -0.174516068653E+04   -0.47040E+04   -0.45088E+04  2624   0.298E+02
DAV:   3    -0.199657839048E+04   -0.25142E+03   -0.24898E+03  2592   0.668E+01
DAV:   4    -0.200314915400E+04   -0.65708E+01   -0.65516E+01  2648   0.105E+01
DAV:   5    -0.200333210062E+04   -0.18295E+00   -0.18262E+00  2600   0.171E+00    0.579E+01
DAV:   6    -0.195175606873E+04    0.51576E+02   -0.40377E+01  2488   0.839E+00    0.344E+01
DAV:   7    -0.193465941219E+04    0.17097E+02   -0.47106E+01  2496   0.909E+00    0.813E+00
DAV:   8    -0.193497564405E+04   -0.31623E+00   -0.21021E+00  2600   0.195E+00    0.424E+00
DAV:   9    -0.193498282432E+04   -0.71803E-02   -0.26218E-01  2560   0.880E-01    0.106E+00
DAV:  10    -0.193498629494E+04   -0.34706E-02   -0.55648E-02  2552   0.361E-01    0.432E-01
DAV:  11    -0.193498629082E+04    0.41223E-05   -0.60113E-03  2608   0.123E-01    0.146E-01
DAV:  12    -0.193498682483E+04   -0.53402E-03   -0.13547E-03  2608   0.637E-02    0.741E-02
DAV:  13    -0.193498709285E+04   -0.26802E-03   -0.33096E-04  2600   0.320E-02    0.378E-02
DAV:  14    -0.193498718334E+04   -0.90483E-04   -0.80137E-05  2600   0.161E-02    0.170E-02
DAV:  15    -0.193498719346E+04   -0.10125E-04   -0.14741E-05  2472   0.677E-03    0.734E-03
DAV:  16    -0.193498719346E+04   -0.26193E-08   -0.27237E-06  1888   0.287E-03
   1 F= -.19349872E+04 E0= -.19349872E+04  d E =-.743101E-67  mag=     2.0000
