   2   2   0   0
  0.5639752E+01  0.2517300E-09  0.2517300E-09  0.2517300E-09  0.5000000E-15
  1.000000000000000E-004
  CAR 
 unknown system                          
     28.77148690    -13.74477658  301     10.63149128      1.00000000
    -13.745  0.0000E+00  0.0000E+00
    -13.603  0.0000E+00  0.0000E+00
    -13.461  0.0000E+00  0.0000E+00
    -13.320  0.0000E+00  0.0000E+00
    -13.178  0.0000E+00  0.0000E+00
    -13.036  0.0000E+00  0.0000E+00
    -12.894  0.3134E-17  0.4441E-18
    -12.753  0.7219E-14  0.1024E-14
    -12.611  0.6384E-11  0.9057E-12
    -12.469  0.2115E-08  0.3006E-09
    -12.328  0.2642E-06  0.3774E-07
    -12.186  0.1257E-04  0.1819E-05
    -12.044  0.2317E-03  0.3465E-04
    -11.902  0.1751E-02  0.2827E-03
    -11.761  0.6828E-02  0.1250E-02
    -11.619  0.2213E-01  0.4387E-02
    -11.477  0.5575E-01  0.1229E-01
    -11.336  0.7353E-01  0.2271E-01
    -11.194  0.5558E-01  0.3058E-01
    -11.052  0.6157E-01  0.3931E-01
    -10.910  0.9832E-01  0.5324E-01
    -10.769  0.1500E+00  0.7451E-01
    -10.627  0.1747E+00  0.9927E-01
    -10.485  0.1078E+00  0.1145E+00
    -10.343  0.4982E-01  0.1216E+00
    -10.202  0.6482E-01  0.1308E+00
    -10.060  0.1495E+00  0.1520E+00
     -9.918  0.2477E+00  0.1871E+00
     -9.777  0.2127E+00  0.2172E+00
     -9.635  0.1437E+00  0.2376E+00
     -9.493  0.1641E+00  0.2609E+00
     -9.351  0.1960E+00  0.2886E+00
     -9.210  0.1991E+00  0.3168E+00
     -9.068  0.1241E+00  0.3344E+00
     -8.926  0.6743E-01  0.3440E+00
     -8.785  0.1083E+00  0.3593E+00
     -8.643  0.2443E+00  0.3940E+00
     -8.501  0.4052E+00  0.4514E+00
     -8.359  0.3439E+00  0.5001E+00
     -8.218  0.1847E+00  0.5263E+00
     -8.076  0.1715E+00  0.5506E+00
     -7.934  0.2227E+00  0.5822E+00
     -7.792  0.2672E+00  0.6200E+00
     -7.651  0.2154E+00  0.6505E+00
     -7.509  0.1136E+00  0.6666E+00
     -7.367  0.1058E+00  0.6816E+00
     -7.226  0.2358E+00  0.7151E+00
     -7.084  0.3855E+00  0.7697E+00
     -6.942  0.3454E+00  0.8186E+00
     -6.800  0.3158E+00  0.8634E+00
     -6.659  0.3973E+00  0.9197E+00
     -6.517  0.4469E+00  0.9830E+00
     -6.375  0.3679E+00  0.1035E+01
     -6.234  0.1801E+00  0.1061E+01
     -6.092  0.1470E+00  0.1082E+01
     -5.950  0.2791E+00  0.1121E+01
     -5.808  0.3233E+00  0.1167E+01
     -5.667  0.2650E+00  0.1204E+01
     -5.525  0.2872E+00  0.1245E+01
     -5.383  0.4934E+00  0.1315E+01
     -5.242  0.6530E+00  0.1408E+01
     -5.100  0.4400E+00  0.1470E+01
     -4.958  0.1776E+00  0.1495E+01
     -4.816  0.2140E+00  0.1525E+01
     -4.675  0.3705E+00  0.1578E+01
     -4.533  0.3464E+00  0.1627E+01
     -4.391  0.2254E+00  0.1659E+01
     -4.249  0.1438E+00  0.1679E+01
     -4.108  0.1600E+00  0.1702E+01
     -3.966  0.3100E+00  0.1746E+01
     -3.824  0.3704E+00  0.1798E+01
     -3.683  0.2796E+00  0.1838E+01
     -3.541  0.2406E+00  0.1872E+01
     -3.399  0.2242E+00  0.1904E+01
     -3.257  0.1779E+00  0.1929E+01
     -3.116  0.2161E+00  0.1960E+01
     -2.974  0.3482E+00  0.2009E+01
     -2.832  0.3620E+00  0.2060E+01
     -2.691  0.2482E+00  0.2096E+01
     -2.549  0.1926E+00  0.2123E+01
     -2.407  0.3283E+00  0.2169E+01
     -2.265  0.4362E+00  0.2231E+01
     -2.124  0.3192E+00  0.2277E+01
     -1.982  0.3256E+00  0.2323E+01
     -1.840  0.5009E+00  0.2394E+01
     -1.699  0.4990E+00  0.2464E+01
     -1.557  0.4193E+00  0.2524E+01
     -1.415  0.4722E+00  0.2591E+01
     -1.273  0.6774E+00  0.2687E+01
     -1.132  0.7791E+00  0.2797E+01
     -0.990  0.5659E+00  0.2877E+01
     -0.848  0.2367E+00  0.2911E+01
     -0.706  0.8005E-01  0.2922E+01
     -0.565  0.1789E+00  0.2948E+01
     -0.423  0.3986E+00  0.3004E+01
     -0.281  0.3882E+00  0.3059E+01
     -0.140  0.1773E+00  0.3084E+01
      0.002  0.1148E+00  0.3100E+01
      0.144  0.2366E+00  0.3134E+01
      0.286  0.4336E+00  0.3195E+01
      0.427  0.5707E+00  0.3276E+01
      0.569  0.4691E+00  0.3343E+01
      0.711  0.2592E+00  0.3380E+01
      0.852  0.2201E+00  0.3411E+01
      0.994  0.4251E+00  0.3471E+01
      1.136  0.5910E+00  0.3555E+01
      1.278  0.5192E+00  0.3628E+01
      1.419  0.5013E+00  0.3699E+01
      1.561  0.5333E+00  0.3775E+01
      1.703  0.4747E+00  0.3842E+01
      1.845  0.5158E+00  0.3915E+01
      1.986  0.6049E+00  0.4001E+01
      2.128  0.5028E+00  0.4072E+01
      2.270  0.4246E+00  0.4132E+01
      2.411  0.4661E+00  0.4199E+01
      2.553  0.4730E+00  0.4266E+01
      2.695  0.6154E+00  0.4353E+01
      2.837  0.7844E+00  0.4464E+01
      2.978  0.6870E+00  0.4561E+01
      3.120  0.6080E+00  0.4647E+01
      3.262  0.6413E+00  0.4738E+01
      3.403  0.7429E+00  0.4844E+01
      3.545  0.6830E+00  0.4940E+01
      3.687  0.5600E+00  0.5020E+01
      3.829  0.7089E+00  0.5120E+01
      3.970  0.8511E+00  0.5241E+01
      4.112  0.7033E+00  0.5341E+01
      4.254  0.5175E+00  0.5414E+01
      4.395  0.7905E+00  0.5526E+01
      4.537  0.1165E+01  0.5691E+01
      4.679  0.1085E+01  0.5845E+01
      4.821  0.8491E+00  0.5965E+01
      4.962  0.7097E+00  0.6066E+01
      5.104  0.5857E+00  0.6149E+01
      5.246  0.3942E+00  0.6205E+01
      5.388  0.3973E+00  0.6261E+01
      5.529  0.5372E+00  0.6337E+01
      5.671  0.6027E+00  0.6422E+01
      5.813  0.7413E+00  0.6527E+01
      5.954  0.9024E+00  0.6655E+01
      6.096  0.9751E+00  0.6794E+01
      6.238  0.7912E+00  0.6906E+01
      6.380  0.5329E+00  0.6981E+01
      6.521  0.5136E+00  0.7054E+01
      6.663  0.5414E+00  0.7131E+01
      6.805  0.6378E+00  0.7221E+01
      6.946  0.7620E+00  0.7329E+01
      7.088  0.6400E+00  0.7420E+01
      7.230  0.3447E+00  0.7469E+01
      7.372  0.1820E+00  0.7494E+01
      7.513  0.2921E+00  0.7536E+01
      7.655  0.5171E+00  0.7609E+01
      7.797  0.5170E+00  0.7682E+01
      7.939  0.3413E+00  0.7731E+01
      8.080  0.1866E+00  0.7757E+01
      8.222  0.1036E+00  0.7772E+01
      8.364  0.1508E+00  0.7793E+01
      8.505  0.3279E+00  0.7840E+01
      8.647  0.3747E+00  0.7893E+01
      8.789  0.1994E+00  0.7921E+01
      8.931  0.6946E-01  0.7931E+01
      9.072  0.4178E-01  0.7937E+01
      9.214  0.6341E-01  0.7946E+01
      9.356  0.1332E+00  0.7965E+01
      9.497  0.1383E+00  0.7984E+01
      9.639  0.6151E-01  0.7993E+01
      9.781  0.2136E-01  0.7996E+01
      9.923  0.1675E-01  0.7998E+01
     10.064  0.8925E-02  0.8000E+01
     10.206  0.1949E-02  0.8000E+01
     10.348  0.1668E-03  0.8000E+01
     10.489  0.5522E-05  0.8000E+01
     10.631  0.6985E-07  0.8000E+01
     10.773  0.3344E-09  0.8000E+01
     10.915  0.6015E-12  0.8000E+01
     11.056  0.4042E-15  0.8000E+01
     11.198  0.0000E+00  0.8000E+01
     11.340  0.0000E+00  0.8000E+01
     11.482  0.0000E+00  0.8000E+01
     11.623  0.0000E+00  0.8000E+01
     11.765  0.0000E+00  0.8000E+01
     11.907  0.0000E+00  0.8000E+01
     12.048  0.0000E+00  0.8000E+01
     12.190  0.0000E+00  0.8000E+01
     12.332  0.0000E+00  0.8000E+01
     12.474  0.0000E+00  0.8000E+01
     12.615  0.0000E+00  0.8000E+01
     12.757  0.0000E+00  0.8000E+01
     12.899  0.4183E-15  0.8000E+01
     13.040  0.6882E-12  0.8000E+01
     13.182  0.4253E-09  0.8000E+01
     13.324  0.9971E-07  0.8000E+01
     13.466  0.8980E-05  0.8000E+01
     13.607  0.3155E-03  0.8000E+01
     13.749  0.4402E-02  0.8001E+01
     13.891  0.2487E-01  0.8004E+01
     14.033  0.5781E-01  0.8012E+01
     14.174  0.5652E-01  0.8020E+01
     14.316  0.3519E-01  0.8025E+01
     14.458  0.9179E-01  0.8038E+01
     14.599  0.2539E+00  0.8074E+01
     14.741  0.3178E+00  0.8119E+01
     14.883  0.2235E+00  0.8151E+01
     15.025  0.1948E+00  0.8179E+01
     15.166  0.2139E+00  0.8209E+01
     15.308  0.2631E+00  0.8246E+01
     15.450  0.4116E+00  0.8305E+01
     15.591  0.4800E+00  0.8373E+01
     15.733  0.3555E+00  0.8423E+01
     15.875  0.4062E+00  0.8481E+01
     16.017  0.6912E+00  0.8579E+01
     16.158  0.6873E+00  0.8676E+01
     16.300  0.4763E+00  0.8743E+01
     16.442  0.5022E+00  0.8815E+01
     16.583  0.6428E+00  0.8906E+01
     16.725  0.6151E+00  0.8993E+01
     16.867  0.4637E+00  0.9059E+01
     17.009  0.5620E+00  0.9138E+01
     17.150  0.9450E+00  0.9272E+01
     17.292  0.1080E+01  0.9425E+01
     17.434  0.7895E+00  0.9537E+01
     17.576  0.4457E+00  0.9600E+01
     17.717  0.4938E+00  0.9670E+01
     17.859  0.8804E+00  0.9795E+01
     18.001  0.1047E+01  0.9943E+01
     18.142  0.9199E+00  0.1007E+02
     18.284  0.9423E+00  0.1021E+02
     18.426  0.9745E+00  0.1035E+02
     18.568  0.8001E+00  0.1046E+02
     18.709  0.7081E+00  0.1056E+02
     18.851  0.7545E+00  0.1067E+02
     18.993  0.7913E+00  0.1078E+02
     19.134  0.1129E+01  0.1094E+02
     19.276  0.1517E+01  0.1115E+02
     19.418  0.1468E+01  0.1136E+02
     19.560  0.1242E+01  0.1154E+02
     19.701  0.1037E+01  0.1168E+02
     19.843  0.7274E+00  0.1179E+02
     19.985  0.4814E+00  0.1186E+02
     20.127  0.5240E+00  0.1193E+02
     20.268  0.5990E+00  0.1201E+02
     20.410  0.4620E+00  0.1208E+02
     20.552  0.3377E+00  0.1213E+02
     20.693  0.3590E+00  0.1218E+02
     20.835  0.4448E+00  0.1224E+02
     20.977  0.5400E+00  0.1232E+02
     21.119  0.6854E+00  0.1242E+02
     21.260  0.6736E+00  0.1251E+02
     21.402  0.4980E+00  0.1258E+02
     21.544  0.6922E+00  0.1268E+02
     21.685  0.1249E+01  0.1286E+02
     21.827  0.1314E+01  0.1304E+02
     21.969  0.8168E+00  0.1316E+02
     22.111  0.4129E+00  0.1322E+02
     22.252  0.2606E+00  0.1325E+02
     22.394  0.3474E+00  0.1330E+02
     22.536  0.5996E+00  0.1339E+02
     22.677  0.6608E+00  0.1348E+02
     22.819  0.6464E+00  0.1357E+02
     22.961  0.7904E+00  0.1369E+02
     23.103  0.9098E+00  0.1381E+02
     23.244  0.9567E+00  0.1395E+02
     23.386  0.9262E+00  0.1408E+02
     23.528  0.7711E+00  0.1419E+02
     23.670  0.5293E+00  0.1427E+02
     23.811  0.5687E+00  0.1435E+02
     23.953  0.9727E+00  0.1448E+02
     24.095  0.1363E+01  0.1468E+02
     24.236  0.1407E+01  0.1488E+02
     24.378  0.1303E+01  0.1506E+02
     24.520  0.1094E+01  0.1522E+02
     24.662  0.6461E+00  0.1531E+02
     24.803  0.2791E+00  0.1535E+02
     24.945  0.2388E+00  0.1538E+02
     25.087  0.4040E+00  0.1544E+02
     25.228  0.5180E+00  0.1551E+02
     25.370  0.6250E+00  0.1560E+02
     25.512  0.7387E+00  0.1571E+02
     25.654  0.5575E+00  0.1578E+02
     25.795  0.2983E+00  0.1583E+02
     25.937  0.3078E+00  0.1587E+02
     26.079  0.3799E+00  0.1592E+02
     26.221  0.2827E+00  0.1596E+02
     26.362  0.1307E+00  0.1598E+02
     26.504  0.3566E-01  0.1599E+02
     26.646  0.1735E-01  0.1599E+02
     26.787  0.3059E-01  0.1599E+02
     26.929  0.2717E-01  0.1600E+02
     27.071  0.9627E-02  0.1600E+02
     27.213  0.1342E-02  0.1600E+02
     27.354  0.7285E-04  0.1600E+02
     27.496  0.1520E-05  0.1600E+02
     27.638  0.1206E-07  0.1600E+02
     27.779  0.3607E-10  0.1600E+02
     27.921  0.4042E-13  0.1600E+02
     28.063  0.1880E-16  0.1600E+02
     28.205  0.0000E+00  0.1600E+02
     28.346  0.0000E+00  0.1600E+02
     28.488  0.0000E+00  0.1600E+02
     28.630  0.0000E+00  0.1600E+02
     28.771  0.0000E+00  0.1600E+02
