    2    2    1    1
  0.5639752E+01  0.2517300E-09  0.2517300E-09  0.2517300E-09  0.5000000E-15
  1.000000000000000E-004
  CAR 
 unknown system                          
      8    195      8
 
  0.1276756E-14  0.1276756E-14  0.1276756E-14  0.1714678E-03
      1        -11.740952   1.000000
      2          9.812789   1.000000
      3          9.812834   1.000000
      4          9.812834   1.000000
      5         15.418984   0.000000
      6         15.419042   0.000000
      7         15.419042   0.000000
      8         23.275328   0.000000
 
  0.5555556E-01  0.1277996E-14  0.1280753E-14  0.1371742E-02
      1        -11.655137   1.000000
      2          9.220110   1.000000
      3          9.660550   1.000000
      4          9.660589   1.000000
      5         15.617940   0.000000
      6         15.617992   0.000000
      7         15.782852   0.000000
      8         23.347118   0.000000
 
  0.1111111E+00  0.1267772E-14  0.1280355E-14  0.1371742E-02
      1        -11.398070   1.000000
      2          7.807851   1.000000
      3          9.273895   1.000000
      4          9.273933   1.000000
      5         16.127171   0.000000
      6         16.127226   0.000000
      7         16.526658   0.000000
      8         23.559729   0.000000
 
  0.1666667E+00  0.1268864E-14  0.1291497E-14  0.1371742E-02
      1        -10.971016   1.000000
      2          6.040503   1.000000
      3          8.783456   1.000000
      4          8.783492   1.000000
      5         16.768479   0.000000
      6         16.768537   0.000000
      7         17.243816   0.000000
      8         23.897614   0.000000
 
  0.2222222E+00  0.1276612E-14  0.1308446E-14  0.1371742E-02
      1        -10.376916   1.000000
      2          4.148959   1.000000
      3          8.287983   1.000000
      4          8.288018   1.000000
      5         17.375565   0.000000
      6         17.375624   0.000000
      7         17.797836   0.000000
      8         24.320500   0.000000
 
  0.2777778E+00  0.1284360E-14  0.1325780E-14  0.1371742E-02
      1         -9.620706   1.000000
      2          2.247282   1.000000
      3          7.843842   1.000000
      4          7.843875   1.000000
      5         17.837647   0.000000
      6         17.837708   0.000000
      7         18.187650   0.000000
      8         24.760277   0.000000
 
  0.3333333E+00  0.1307236E-14  0.1370484E-14  0.1371742E-02
      1         -8.711992   1.000000
      2          0.404727   1.000000
      3          7.480868   1.000000
      4          7.480900   1.000000
      5         18.116557   0.000000
      6         18.116617   0.000000
      7         18.449071   0.000000
      8         25.138959   0.000000
 
  0.3888889E+00  0.1256632E-14  0.1297784E-14  0.1371742E-02
      1         -7.673897   1.000000
      2         -1.320379   1.000000
      3          7.214502   1.000000
      4          7.214533   1.000000
      5         18.245925   0.000000
      6         18.245981   0.000000
      7         18.615399   0.000000
      8         25.396586   0.000000
 
  0.4444444E+00  0.1251752E-14  0.1328611E-14  0.1371742E-02
      1         -6.588491   1.000000
      2         -2.825471   1.000000
      3          7.052404   1.000000
      4          7.052434   1.000000
      5         18.288198   0.000000
      6         18.288254   0.000000
      7         18.708093   0.000000
      8         25.528266   0.000000
 
  0.5000000E+00  0.1297385E-14  0.1330914E-14  0.6858711E-03
      1         -5.932410   1.000000
      2         -3.622469   1.000000
      3          6.998078   1.000000
      4          6.998107   1.000000
      5         18.296117   0.000000
      6         18.296171   0.000000
      7         18.737969   0.000000
      8         25.570795   0.000000
 
  0.5555556E-01  0.5555556E-01  0.1276338E-14  0.1028807E-02
      1        -11.626534   1.000000
      2          9.361875   1.000000
      3          9.361904   1.000000
      4          9.534140   1.000000
      5         15.328475   0.000000
      6         15.968646   0.000000
      7         15.968687   0.000000
      8         23.351267   0.000000
 
  0.1111111E+00  0.5555556E-01  0.1280926E-14  0.4115226E-02
      1        -11.426549   1.000000
      2          8.276594   1.000000
      3          8.886422   1.000000
      4          9.381818   1.000000
      5         15.458797   0.000000
      6         16.579087   0.000000
      7         16.639262   0.000000
      8         23.456488   0.000000
 
  0.1666667E+00  0.5555556E-01  0.1311753E-14  0.4115226E-02
      1        -11.056140   1.000000
      2          6.640729   1.000000
      3          8.358411   1.000000
      4          9.036598   1.000000
      5         15.928345   0.000000
      6         17.281091   0.000000
      7         17.374535   0.000000
      8         23.651989   0.000000
 
  0.2222222E+00  0.5555556E-01  0.1300562E-14  0.4115226E-02
      1        -10.517725   1.000000
      2          4.804187   1.000000
      3          7.860129   1.000000
      4          8.565640   1.000000
      5         16.537411   0.000000
      6         17.924790   0.000000
      7         17.974887   0.000000
      8         23.922678   0.000000
 
  0.2777778E+00  0.5555556E-01  0.1332157E-14  0.4115226E-02
      1         -9.815498   1.000000
      2          2.915665   1.000000
      3          7.437782   1.000000
      4          8.068878   1.000000
      5         17.107572   0.000000
      6         18.401385   0.000000
      7         18.405417   0.000000
      8         24.262847   0.000000
 
  0.3333333E+00  0.5555556E-01  0.1391123E-14  0.4115226E-02
      1         -8.956899   1.000000
      2          1.059343   1.000000
      3          7.115884   1.000000
      4          7.606726   1.000000
      5         17.536250   0.000000
      6         18.665650   0.000000
      7         18.694944   0.000000
      8         24.665121   0.000000
 
  0.3888889E+00  0.5555556E-01  0.1298163E-14  0.4115226E-02
      1         -7.958890   1.000000
      2         -0.703796   1.000000
      3          6.906130   1.000000
      4          7.212524   1.000000
      5         17.813206   0.000000
      6         18.741489   0.000000
      7         18.878332   0.000000
      8         25.069314   0.000000
 
  0.4444444E+00  0.5555556E-01  0.1292970E-14  0.4115226E-02
      1         -6.872456   1.000000
      2         -2.296435   1.000000
      3          6.812945   1.000000
      4          6.905752   1.000000
      5         17.990712   0.000000
      6         18.694116   0.000000
      7         18.982663   0.000000
      8         25.385444   0.000000
 
  0.5000000E+00  0.5555556E-01  0.1323029E-14  0.4115226E-02
      1         -5.958477   1.000000
      2         -3.443126   1.000000
      3          6.698646   1.000000
      4          6.836128   1.000000
      5         18.129922   0.000000
      6         18.587071   0.000000
      7         19.022900   0.000000
      8         25.551859   0.000000
 
 -0.4444444E+00  0.5555556E-01  0.1212313E-14  0.4115226E-02
      1         -6.199195   1.000000
      2         -3.155437   1.000000
      3          6.599402   1.000000
      4          6.972036   1.000000
      5         18.263134   0.000000
      6         18.454215   0.000000
      7         19.004431   0.000000
      8         25.549778   0.000000
 
 -0.3888889E+00  0.5555556E-01  0.1215000E-14  0.4115226E-02
      1         -7.237703   1.000000
      2         -1.791404   1.000000
      3          6.613569   1.000000
      4          7.214379   1.000000
      5         18.292989   0.000000
      6         18.382714   0.000000
      7         18.924399   0.000000
      8         25.380825   0.000000
 
 -0.3333333E+00  0.5555556E-01  0.1240597E-14  0.4115226E-02
      1         -8.305378   1.000000
      2         -0.128546   1.000000
      3          6.743939   1.000000
      4          7.553770   1.000000
      5         18.065666   0.000000
      6         18.442138   0.000000
      7         18.769760   0.000000
      8         25.063681   0.000000
 
 -0.2777778E+00  0.5555556E-01  0.1223792E-14  0.4115226E-02
      1         -9.259838   1.000000
      2          1.672808   1.000000
      3          6.989853   1.000000
      4          7.975733   1.000000
      5         17.719960   0.000000
      6         18.369600   0.000000
      7         18.513390   0.000000
      8         24.661801   0.000000
 
 -0.2222222E+00  0.5555556E-01  0.1245971E-14  0.4115226E-02
      1        -10.067447   1.000000
      2          3.547632   1.000000
      3          7.345674   1.000000
      4          8.456574   1.000000
      5         17.227474   0.000000
      6         18.054492   0.000000
      7         18.168211   0.000000
      8         24.262449   0.000000
 
 -0.1666667E+00  0.5555556E-01  0.1242103E-14  0.4115226E-02
      1        -10.715751   1.000000
      2          5.429479   1.000000
      3          7.797755   1.000000
      4          8.954833   1.000000
      5         16.627387   0.000000
      6         17.470851   0.000000
      7         17.720531   0.000000
      8         23.916777   0.000000
 
 -0.1111111E+00  0.5555556E-01  0.1256908E-14  0.4115226E-02
      1        -11.198468   1.000000
      2          7.213326   1.000000
      3          8.321997   1.000000
      4          9.397533   1.000000
      5         16.042313   0.000000
      6         16.764882   0.000000
      7         17.093190   0.000000
      8         23.640494   0.000000
 
 -0.5555556E-01  0.5555556E-01  0.1268103E-14  0.2057613E-02
      1        -11.512223   1.000000
      2          8.639202   1.000000
      3          8.935773   1.000000
      4          9.670520   1.000000
      5         15.651379   0.000000
      6         16.090391   0.000000
      7         16.350748   0.000000
      8         23.446038   0.000000
 
  0.1111111E+00  0.1111111E+00  0.1301181E-14  0.1028807E-02
      1        -11.283889   1.000000
      2          8.357763   1.000000
      3          8.357790   1.000000
      4          8.749754   1.000000
      5         15.085404   0.000000
      6         17.265268   0.000000
      7         17.265314   0.000000
      8         23.332984   0.000000
 
  0.1666667E+00  0.1111111E+00  0.1318130E-14  0.4115226E-02
      1        -10.970701   1.000000
      2          7.122958   1.000000
      3          7.802154   1.000000
      4          8.525841   1.000000
      5         15.167324   0.000000
      6         18.028824   0.000000
      7         18.031979   0.000000
      8         23.191705   0.000000
 
  0.2222222E+00  0.1111111E+00  0.1320817E-14  0.4115226E-02
      1        -10.489000   1.000000
      2          5.441048   1.000000
      3          7.293477   1.000000
      4          8.177338   1.000000
      5         15.612706   0.000000
      6         18.692057   0.000000
      7         18.740359   0.000000
      8         23.074566   0.000000
 
  0.2777778E+00  0.1111111E+00  0.1352412E-14  0.4115226E-02
      1         -9.842247   1.000000
      2          3.628718   1.000000
      3          6.874362   1.000000
      4          7.692408   1.000000
      5         16.202483   0.000000
      6         19.182966   0.000000
      7         19.278585   0.000000
      8         23.092072   0.000000
 
  0.3333333E+00  0.1111111E+00  0.1362979E-14  0.4115226E-02
      1         -9.036871   1.000000
      2          1.800830   1.000000
      3          6.567965   1.000000
      4          7.169607   1.000000
      5         16.737109   0.000000
      6         19.513821   0.000000
      7         19.584858   0.000000
      8         23.369501   0.000000
 
  0.3888889E+00  0.1111111E+00  0.1318034E-14  0.4115226E-02
      1         -8.085682   1.000000
      2          0.031607   1.000000
      3          6.385821   1.000000
      4          6.673130   1.000000
      5         17.124379   0.000000
      6         19.666215   0.000000
      7         19.720516   0.000000
      8         23.929000   0.000000
 
  0.4444444E+00  0.1111111E+00  0.1312841E-14  0.4115226E-02
      1         -7.022850   1.000000
      2         -1.608525   1.000000
      3          6.241563   1.000000
      4          6.332038   1.000000
      5         17.391965   0.000000
      6         19.580559   0.000000
      7         19.837511   0.000000
      8         24.634427   0.000000
 
  0.5000000E+00  0.1111111E+00  0.1315144E-14  0.4115226E-02
      1         -5.992076   1.000000
      2         -2.954840   1.000000
      3          5.899355   1.000000
      4          6.405400   1.000000
      5         17.614816   0.000000
      6         19.395679   0.000000
      7         19.885880   0.000000
      8         25.245319   0.000000
 
 -0.4444444E+00  0.1111111E+00  0.1190167E-14  0.4115226E-02
      1         -5.756171   1.000000
      2         -3.234420   1.000000
      3          5.663073   1.000000
      4          6.600421   1.000000
      5         17.846350   0.000000
      6         19.158074   0.000000
      7         19.876183   0.000000
      8         25.522823   0.000000
 
 -0.3888889E+00  0.1111111E+00  0.1215379E-14  0.4115226E-02
      1         -6.662377   1.000000
      2         -2.098291   1.000000
      3          5.544294   1.000000
      4          6.907351   1.000000
      5         18.096630   0.000000
      6         18.878379   0.000000
      7         19.808077   0.000000
      8         25.371317   0.000000
 
 -0.3333333E+00  0.1111111E+00  0.1240592E-14  0.4115226E-02
      1         -7.742574   1.000000
      2         -0.521757   1.000000
      3          5.550874   1.000000
      4          7.311455   1.000000
      5         18.331520   0.000000
      6         18.533771   0.000000
      7         19.664401   0.000000
      8         24.902628   0.000000
 
 -0.2777778E+00  0.1111111E+00  0.1222846E-14  0.4115226E-02
      1         -8.736217   1.000000
      2          1.217657   1.000000
      3          5.687499   1.000000
      4          7.790799   1.000000
      5         18.086430   0.000000
      6         18.480459   0.000000
      7         19.400810   0.000000
      8         24.361553   0.000000
 
 -0.2222222E+00  0.1111111E+00  0.1259287E-14  0.4115226E-02
      1         -9.591797   1.000000
      2          3.035210   1.000000
      3          5.956837   1.000000
      4          8.311089   1.000000
      5         17.522107   0.000000
      6         18.463155   0.000000
      7         18.948873   0.000000
      8         23.958640   0.000000
 
 -0.1666667E+00  0.1111111E+00  0.1252238E-14  0.4115226E-02
      1        -10.291973   1.000000
      2          4.846477   1.000000
      3          6.368799   1.000000
      4          8.816714   1.000000
      5         16.895379   0.000000
      6         18.226370   0.000000
      7         18.288564   0.000000
      8         23.766545   0.000000
 
 -0.1111111E+00  0.1111111E+00  0.1268975E-14  0.2057613E-02
      1        -10.828958   1.000000
      2          6.401026   1.000000
      3          7.061530   1.000000
      4          9.218247   1.000000
      5         16.341818   0.000000
      6         17.505607   0.000000
      7         17.757667   0.000000
      8         23.696466   0.000000
 
  0.1666667E+00  0.1666667E+00  0.1324507E-14  0.1028807E-02
      1        -10.715043   1.000000
      2          7.224970   1.000000
      3          7.224994   1.000000
      4          7.572171   1.000000
      5         14.756538   0.000000
      6         18.874756   0.000000
      7         18.874809   0.000000
      8         22.594303   0.000000
 
  0.2222222E+00  0.1666667E+00  0.1312932E-14  0.4115226E-02
      1        -10.290692   1.000000
      2          5.936924   1.000000
      3          6.699351   1.000000
      4          7.307706   1.000000
      5         14.827407   0.000000
      6         19.652797   0.000000
      7         19.674545   0.000000
      8         22.012093   0.000000
 
  0.2777778E+00  0.1666667E+00  0.1352791E-14  0.4115226E-02
      1         -9.700701   1.000000
      2          4.294151   1.000000
      3          6.268311   1.000000
      4          6.912613   1.000000
      5         15.274943   0.000000
      6         20.249624   0.000000
      7         20.314136   0.000000
      8         21.633690   0.000000
 
  0.3333333E+00  0.1666667E+00  0.1355094E-14  0.4115226E-02
      1         -8.950569   1.000000
      2          2.563166   1.000000
      3          5.956243   1.000000
      4          6.374677   1.000000
      5         15.847380   0.000000
      6         20.657621   0.000000
      7         20.715148   0.000000
      8         21.637909   0.000000
 
  0.3888889E+00  0.1666667E+00  0.1338673E-14  0.4115226E-02
      1         -8.050567   1.000000
      2          0.837819   1.000000
      3          5.775874   1.000000
      4          5.801986   1.000000
      5         16.328148   0.000000
      6         20.860308   0.000000
      7         20.912553   0.000000
      8         22.130817   0.000000
 
  0.4444444E+00  0.1666667E+00  0.1304957E-14  0.4115226E-02
      1         -7.025280   1.000000
      2         -0.805624   1.000000
      3          5.264424   1.000000
      4          5.732278   1.000000
      5         16.664489   0.000000
      6         20.791117   0.000000
      7         21.054309   0.000000
      8         23.049914   0.000000
 
  0.5000000E+00  0.1666667E+00  0.1363539E-14  0.4115226E-02
      1         -5.959650   1.000000
      2         -2.250483   1.000000
      3          4.804283   1.000000
      4          5.824860   1.000000
      5         16.933123   0.000000
      6         20.574011   0.000000
      7         21.115211   0.000000
      8         24.159898   0.000000
 
 -0.4444444E+00  0.1666667E+00  0.1205192E-14  0.4115226E-02
      1         -5.328617   1.000000
      2         -3.004780   1.000000
      3          4.448146   1.000000
      4          6.048024   1.000000
      5         17.214794   0.000000
      6         20.263415   0.000000
      7         21.113908   0.000000
      8         25.090772   0.000000
 
 -0.3888889E+00  0.1666667E+00  0.1249512E-14  0.4115226E-02
      1         -5.968809   1.000000
      2         -2.225787   1.000000
      3          4.213841   1.000000
      4          6.390920   1.000000
      5         17.543314   0.000000
      6         19.880148   0.000000
      7         21.054339   0.000000
      8         25.336054   0.000000
 
 -0.3333333E+00  0.1666667E+00  0.1246969E-14  0.4115226E-02
      1         -7.032846   1.000000
      2         -0.766305   1.000000
      3          4.114104   1.000000
      4          6.836084   1.000000
      5         17.905111   0.000000
      6         19.413035   0.000000
      7         20.913306   0.000000
      8         24.828273   0.000000
 
 -0.2777778E+00  0.1666667E+00  0.1242717E-14  0.4115226E-02
      1         -8.055768   1.000000
      2          0.889252   1.000000
      3          4.160839   1.000000
      4          7.356475   1.000000
      5         18.244086   0.000000
      6         18.839382   0.000000
      7         20.615011   0.000000
      8         24.123621   0.000000
 
 -0.2222222E+00  0.1666667E+00  0.1269230E-14  0.4115226E-02
      1         -8.954005   1.000000
      2          2.603818   1.000000
      3          4.381044   1.000000
      4          7.909869   1.000000
      5         18.164510   0.000000
      6         18.468557   0.000000
      7         20.044730   0.000000
      8         23.672415   0.000000
 
 -0.1666667E+00  0.1666667E+00  0.1264674E-14  0.2057613E-02
      1         -9.702893   1.000000
      2          4.097665   1.000000
      3          4.977690   1.000000
      4          8.429688   1.000000
      5         17.466180   0.000000
      6         18.482044   0.000000
      7         19.210326   0.000000
      8         23.607234   0.000000
 
  0.2222222E+00  0.2222222E+00  0.1284787E-14  0.1028807E-02
      1         -9.924015   1.000000
      2          6.106419   1.000000
      3          6.153143   1.000000
      4          6.153164   1.000000
      5         14.419437   0.000000
      6         20.590452   0.000000
      7         20.590512   0.000000
      8         21.010249   0.000000
 
  0.2777778E+00  0.2222222E+00  0.1316383E-14  0.4115226E-02
      1         -9.391579   1.000000
      2          4.730370   1.000000
      3          5.700827   1.000000
      4          5.947604   1.000000
      5         14.512961   0.000000
      6         20.266552   0.000000
      7         21.351698   0.000000
      8         21.365829   0.000000
 
  0.3333333E+00  0.2222222E+00  0.1347209E-14  0.4115226E-02
      1         -8.698163   1.000000
      2          3.200397   1.000000
      3          5.369191   1.000000
      4          5.456940   1.000000
      5         14.979649   0.000000
      6         19.936717   0.000000
      7         21.889767   0.000000
      8         21.905597   0.000000
 
  0.3888889E+00  0.2222222E+00  0.1302265E-14  0.4115226E-02
      1         -7.852318   1.000000
      2          1.608694   1.000000
      3          4.827703   1.000000
      4          5.172856   1.000000
      5         15.523601   0.000000
      6         20.174718   0.000000
      7         22.165671   0.000000
      8         22.229540   0.000000
 
  0.4444444E+00  0.2222222E+00  0.1354120E-14  0.4115226E-02
      1         -6.872772   1.000000
      2          0.033231   1.000000
      3          4.187724   1.000000
      4          5.118450   1.000000
      5         15.934034   0.000000
      6         21.029723   0.000000
      7         22.165218   0.000000
      8         22.421018   0.000000
 
  0.5000000E+00  0.2222222E+00  0.1363918E-14  0.4115226E-02
      1         -5.814310   1.000000
      2         -1.426027   1.000000
      3          3.611380   1.000000
      4          5.206543   1.000000
      5         16.235179   0.000000
      6         21.958231   0.000000
      7         22.303961   0.000000
      8         22.540196   0.000000
 
 -0.4444444E+00  0.2222222E+00  0.1211569E-14  0.4115226E-02
      1         -4.945428   1.000000
      2         -2.471180   1.000000
      3          3.140087   1.000000
      4          5.432396   1.000000
      5         16.535742   0.000000
      6         21.603094   0.000000
      7         22.513443   0.000000
      8         23.815575   0.000000
 
 -0.3888889E+00  0.2222222E+00  0.1241436E-14  0.4115226E-02
      1         -5.192088   1.000000
      2         -2.162957   1.000000
      3          2.798951   1.000000
      4          5.785475   1.000000
      5         16.896833   0.000000
      6         21.127224   0.000000
      7         22.474612   0.000000
      8         24.936629   0.000000
 
 -0.3333333E+00  0.2222222E+00  0.1231954E-14  0.4115226E-02
      1         -6.191962   1.000000
      2         -0.867869   1.000000
      3          2.608190   1.000000
      4          6.247836   1.000000
      5         17.325714   0.000000
      6         20.529373   0.000000
      7         22.350392   0.000000
      8         24.802544   0.000000
 
 -0.2777778E+00  0.2222222E+00  0.1234833E-14  0.4115226E-02
      1         -7.228966   1.000000
      2          0.657856   1.000000
      3          2.605170   1.000000
      4          6.790736   1.000000
      5         17.787776   0.000000
      6         19.802855   0.000000
      7         21.993820   0.000000
      8         24.019536   0.000000
 
 -0.2222222E+00  0.2222222E+00  0.1267593E-14  0.2057613E-02
      1         -8.161599   1.000000
      2          2.011905   1.000000
      3          3.027863   1.000000
      4          7.368557   1.000000
      5         18.206521   0.000000
      6         18.980139   0.000000
      7         21.165886   0.000000
      8         23.617602   0.000000
 
  0.2777778E+00  0.2777778E+00  0.1364778E-14  0.1028807E-02
      1         -8.917013   1.000000
      2          4.432624   1.000000
      3          5.222465   1.000000
      4          5.222485   1.000000
      5         14.142085   0.000000
      6         19.201283   0.000000
      7         22.303767   0.000000
      8         22.303836   0.000000
 
  0.3333333E+00  0.2777778E+00  0.1395604E-14  0.4115226E-02
      1         -8.281196   1.000000
      2          3.322722   1.000000
      3          4.766286   1.000000
      4          4.863244   1.000000
      5         14.284375   0.000000
      6         18.544385   0.000000
      7         23.018382   0.000000
      8         23.020207   0.000000
 
  0.3888889E+00  0.2777778E+00  0.1350660E-14  0.4115226E-02
      1         -7.491645   1.000000
      2          2.035957   1.000000
      3          4.079387   1.000000
      4          4.640141   1.000000
      5         14.775846   0.000000
      6         18.422993   0.000000
      7         23.437064   0.000000
      8         23.490005   0.000000
 
  0.4444444E+00  0.2777778E+00  0.1354499E-14  0.4115226E-02
      1         -6.563125   1.000000
      2          0.685445   1.000000
      3          3.290463   1.000000
      4          4.561575   1.000000
      5         15.265763   0.000000
      6         18.999393   0.000000
      7         23.547794   0.000000
      8         23.760777   0.000000
 
  0.5000000E+00  0.2777778E+00  0.1326741E-14  0.4115226E-02
      1         -5.533602   1.000000
      2         -0.652460   1.000000
      3          2.547450   1.000000
      4          4.629610   1.000000
      5         15.606514   0.000000
      6         20.235302   0.000000
      7         23.389671   0.000000
      8         23.895417   0.000000
 
 -0.4444444E+00  0.2777778E+00  0.1237611E-14  0.4115226E-02
      1         -4.558196   1.000000
      2         -1.783692   1.000000
      3          1.926748   1.000000
      4          4.840747   1.000000
      5         15.909239   0.000000
      6         21.852614   0.000000
      7         23.012558   0.000000
      8         23.955148   0.000000
 
 -0.3888889E+00  0.2777778E+00  0.1240682E-14  0.4115226E-02
      1         -4.386198   1.000000
      2         -1.933046   1.000000
      3          1.466181   1.000000
      4          5.185570   1.000000
      5         16.272355   0.000000
      6         22.447303   0.000000
      7         23.428584   0.000000
      8         24.090897   0.000000
 
 -0.3333333E+00  0.2777778E+00  0.1242665E-14  0.4115226E-02
      1         -5.250110   1.000000
      2         -0.884510   1.000000
      3          1.211462   1.000000
      4          5.647070   1.000000
      5         16.724138   0.000000
      6         21.705194   0.000000
      7         23.749692   0.000000
      8         24.669635   0.000000
 
 -0.2777778E+00  0.2777778E+00  0.1231165E-14  0.2057613E-02
      1         -6.275898   1.000000
      2          0.244895   1.000000
      3          1.410072   1.000000
      4          6.197208   1.000000
      5         17.247951   0.000000
      6         20.802488   0.000000
      7         23.303843   0.000000
      8         24.117305   0.000000
 
  0.3333333E+00  0.3333333E+00  0.1387720E-14  0.1028807E-02
      1         -7.703508   1.000000
      2          2.618693   1.000000
      3          4.472414   1.000000
      4          4.472433   1.000000
      5         13.978630   0.000000
      6         17.574735   0.000000
      7         23.925420   0.000000
      8         23.925499   0.000000
 
  0.3888889E+00  0.3333333E+00  0.1323283E-14  0.4115226E-02
      1         -6.971329   1.000000
      2          1.622424   1.000000
      3          3.959229   1.000000
      4          4.216467   1.000000
      5         14.188971   0.000000
      6         17.089227   0.000000
      7         24.533125   0.000000
      8         24.555455   0.000000
 
  0.4444444E+00  0.3333333E+00  0.1345846E-14  0.4115226E-02
      1         -6.097016   1.000000
      2          0.588892   1.000000
      3          3.104717   1.000000
      4          4.105797   1.000000
      5         14.692197   0.000000
      6         17.236579   0.000000
      7         24.793709   0.000000
      8         24.928254   0.000000
 
  0.5000000E+00  0.3333333E+00  0.1319625E-14  0.4115226E-02
      1         -5.108823   1.000000
      2         -0.434536   1.000000
      3          2.118619   1.000000
      4          4.144080   1.000000
      5         15.092960   0.000000
      6         18.196180   0.000000
      7         24.712370   0.000000
      8         25.106171   0.000000
 
 -0.4444444E+00  0.3333333E+00  0.1201971E-14  0.4115226E-02
      1         -4.102762   1.000000
      2         -1.384539   1.000000
      3          1.217477   1.000000
      4          4.329310   1.000000
      5         15.390367   0.000000
      6         19.766847   0.000000
      7         24.331399   0.000000
      8         25.155854   0.000000
 
 -0.3888889E+00  0.3333333E+00  0.1232893E-14  0.4115226E-02
      1         -3.615048   1.000000
      2         -1.774226   1.000000
      3          0.558694   1.000000
      4          4.653558   1.000000
      5         15.734954   0.000000
      6         21.621705   0.000000
      7         23.681851   0.000000
      8         25.113215   0.000000
 
 -0.3333333E+00  0.3333333E+00  0.1234854E-14  0.2057613E-02
      1         -4.281362   1.000000
      2         -1.157874   1.000000
      3          0.385315   1.000000
      4          5.101479   1.000000
      5         16.180730   0.000000
      6         22.789608   0.000000
      7         23.418370   0.000000
      8         24.898799   0.000000
 
  0.3888889E+00  0.3888889E+00  0.1258351E-14  0.1028807E-02
      1         -6.296801   1.000000
      2          0.732771   1.000000
      3          3.924720   1.000000
      4          3.924738   1.000000
      5         13.973003   0.000000
      6         16.259604   0.000000
      7         25.334258   0.000000
      8         25.334347   0.000000
 
  0.4444444E+00  0.3888889E+00  0.1281682E-14  0.4115226E-02
      1         -5.478741   1.000000
      2         -0.212908   1.000000
      3          3.458641   1.000000
      4          3.777516   1.000000
      5         14.263594   0.000000
      6         15.962195   0.000000
      7         25.757981   0.000000
      8         25.805339   0.000000
 
  0.5000000E+00  0.3888889E+00  0.1368020E-14  0.4115226E-02
      1         -4.538628   1.000000
      2         -1.102584   1.000000
      3          2.591156   1.000000
      4          3.780281   1.000000
      5         14.721688   0.000000
      6         16.438005   0.000000
      7         25.780930   0.000000
      8         26.009108   0.000000
 
 -0.4444444E+00  0.3888889E+00  0.1194950E-14  0.4115226E-02
      1         -3.542010   1.000000
      2         -1.887241   1.000000
      3          1.568817   1.000000
      4          3.932570   1.000000
      5         15.008560   0.000000
      6         17.790412   0.000000
      7         25.417142   0.000000
      8         25.991867   0.000000
 
 -0.3888889E+00  0.3888889E+00  0.1265214E-14  0.2057613E-02
      1         -3.016860   1.000000
      2         -2.172429   1.000000
      3          0.702742   1.000000
      4          4.228112   1.000000
      5         15.314999   0.000000
      6         19.613511   0.000000
      7         24.700637   0.000000
      8         25.741699   0.000000
 
  0.4444444E+00  0.4444444E+00  0.1273029E-14  0.1028807E-02
      1         -4.716780   1.000000
      2         -1.157653   1.000000
      3          3.591788   1.000000
      4          3.591806   1.000000
      5         14.162461   0.000000
      6         15.270229   0.000000
      7         26.336228   0.000000
      8         26.336326   0.000000
 
  0.5000000E+00  0.4444444E+00  0.1303856E-14  0.4115226E-02
      1         -3.828343   1.000000
      2         -2.055552   1.000000
      3          3.214885   1.000000
      4          3.555887   1.000000
      5         14.520520   0.000000
      6         15.177015   0.000000
      7         26.470321   0.000000
      8         26.536967   0.000000
 
 -0.4444444E+00  0.4444444E+00  0.1202885E-14  0.2057613E-02
      1         -2.917913   1.000000
      2         -2.785756   1.000000
      3          2.432934   1.000000
      4          3.670998   1.000000
      5         14.768458   0.000000
      6         16.134592   0.000000
      7         26.152369   0.000000
      8         26.431356   0.000000
 
  0.5000000E+00  0.5000000E+00  0.1304235E-14  0.5144033E-03
      1         -2.991020   1.000000
      2         -2.991020   1.000000
      3          3.480133   1.000000
      4          3.480150   1.000000
      5         14.582820   0.000000
      6         14.582820   0.000000
      7         26.707653   0.000000
      8         26.707756   0.000000
 
  0.1666667E+00  0.1111111E+00  0.5555556E-01  0.4115226E-02
      1        -11.169916   1.000000
      2          7.540034   1.000000
      3          7.968998   1.000000
      4          9.198406   1.000000
      5         15.540777   0.000000
      6         17.245541   0.000000
      7         17.365062   0.000000
      8         23.482727   0.000000
 
  0.2222222E+00  0.1111111E+00  0.5555556E-01  0.8230453E-02
      1        -10.743870   1.000000
      2          6.026631   1.000000
      3          7.310643   1.000000
      4          8.880560   1.000000
      5         15.971875   0.000000
      6         17.991809   0.000000
      7         18.023331   0.000000
      8         23.525147   0.000000
 
  0.2777778E+00  0.1111111E+00  0.5555556E-01  0.8230453E-02
      1        -10.151212   1.000000
      2          4.225898   1.000000
      3          6.833986   1.000000
      4          8.418536   1.000000
      5         16.570389   0.000000
      6         18.491156   0.000000
      7         18.665284   0.000000
      8         23.630855   0.000000
 
  0.3333333E+00  0.1111111E+00  0.5555556E-01  0.8230453E-02
      1         -9.397206   1.000000
      2          2.375844   1.000000
      3          6.468857   1.000000
      4          7.910749   1.000000
      5         17.147614   0.000000
      6         18.753693   0.000000
      7         19.164327   0.000000
      8         23.893232   0.000000
 
  0.3888889E+00  0.1111111E+00  0.5555556E-01  0.8230453E-02
      1         -8.491583   1.000000
      2          0.566133   1.000000
      3          6.219253   1.000000
      4          7.427553   1.000000
      5         17.590543   0.000000
      6         18.834004   0.000000
      7         19.477689   0.000000
      8         24.351329   0.000000
 
  0.4444444E+00  0.1111111E+00  0.5555556E-01  0.8230453E-02
      1         -7.458011   1.000000
      2         -1.136788   1.000000
      3          6.083438   1.000000
      4          7.015927   1.000000
      5         17.880803   0.000000
      6         18.785870   0.000000
      7         19.654559   0.000000
      8         24.902895   0.000000
 
  0.5000000E+00  0.1111111E+00  0.5555556E-01  0.8230453E-02
      1         -6.379374   1.000000
      2         -2.625446   1.000000
      3          6.043477   1.000000
      4          6.719047   1.000000
      5         18.053429   0.000000
      6         18.689080   0.000000
      7         19.744148   0.000000
      8         25.354724   0.000000
 
 -0.4444444E+00  0.1111111E+00  0.5555556E-01  0.4115226E-02
      1         -5.730347   1.000000
      2         -3.412536   1.000000
      3          6.046587   1.000000
      4          6.602351   1.000000
      5         18.117455   0.000000
      6         18.637340   0.000000
      7         19.771542   0.000000
      8         25.527123   0.000000
 
  0.2222222E+00  0.1666667E+00  0.5555556E-01  0.4115226E-02
      1        -10.601915   1.000000
      2          6.350608   1.000000
      3          6.863005   1.000000
      4          8.211888   1.000000
      5         15.232907   0.000000
      6         18.749176   0.000000
      7         18.845797   0.000000
      8         22.824089   0.000000
 
  0.2777778E+00  0.1666667E+00  0.5555556E-01  0.8230453E-02
      1        -10.065990   1.000000
      2          4.854368   1.000000
      3          6.240217   1.000000
      4          7.849229   1.000000
      5         15.674502   0.000000
      6         19.278997   0.000000
      7         19.622267   0.000000
      8         22.519562   0.000000
 
  0.3333333E+00  0.1666667E+00  0.5555556E-01  0.8230453E-02
      1         -9.367436   1.000000
      2          3.108640   1.000000
      3          5.838195   1.000000
      4          7.361290   1.000000
      5         16.273146   0.000000
      6         19.584596   0.000000
      7         20.235767   0.000000
      8         22.475542   0.000000
 
  0.3888889E+00  0.1666667E+00  0.5555556E-01  0.8230453E-02
      1         -8.514229   1.000000
      2          1.339146   1.000000
      3          5.557911   1.000000
      4          6.847853   1.000000
      5         16.813500   0.000000
      6         19.683085   0.000000
      7         20.636137   0.000000
      8         22.840947   0.000000
 
  0.4444444E+00  0.1666667E+00  0.5555556E-01  0.8230453E-02
      1         -7.523996   1.000000
      2         -0.366298   1.000000
      3          5.372592   1.000000
      4          6.401058   1.000000
      5         17.198768   0.000000
      6         19.627652   0.000000
      7         20.862181   0.000000
      8         23.577053   0.000000
 
  0.5000000E+00  0.1666667E+00  0.5555556E-01  0.8230453E-02
      1         -6.449227   1.000000
      2         -1.918314   1.000000
      3          5.225736   1.000000
      4          6.119592   1.000000
      5         17.467114   0.000000
      6         19.477834   0.000000
      7         20.967683   0.000000
      8         24.472923   0.000000
 
 -0.4444444E+00  0.1666667E+00  0.5555556E-01  0.8230453E-02
      1         -5.552231   1.000000
      2         -3.034469   1.000000
      3          5.057049   1.000000
      4          6.086914   1.000000
      5         17.699136   0.000000
      6         19.274396   0.000000
      7         20.987694   0.000000
      8         25.189022   0.000000
 
 -0.3888889E+00  0.1666667E+00  0.5555556E-01  0.8230453E-02
      1         -5.789770   1.000000
      2         -2.749649   1.000000
      3          4.900290   1.000000
      4          6.278978   1.000000
      5         17.939708   0.000000
      6         19.038939   0.000000
      7         20.939606   0.000000
      8         25.326022   0.000000
 
 -0.3333333E+00  0.1666667E+00  0.5555556E-01  0.8230453E-02
      1         -6.812752   1.000000
      2         -1.414334   1.000000
      3          4.821770   1.000000
      4          6.628067   1.000000
      5         18.159178   0.000000
      6         18.791559   0.000000
      7         20.820541   0.000000
      8         24.831746   0.000000
 
 -0.2777778E+00  0.1666667E+00  0.5555556E-01  0.8230453E-02
      1         -7.869507   1.000000
      2          0.207925   1.000000
      3          4.857512   1.000000
      4          7.085607   1.000000
      5         18.103912   0.000000
      6         18.706077   0.000000
      7         20.603233   0.000000
      8         24.096887   0.000000
 
 -0.2222222E+00  0.1666667E+00  0.5555556E-01  0.8230453E-02
      1         -8.816447   1.000000
      2          1.946302   1.000000
      3          5.025912   1.000000
      4          7.608092   1.000000
      5         17.636245   0.000000
      6         18.805447   0.000000
      7         20.223560   0.000000
      8         23.500513   0.000000
 
 -0.1666667E+00  0.1666667E+00  0.5555556E-01  0.8230453E-02
      1         -9.618848   1.000000
      2          3.705654   1.000000
      3          5.350645   1.000000
      4          8.139454   1.000000
      5         17.001866   0.000000
      6         18.782084   0.000000
      7         19.615600   0.000000
      8         23.259130   0.000000
 
 -0.1111111E+00  0.1666667E+00  0.5555556E-01  0.4115226E-02
      1        -10.263523   1.000000
      2          5.227958   1.000000
      3          6.001049   1.000000
      4          8.597298   1.000000
      5         16.380159   0.000000
      6         18.526397   0.000000
      7         18.821764   0.000000
      8         23.334983   0.000000
 
  0.2777778E+00  0.2222222E+00  0.5555556E-01  0.4115226E-02
      1         -9.812250   1.000000
      2          5.152470   1.000000
      3          5.810487   1.000000
      4          6.936066   1.000000
      5         14.905650   0.000000
      6         20.299730   0.000000
      7         20.574086   0.000000
      8         21.307494   0.000000
 
  0.3333333E+00  0.2222222E+00  0.5555556E-01  0.8230453E-02
      1         -9.170399   1.000000
      2          3.738252   1.000000
      3          5.234132   1.000000
      4          6.527684   1.000000
      5         15.373265   0.000000
      6         20.674701   0.000000
      7         20.918749   0.000000
      8         21.356837   0.000000
 
  0.3888889E+00  0.2222222E+00  0.5555556E-01  0.8230453E-02
      1         -8.372105   1.000000
      2          2.104057   1.000000
      3          4.873534   1.000000
      4          6.028974   1.000000
      5         15.965980   0.000000
      6         20.722098   0.000000
      7         21.094698   0.000000
      8         21.931453   0.000000
 
  0.4444444E+00  0.2222222E+00  0.5555556E-01  0.8230453E-02
      1         -7.431132   1.000000
      2          0.458468   1.000000
      3          4.574703   1.000000
      4          5.599444   1.000000
      5         16.447729   0.000000
      6         20.758983   0.000000
      7         21.618962   0.000000
      8         22.324555   0.000000
 
  0.5000000E+00  0.2222222E+00  0.5555556E-01  0.8230453E-02
      1         -6.383335   1.000000
      2         -1.097509   1.000000
      3          4.246689   1.000000
      4          5.391177   1.000000
      5         16.779570   0.000000
      6         20.652774   0.000000
      7         22.219720   0.000000
      8         22.925632   0.000000
 
 -0.4444444E+00  0.2222222E+00  0.5555556E-01  0.8230453E-02
      1         -5.375826   1.000000
      2         -2.382674   1.000000
      3          3.894894   1.000000
      4          5.436560   1.000000
      5         17.059104   0.000000
      6         20.431712   0.000000
      7         22.332993   0.000000
      8         24.076701   0.000000
 
 -0.3888889E+00  0.2222222E+00  0.5555556E-01  0.8230453E-02
      1         -5.155410   1.000000
      2         -2.633862   1.000000
      3          3.596313   1.000000
      4          5.676554   1.000000
      5         17.368331   0.000000
      6         20.124014   0.000000
      7         22.281344   0.000000
      8         24.979897   0.000000
 
 -0.3333333E+00  0.2222222E+00  0.5555556E-01  0.8230453E-02
      1         -6.039835   1.000000
      2         -1.530833   1.000000
      3          3.403913   1.000000
      4          6.061631   1.000000
      5         17.734164   0.000000
      6         19.720882   0.000000
      7         22.138072   0.000000
      8         24.841680   0.000000
 
 -0.2777778E+00  0.2222222E+00  0.5555556E-01  0.8230453E-02
      1         -7.100224   1.000000
      2         -0.015825   1.000000
      3          3.348504   1.000000
      4          6.553783   1.000000
      5         18.135571   0.000000
      6         19.187811   0.000000
      7         21.892431   0.000000
      8         24.010268   0.000000
 
 -0.2222222E+00  0.2222222E+00  0.5555556E-01  0.8230453E-02
      1         -8.079787   1.000000
      2          1.605705   1.000000
      3          3.469647   1.000000
      4          7.109879   1.000000
      5         18.413844   0.000000
      6         18.600053   0.000000
      7         21.428189   0.000000
      8         23.285638   0.000000
 
 -0.1666667E+00  0.2222222E+00  0.5555556E-01  0.4115226E-02
      1         -8.925524   1.000000
      2          3.023259   1.000000
      3          3.989706   1.000000
      4          7.668425   1.000000
      5         17.703956   0.000000
      6         18.779528   0.000000
      7         20.611834   0.000000
      8         23.063064   0.000000
 
  0.3333333E+00  0.2777778E+00  0.5555556E-01  0.4115226E-02
      1         -8.807373   1.000000
      2          3.892277   1.000000
      3          4.895755   1.000000
      4          5.614923   1.000000
      5         14.632905   0.000000
      6         19.547466   0.000000
      7         21.896481   0.000000
      8         22.306378   0.000000
 
  0.3888889E+00  0.2777778E+00  0.5555556E-01  0.8230453E-02
      1         -8.065683   1.000000
      2          2.625824   1.000000
      3          4.312863   1.000000
      4          5.193894   1.000000
      5         15.140054   0.000000
      6         19.275462   0.000000
      7         22.182067   0.000000
      8         23.038975   0.000000
 
  0.4444444E+00  0.2777778E+00  0.5555556E-01  0.8230453E-02
      1         -7.177795   1.000000
      2          1.180388   1.000000
      3          3.805563   1.000000
      4          4.829697   1.000000
      5         15.708937   0.000000
      6         19.608819   0.000000
      7         22.255343   0.000000
      8         23.509162   0.000000
 
  0.5000000E+00  0.2777778E+00  0.5555556E-01  0.8230453E-02
      1         -6.169917   1.000000
      2         -0.277880   1.000000
      3          3.251825   1.000000
      4          4.696837   1.000000
      5         16.116256   0.000000
      6         20.580648   0.000000
      7         22.176756   0.000000
      8         23.738059   0.000000
 
 -0.4444444E+00  0.2777778E+00  0.5555556E-01  0.8230453E-02
      1         -5.130788   1.000000
      2         -1.597025   1.000000
      3          2.719711   1.000000
      4          4.782189   1.000000
      5         16.421458   0.000000
      6         21.671233   0.000000
      7         22.266834   0.000000
      8         23.796541   0.000000
 
 -0.3888889E+00  0.2777778E+00  0.5555556E-01  0.8230453E-02
      1         -4.538158   1.000000
      2         -2.265635   1.000000
      3          2.282737   1.000000
      4          5.040077   1.000000
      5         16.745723   0.000000
      6         21.487557   0.000000
      7         23.353556   0.000000
      8         23.986063   0.000000
 
 -0.3333333E+00  0.2777778E+00  0.5555556E-01  0.8230453E-02
      1         -5.168115   1.000000
      2         -1.498542   1.000000
      3          1.984156   1.000000
      4          5.438734   1.000000
      5         17.142278   0.000000
      6         20.997122   0.000000
      7         23.387218   0.000000
      8         24.681407   0.000000
 
 -0.2777778E+00  0.2777778E+00  0.5555556E-01  0.8230453E-02
      1         -6.200719   1.000000
      2         -0.147685   1.000000
      3          1.874179   1.000000
      4          5.947517   1.000000
      5         17.610134   0.000000
      6         20.303191   0.000000
      7         23.181571   0.000000
      8         24.075341   0.000000
 
 -0.2222222E+00  0.2777778E+00  0.5555556E-01  0.4115226E-02
      1         -7.199143   1.000000
      2          1.094829   1.000000
      3          2.200487   1.000000
      4          6.525330   1.000000
      5         18.105341   0.000000
      6         19.422154   0.000000
      7         22.606680   0.000000
      8         23.340272   0.000000
 
  0.3888889E+00  0.3333333E+00  0.5555556E-01  0.4115226E-02
      1         -7.597205   1.000000
      2          2.411842   1.000000
      3          4.160745   1.000000
      4          4.533651   1.000000
      5         14.469690   0.000000
      6         17.961082   0.000000
      7         23.451144   0.000000
      8         23.939234   0.000000
 
  0.4444444E+00  0.3333333E+00  0.5555556E-01  0.8230453E-02
      1         -6.765040   1.000000
      2          1.339755   1.000000
      3          3.456643   1.000000
      4          4.212066   1.000000
      5         15.020120   0.000000
      6         17.914750   0.000000
      7         23.626442   0.000000
      8         24.563773   0.000000
 
  0.5000000E+00  0.3333333E+00  0.5555556E-01  0.8230453E-02
      1         -5.804735   1.000000
      2          0.188232   1.000000
      3          2.613332   1.000000
      4          4.110335   1.000000
      5         15.530429   0.000000
      6         18.609953   0.000000
      7         23.595035   0.000000
      8         24.870622   0.000000
 
 -0.4444444E+00  0.3333333E+00  0.5555556E-01  0.8230453E-02
      1         -4.774446   1.000000
      2         -0.959703   1.000000
      3          1.819216   1.000000
      4          4.201111   1.000000
      5         15.866402   0.000000
      6         19.983086   0.000000
      7         23.388965   0.000000
      8         24.900862   0.000000
 
 -0.3888889E+00  0.3333333E+00  0.5555556E-01  0.8230453E-02
      1         -3.958560   1.000000
      2         -1.793709   1.000000
      3          1.185557   1.000000
      4          4.454462   1.000000
      5         16.184251   0.000000
      6         21.691062   0.000000
      7         23.012683   0.000000
      8         24.733115   0.000000
 
 -0.3333333E+00  0.3333333E+00  0.5555556E-01  0.8230453E-02
      1         -4.251079   1.000000
      2         -1.419678   1.000000
      3          0.780428   1.000000
      4          4.848957   1.000000
      5         16.577875   0.000000
      6         22.315191   0.000000
      7         23.462314   0.000000
      8         24.464195   0.000000
 
 -0.2777778E+00  0.3333333E+00  0.5555556E-01  0.4115226E-02
      1         -5.208759   1.000000
      2         -0.489425   1.000000
      3          0.839573   1.000000
      4          5.359235   1.000000
      5         17.062980   0.000000
      6         21.418974   0.000000
      7         24.089721   0.000000
      8         24.247382   0.000000
 
  0.4444444E+00  0.3888889E+00  0.5555556E-01  0.4115226E-02
      1         -6.196268   1.000000
      2          0.694841   1.000000
      3          3.629261   1.000000
      4          3.809724   1.000000
      5         14.459798   0.000000
      6         16.678581   0.000000
      7         24.858272   0.000000
      8         25.328985   0.000000
 
  0.5000000E+00  0.3888889E+00  0.5555556E-01  0.8230453E-02
      1         -5.288353   1.000000
      2         -0.230649   1.000000
      3          2.825372   1.000000
      4          3.661254   1.000000
      5         15.037091   0.000000
      6         16.891196   0.000000
      7         24.924216   0.000000
      8         25.722580   0.000000
 
 -0.4444444E+00  0.3888889E+00  0.5555556E-01  0.8230453E-02
      1         -4.288299   1.000000
      2         -1.106585   1.000000
      3          1.807176   1.000000
      4          3.735503   1.000000
      5         15.434743   0.000000
      6         17.987895   0.000000
      7         24.766800   0.000000
      8         25.726018   0.000000
 
 -0.3888889E+00  0.3888889E+00  0.5555556E-01  0.8230453E-02
      1         -3.375854   1.000000
      2         -1.819007   1.000000
      3          0.880241   1.000000
      4          3.969872   1.000000
      5         15.732143   0.000000
      6         19.678348   0.000000
      7         24.337131   0.000000
      8         25.440900   0.000000
 
 -0.3333333E+00  0.3888889E+00  0.5555556E-01  0.4115226E-02
      1         -3.425094   1.000000
      2         -1.696796   1.000000
      3          0.356909   1.000000
      4          4.348089   1.000000
      5         16.101537   0.000000
      6         21.598861   0.000000
      7         23.530507   0.000000
      8         25.018538   0.000000
 
  0.5000000E+00  0.4444444E+00  0.5555556E-01  0.4115226E-02
      1         -4.625878   1.000000
      2         -1.120092   1.000000
      3          3.316372   1.000000
      4          3.390994   1.000000
      5         14.640734   0.000000
      6         15.715393   0.000000
      7         25.952257   0.000000
      8         26.259900   0.000000
 
 -0.4444444E+00  0.4444444E+00  0.5555556E-01  0.8230453E-02
      1         -3.667715   1.000000
      2         -1.949378   1.000000
      3          2.519992   1.000000
      4          3.408609   1.000000
      5         15.152888   0.000000
      6         16.269974   0.000000
      7         25.861586   0.000000
      8         26.240272   0.000000
 
 -0.3888889E+00  0.4444444E+00  0.5555556E-01  0.4115226E-02
      1         -2.841090   1.000000
      2         -2.509446   1.000000
      3          1.556265   1.000000
      4          3.615474   1.000000
      5         15.406640   0.000000
      6         17.775963   0.000000
      7         25.361555   0.000000
      8         25.904883   0.000000
 
 -0.4444444E+00  0.5000000E+00  0.5555556E-01  0.2057613E-02
      1         -2.918012   1.000000
      2         -2.918011   1.000000
      3          3.233124   1.000000
      4          3.233140   1.000000
      5         15.047444   0.000000
      6         15.047450   0.000000
      7         26.484502   0.000000
      8         26.484602   0.000000
 
  0.3333333E+00  0.2222222E+00  0.1111111E+00  0.4115226E-02
      1         -9.478109   1.000000
      2          4.090713   1.000000
      3          4.983185   1.000000
      4          7.483397   1.000000
      5         16.141801   0.000000
      6         19.590056   0.000000
      7         20.547763   0.000000
      8         22.093714   0.000000
 
  0.3888889E+00  0.2222222E+00  0.1111111E+00  0.8230453E-02
      1         -8.730975   1.000000
      2          2.655131   1.000000
      3          4.391251   1.000000
      4          6.978412   1.000000
      5         16.807945   0.000000
      6         19.628285   0.000000
      7         21.318917   0.000000
      8         22.066817   0.000000
 
  0.4444444E+00  0.2222222E+00  0.1111111E+00  0.8230453E-02
      1         -7.835281   1.000000
      2          0.996562   1.000000
      3          4.138727   1.000000
      4          6.436416   1.000000
      5         17.419839   0.000000
      6         19.485625   0.000000
      7         21.765899   0.000000
      8         22.637737   0.000000
 
  0.5000000E+00  0.2222222E+00  0.1111111E+00  0.8230453E-02
      1         -6.816087   1.000000
      2         -0.620285   1.000000
      3          4.031672   1.000000
      4          5.950603   1.000000
      5         17.817275   0.000000
      6         19.309683   0.000000
      7         22.073659   0.000000
      8         23.532787   0.000000
 
 -0.4444444E+00  0.2222222E+00  0.1111111E+00  0.8230453E-02
      1         -5.758267   1.000000
      2         -2.051757   1.000000
      3          4.011967   1.000000
      4          5.602007   1.000000
      5         18.004157   0.000000
      6         19.186681   0.000000
      7         22.269809   0.000000
      8         24.493855   0.000000
 
 -0.3888889E+00  0.2222222E+00  0.1111111E+00  0.4115226E-02
      1         -5.128875   1.000000
      2         -2.807793   1.000000
      3          4.017681   1.000000
      4          5.471449   1.000000
      5         18.055160   0.000000
      6         19.144020   0.000000
      7         22.335097   0.000000
      8         24.990883   0.000000
 
  0.3888889E+00  0.2777778E+00  0.1111111E+00  0.4115226E-02
      1         -8.480038   1.000000
      2          2.992918   1.000000
      3          4.098648   1.000000
      4          6.103003   1.000000
      5         15.909651   0.000000
      6         20.355221   0.000000
      7         21.001662   0.000000
      8         22.321768   0.000000
 
  0.4444444E+00  0.2777778E+00  0.1111111E+00  0.8230453E-02
      1         -7.638812   1.000000
      2          1.695378   1.000000
      3          3.540391   1.000000
      4          5.570983   1.000000
      5         16.612172   0.000000
      6         20.205033   0.000000
      7         21.172518   0.000000
      8         23.094280   0.000000
 
  0.5000000E+00  0.2777778E+00  0.1111111E+00  0.8230453E-02
      1         -6.665625   1.000000
      2          0.192862   1.000000
      3          3.283256   1.000000
      4          5.079681   1.000000
      5         17.173670   0.000000
      6         20.262212   0.000000
      7         21.594804   0.000000
      8         23.617457   0.000000
 
 -0.4444444E+00  0.2777778E+00  0.1111111E+00  0.8230453E-02
      1         -5.615186   1.000000
      2         -1.241128   1.000000
      3          3.099801   1.000000
      4          4.765318   1.000000
      5         17.520696   0.000000
      6         20.205592   0.000000
      7         22.505249   0.000000
      8         23.928209   0.000000
 
 -0.3888889E+00  0.2777778E+00  0.1111111E+00  0.8230453E-02
      1         -4.750750   1.000000
      2         -2.282857   1.000000
      3          2.909184   1.000000
      4          4.718052   1.000000
      5         17.787503   0.000000
      6         20.009627   0.000000
      7         23.332709   0.000000
      8         24.256997   0.000000
 
 -0.3333333E+00  0.2777778E+00  0.1111111E+00  0.8230453E-02
      1         -4.985303   1.000000
      2         -2.000266   1.000000
      3          2.728988   1.000000
      4          4.929888   1.000000
      5         18.076385   0.000000
      6         19.715496   0.000000
      7         23.330867   0.000000
      8         24.514883   0.000000
 
 -0.2777778E+00  0.2777778E+00  0.1111111E+00  0.8230453E-02
      1         -5.977679   1.000000
      2         -0.739655   1.000000
      3          2.627205   1.000000
      4          5.334053   1.000000
      5         18.396665   0.000000
      6         19.306039   0.000000
      7         22.863240   0.000000
      8         24.020437   0.000000
 
 -0.2222222E+00  0.2777778E+00  0.1111111E+00  0.8230453E-02
      1         -7.010581   1.000000
      2          0.735116   1.000000
      3          2.681408   1.000000
      4          5.862109   1.000000
      5         18.381170   0.000000
      6         19.064511   0.000000
      7         22.310220   0.000000
      8         23.273241   0.000000
 
 -0.1666667E+00  0.2777778E+00  0.1111111E+00  0.4115226E-02
      1         -7.940489   1.000000
      2          2.029876   1.000000
      3          3.133772   1.000000
      4          6.441818   1.000000
      5         17.619811   0.000000
      6         19.379196   0.000000
      7         21.989923   0.000000
      8         22.384369   0.000000
 
  0.4444444E+00  0.3333333E+00  0.1111111E+00  0.4115226E-02
      1         -7.281014   1.000000
      2          1.855099   1.000000
      3          3.394339   1.000000
      4          4.714395   1.000000
      5         15.764550   0.000000
      6         18.995175   0.000000
      7         22.248929   0.000000
      8         23.977526   0.000000
 
  0.5000000E+00  0.3333333E+00  0.1111111E+00  0.8230453E-02
      1         -6.359317   1.000000
      2          0.748107   1.000000
      3          2.791942   1.000000
      4          4.227094   1.000000
      5         16.489242   0.000000
      6         19.277695   0.000000
      7         22.168664   0.000000
      8         24.595085   0.000000
 
 -0.4444444E+00  0.3333333E+00  0.1111111E+00  0.8230453E-02
      1         -5.338638   1.000000
      2         -0.508685   1.000000
      3          2.317651   1.000000
      4          3.963411   1.000000
      5         16.969429   0.000000
      6         20.236312   0.000000
      7         22.032945   0.000000
      8         24.821835   0.000000
 
 -0.3888889E+00  0.3333333E+00  0.1111111E+00  0.8230453E-02
      1         -4.369873   1.000000
      2         -1.619141   1.000000
      3          1.874549   1.000000
      4          3.990655   1.000000
      5         17.288359   0.000000
      6         21.178008   0.000000
      7         22.298016   0.000000
      8         24.626094   0.000000
 
 -0.3333333E+00  0.3333333E+00  0.1111111E+00  0.8230453E-02
      1         -4.184855   1.000000
      2         -1.794550   1.000000
      3          1.515844   1.000000
      4          4.254187   1.000000
      5         17.621124   0.000000
      6         21.031180   0.000000
      7         23.559190   0.000000
      8         24.044021   0.000000
 
 -0.2777778E+00  0.3333333E+00  0.1111111E+00  0.8230453E-02
      1         -5.039112   1.000000
      2         -0.793215   1.000000
      3          1.328748   1.000000
      4          4.691488   1.000000
      5         18.029027   0.000000
      6         20.446517   0.000000
      7         23.222484   0.000000
      8         24.464317   0.000000
 
 -0.2222222E+00  0.3333333E+00  0.1111111E+00  0.4115226E-02
      1         -6.060489   1.000000
      2          0.281664   1.000000
      3          1.568947   1.000000
      4          5.248873   1.000000
      5         18.504235   0.000000
      6         19.526534   0.000000
      7         22.634865   0.000000
      8         24.167628   0.000000
 
  0.5000000E+00  0.3888889E+00  0.1111111E+00  0.4115226E-02
      1         -5.898571   1.000000
      2          0.524891   1.000000
      3          2.899133   1.000000
      4          3.606234   1.000000
      5         15.756771   0.000000
      6         17.813867   0.000000
      7         23.597822   0.000000
      8         25.300174   0.000000
 
 -0.4444444E+00  0.3888889E+00  0.1111111E+00  0.8230453E-02
      1         -4.920510   1.000000
      2         -0.377248   1.000000
      3          2.143308   1.000000
      4          3.313103   1.000000
      5         16.462644   0.000000
      6         18.433151   0.000000
      7         23.434004   0.000000
      8         25.517755   0.000000
 
 -0.3888889E+00  0.3888889E+00  0.1111111E+00  0.8230453E-02
      1         -3.923262   1.000000
      2         -1.275645   1.000000
      3          1.327595   1.000000
      4          3.378648   1.000000
      5         16.837529   0.000000
      6         19.860975   0.000000
      7         23.162852   0.000000
      8         25.152578   0.000000
 
 -0.3333333E+00  0.3888889E+00  0.1111111E+00  0.8230453E-02
      1         -3.420002   1.000000
      2         -1.685239   1.000000
      3          0.719561   1.000000
      4          3.664710   1.000000
      5         17.162296   0.000000
      6         21.564053   0.000000
      7         22.784478   0.000000
      8         24.367909   0.000000
 
 -0.2777778E+00  0.3888889E+00  0.1111111E+00  0.4115226E-02
      1         -4.074924   1.000000
      2         -1.105910   1.000000
      3          0.575393   1.000000
      4          4.116172   1.000000
      5         17.560738   0.000000
      6         21.663576   0.000000
      7         23.555128   0.000000
      8         23.645504   0.000000
 
 -0.4444444E+00  0.4444444E+00  0.1111111E+00  0.4115226E-02
      1         -4.360984   1.000000
      2         -1.042011   1.000000
      3          2.635887   1.000000
      4          2.928781   1.000000
      5         15.924642   0.000000
      6         16.921788   0.000000
      7         24.838220   0.000000
      8         25.963219   0.000000
 
 -0.3888889E+00  0.4444444E+00  0.1111111E+00  0.8230453E-02
      1         -3.375337   1.000000
      2         -1.790627   1.000000
      3          1.757890   1.000000
      4          2.920075   1.000000
      5         16.498953   0.000000
      6         17.949916   0.000000
      7         24.608366   0.000000
      8         25.505944   0.000000
 
 -0.3333333E+00  0.4444444E+00  0.1111111E+00  0.4115226E-02
      1         -2.818263   1.000000
      2         -2.109090   1.000000
      3          0.907846   1.000000
      4          3.209538   1.000000
      5         16.792067   0.000000
      6         19.717815   0.000000
      7         23.995454   0.000000
      8         24.770853   0.000000
 
 -0.3888889E+00  0.5000000E+00  0.1111111E+00  0.2057613E-02
      1         -2.715174   1.000000
      2         -2.715174   1.000000
      3          2.631044   1.000000
      4          2.631058   1.000000
      5         16.302048   0.000000
      6         16.302061   0.000000
      7         25.740257   0.000000
      8         25.740343   0.000000
 
  0.5000000E+00  0.3333333E+00  0.1666667E+00  0.4115226E-02
      1         -6.762983   1.000000
      2          1.096706   1.000000
      3          2.462728   1.000000
      4          4.981687   1.000000
      5         17.542068   0.000000
      6         19.830864   0.000000
      7         21.309795   0.000000
      8         24.049347   0.000000
 
 -0.4444444E+00  0.3333333E+00  0.1666667E+00  0.8230453E-02
      1         -5.771343   1.000000
      2         -0.024211   1.000000
      3          2.042402   1.000000
      4          4.418272   1.000000
      5         18.316744   0.000000
      6         19.729716   0.000000
      7         21.700151   0.000000
      8         24.613826   0.000000
 
 -0.3888889E+00  0.3333333E+00  0.1666667E+00  0.8230453E-02
      1         -4.750166   1.000000
      2         -1.262120   1.000000
      3          1.960316   1.000000
      4          4.006420   1.000000
      5         18.591253   0.000000
      6         19.843366   0.000000
      7         22.595445   0.000000
      8         24.567907   0.000000
 
 -0.3333333E+00  0.3333333E+00  0.1666667E+00  0.4115226E-02
      1         -4.148237   1.000000
      2         -1.949405   1.000000
      3          1.956702   1.000000
      4          3.851955   1.000000
      5         18.626293   0.000000
      6         19.899792   0.000000
      7         23.639933   0.000000
      8         23.883997   0.000000
 
 -0.4444444E+00  0.3888889E+00  0.1666667E+00  0.4115226E-02
      1         -5.417991   1.000000
      2          0.128888   1.000000
      3          2.013653   1.000000
      4          3.571821   1.000000
      5         17.561800   0.000000
      6         19.288481   0.000000
      7         22.009385   0.000000
      8         25.179665   0.000000
 
 -0.3888889E+00  0.3888889E+00  0.1666667E+00  0.8230453E-02
      1         -4.409851   1.000000
      2         -0.767315   1.000000
      3          1.547206   1.000000
      4          3.122745   1.000000
      5         18.290005   0.000000
      6         20.002507   0.000000
      7         21.896722   0.000000
      8         24.956346   0.000000
 
 -0.3333333E+00  0.3888889E+00  0.1666667E+00  0.8230453E-02
      1         -3.590435   1.000000
      2         -1.564549   1.000000
      3          1.225006   1.000000
      4          3.037196   1.000000
      5         18.597569   0.000000
      6         20.778070   0.000000
      7         22.359927   0.000000
      8         23.966174   0.000000
 
 -0.2777778E+00  0.3888889E+00  0.1666667E+00  0.8230453E-02
      1         -3.841854   1.000000
      2         -1.290303   1.000000
      3          1.025471   1.000000
      4          3.292323   1.000000
      5         18.885507   0.000000
      6         20.536554   0.000000
      7         22.756679   0.000000
      8         23.719833   0.000000
 
 -0.2222222E+00  0.3888889E+00  0.1666667E+00  0.4115226E-02
      1         -4.786816   1.000000
      2         -0.460255   1.000000
      3          1.185933   1.000000
      4          3.784575   1.000000
      5         19.240399   0.000000
      6         19.615568   0.000000
      7         21.998195   0.000000
      8         24.740011   0.000000
 
 -0.3888889E+00  0.4444444E+00  0.1666667E+00  0.4115226E-02
      1         -3.949925   1.000000
      2         -1.034818   1.000000
      3          1.825330   1.000000
      4          2.515544   1.000000
      5         17.724179   0.000000
      6         18.588763   0.000000
      7         23.202329   0.000000
      8         25.247657   0.000000
 
 -0.3333333E+00  0.4444444E+00  0.1666667E+00  0.8230453E-02
      1         -3.036748   1.000000
      2         -1.689297   1.000000
      3          1.212239   1.000000
      4          2.390808   1.000000
      5         18.295440   0.000000
      6         19.861660   0.000000
      7         22.916948   0.000000
      8         24.179290   0.000000
 
 -0.2777778E+00  0.4444444E+00  0.1666667E+00  0.4115226E-02
      1         -3.023497   1.000000
      2         -1.644937   1.000000
      3          0.753255   1.000000
      4          2.728086   1.000000
      5         18.585584   0.000000
      6         21.327915   0.000000
      7         22.564475   0.000000
      8         23.128419   0.000000
 
 -0.3333333E+00  0.5000000E+00  0.1666667E+00  0.2057613E-02
      1         -2.441182   1.000000
      2         -2.441181   1.000000
      3          1.958439   1.000000
      4          1.958451   1.000000
      5         18.060428   0.000000
      6         18.060449   0.000000
      7         24.400259   0.000000
      8         24.400325   0.000000
 
 -0.3333333E+00  0.4444444E+00  0.2222222E+00  0.4115226E-02
      1         -3.458549   1.000000
      2         -1.237931   1.000000
      3          1.124222   1.000000
      4          2.434050   1.000000
      5         19.766767   0.000000
      6         19.892749   0.000000
      7         21.880439   0.000000
      8         23.910243   0.000000
 
 -0.2777778E+00  0.4444444E+00  0.2222222E+00  0.4115226E-02
      1         -2.861450   1.000000
      2         -1.684421   1.000000
      3          1.036669   1.000000
      4          2.150291   1.000000
      5         19.821247   0.000000
      6         20.653876   0.000000
      7         22.346046   0.000000
      8         22.643575   0.000000
 
 -0.2777778E+00  0.5000000E+00  0.2222222E+00  0.2057613E-02
      1         -2.223752   1.000000
      2         -2.223752   1.000000
      3          1.505168   1.000000
      4          1.505179   1.000000
      5         19.950363   0.000000
      6         19.950390   0.000000
      7         22.697129   0.000000
      8         22.697169   0.000000
