real-time non-blocking time  (microseconds, -R) unlimited
core file size              (blocks, -c) unlimited
data seg size               (kbytes, -d) unlimited
scheduling priority                 (-e) 0
file size                   (blocks, -f) unlimited
pending signals                     (-i) 509951
max locked memory           (kbytes, -l) unlimited
max memory size             (kbytes, -m) 117440512
open files                          (-n) 1024
pipe size                (512 bytes, -p) 8
POSIX message queues         (bytes, -q) 819200
real-time priority                  (-r) 0
stack size                  (kbytes, -s) unlimited
cpu time                   (seconds, -t) unlimited
max user processes                  (-u) 125621
virtual memory              (kbytes, -v) unlimited
file locks                          (-x) unlimited
 running   28 mpi-ranks, with    1 threads/rank, on    1 nodes
 distrk:  each k-point on   28 cores,    1 groups
 distr:  one band on    7 cores,    4 groups
 vasp.6.5.1 10Mar25 (build Feb 13 2026 23:13:13) complex                        
  
 POSCAR found type information on POSCAR C 
 POSCAR found :  1 types and       2 ions
 scaLAPACK will be used
 LDA part: xc-table for (Slater+PW92), standard interpolation
 POSCAR, INCAR and KPOINTS ok, starting setup
 FFT: planning ... GRIDC
 FFT: planning ... GRID_SOFT
 FFT: planning ... GRID
 WAVECAR not read
 entering main loop
       N       E                     dE             d eps       ncg     rms          rms(c)
DAV:   1    -0.867686426997E+00   -0.86769E+00   -0.49593E+03  3328   0.960E+02
DAV:   2    -0.187228325864E+02   -0.17855E+02   -0.17143E+02  4832   0.108E+02
DAV:   3    -0.188337386231E+02   -0.11091E+00   -0.11091E+00  3432   0.111E+01
DAV:   4    -0.188338893008E+02   -0.15068E-03   -0.15068E-03  4400   0.423E-01
DAV:   5    -0.188338893571E+02   -0.56285E-07   -0.56285E-07  3272   0.561E-03    0.561E+00
RMM:   6    -0.183442978823E+02    0.48959E+00   -0.28120E-01  3179   0.473E+00    0.333E+00
RMM:   7    -0.181799198809E+02    0.16438E+00   -0.43377E-01  3492   0.623E+00    0.738E-01
RMM:   8    -0.181836497887E+02   -0.37299E-02   -0.22961E-02  3255   0.180E+00    0.116E-01
RMM:   9    -0.181838593867E+02   -0.20960E-03   -0.35588E-03  3518   0.648E-01    0.510E-02
RMM:  10    -0.181838862907E+02   -0.26904E-04   -0.40614E-04  3297   0.224E-01    0.214E-02
RMM:  11    -0.181838890403E+02   -0.27495E-05   -0.59078E-05  3502   0.842E-02    0.526E-03
RMM:  12    -0.181838901031E+02   -0.10629E-05   -0.78656E-06  3311   0.327E-02    0.592E-03
RMM:  13    -0.181838903335E+02   -0.23033E-06   -0.59133E-07  2273   0.863E-03
   1 F= -.18183890E+02 E0= -.18183890E+02  d E =-.126315E-10
