<?xml version="1.0" encoding="ISO-8859-1"?>
<modeling>
 <generator>
  <i name="program" type="string">vasp </i>
  <i name="version" type="string">6.5.1  </i>
  <i name="subversion" type="string">10Mar25 (build Feb 13 2026 23:13:13) complex                          parallel </i>
  <i name="platform" type="string">LinuxIFC </i>
  <i name="date" type="string">2026 06 23 </i>
  <i name="time" type="string">04:05:42 </i>
 </generator>
 <incar>
  <i type="string" name="PREC">Normal</i>
  <i type="string" name="ALGO">Fast</i>
  <i type="int" name="ISPIN">     1</i>
  <i type="int" name="NELMIN">     4</i>
  <i name="EDIFF">      0.00000100</i>
  <i type="int" name="NSW">     0</i>
  <i name="ENCUT">    500.00000000</i>
  <i type="logical" name="LREAL"> F  </i>
  <i type="int" name="ISMEAR">     0</i>
  <i name="SIGMA">      0.20000000</i>
  <i type="logical" name="LWAVE"> F  </i>
 </incar>
 <primitive_cell>
  <structure name="primitive_cell" >
   <crystal>
    <varray name="basis" >
     <v>       2.51730013       0.00000000       0.00000000 </v>
     <v>       1.25865006       2.18004586       0.00000000 </v>
     <v>       1.25865006       0.72668195       2.05536695 </v>
    </varray>
    <i name="volume">     11.27950384 </i>
    <varray name="rec_basis" >
     <v>       0.39725100      -0.22935297      -0.16217704 </v>
     <v>       0.00000000       0.45870595      -0.16217704 </v>
     <v>       0.00000000       0.00000000       0.48653113 </v>
    </varray>
   </crystal>
   <varray name="positions" >
    <v>       0.25000000       0.25000000       0.25000000 </v>
    <v>       0.00000000       0.00000000       0.00000000 </v>
   </varray>
  </structure>
  <varray name="primitive_index" >
   <v type="int" >        1 </v>
   <v type="int" >        2 </v>
  </varray>
 </primitive_cell>
 <kpoints>
  <generation param="Gamma">
   <v type="int" name="divisions">      18       18       18 </v>
   <v name="usershift">      0.00000000       0.00000000       0.00000000 </v>
   <v name="genvec1">      0.05555556      -0.00000000      -0.00000000 </v>
   <v name="genvec2">      0.00000000       0.05555556      -0.00000000 </v>
   <v name="genvec3">      0.00000000       0.00000000       0.05555556 </v>
   <v name="shift">      0.00000000       0.00000000       0.00000000 </v>
  </generation>
  <varray name="kpointlist" >
   <v>       0.00000000       0.00000000       0.00000000 </v>
   <v>       0.05555556       0.00000000       0.00000000 </v>
   <v>       0.11111111       0.00000000       0.00000000 </v>
   <v>       0.16666667       0.00000000       0.00000000 </v>
   <v>       0.22222222       0.00000000       0.00000000 </v>
   <v>       0.27777778       0.00000000       0.00000000 </v>
   <v>       0.33333333       0.00000000       0.00000000 </v>
   <v>       0.38888889       0.00000000       0.00000000 </v>
   <v>       0.44444444       0.00000000       0.00000000 </v>
   <v>       0.50000000       0.00000000       0.00000000 </v>
   <v>       0.05555556       0.05555556       0.00000000 </v>
   <v>       0.11111111       0.05555556       0.00000000 </v>
   <v>       0.16666667       0.05555556       0.00000000 </v>
   <v>       0.22222222       0.05555556       0.00000000 </v>
   <v>       0.27777778       0.05555556       0.00000000 </v>
   <v>       0.33333333       0.05555556       0.00000000 </v>
   <v>       0.38888889       0.05555556       0.00000000 </v>
   <v>       0.44444444       0.05555556       0.00000000 </v>
   <v>       0.50000000       0.05555556       0.00000000 </v>
   <v>      -0.44444444       0.05555556       0.00000000 </v>
   <v>      -0.38888889       0.05555556       0.00000000 </v>
   <v>      -0.33333333       0.05555556       0.00000000 </v>
   <v>      -0.27777778       0.05555556       0.00000000 </v>
   <v>      -0.22222222       0.05555556       0.00000000 </v>
   <v>      -0.16666667       0.05555556       0.00000000 </v>
   <v>      -0.11111111       0.05555556       0.00000000 </v>
   <v>      -0.05555556       0.05555556       0.00000000 </v>
   <v>       0.11111111       0.11111111       0.00000000 </v>
   <v>       0.16666667       0.11111111       0.00000000 </v>
   <v>       0.22222222       0.11111111       0.00000000 </v>
   <v>       0.27777778       0.11111111       0.00000000 </v>
   <v>       0.33333333       0.11111111       0.00000000 </v>
   <v>       0.38888889       0.11111111       0.00000000 </v>
   <v>       0.44444444       0.11111111       0.00000000 </v>
   <v>       0.50000000       0.11111111       0.00000000 </v>
   <v>      -0.44444444       0.11111111       0.00000000 </v>
   <v>      -0.38888889       0.11111111       0.00000000 </v>
   <v>      -0.33333333       0.11111111       0.00000000 </v>
   <v>      -0.27777778       0.11111111       0.00000000 </v>
   <v>      -0.22222222       0.11111111       0.00000000 </v>
   <v>      -0.16666667       0.11111111       0.00000000 </v>
   <v>      -0.11111111       0.11111111       0.00000000 </v>
   <v>       0.16666667       0.16666667       0.00000000 </v>
   <v>       0.22222222       0.16666667       0.00000000 </v>
   <v>       0.27777778       0.16666667       0.00000000 </v>
   <v>       0.33333333       0.16666667       0.00000000 </v>
   <v>       0.38888889       0.16666667       0.00000000 </v>
   <v>       0.44444444       0.16666667       0.00000000 </v>
   <v>       0.50000000       0.16666667       0.00000000 </v>
   <v>      -0.44444444       0.16666667       0.00000000 </v>
   <v>      -0.38888889       0.16666667       0.00000000 </v>
   <v>      -0.33333333       0.16666667       0.00000000 </v>
   <v>      -0.27777778       0.16666667       0.00000000 </v>
   <v>      -0.22222222       0.16666667       0.00000000 </v>
   <v>      -0.16666667       0.16666667       0.00000000 </v>
   <v>       0.22222222       0.22222222       0.00000000 </v>
   <v>       0.27777778       0.22222222       0.00000000 </v>
   <v>       0.33333333       0.22222222       0.00000000 </v>
   <v>       0.38888889       0.22222222       0.00000000 </v>
   <v>       0.44444444       0.22222222       0.00000000 </v>
   <v>       0.50000000       0.22222222       0.00000000 </v>
   <v>      -0.44444444       0.22222222       0.00000000 </v>
   <v>      -0.38888889       0.22222222       0.00000000 </v>
   <v>      -0.33333333       0.22222222       0.00000000 </v>
   <v>      -0.27777778       0.22222222       0.00000000 </v>
   <v>      -0.22222222       0.22222222       0.00000000 </v>
   <v>       0.27777778       0.27777778       0.00000000 </v>
   <v>       0.33333333       0.27777778       0.00000000 </v>
   <v>       0.38888889       0.27777778       0.00000000 </v>
   <v>       0.44444444       0.27777778       0.00000000 </v>
   <v>       0.50000000       0.27777778       0.00000000 </v>
   <v>      -0.44444444       0.27777778       0.00000000 </v>
   <v>      -0.38888889       0.27777778       0.00000000 </v>
   <v>      -0.33333333       0.27777778       0.00000000 </v>
   <v>      -0.27777778       0.27777778       0.00000000 </v>
   <v>       0.33333333       0.33333333       0.00000000 </v>
   <v>       0.38888889       0.33333333       0.00000000 </v>
   <v>       0.44444444       0.33333333       0.00000000 </v>
   <v>       0.50000000       0.33333333       0.00000000 </v>
   <v>      -0.44444444       0.33333333       0.00000000 </v>
   <v>      -0.38888889       0.33333333       0.00000000 </v>
   <v>      -0.33333333       0.33333333       0.00000000 </v>
   <v>       0.38888889       0.38888889       0.00000000 </v>
   <v>       0.44444444       0.38888889       0.00000000 </v>
   <v>       0.50000000       0.38888889       0.00000000 </v>
   <v>      -0.44444444       0.38888889       0.00000000 </v>
   <v>      -0.38888889       0.38888889       0.00000000 </v>
   <v>       0.44444444       0.44444444       0.00000000 </v>
   <v>       0.50000000       0.44444444       0.00000000 </v>
   <v>      -0.44444444       0.44444444       0.00000000 </v>
   <v>       0.50000000       0.50000000       0.00000000 </v>
   <v>       0.16666667       0.11111111       0.05555556 </v>
   <v>       0.22222222       0.11111111       0.05555556 </v>
   <v>       0.27777778       0.11111111       0.05555556 </v>
   <v>       0.33333333       0.11111111       0.05555556 </v>
   <v>       0.38888889       0.11111111       0.05555556 </v>
   <v>       0.44444444       0.11111111       0.05555556 </v>
   <v>       0.50000000       0.11111111       0.05555556 </v>
   <v>      -0.44444444       0.11111111       0.05555556 </v>
   <v>       0.22222222       0.16666667       0.05555556 </v>
   <v>       0.27777778       0.16666667       0.05555556 </v>
   <v>       0.33333333       0.16666667       0.05555556 </v>
   <v>       0.38888889       0.16666667       0.05555556 </v>
   <v>       0.44444444       0.16666667       0.05555556 </v>
   <v>       0.50000000       0.16666667       0.05555556 </v>
   <v>      -0.44444444       0.16666667       0.05555556 </v>
   <v>      -0.38888889       0.16666667       0.05555556 </v>
   <v>      -0.33333333       0.16666667       0.05555556 </v>
   <v>      -0.27777778       0.16666667       0.05555556 </v>
   <v>      -0.22222222       0.16666667       0.05555556 </v>
   <v>      -0.16666667       0.16666667       0.05555556 </v>
   <v>      -0.11111111       0.16666667       0.05555556 </v>
   <v>       0.27777778       0.22222222       0.05555556 </v>
   <v>       0.33333333       0.22222222       0.05555556 </v>
   <v>       0.38888889       0.22222222       0.05555556 </v>
   <v>       0.44444444       0.22222222       0.05555556 </v>
   <v>       0.50000000       0.22222222       0.05555556 </v>
   <v>      -0.44444444       0.22222222       0.05555556 </v>
   <v>      -0.38888889       0.22222222       0.05555556 </v>
   <v>      -0.33333333       0.22222222       0.05555556 </v>
   <v>      -0.27777778       0.22222222       0.05555556 </v>
   <v>      -0.22222222       0.22222222       0.05555556 </v>
   <v>      -0.16666667       0.22222222       0.05555556 </v>
   <v>       0.33333333       0.27777778       0.05555556 </v>
   <v>       0.38888889       0.27777778       0.05555556 </v>
   <v>       0.44444444       0.27777778       0.05555556 </v>
   <v>       0.50000000       0.27777778       0.05555556 </v>
   <v>      -0.44444444       0.27777778       0.05555556 </v>
   <v>      -0.38888889       0.27777778       0.05555556 </v>
   <v>      -0.33333333       0.27777778       0.05555556 </v>
   <v>      -0.27777778       0.27777778       0.05555556 </v>
   <v>      -0.22222222       0.27777778       0.05555556 </v>
   <v>       0.38888889       0.33333333       0.05555556 </v>
   <v>       0.44444444       0.33333333       0.05555556 </v>
   <v>       0.50000000       0.33333333       0.05555556 </v>
   <v>      -0.44444444       0.33333333       0.05555556 </v>
   <v>      -0.38888889       0.33333333       0.05555556 </v>
   <v>      -0.33333333       0.33333333       0.05555556 </v>
   <v>      -0.27777778       0.33333333       0.05555556 </v>
   <v>       0.44444444       0.38888889       0.05555556 </v>
   <v>       0.50000000       0.38888889       0.05555556 </v>
   <v>      -0.44444444       0.38888889       0.05555556 </v>
   <v>      -0.38888889       0.38888889       0.05555556 </v>
   <v>      -0.33333333       0.38888889       0.05555556 </v>
   <v>       0.50000000       0.44444444       0.05555556 </v>
   <v>      -0.44444444       0.44444444       0.05555556 </v>
   <v>      -0.38888889       0.44444444       0.05555556 </v>
   <v>      -0.44444444       0.50000000       0.05555556 </v>
   <v>       0.33333333       0.22222222       0.11111111 </v>
   <v>       0.38888889       0.22222222       0.11111111 </v>
   <v>       0.44444444       0.22222222       0.11111111 </v>
   <v>       0.50000000       0.22222222       0.11111111 </v>
   <v>      -0.44444444       0.22222222       0.11111111 </v>
   <v>      -0.38888889       0.22222222       0.11111111 </v>
   <v>       0.38888889       0.27777778       0.11111111 </v>
   <v>       0.44444444       0.27777778       0.11111111 </v>
   <v>       0.50000000       0.27777778       0.11111111 </v>
   <v>      -0.44444444       0.27777778       0.11111111 </v>
   <v>      -0.38888889       0.27777778       0.11111111 </v>
   <v>      -0.33333333       0.27777778       0.11111111 </v>
   <v>      -0.27777778       0.27777778       0.11111111 </v>
   <v>      -0.22222222       0.27777778       0.11111111 </v>
   <v>      -0.16666667       0.27777778       0.11111111 </v>
   <v>       0.44444444       0.33333333       0.11111111 </v>
   <v>       0.50000000       0.33333333       0.11111111 </v>
   <v>      -0.44444444       0.33333333       0.11111111 </v>
   <v>      -0.38888889       0.33333333       0.11111111 </v>
   <v>      -0.33333333       0.33333333       0.11111111 </v>
   <v>      -0.27777778       0.33333333       0.11111111 </v>
   <v>      -0.22222222       0.33333333       0.11111111 </v>
   <v>       0.50000000       0.38888889       0.11111111 </v>
   <v>      -0.44444444       0.38888889       0.11111111 </v>
   <v>      -0.38888889       0.38888889       0.11111111 </v>
   <v>      -0.33333333       0.38888889       0.11111111 </v>
   <v>      -0.27777778       0.38888889       0.11111111 </v>
   <v>      -0.44444444       0.44444444       0.11111111 </v>
   <v>      -0.38888889       0.44444444       0.11111111 </v>
   <v>      -0.33333333       0.44444444       0.11111111 </v>
   <v>      -0.38888889       0.50000000       0.11111111 </v>
   <v>       0.50000000       0.33333333       0.16666667 </v>
   <v>      -0.44444444       0.33333333       0.16666667 </v>
   <v>      -0.38888889       0.33333333       0.16666667 </v>
   <v>      -0.33333333       0.33333333       0.16666667 </v>
   <v>      -0.44444444       0.38888889       0.16666667 </v>
   <v>      -0.38888889       0.38888889       0.16666667 </v>
   <v>      -0.33333333       0.38888889       0.16666667 </v>
   <v>      -0.27777778       0.38888889       0.16666667 </v>
   <v>      -0.22222222       0.38888889       0.16666667 </v>
   <v>      -0.38888889       0.44444444       0.16666667 </v>
   <v>      -0.33333333       0.44444444       0.16666667 </v>
   <v>      -0.27777778       0.44444444       0.16666667 </v>
   <v>      -0.33333333       0.50000000       0.16666667 </v>
   <v>      -0.33333333       0.44444444       0.22222222 </v>
   <v>      -0.27777778       0.44444444       0.22222222 </v>
   <v>      -0.27777778       0.50000000       0.22222222 </v>
  </varray>
  <varray name="weights" >
   <v>       0.00017147 </v>
   <v>       0.00137174 </v>
   <v>       0.00137174 </v>
   <v>       0.00137174 </v>
   <v>       0.00137174 </v>
   <v>       0.00137174 </v>
   <v>       0.00137174 </v>
   <v>       0.00137174 </v>
   <v>       0.00137174 </v>
   <v>       0.00068587 </v>
   <v>       0.00102881 </v>
   <v>       0.00411523 </v>
   <v>       0.00411523 </v>
   <v>       0.00411523 </v>
   <v>       0.00411523 </v>
   <v>       0.00411523 </v>
   <v>       0.00411523 </v>
   <v>       0.00411523 </v>
   <v>       0.00411523 </v>
   <v>       0.00411523 </v>
   <v>       0.00411523 </v>
   <v>       0.00411523 </v>
   <v>       0.00411523 </v>
   <v>       0.00411523 </v>
   <v>       0.00411523 </v>
   <v>       0.00411523 </v>
   <v>       0.00205761 </v>
   <v>       0.00102881 </v>
   <v>       0.00411523 </v>
   <v>       0.00411523 </v>
   <v>       0.00411523 </v>
   <v>       0.00411523 </v>
   <v>       0.00411523 </v>
   <v>       0.00411523 </v>
   <v>       0.00411523 </v>
   <v>       0.00411523 </v>
   <v>       0.00411523 </v>
   <v>       0.00411523 </v>
   <v>       0.00411523 </v>
   <v>       0.00411523 </v>
   <v>       0.00411523 </v>
   <v>       0.00205761 </v>
   <v>       0.00102881 </v>
   <v>       0.00411523 </v>
   <v>       0.00411523 </v>
   <v>       0.00411523 </v>
   <v>       0.00411523 </v>
   <v>       0.00411523 </v>
   <v>       0.00411523 </v>
   <v>       0.00411523 </v>
   <v>       0.00411523 </v>
   <v>       0.00411523 </v>
   <v>       0.00411523 </v>
   <v>       0.00411523 </v>
   <v>       0.00205761 </v>
   <v>       0.00102881 </v>
   <v>       0.00411523 </v>
   <v>       0.00411523 </v>
   <v>       0.00411523 </v>
   <v>       0.00411523 </v>
   <v>       0.00411523 </v>
   <v>       0.00411523 </v>
   <v>       0.00411523 </v>
   <v>       0.00411523 </v>
   <v>       0.00411523 </v>
   <v>       0.00205761 </v>
   <v>       0.00102881 </v>
   <v>       0.00411523 </v>
   <v>       0.00411523 </v>
   <v>       0.00411523 </v>
   <v>       0.00411523 </v>
   <v>       0.00411523 </v>
   <v>       0.00411523 </v>
   <v>       0.00411523 </v>
   <v>       0.00205761 </v>
   <v>       0.00102881 </v>
   <v>       0.00411523 </v>
   <v>       0.00411523 </v>
   <v>       0.00411523 </v>
   <v>       0.00411523 </v>
   <v>       0.00411523 </v>
   <v>       0.00205761 </v>
   <v>       0.00102881 </v>
   <v>       0.00411523 </v>
   <v>       0.00411523 </v>
   <v>       0.00411523 </v>
   <v>       0.00205761 </v>
   <v>       0.00102881 </v>
   <v>       0.00411523 </v>
   <v>       0.00205761 </v>
   <v>       0.00051440 </v>
   <v>       0.00411523 </v>
   <v>       0.00823045 </v>
   <v>       0.00823045 </v>
   <v>       0.00823045 </v>
   <v>       0.00823045 </v>
   <v>       0.00823045 </v>
   <v>       0.00823045 </v>
   <v>       0.00411523 </v>
   <v>       0.00411523 </v>
   <v>       0.00823045 </v>
   <v>       0.00823045 </v>
   <v>       0.00823045 </v>
   <v>       0.00823045 </v>
   <v>       0.00823045 </v>
   <v>       0.00823045 </v>
   <v>       0.00823045 </v>
   <v>       0.00823045 </v>
   <v>       0.00823045 </v>
   <v>       0.00823045 </v>
   <v>       0.00823045 </v>
   <v>       0.00411523 </v>
   <v>       0.00411523 </v>
   <v>       0.00823045 </v>
   <v>       0.00823045 </v>
   <v>       0.00823045 </v>
   <v>       0.00823045 </v>
   <v>       0.00823045 </v>
   <v>       0.00823045 </v>
   <v>       0.00823045 </v>
   <v>       0.00823045 </v>
   <v>       0.00823045 </v>
   <v>       0.00411523 </v>
   <v>       0.00411523 </v>
   <v>       0.00823045 </v>
   <v>       0.00823045 </v>
   <v>       0.00823045 </v>
   <v>       0.00823045 </v>
   <v>       0.00823045 </v>
   <v>       0.00823045 </v>
   <v>       0.00823045 </v>
   <v>       0.00411523 </v>
   <v>       0.00411523 </v>
   <v>       0.00823045 </v>
   <v>       0.00823045 </v>
   <v>       0.00823045 </v>
   <v>       0.00823045 </v>
   <v>       0.00823045 </v>
   <v>       0.00411523 </v>
   <v>       0.00411523 </v>
   <v>       0.00823045 </v>
   <v>       0.00823045 </v>
   <v>       0.00823045 </v>
   <v>       0.00411523 </v>
   <v>       0.00411523 </v>
   <v>       0.00823045 </v>
   <v>       0.00411523 </v>
   <v>       0.00205761 </v>
   <v>       0.00411523 </v>
   <v>       0.00823045 </v>
   <v>       0.00823045 </v>
   <v>       0.00823045 </v>
   <v>       0.00823045 </v>
   <v>       0.00411523 </v>
   <v>       0.00411523 </v>
   <v>       0.00823045 </v>
   <v>       0.00823045 </v>
   <v>       0.00823045 </v>
   <v>       0.00823045 </v>
   <v>       0.00823045 </v>
   <v>       0.00823045 </v>
   <v>       0.00823045 </v>
   <v>       0.00411523 </v>
   <v>       0.00411523 </v>
   <v>       0.00823045 </v>
   <v>       0.00823045 </v>
   <v>       0.00823045 </v>
   <v>       0.00823045 </v>
   <v>       0.00823045 </v>
   <v>       0.00411523 </v>
   <v>       0.00411523 </v>
   <v>       0.00823045 </v>
   <v>       0.00823045 </v>
   <v>       0.00823045 </v>
   <v>       0.00411523 </v>
   <v>       0.00411523 </v>
   <v>       0.00823045 </v>
   <v>       0.00411523 </v>
   <v>       0.00205761 </v>
   <v>       0.00411523 </v>
   <v>       0.00823045 </v>
   <v>       0.00823045 </v>
   <v>       0.00411523 </v>
   <v>       0.00411523 </v>
   <v>       0.00823045 </v>
   <v>       0.00823045 </v>
   <v>       0.00823045 </v>
   <v>       0.00411523 </v>
   <v>       0.00411523 </v>
   <v>       0.00823045 </v>
   <v>       0.00411523 </v>
   <v>       0.00205761 </v>
   <v>       0.00411523 </v>
   <v>       0.00411523 </v>
   <v>       0.00205761 </v>
  </varray>
 </kpoints>
 <parameters>
  <separator name="general" >
   <i type="string" name="SYSTEM">unknown system</i>
   <i type="logical" name="LCOMPAT"> F  </i>
  </separator>
  <separator name="electronic" >
   <i type="string" name="PREC">normal</i>
   <i name="ENMAX">    500.00000000</i>
   <i name="ENAUG">    644.87300000</i>
   <i name="EDIFF">      0.00000100</i>
   <i type="int" name="IALGO">    68</i>
   <i type="int" name="IWAVPR">    10</i>
   <i type="int" name="NBANDS">     8</i>
   <i type="int" name="NBANDSLOW">    -1</i>
   <i type="int" name="NBANDSHIGH">    -1</i>
   <i name="NELECT">      8.00000000</i>
   <i type="int" name="TURBO">     0</i>
   <i type="int" name="IRESTART">     0</i>
   <i type="int" name="NREBOOT">     0</i>
   <i type="int" name="NMIN">     0</i>
   <i name="EREF">      0.00000000</i>
   <separator name="electronic smearing" >
    <i type="int" name="ISMEAR">     0</i>
    <i name="SIGMA">      0.20000000</i>
    <i name="KSPACING">      0.50000000</i>
    <i type="logical" name="KGAMMA"> T  </i>
    <i type="logical" name="KBLOWUP"> T  </i>
   </separator>
   <separator name="electronic projectors" >
    <i type="logical" name="LREAL"> F  </i>
    <v name="ROPT">      0.00000000</v>
    <i type="int" name="LMAXPAW">  -100</i>
    <i type="int" name="LMAXMIX">     2</i>
    <i type="logical" name="NLSPLINE"> F  </i>
   </separator>
   <separator name="electronic startup" >
    <i type="int" name="ISTART">     0</i>
    <i type="int" name="ICHARG">     2</i>
    <i type="int" name="INIWAV">     1</i>
   </separator>
   <separator name="electronic spin" >
    <i type="int" name="ISPIN">     1</i>
    <i type="logical" name="LNONCOLLINEAR"> F  </i>
    <v name="MAGMOM">      1.00000000      1.00000000</v>
    <i name="NUPDOWN">     -1.00000000</i>
    <i type="logical" name="LSORBIT"> F  </i>
    <v name="SAXIS">      0.00000000      0.00000000      1.00000000</v>
    <i type="logical" name="LSPIRAL"> F  </i>
    <v name="QSPIRAL">      0.00000000      0.00000000      0.00000000</v>
    <i type="logical" name="LZEROZ"> F  </i>
   </separator>
   <separator name="electronic exchange-correlation" >
    <i type="logical" name="LASPH"> F  </i>
   </separator>
   <separator name="electronic convergence" >
    <i type="int" name="NELM">    60</i>
    <i type="int" name="NELMDL">    -5</i>
    <i type="int" name="NELMIN">     4</i>
    <i name="ENINI">    500.00000000</i>
    <separator name="electronic convergence detail" >
     <i type="logical" name="LDIAG"> T  </i>
     <i type="logical" name="LSUBROT"> F  </i>
     <i type="logical" name="LROBUST"> F  </i>
     <i type="int" name="ISEARCH">     0</i>
     <i name="WEIMIN">      0.00000000</i>
     <i name="EBREAK">      0.00000003</i>
     <i name="DEPER">      0.30000000</i>
     <i type="int" name="NRMM">     4</i>
     <i name="TIME">      0.40000000</i>
    </separator>
   </separator>
   <separator name="electronic mixer" >
    <i name="AMIX">      0.40000000</i>
    <i name="BMIX">      1.00000000</i>
    <i name="AMIN">      0.10000000</i>
    <i name="AMIX_MAG">      1.60000000</i>
    <i name="BMIX_MAG">      1.00000000</i>
    <separator name="electronic mixer details" >
     <i type="int" name="IMIX">     4</i>
     <i type="logical" name="MIXFIRST"> F  </i>
     <i type="int" name="MAXMIX">   -45</i>
     <i name="WC">    100.00000000</i>
     <i type="int" name="INIMIX">     1</i>
     <i type="int" name="MIXPRE">     1</i>
     <i type="int" name="MREMOVE">     5</i>
    </separator>
   </separator>
   <separator name="electronic dipolcorrection" >
    <i type="logical" name="LDIPOL"> F  </i>
    <i type="logical" name="LMONO"> F  </i>
    <i type="int" name="IDIPOL">     0</i>
    <i name="EPSILON">      1.00000000</i>
    <v name="DIPOL">   -100.00000000   -100.00000000   -100.00000000</v>
    <i name="EFIELD">      0.00000000</i>
    <i type="logical" name="LVACPOTAV"> F  </i>
   </separator>
  </separator>
  <separator name="grids" >
   <i type="int" name="NGX">    14</i>
   <i type="int" name="NGY">    14</i>
   <i type="int" name="NGZ">    14</i>
   <i type="int" name="NGXF">    28</i>
   <i type="int" name="NGYF">    28</i>
   <i type="int" name="NGZF">    28</i>
   <i type="logical" name="ADDGRID"> F  </i>
  </separator>
  <separator name="ionic" >
   <i type="int" name="NSW">     0</i>
   <i type="int" name="IBRION">    -1</i>
   <i type="int" name="MDALGO">     0</i>
   <i type="int" name="ISIF">     2</i>
   <i name="PSTRESS">      0.00000000</i>
   <i name="EDIFFG">      0.00001000</i>
   <i type="int" name="NFREE">     0</i>
   <i name="POTIM">      0.50000000</i>
   <i name="SMASS">     -3.00000000</i>
   <i name="SCALEE">      1.00000000</i>
  </separator>
  <separator name="ionic md" >
   <i name="TEBEG">      0.00010000</i>
   <i name="TEEND">      0.00010000</i>
   <i type="int" name="NBLOCK">     1</i>
   <i type="int" name="KBLOCK">     1</i>
   <i type="int" name="NPACO">   256</i>
   <i name="APACO">     10.00000000</i>
  </separator>
  <separator name="symmetry" >
   <i type="int" name="ISYM">     2</i>
   <i name="SYMPREC">      0.00001000</i>
  </separator>
  <separator name="dos" >
   <i type="int" name="LORBIT">     0</i>
   <v name="RWIGS">     -1.00000000</v>
   <i type="int" name="NEDOS">   301</i>
   <i name="EMIN">     10.00000000</i>
   <i name="EMAX">    -10.00000000</i>
   <i name="EFERMI">      0.00000000</i>
  </separator>
  <separator name="writing" >
   <i type="int" name="NWRITE">     2</i>
   <i type="logical" name="LWAVE"> F  </i>
   <i type="logical" name="LDOWNSAMPLE"> F  </i>
   <i type="logical" name="LCHARG"> T  </i>
   <i type="logical" name="LPARD"> F  </i>
   <i type="logical" name="LVTOT"> F  </i>
   <i type="logical" name="LVHAR"> F  </i>
   <i type="logical" name="LELF"> F  </i>
   <i type="logical" name="LOPTICS"> F  </i>
   <v name="STM">      0.00000000      0.00000000      0.00000000      0.00000000      0.00000000      0.00000000      0.00000000</v>
  </separator>
  <separator name="performance" >
   <i type="int" name="NPAR">     4</i>
   <i type="int" name="NSIM">     4</i>
   <i type="int" name="NBLK">    -1</i>
   <i type="logical" name="LPLANE"> T  </i>
   <i type="logical" name="LSCALAPACK"> T  </i>
   <i type="logical" name="LSCAAWARE"> F  </i>
   <i type="logical" name="LSCALU"> F  </i>
   <i type="logical" name="LASYNC"> F  </i>
   <i type="logical" name="LORBITALREAL"> F  </i>
  </separator>
  <separator name="miscellaneous" >
   <i type="int" name="IDIOT">     3</i>
   <i type="int" name="PHON_NSTRUCT">    -1</i>
   <i type="logical" name="LMUSIC"> F  </i>
   <v name="POMASS">     12.01100000</v>
   <v name="DARWINR">      0.00000000</v>
   <v name="DARWINV">      1.00000000</v>
   <i type="logical" name="LCORR"> T  </i>
  </separator>
  <i type="logical" name="GGA_COMPAT"> T  </i>
  <i type="logical" name="LBERRY"> F  </i>
  <i type="int" name="ICORELEVEL">     0</i>
  <i type="logical" name="LDAU"> F  </i>
  <i type="int" name="I_CONSTRAINED_M">     0</i>
  <separator name="electronic exchange-correlation" >
   <i type="string" name="GGA    ">PE</i>
   <i type="string" name="XC_C">1</i>
   <i type="int" name="VOSKOWN">     0</i>
   <i type="logical" name="LHFCALC"> F  </i>
   <i type="string" name="PRECFOCK"></i>
   <i type="logical" name="LSYMGRAD"> F  </i>
   <i type="logical" name="LHFONE"> F  </i>
   <i type="logical" name="LRHFCALC"> F  </i>
   <i type="logical" name="LTHOMAS"> F  </i>
   <i type="logical" name="LMODELHF"> F  </i>
   <i type="logical" name="LFOCKACE"> F  </i>
   <i name="ENCUT4O">     -1.00000000</i>
   <i type="int" name="EXXOEP">     0</i>
   <i type="int" name="FOURORBIT">     0</i>
   <i name="AEXX">      0.00000000</i>
   <i name="HFALPHA">      0.00000000</i>
   <i name="MCALPHA">      0.00000000</i>
   <i name="ALDAX">      1.00000000</i>
   <i name="AGGAX">      1.00000000</i>
   <i name="AMGGAX">      1.00000000</i>
   <i name="ALDAC">      1.00000000</i>
   <i name="AGGAC">      1.00000000</i>
   <i name="AMGGAC">      1.00000000</i>
   <i type="int" name="NKREDX">     1</i>
   <i type="int" name="NKREDY">     1</i>
   <i type="int" name="NKREDZ">     1</i>
   <i type="logical" name="SHIFTRED"> F  </i>
   <i type="logical" name="ODDONLY"> F  </i>
   <i type="logical" name="EVENONLY"> F  </i>
   <i type="int" name="LMAXFOCK">     0</i>
   <i type="int" name="NMAXFOCKAE">     0</i>
   <i type="logical" name="LFOCKAEDFT"> F  </i>
   <i name="HFSCREEN">      0.00000000</i>
   <i name="HFSCREENC">      0.00000000</i>
   <i type="int" name="NBANDSGWLOW">     0</i>
  </separator>
  <separator name="vdW DFT" >
   <i type="logical" name="LUSE_VDW"> F  </i>
   <i type="int" name="IVDW_NL">    -1</i>
   <i type="logical" name="LSPIN_VDW"> F  </i>
   <i name="ZAB_VDW">     -0.84910000</i>
   <i name="GAMMA_VDW">      1.39626340</i>
   <i name="ALPHA_VDW">      0.00000000</i>
   <i name="PARAM1">      0.12340000</i>
   <i name="PARAM2">      1.00000000</i>
   <i name="BPARAM">      6.30000000</i>
   <i name="CPARAM">      0.00930000</i>
  </separator>
  <separator name="model GW" >
   <i type="int" name="MODEL_GW">     0</i>
   <i name="MODEL_EPS0">      3.38385115</i>
   <i name="MODEL_ALPHA">      1.00000000</i>
  </separator>
  <separator name="linear response parameters" >
   <i type="logical" name="LEPSILON"> F  </i>
   <i type="logical" name="LRPA"> F  </i>
   <i type="logical" name="LNABLA"> F  </i>
   <i type="logical" name="LVEL"> F  </i>
   <i name="CSHIFT">      0.10000000</i>
   <i name="OMEGAMAX">     -1.00000000</i>
   <i name="DEG_THRESHOLD">      0.00200000</i>
   <i name="RTIME">     -0.10000000</i>
   <i name="WPLASMAI">      0.00000000</i>
   <v name="DFIELD">      0.00000000      0.00000000      0.00000000</v>
   <v name="WPLASMA">      0.00000000      0.00000000      0.00000000      0.00000000      0.00000000      0.00000000      0.00000000      0.00000000      0.00000000</v>
  </separator>
  <separator name="orbital magnetization" >
   <i type="logical" name="NUCIND"> F  </i>
   <v name="MAGPOS">      0.00000000      0.00000000      0.00000000</v>
   <i type="logical" name="LNICSALL"> T  </i>
   <i type="logical" name="ORBITALMAG"> F  </i>
   <i type="logical" name="LMAGBLOCH"> F  </i>
   <i type="logical" name="LCHIMAG"> F  </i>
   <i type="logical" name="LGAUGE"> T  </i>
   <i type="int" name="MAGATOM">     0</i>
   <v name="MAGDIPOL">      0.00000000      0.00000000      0.00000000</v>
   <v name="AVECCONST">      0.00000000      0.00000000      0.00000000</v>
  </separator>
  <separator name="response functions" >
   <i type="logical" name="LALL_IN_ONE"> F  </i>
   <i type="int" name="IALL_IN_ONE">    -1</i>
   <i type="int" name="NBANDS_WAVE">    -1</i>
   <i type="logical" name="LFINITE_TEMPERATURE"> F  </i>
   <i type="logical" name="LADDER"> F  </i>
   <i type="logical" name="LRPAFORCE"> F  </i>
   <i type="logical" name="LFXC"> F  </i>
   <i type="logical" name="LHARTREE"> T  </i>
   <i type="int" name="IBSE">     2</i>
   <v type="int" name="KPOINT">    -1     0     0     0</v>
   <i type="logical" name="LTCTC"> F  </i>
   <i type="logical" name="LTCTE"> F  </i>
   <i type="logical" name="LTETE"> F  </i>
   <i type="logical" name="LTRIPLET"> F  </i>
   <i type="logical" name="LFXCEPS"> F  </i>
   <i type="logical" name="LFXHEG"> F  </i>
   <i type="int" name="NATURALO">     2</i>
   <i type="logical" name="LHOLEGF"> F  </i>
   <i type="logical" name="L2ORDER"> F  </i>
   <i type="logical" name="LDMP1"> F  </i>
   <i type="logical" name="LMP2LT"> F  </i>
   <i type="logical" name="LSMP2LT"> F  </i>
   <i type="logical" name="LGWLF"> F  </i>
   <i name="ENCUTGW">     -1.60000002</i>
   <i name="ENCUTGWSOFT">     -1.60000002</i>
   <i name="ENCUTLF">     -1.00000000</i>
   <i type="logical" name="ESF_SPLINES"> F  </i>
   <i name="ESF_CONV">      0.01000000</i>
   <i type="int" name="ESF_NINTER">    15</i>
   <i type="int" name="LMAXMP2">    -1</i>
   <i name="SCISSOR">      0.00000000</i>
   <i type="int" name="NOMEGA">     0</i>
   <i type="int" name="NOMEGAR">     0</i>
   <i type="int" name="NBANDSGW">    -1</i>
   <i type="int" name="NBANDSO">    -1</i>
   <i type="int" name="NBANDSV">    -1</i>
   <i type="int" name="NELMGW">     1</i>
   <i type="int" name="NELMHF">     1</i>
   <i type="int" name="DIM">     3</i>
   <i type="int" name="IESPILON">     4</i>
   <i type="int" name="ANTIRES">     0</i>
   <i name="OMEGAMAX">    -30.00000000</i>
   <i name="OMEGAMIN">    -30.00000000</i>
   <i name="OMEGATL">   -200.00000000</i>
   <i type="int" name="OMEGAGRID">     0</i>
   <i name="CSHIFT">     -0.10000000</i>
   <i type="logical" name="LSELFENERGY"> F  </i>
   <i type="logical" name="LSPECTRAL"> F  </i>
   <i type="logical" name="LSPECTRALGW"> F  </i>
   <i type="logical" name="LSINGLES"> F  </i>
   <i type="logical" name="LFERMIGW"> F  </i>
   <i type="logical" name="ODDONLYGW"> F  </i>
   <i type="logical" name="EVENONLYGW"> F  </i>
   <i type="int" name="NKREDLFX">     1</i>
   <i type="int" name="NKREDLFY">     1</i>
   <i type="int" name="NKREDLFZ">     1</i>
   <i type="int" name="MAXMEM">  2800</i>
   <i type="int" name="TELESCOPE">     0</i>
   <i type="int" name="NTAUPAR">    -1</i>
   <i type="int" name="NOMEGAPAR">    -1</i>
   <i name="DAMP_NEWTON">      0.80000001</i>
   <i name="LAMBDA">      1.00000000</i>
  </separator>
  <separator name="External order field" >
   <i name="OFIELD_KAPPA">      0.00000000</i>
   <v name="OFIELD_K">      0.00000000      0.00000000      0.00000000</v>
   <i name="OFIELD_Q6_NEAR">      0.00000000</i>
   <i name="OFIELD_Q6_FAR">      0.00000000</i>
   <i name="OFIELD_A">      0.00000000</i>
  </separator>
  <separator name="optional k-points parameters" >
   <i type="int" name="KPOINTS_OPT_MODE">     1</i>
   <i type="logical" name="LKPOINTS_OPT"> F  </i>
  </separator>
 </parameters>
 <atominfo>
  <atoms>       2 </atoms>
  <types>       1 </types>
  <array name="atoms" >
   <dimension dim="1">ion</dimension>
   <field type="string">element</field>
   <field type="int">atomtype</field>
   <set>
    <rc><c>C </c><c>   1</c></rc>
    <rc><c>C </c><c>   1</c></rc>
   </set>
  </array>
  <array name="atomtypes" >
   <dimension dim="1">type</dimension>
   <field type="int">atomspertype</field>
   <field type="string">element</field>
   <field>mass</field>
   <field>valence</field>
   <field type="string">pseudopotential</field>
   <set>
    <rc><c>   2</c><c>C </c><c>     12.01100000</c><c>      4.00000000</c><c>  PAW_PBE C 08Apr2002                   </c></rc>
   </set>
  </array>
 </atominfo>
 <structure name="initialpos" >
  <crystal>
   <varray name="basis" >
    <v>       2.51730013       0.00000000       0.00000000 </v>
    <v>       1.25865006       2.18004586       0.00000000 </v>
    <v>       1.25865006       0.72668195       2.05536695 </v>
   </varray>
   <i name="volume">     11.27950384 </i>
   <varray name="rec_basis" >
    <v>       0.39725100      -0.22935297      -0.16217704 </v>
    <v>       0.00000000       0.45870595      -0.16217704 </v>
    <v>       0.00000000       0.00000000       0.48653113 </v>
   </varray>
  </crystal>
  <varray name="positions" >
   <v>       0.25000000       0.25000000       0.25000000 </v>
   <v>       0.00000000       0.00000000       0.00000000 </v>
  </varray>
 </structure>
 <calculation>
  <scstep>
   <time name="dav">    0.21    0.21</time>
   <time name="total">    0.21    0.22</time>
   <energy>
    <i name="alphaZ">     29.13132251 </i>
    <i name="ewald">   -348.62358043 </i>
    <i name="hartreedc">    -17.48913657 </i>
    <i name="XCdc">     27.44127174 </i>
    <i name="pawpsdc">    217.04409276 </i>
    <i name="pawaedc">   -218.18290438 </i>
    <i name="eentropy">     -0.00332712 </i>
    <i name="bandstr">     15.51773172 </i>
    <i name="atom">    294.29684335 </i>
    <i name="e_fr_energy">     -0.86768643 </i>
    <i name="e_wo_entrp">     -0.86435930 </i>
    <i name="e_0_energy">     -0.86602287 </i>
   </energy>
  </scstep>
  <scstep>
   <time name="dav">    0.30    0.30</time>
   <time name="total">    0.30    0.30</time>
   <energy>
    <i name="e_fr_energy">    -18.72283259 </i>
    <i name="e_wo_entrp">    -18.72283259 </i>
    <i name="e_0_energy">    -18.72283259 </i>
   </energy>
  </scstep>
  <scstep>
   <time name="dav">    0.21    0.21</time>
   <time name="total">    0.21    0.21</time>
   <energy>
    <i name="e_fr_energy">    -18.83373862 </i>
    <i name="e_wo_entrp">    -18.83373862 </i>
    <i name="e_0_energy">    -18.83373862 </i>
   </energy>
  </scstep>
  <scstep>
   <time name="dav">    0.26    0.26</time>
   <time name="total">    0.26    0.27</time>
   <energy>
    <i name="e_fr_energy">    -18.83388930 </i>
    <i name="e_wo_entrp">    -18.83388930 </i>
    <i name="e_0_energy">    -18.83388930 </i>
   </energy>
  </scstep>
  <scstep>
   <time name="dav">    0.20    0.20</time>
   <time name="total">    0.20    0.20</time>
   <energy>
    <i name="e_fr_energy">    -18.83388936 </i>
    <i name="e_wo_entrp">    -18.83388936 </i>
    <i name="e_0_energy">    -18.83388936 </i>
   </energy>
  </scstep>
  <scstep>
   <time name="diag">    0.14    0.14</time>
   <time name="diis">    0.07    0.07</time>
   <time name="orth">    0.01    0.01</time>
   <time name="total">    0.23    0.23</time>
   <energy>
    <i name="e_fr_energy">    -18.34429788 </i>
    <i name="e_wo_entrp">    -18.34429788 </i>
    <i name="e_0_energy">    -18.34429788 </i>
   </energy>
  </scstep>
  <scstep>
   <time name="diag">    0.12    0.12</time>
   <time name="diis">    0.08    0.08</time>
   <time name="orth">    0.01    0.01</time>
   <time name="total">    0.22    0.22</time>
   <energy>
    <i name="e_fr_energy">    -18.17991988 </i>
    <i name="e_wo_entrp">    -18.17991988 </i>
    <i name="e_0_energy">    -18.17991988 </i>
   </energy>
  </scstep>
  <scstep>
   <time name="diag">    0.12    0.12</time>
   <time name="diis">    0.07    0.07</time>
   <time name="orth">    0.01    0.01</time>
   <time name="total">    0.21    0.21</time>
   <energy>
    <i name="e_fr_energy">    -18.18364979 </i>
    <i name="e_wo_entrp">    -18.18364979 </i>
    <i name="e_0_energy">    -18.18364979 </i>
   </energy>
  </scstep>
  <scstep>
   <time name="diag">    0.12    0.12</time>
   <time name="diis">    0.08    0.08</time>
   <time name="orth">    0.01    0.01</time>
   <time name="total">    0.22    0.22</time>
   <energy>
    <i name="e_fr_energy">    -18.18385939 </i>
    <i name="e_wo_entrp">    -18.18385939 </i>
    <i name="e_0_energy">    -18.18385939 </i>
   </energy>
  </scstep>
  <scstep>
   <time name="diag">    0.12    0.12</time>
   <time name="diis">    0.07    0.07</time>
   <time name="orth">    0.01    0.01</time>
   <time name="total">    0.21    0.21</time>
   <energy>
    <i name="e_fr_energy">    -18.18388629 </i>
    <i name="e_wo_entrp">    -18.18388629 </i>
    <i name="e_0_energy">    -18.18388629 </i>
   </energy>
  </scstep>
  <scstep>
   <time name="diag">    0.12    0.12</time>
   <time name="diis">    0.08    0.08</time>
   <time name="orth">    0.01    0.01</time>
   <time name="total">    0.21    0.21</time>
   <energy>
    <i name="e_fr_energy">    -18.18388904 </i>
    <i name="e_wo_entrp">    -18.18388904 </i>
    <i name="e_0_energy">    -18.18388904 </i>
   </energy>
  </scstep>
  <scstep>
   <time name="diag">    0.12    0.12</time>
   <time name="diis">    0.08    0.08</time>
   <time name="orth">    0.01    0.01</time>
   <time name="total">    0.21    0.21</time>
   <energy>
    <i name="e_fr_energy">    -18.18389010 </i>
    <i name="e_wo_entrp">    -18.18389010 </i>
    <i name="e_0_energy">    -18.18389010 </i>
   </energy>
  </scstep>
  <scstep>
   <time name="diag">    0.12    0.12</time>
   <time name="diis">    0.06    0.06</time>
   <time name="orth">    0.01    0.01</time>
   <time name="total">    0.18    0.19</time>
   <energy>
    <i name="alphaZ">     29.13132251 </i>
    <i name="ewald">   -348.62358043 </i>
    <i name="hartreedc">    -26.32597401 </i>
    <i name="XCdc">     28.24866279 </i>
    <i name="pawpsdc">    775.75269775 </i>
    <i name="pawaedc">   -777.09582808 </i>
    <i name="eentropy">     -0.00000000 </i>
    <i name="bandstr">      6.43196579 </i>
    <i name="atom">    294.29684335 </i>
    <i name="e_fr_energy">    -18.18389033 </i>
    <i name="e_wo_entrp">    -18.18389033 </i>
    <i name="e_0_energy">    -18.18389033 </i>
   </energy>
  </scstep>
  <structure>
   <crystal>
    <varray name="basis" >
     <v>       2.51730013       0.00000000       0.00000000 </v>
     <v>       1.25865006       2.18004586       0.00000000 </v>
     <v>       1.25865006       0.72668195       2.05536695 </v>
    </varray>
    <i name="volume">     11.27950384 </i>
    <varray name="rec_basis" >
     <v>       0.39725100      -0.22935297      -0.16217704 </v>
     <v>       0.00000000       0.45870595      -0.16217704 </v>
     <v>       0.00000000       0.00000000       0.48653113 </v>
    </varray>
   </crystal>
   <varray name="positions" >
    <v>       0.25000000       0.25000000       0.25000000 </v>
    <v>       0.00000000       0.00000000       0.00000000 </v>
   </varray>
  </structure>
  <varray name="forces" >
   <v>       0.00000000       0.00000000       0.00000000 </v>
   <v>      -0.00000000      -0.00000000      -0.00000000 </v>
  </varray>
  <varray name="stress" >
   <v>      50.94342783       0.00000000       0.00000000 </v>
   <v>       0.00000000      50.94342783      -0.00000000 </v>
   <v>       0.00000000      -0.00000000      50.94342783 </v>
  </varray>
  <energy>
   <i name="e_fr_energy">    -18.18389033 </i>
   <i name="e_wo_entrp">    -18.18389033 </i>
   <i name="e_0_energy">    -18.18389033 </i>
  </energy>
  <time name="totalsc">    2.94    2.97</time>
  <eigenvalues>
   <array>
    <dimension dim="1">band</dimension>
    <dimension dim="2">kpoint</dimension>
    <dimension dim="3">spin</dimension>
    <field>eigene</field>
    <field>occ</field>
    <set>
     <set comment="spin 1">
      <set comment="kpoint 1">
       <r>  -11.7410    1.0000 </r>
       <r>    9.8128    1.0000 </r>
       <r>    9.8128    1.0000 </r>
       <r>    9.8128    1.0000 </r>
       <r>   15.4190    0.0000 </r>
       <r>   15.4190    0.0000 </r>
       <r>   15.4190    0.0000 </r>
       <r>   23.2753    0.0000 </r>
      </set>
      <set comment="kpoint 2">
       <r>  -11.6551    1.0000 </r>
       <r>    9.2201    1.0000 </r>
       <r>    9.6606    1.0000 </r>
       <r>    9.6606    1.0000 </r>
       <r>   15.6179    0.0000 </r>
       <r>   15.6180    0.0000 </r>
       <r>   15.7829    0.0000 </r>
       <r>   23.3471    0.0000 </r>
      </set>
      <set comment="kpoint 3">
       <r>  -11.3981    1.0000 </r>
       <r>    7.8079    1.0000 </r>
       <r>    9.2739    1.0000 </r>
       <r>    9.2739    1.0000 </r>
       <r>   16.1272    0.0000 </r>
       <r>   16.1272    0.0000 </r>
       <r>   16.5267    0.0000 </r>
       <r>   23.5597    0.0000 </r>
      </set>
      <set comment="kpoint 4">
       <r>  -10.9710    1.0000 </r>
       <r>    6.0405    1.0000 </r>
       <r>    8.7835    1.0000 </r>
       <r>    8.7835    1.0000 </r>
       <r>   16.7685    0.0000 </r>
       <r>   16.7685    0.0000 </r>
       <r>   17.2438    0.0000 </r>
       <r>   23.8976    0.0000 </r>
      </set>
      <set comment="kpoint 5">
       <r>  -10.3769    1.0000 </r>
       <r>    4.1490    1.0000 </r>
       <r>    8.2880    1.0000 </r>
       <r>    8.2880    1.0000 </r>
       <r>   17.3756    0.0000 </r>
       <r>   17.3756    0.0000 </r>
       <r>   17.7978    0.0000 </r>
       <r>   24.3205    0.0000 </r>
      </set>
      <set comment="kpoint 6">
       <r>   -9.6207    1.0000 </r>
       <r>    2.2473    1.0000 </r>
       <r>    7.8438    1.0000 </r>
       <r>    7.8439    1.0000 </r>
       <r>   17.8376    0.0000 </r>
       <r>   17.8377    0.0000 </r>
       <r>   18.1877    0.0000 </r>
       <r>   24.7603    0.0000 </r>
      </set>
      <set comment="kpoint 7">
       <r>   -8.7120    1.0000 </r>
       <r>    0.4047    1.0000 </r>
       <r>    7.4809    1.0000 </r>
       <r>    7.4809    1.0000 </r>
       <r>   18.1166    0.0000 </r>
       <r>   18.1166    0.0000 </r>
       <r>   18.4491    0.0000 </r>
       <r>   25.1390    0.0000 </r>
      </set>
      <set comment="kpoint 8">
       <r>   -7.6739    1.0000 </r>
       <r>   -1.3204    1.0000 </r>
       <r>    7.2145    1.0000 </r>
       <r>    7.2145    1.0000 </r>
       <r>   18.2459    0.0000 </r>
       <r>   18.2460    0.0000 </r>
       <r>   18.6154    0.0000 </r>
       <r>   25.3966    0.0000 </r>
      </set>
      <set comment="kpoint 9">
       <r>   -6.5885    1.0000 </r>
       <r>   -2.8255    1.0000 </r>
       <r>    7.0524    1.0000 </r>
       <r>    7.0524    1.0000 </r>
       <r>   18.2882    0.0000 </r>
       <r>   18.2883    0.0000 </r>
       <r>   18.7081    0.0000 </r>
       <r>   25.5283    0.0000 </r>
      </set>
      <set comment="kpoint 10">
       <r>   -5.9324    1.0000 </r>
       <r>   -3.6225    1.0000 </r>
       <r>    6.9981    1.0000 </r>
       <r>    6.9981    1.0000 </r>
       <r>   18.2961    0.0000 </r>
       <r>   18.2962    0.0000 </r>
       <r>   18.7380    0.0000 </r>
       <r>   25.5708    0.0000 </r>
      </set>
      <set comment="kpoint 11">
       <r>  -11.6265    1.0000 </r>
       <r>    9.3619    1.0000 </r>
       <r>    9.3619    1.0000 </r>
       <r>    9.5341    1.0000 </r>
       <r>   15.3285    0.0000 </r>
       <r>   15.9686    0.0000 </r>
       <r>   15.9687    0.0000 </r>
       <r>   23.3513    0.0000 </r>
      </set>
      <set comment="kpoint 12">
       <r>  -11.4265    1.0000 </r>
       <r>    8.2766    1.0000 </r>
       <r>    8.8864    1.0000 </r>
       <r>    9.3818    1.0000 </r>
       <r>   15.4588    0.0000 </r>
       <r>   16.5791    0.0000 </r>
       <r>   16.6393    0.0000 </r>
       <r>   23.4565    0.0000 </r>
      </set>
      <set comment="kpoint 13">
       <r>  -11.0561    1.0000 </r>
       <r>    6.6407    1.0000 </r>
       <r>    8.3584    1.0000 </r>
       <r>    9.0366    1.0000 </r>
       <r>   15.9283    0.0000 </r>
       <r>   17.2811    0.0000 </r>
       <r>   17.3745    0.0000 </r>
       <r>   23.6520    0.0000 </r>
      </set>
      <set comment="kpoint 14">
       <r>  -10.5177    1.0000 </r>
       <r>    4.8042    1.0000 </r>
       <r>    7.8601    1.0000 </r>
       <r>    8.5656    1.0000 </r>
       <r>   16.5374    0.0000 </r>
       <r>   17.9248    0.0000 </r>
       <r>   17.9749    0.0000 </r>
       <r>   23.9227    0.0000 </r>
      </set>
      <set comment="kpoint 15">
       <r>   -9.8155    1.0000 </r>
       <r>    2.9157    1.0000 </r>
       <r>    7.4378    1.0000 </r>
       <r>    8.0689    1.0000 </r>
       <r>   17.1076    0.0000 </r>
       <r>   18.4014    0.0000 </r>
       <r>   18.4054    0.0000 </r>
       <r>   24.2628    0.0000 </r>
      </set>
      <set comment="kpoint 16">
       <r>   -8.9569    1.0000 </r>
       <r>    1.0593    1.0000 </r>
       <r>    7.1159    1.0000 </r>
       <r>    7.6067    1.0000 </r>
       <r>   17.5362    0.0000 </r>
       <r>   18.6657    0.0000 </r>
       <r>   18.6949    0.0000 </r>
       <r>   24.6651    0.0000 </r>
      </set>
      <set comment="kpoint 17">
       <r>   -7.9589    1.0000 </r>
       <r>   -0.7038    1.0000 </r>
       <r>    6.9061    1.0000 </r>
       <r>    7.2125    1.0000 </r>
       <r>   17.8132    0.0000 </r>
       <r>   18.7415    0.0000 </r>
       <r>   18.8783    0.0000 </r>
       <r>   25.0693    0.0000 </r>
      </set>
      <set comment="kpoint 18">
       <r>   -6.8725    1.0000 </r>
       <r>   -2.2964    1.0000 </r>
       <r>    6.8129    1.0000 </r>
       <r>    6.9058    1.0000 </r>
       <r>   17.9907    0.0000 </r>
       <r>   18.6941    0.0000 </r>
       <r>   18.9827    0.0000 </r>
       <r>   25.3854    0.0000 </r>
      </set>
      <set comment="kpoint 19">
       <r>   -5.9585    1.0000 </r>
       <r>   -3.4431    1.0000 </r>
       <r>    6.6986    1.0000 </r>
       <r>    6.8361    1.0000 </r>
       <r>   18.1299    0.0000 </r>
       <r>   18.5871    0.0000 </r>
       <r>   19.0229    0.0000 </r>
       <r>   25.5519    0.0000 </r>
      </set>
      <set comment="kpoint 20">
       <r>   -6.1992    1.0000 </r>
       <r>   -3.1554    1.0000 </r>
       <r>    6.5994    1.0000 </r>
       <r>    6.9720    1.0000 </r>
       <r>   18.2631    0.0000 </r>
       <r>   18.4542    0.0000 </r>
       <r>   19.0044    0.0000 </r>
       <r>   25.5498    0.0000 </r>
      </set>
      <set comment="kpoint 21">
       <r>   -7.2377    1.0000 </r>
       <r>   -1.7914    1.0000 </r>
       <r>    6.6136    1.0000 </r>
       <r>    7.2144    1.0000 </r>
       <r>   18.2930    0.0000 </r>
       <r>   18.3827    0.0000 </r>
       <r>   18.9244    0.0000 </r>
       <r>   25.3808    0.0000 </r>
      </set>
      <set comment="kpoint 22">
       <r>   -8.3054    1.0000 </r>
       <r>   -0.1285    1.0000 </r>
       <r>    6.7439    1.0000 </r>
       <r>    7.5538    1.0000 </r>
       <r>   18.0657    0.0000 </r>
       <r>   18.4421    0.0000 </r>
       <r>   18.7698    0.0000 </r>
       <r>   25.0637    0.0000 </r>
      </set>
      <set comment="kpoint 23">
       <r>   -9.2598    1.0000 </r>
       <r>    1.6728    1.0000 </r>
       <r>    6.9899    1.0000 </r>
       <r>    7.9757    1.0000 </r>
       <r>   17.7200    0.0000 </r>
       <r>   18.3696    0.0000 </r>
       <r>   18.5134    0.0000 </r>
       <r>   24.6618    0.0000 </r>
      </set>
      <set comment="kpoint 24">
       <r>  -10.0674    1.0000 </r>
       <r>    3.5476    1.0000 </r>
       <r>    7.3457    1.0000 </r>
       <r>    8.4566    1.0000 </r>
       <r>   17.2275    0.0000 </r>
       <r>   18.0545    0.0000 </r>
       <r>   18.1682    0.0000 </r>
       <r>   24.2624    0.0000 </r>
      </set>
      <set comment="kpoint 25">
       <r>  -10.7158    1.0000 </r>
       <r>    5.4295    1.0000 </r>
       <r>    7.7978    1.0000 </r>
       <r>    8.9548    1.0000 </r>
       <r>   16.6274    0.0000 </r>
       <r>   17.4709    0.0000 </r>
       <r>   17.7205    0.0000 </r>
       <r>   23.9168    0.0000 </r>
      </set>
      <set comment="kpoint 26">
       <r>  -11.1985    1.0000 </r>
       <r>    7.2133    1.0000 </r>
       <r>    8.3220    1.0000 </r>
       <r>    9.3975    1.0000 </r>
       <r>   16.0423    0.0000 </r>
       <r>   16.7649    0.0000 </r>
       <r>   17.0932    0.0000 </r>
       <r>   23.6405    0.0000 </r>
      </set>
      <set comment="kpoint 27">
       <r>  -11.5122    1.0000 </r>
       <r>    8.6392    1.0000 </r>
       <r>    8.9358    1.0000 </r>
       <r>    9.6705    1.0000 </r>
       <r>   15.6514    0.0000 </r>
       <r>   16.0904    0.0000 </r>
       <r>   16.3507    0.0000 </r>
       <r>   23.4460    0.0000 </r>
      </set>
      <set comment="kpoint 28">
       <r>  -11.2839    1.0000 </r>
       <r>    8.3578    1.0000 </r>
       <r>    8.3578    1.0000 </r>
       <r>    8.7498    1.0000 </r>
       <r>   15.0854    0.0000 </r>
       <r>   17.2653    0.0000 </r>
       <r>   17.2653    0.0000 </r>
       <r>   23.3330    0.0000 </r>
      </set>
      <set comment="kpoint 29">
       <r>  -10.9707    1.0000 </r>
       <r>    7.1230    1.0000 </r>
       <r>    7.8022    1.0000 </r>
       <r>    8.5258    1.0000 </r>
       <r>   15.1673    0.0000 </r>
       <r>   18.0288    0.0000 </r>
       <r>   18.0320    0.0000 </r>
       <r>   23.1917    0.0000 </r>
      </set>
      <set comment="kpoint 30">
       <r>  -10.4890    1.0000 </r>
       <r>    5.4410    1.0000 </r>
       <r>    7.2935    1.0000 </r>
       <r>    8.1773    1.0000 </r>
       <r>   15.6127    0.0000 </r>
       <r>   18.6921    0.0000 </r>
       <r>   18.7404    0.0000 </r>
       <r>   23.0746    0.0000 </r>
      </set>
      <set comment="kpoint 31">
       <r>   -9.8422    1.0000 </r>
       <r>    3.6287    1.0000 </r>
       <r>    6.8744    1.0000 </r>
       <r>    7.6924    1.0000 </r>
       <r>   16.2025    0.0000 </r>
       <r>   19.1830    0.0000 </r>
       <r>   19.2786    0.0000 </r>
       <r>   23.0921    0.0000 </r>
      </set>
      <set comment="kpoint 32">
       <r>   -9.0369    1.0000 </r>
       <r>    1.8008    1.0000 </r>
       <r>    6.5680    1.0000 </r>
       <r>    7.1696    1.0000 </r>
       <r>   16.7371    0.0000 </r>
       <r>   19.5138    0.0000 </r>
       <r>   19.5849    0.0000 </r>
       <r>   23.3695    0.0000 </r>
      </set>
      <set comment="kpoint 33">
       <r>   -8.0857    1.0000 </r>
       <r>    0.0316    1.0000 </r>
       <r>    6.3858    1.0000 </r>
       <r>    6.6731    1.0000 </r>
       <r>   17.1244    0.0000 </r>
       <r>   19.6662    0.0000 </r>
       <r>   19.7205    0.0000 </r>
       <r>   23.9290    0.0000 </r>
      </set>
      <set comment="kpoint 34">
       <r>   -7.0228    1.0000 </r>
       <r>   -1.6085    1.0000 </r>
       <r>    6.2416    1.0000 </r>
       <r>    6.3320    1.0000 </r>
       <r>   17.3920    0.0000 </r>
       <r>   19.5806    0.0000 </r>
       <r>   19.8375    0.0000 </r>
       <r>   24.6344    0.0000 </r>
      </set>
      <set comment="kpoint 35">
       <r>   -5.9921    1.0000 </r>
       <r>   -2.9548    1.0000 </r>
       <r>    5.8994    1.0000 </r>
       <r>    6.4054    1.0000 </r>
       <r>   17.6148    0.0000 </r>
       <r>   19.3957    0.0000 </r>
       <r>   19.8859    0.0000 </r>
       <r>   25.2453    0.0000 </r>
      </set>
      <set comment="kpoint 36">
       <r>   -5.7562    1.0000 </r>
       <r>   -3.2344    1.0000 </r>
       <r>    5.6631    1.0000 </r>
       <r>    6.6004    1.0000 </r>
       <r>   17.8463    0.0000 </r>
       <r>   19.1581    0.0000 </r>
       <r>   19.8762    0.0000 </r>
       <r>   25.5228    0.0000 </r>
      </set>
      <set comment="kpoint 37">
       <r>   -6.6624    1.0000 </r>
       <r>   -2.0983    1.0000 </r>
       <r>    5.5443    1.0000 </r>
       <r>    6.9074    1.0000 </r>
       <r>   18.0966    0.0000 </r>
       <r>   18.8784    0.0000 </r>
       <r>   19.8081    0.0000 </r>
       <r>   25.3713    0.0000 </r>
      </set>
      <set comment="kpoint 38">
       <r>   -7.7426    1.0000 </r>
       <r>   -0.5218    1.0000 </r>
       <r>    5.5509    1.0000 </r>
       <r>    7.3115    1.0000 </r>
       <r>   18.3315    0.0000 </r>
       <r>   18.5338    0.0000 </r>
       <r>   19.6644    0.0000 </r>
       <r>   24.9026    0.0000 </r>
      </set>
      <set comment="kpoint 39">
       <r>   -8.7362    1.0000 </r>
       <r>    1.2177    1.0000 </r>
       <r>    5.6875    1.0000 </r>
       <r>    7.7908    1.0000 </r>
       <r>   18.0864    0.0000 </r>
       <r>   18.4805    0.0000 </r>
       <r>   19.4008    0.0000 </r>
       <r>   24.3616    0.0000 </r>
      </set>
      <set comment="kpoint 40">
       <r>   -9.5918    1.0000 </r>
       <r>    3.0352    1.0000 </r>
       <r>    5.9568    1.0000 </r>
       <r>    8.3111    1.0000 </r>
       <r>   17.5221    0.0000 </r>
       <r>   18.4632    0.0000 </r>
       <r>   18.9489    0.0000 </r>
       <r>   23.9586    0.0000 </r>
      </set>
      <set comment="kpoint 41">
       <r>  -10.2920    1.0000 </r>
       <r>    4.8465    1.0000 </r>
       <r>    6.3688    1.0000 </r>
       <r>    8.8167    1.0000 </r>
       <r>   16.8954    0.0000 </r>
       <r>   18.2264    0.0000 </r>
       <r>   18.2886    0.0000 </r>
       <r>   23.7665    0.0000 </r>
      </set>
      <set comment="kpoint 42">
       <r>  -10.8290    1.0000 </r>
       <r>    6.4010    1.0000 </r>
       <r>    7.0615    1.0000 </r>
       <r>    9.2182    1.0000 </r>
       <r>   16.3418    0.0000 </r>
       <r>   17.5056    0.0000 </r>
       <r>   17.7577    0.0000 </r>
       <r>   23.6965    0.0000 </r>
      </set>
      <set comment="kpoint 43">
       <r>  -10.7150    1.0000 </r>
       <r>    7.2250    1.0000 </r>
       <r>    7.2250    1.0000 </r>
       <r>    7.5722    1.0000 </r>
       <r>   14.7565    0.0000 </r>
       <r>   18.8748    0.0000 </r>
       <r>   18.8748    0.0000 </r>
       <r>   22.5943    0.0000 </r>
      </set>
      <set comment="kpoint 44">
       <r>  -10.2907    1.0000 </r>
       <r>    5.9369    1.0000 </r>
       <r>    6.6994    1.0000 </r>
       <r>    7.3077    1.0000 </r>
       <r>   14.8274    0.0000 </r>
       <r>   19.6528    0.0000 </r>
       <r>   19.6745    0.0000 </r>
       <r>   22.0121    0.0000 </r>
      </set>
      <set comment="kpoint 45">
       <r>   -9.7007    1.0000 </r>
       <r>    4.2942    1.0000 </r>
       <r>    6.2683    1.0000 </r>
       <r>    6.9126    1.0000 </r>
       <r>   15.2749    0.0000 </r>
       <r>   20.2496    0.0000 </r>
       <r>   20.3141    0.0000 </r>
       <r>   21.6337    0.0000 </r>
      </set>
      <set comment="kpoint 46">
       <r>   -8.9506    1.0000 </r>
       <r>    2.5632    1.0000 </r>
       <r>    5.9562    1.0000 </r>
       <r>    6.3747    1.0000 </r>
       <r>   15.8474    0.0000 </r>
       <r>   20.6576    0.0000 </r>
       <r>   20.7151    0.0000 </r>
       <r>   21.6379    0.0000 </r>
      </set>
      <set comment="kpoint 47">
       <r>   -8.0506    1.0000 </r>
       <r>    0.8378    1.0000 </r>
       <r>    5.7759    1.0000 </r>
       <r>    5.8020    1.0000 </r>
       <r>   16.3281    0.0000 </r>
       <r>   20.8603    0.0000 </r>
       <r>   20.9126    0.0000 </r>
       <r>   22.1308    0.0000 </r>
      </set>
      <set comment="kpoint 48">
       <r>   -7.0253    1.0000 </r>
       <r>   -0.8056    1.0000 </r>
       <r>    5.2644    1.0000 </r>
       <r>    5.7323    1.0000 </r>
       <r>   16.6645    0.0000 </r>
       <r>   20.7911    0.0000 </r>
       <r>   21.0543    0.0000 </r>
       <r>   23.0499    0.0000 </r>
      </set>
      <set comment="kpoint 49">
       <r>   -5.9596    1.0000 </r>
       <r>   -2.2505    1.0000 </r>
       <r>    4.8043    1.0000 </r>
       <r>    5.8249    1.0000 </r>
       <r>   16.9331    0.0000 </r>
       <r>   20.5740    0.0000 </r>
       <r>   21.1152    0.0000 </r>
       <r>   24.1599    0.0000 </r>
      </set>
      <set comment="kpoint 50">
       <r>   -5.3286    1.0000 </r>
       <r>   -3.0048    1.0000 </r>
       <r>    4.4481    1.0000 </r>
       <r>    6.0480    1.0000 </r>
       <r>   17.2148    0.0000 </r>
       <r>   20.2634    0.0000 </r>
       <r>   21.1139    0.0000 </r>
       <r>   25.0908    0.0000 </r>
      </set>
      <set comment="kpoint 51">
       <r>   -5.9688    1.0000 </r>
       <r>   -2.2258    1.0000 </r>
       <r>    4.2138    1.0000 </r>
       <r>    6.3909    1.0000 </r>
       <r>   17.5433    0.0000 </r>
       <r>   19.8801    0.0000 </r>
       <r>   21.0543    0.0000 </r>
       <r>   25.3361    0.0000 </r>
      </set>
      <set comment="kpoint 52">
       <r>   -7.0328    1.0000 </r>
       <r>   -0.7663    1.0000 </r>
       <r>    4.1141    1.0000 </r>
       <r>    6.8361    1.0000 </r>
       <r>   17.9051    0.0000 </r>
       <r>   19.4130    0.0000 </r>
       <r>   20.9133    0.0000 </r>
       <r>   24.8283    0.0000 </r>
      </set>
      <set comment="kpoint 53">
       <r>   -8.0558    1.0000 </r>
       <r>    0.8893    1.0000 </r>
       <r>    4.1608    1.0000 </r>
       <r>    7.3565    1.0000 </r>
       <r>   18.2441    0.0000 </r>
       <r>   18.8394    0.0000 </r>
       <r>   20.6150    0.0000 </r>
       <r>   24.1236    0.0000 </r>
      </set>
      <set comment="kpoint 54">
       <r>   -8.9540    1.0000 </r>
       <r>    2.6038    1.0000 </r>
       <r>    4.3810    1.0000 </r>
       <r>    7.9099    1.0000 </r>
       <r>   18.1645    0.0000 </r>
       <r>   18.4686    0.0000 </r>
       <r>   20.0447    0.0000 </r>
       <r>   23.6724    0.0000 </r>
      </set>
      <set comment="kpoint 55">
       <r>   -9.7029    1.0000 </r>
       <r>    4.0977    1.0000 </r>
       <r>    4.9777    1.0000 </r>
       <r>    8.4297    1.0000 </r>
       <r>   17.4662    0.0000 </r>
       <r>   18.4820    0.0000 </r>
       <r>   19.2103    0.0000 </r>
       <r>   23.6072    0.0000 </r>
      </set>
      <set comment="kpoint 56">
       <r>   -9.9240    1.0000 </r>
       <r>    6.1064    1.0000 </r>
       <r>    6.1531    1.0000 </r>
       <r>    6.1532    1.0000 </r>
       <r>   14.4194    0.0000 </r>
       <r>   20.5905    0.0000 </r>
       <r>   20.5905    0.0000 </r>
       <r>   21.0102    0.0000 </r>
      </set>
      <set comment="kpoint 57">
       <r>   -9.3916    1.0000 </r>
       <r>    4.7304    1.0000 </r>
       <r>    5.7008    1.0000 </r>
       <r>    5.9476    1.0000 </r>
       <r>   14.5130    0.0000 </r>
       <r>   20.2666    0.0000 </r>
       <r>   21.3517    0.0000 </r>
       <r>   21.3658    0.0000 </r>
      </set>
      <set comment="kpoint 58">
       <r>   -8.6982    1.0000 </r>
       <r>    3.2004    1.0000 </r>
       <r>    5.3692    1.0000 </r>
       <r>    5.4569    1.0000 </r>
       <r>   14.9796    0.0000 </r>
       <r>   19.9367    0.0000 </r>
       <r>   21.8898    0.0000 </r>
       <r>   21.9056    0.0000 </r>
      </set>
      <set comment="kpoint 59">
       <r>   -7.8523    1.0000 </r>
       <r>    1.6087    1.0000 </r>
       <r>    4.8277    1.0000 </r>
       <r>    5.1729    1.0000 </r>
       <r>   15.5236    0.0000 </r>
       <r>   20.1747    0.0000 </r>
       <r>   22.1657    0.0000 </r>
       <r>   22.2295    0.0000 </r>
      </set>
      <set comment="kpoint 60">
       <r>   -6.8728    1.0000 </r>
       <r>    0.0332    1.0000 </r>
       <r>    4.1877    1.0000 </r>
       <r>    5.1184    1.0000 </r>
       <r>   15.9340    0.0000 </r>
       <r>   21.0297    0.0000 </r>
       <r>   22.1652    0.0000 </r>
       <r>   22.4210    0.0000 </r>
      </set>
      <set comment="kpoint 61">
       <r>   -5.8143    1.0000 </r>
       <r>   -1.4260    1.0000 </r>
       <r>    3.6114    1.0000 </r>
       <r>    5.2065    1.0000 </r>
       <r>   16.2352    0.0000 </r>
       <r>   21.9582    0.0000 </r>
       <r>   22.3040    0.0000 </r>
       <r>   22.5402    0.0000 </r>
      </set>
      <set comment="kpoint 62">
       <r>   -4.9454    1.0000 </r>
       <r>   -2.4712    1.0000 </r>
       <r>    3.1401    1.0000 </r>
       <r>    5.4324    1.0000 </r>
       <r>   16.5357    0.0000 </r>
       <r>   21.6031    0.0000 </r>
       <r>   22.5134    0.0000 </r>
       <r>   23.8156    0.0000 </r>
      </set>
      <set comment="kpoint 63">
       <r>   -5.1921    1.0000 </r>
       <r>   -2.1630    1.0000 </r>
       <r>    2.7990    1.0000 </r>
       <r>    5.7855    1.0000 </r>
       <r>   16.8968    0.0000 </r>
       <r>   21.1272    0.0000 </r>
       <r>   22.4746    0.0000 </r>
       <r>   24.9366    0.0000 </r>
      </set>
      <set comment="kpoint 64">
       <r>   -6.1920    1.0000 </r>
       <r>   -0.8679    1.0000 </r>
       <r>    2.6082    1.0000 </r>
       <r>    6.2478    1.0000 </r>
       <r>   17.3257    0.0000 </r>
       <r>   20.5294    0.0000 </r>
       <r>   22.3504    0.0000 </r>
       <r>   24.8025    0.0000 </r>
      </set>
      <set comment="kpoint 65">
       <r>   -7.2290    1.0000 </r>
       <r>    0.6579    1.0000 </r>
       <r>    2.6052    1.0000 </r>
       <r>    6.7907    1.0000 </r>
       <r>   17.7878    0.0000 </r>
       <r>   19.8029    0.0000 </r>
       <r>   21.9938    0.0000 </r>
       <r>   24.0195    0.0000 </r>
      </set>
      <set comment="kpoint 66">
       <r>   -8.1616    1.0000 </r>
       <r>    2.0119    1.0000 </r>
       <r>    3.0279    1.0000 </r>
       <r>    7.3686    1.0000 </r>
       <r>   18.2065    0.0000 </r>
       <r>   18.9801    0.0000 </r>
       <r>   21.1659    0.0000 </r>
       <r>   23.6176    0.0000 </r>
      </set>
      <set comment="kpoint 67">
       <r>   -8.9170    1.0000 </r>
       <r>    4.4326    1.0000 </r>
       <r>    5.2225    1.0000 </r>
       <r>    5.2225    1.0000 </r>
       <r>   14.1421    0.0000 </r>
       <r>   19.2013    0.0000 </r>
       <r>   22.3038    0.0000 </r>
       <r>   22.3038    0.0000 </r>
      </set>
      <set comment="kpoint 68">
       <r>   -8.2812    1.0000 </r>
       <r>    3.3227    1.0000 </r>
       <r>    4.7663    1.0000 </r>
       <r>    4.8632    1.0000 </r>
       <r>   14.2844    0.0000 </r>
       <r>   18.5444    0.0000 </r>
       <r>   23.0184    0.0000 </r>
       <r>   23.0202    0.0000 </r>
      </set>
      <set comment="kpoint 69">
       <r>   -7.4916    1.0000 </r>
       <r>    2.0360    1.0000 </r>
       <r>    4.0794    1.0000 </r>
       <r>    4.6401    1.0000 </r>
       <r>   14.7758    0.0000 </r>
       <r>   18.4230    0.0000 </r>
       <r>   23.4371    0.0000 </r>
       <r>   23.4900    0.0000 </r>
      </set>
      <set comment="kpoint 70">
       <r>   -6.5631    1.0000 </r>
       <r>    0.6854    1.0000 </r>
       <r>    3.2905    1.0000 </r>
       <r>    4.5616    1.0000 </r>
       <r>   15.2658    0.0000 </r>
       <r>   18.9994    0.0000 </r>
       <r>   23.5478    0.0000 </r>
       <r>   23.7608    0.0000 </r>
      </set>
      <set comment="kpoint 71">
       <r>   -5.5336    1.0000 </r>
       <r>   -0.6525    1.0000 </r>
       <r>    2.5474    1.0000 </r>
       <r>    4.6296    1.0000 </r>
       <r>   15.6065    0.0000 </r>
       <r>   20.2353    0.0000 </r>
       <r>   23.3897    0.0000 </r>
       <r>   23.8954    0.0000 </r>
      </set>
      <set comment="kpoint 72">
       <r>   -4.5582    1.0000 </r>
       <r>   -1.7837    1.0000 </r>
       <r>    1.9267    1.0000 </r>
       <r>    4.8407    1.0000 </r>
       <r>   15.9092    0.0000 </r>
       <r>   21.8526    0.0000 </r>
       <r>   23.0126    0.0000 </r>
       <r>   23.9551    0.0000 </r>
      </set>
      <set comment="kpoint 73">
       <r>   -4.3862    1.0000 </r>
       <r>   -1.9330    1.0000 </r>
       <r>    1.4662    1.0000 </r>
       <r>    5.1856    1.0000 </r>
       <r>   16.2724    0.0000 </r>
       <r>   22.4473    0.0000 </r>
       <r>   23.4286    0.0000 </r>
       <r>   24.0909    0.0000 </r>
      </set>
      <set comment="kpoint 74">
       <r>   -5.2501    1.0000 </r>
       <r>   -0.8845    1.0000 </r>
       <r>    1.2115    1.0000 </r>
       <r>    5.6471    1.0000 </r>
       <r>   16.7241    0.0000 </r>
       <r>   21.7052    0.0000 </r>
       <r>   23.7497    0.0000 </r>
       <r>   24.6696    0.0000 </r>
      </set>
      <set comment="kpoint 75">
       <r>   -6.2759    1.0000 </r>
       <r>    0.2449    1.0000 </r>
       <r>    1.4101    1.0000 </r>
       <r>    6.1972    1.0000 </r>
       <r>   17.2480    0.0000 </r>
       <r>   20.8025    0.0000 </r>
       <r>   23.3038    0.0000 </r>
       <r>   24.1173    0.0000 </r>
      </set>
      <set comment="kpoint 76">
       <r>   -7.7035    1.0000 </r>
       <r>    2.6187    1.0000 </r>
       <r>    4.4724    1.0000 </r>
       <r>    4.4724    1.0000 </r>
       <r>   13.9786    0.0000 </r>
       <r>   17.5747    0.0000 </r>
       <r>   23.9254    0.0000 </r>
       <r>   23.9255    0.0000 </r>
      </set>
      <set comment="kpoint 77">
       <r>   -6.9713    1.0000 </r>
       <r>    1.6224    1.0000 </r>
       <r>    3.9592    1.0000 </r>
       <r>    4.2165    1.0000 </r>
       <r>   14.1890    0.0000 </r>
       <r>   17.0892    0.0000 </r>
       <r>   24.5331    0.0000 </r>
       <r>   24.5555    0.0000 </r>
      </set>
      <set comment="kpoint 78">
       <r>   -6.0970    1.0000 </r>
       <r>    0.5889    1.0000 </r>
       <r>    3.1047    1.0000 </r>
       <r>    4.1058    1.0000 </r>
       <r>   14.6922    0.0000 </r>
       <r>   17.2366    0.0000 </r>
       <r>   24.7937    0.0000 </r>
       <r>   24.9283    0.0000 </r>
      </set>
      <set comment="kpoint 79">
       <r>   -5.1088    1.0000 </r>
       <r>   -0.4345    1.0000 </r>
       <r>    2.1186    1.0000 </r>
       <r>    4.1441    1.0000 </r>
       <r>   15.0930    0.0000 </r>
       <r>   18.1962    0.0000 </r>
       <r>   24.7124    0.0000 </r>
       <r>   25.1062    0.0000 </r>
      </set>
      <set comment="kpoint 80">
       <r>   -4.1028    1.0000 </r>
       <r>   -1.3845    1.0000 </r>
       <r>    1.2175    1.0000 </r>
       <r>    4.3293    1.0000 </r>
       <r>   15.3904    0.0000 </r>
       <r>   19.7668    0.0000 </r>
       <r>   24.3314    0.0000 </r>
       <r>   25.1559    0.0000 </r>
      </set>
      <set comment="kpoint 81">
       <r>   -3.6150    1.0000 </r>
       <r>   -1.7742    1.0000 </r>
       <r>    0.5587    1.0000 </r>
       <r>    4.6536    1.0000 </r>
       <r>   15.7350    0.0000 </r>
       <r>   21.6217    0.0000 </r>
       <r>   23.6819    0.0000 </r>
       <r>   25.1132    0.0000 </r>
      </set>
      <set comment="kpoint 82">
       <r>   -4.2814    1.0000 </r>
       <r>   -1.1579    1.0000 </r>
       <r>    0.3853    1.0000 </r>
       <r>    5.1015    1.0000 </r>
       <r>   16.1807    0.0000 </r>
       <r>   22.7896    0.0000 </r>
       <r>   23.4184    0.0000 </r>
       <r>   24.8988    0.0000 </r>
      </set>
      <set comment="kpoint 83">
       <r>   -6.2968    1.0000 </r>
       <r>    0.7328    1.0000 </r>
       <r>    3.9247    1.0000 </r>
       <r>    3.9247    1.0000 </r>
       <r>   13.9730    0.0000 </r>
       <r>   16.2596    0.0000 </r>
       <r>   25.3343    0.0000 </r>
       <r>   25.3343    0.0000 </r>
      </set>
      <set comment="kpoint 84">
       <r>   -5.4787    1.0000 </r>
       <r>   -0.2129    1.0000 </r>
       <r>    3.4586    1.0000 </r>
       <r>    3.7775    1.0000 </r>
       <r>   14.2636    0.0000 </r>
       <r>   15.9622    0.0000 </r>
       <r>   25.7580    0.0000 </r>
       <r>   25.8053    0.0000 </r>
      </set>
      <set comment="kpoint 85">
       <r>   -4.5386    1.0000 </r>
       <r>   -1.1026    1.0000 </r>
       <r>    2.5912    1.0000 </r>
       <r>    3.7803    1.0000 </r>
       <r>   14.7217    0.0000 </r>
       <r>   16.4380    0.0000 </r>
       <r>   25.7809    0.0000 </r>
       <r>   26.0091    0.0000 </r>
      </set>
      <set comment="kpoint 86">
       <r>   -3.5420    1.0000 </r>
       <r>   -1.8872    1.0000 </r>
       <r>    1.5688    1.0000 </r>
       <r>    3.9326    1.0000 </r>
       <r>   15.0086    0.0000 </r>
       <r>   17.7904    0.0000 </r>
       <r>   25.4171    0.0000 </r>
       <r>   25.9919    0.0000 </r>
      </set>
      <set comment="kpoint 87">
       <r>   -3.0169    1.0000 </r>
       <r>   -2.1724    1.0000 </r>
       <r>    0.7027    1.0000 </r>
       <r>    4.2281    1.0000 </r>
       <r>   15.3150    0.0000 </r>
       <r>   19.6135    0.0000 </r>
       <r>   24.7006    0.0000 </r>
       <r>   25.7417    0.0000 </r>
      </set>
      <set comment="kpoint 88">
       <r>   -4.7168    1.0000 </r>
       <r>   -1.1577    1.0000 </r>
       <r>    3.5918    1.0000 </r>
       <r>    3.5918    1.0000 </r>
       <r>   14.1625    0.0000 </r>
       <r>   15.2702    0.0000 </r>
       <r>   26.3362    0.0000 </r>
       <r>   26.3363    0.0000 </r>
      </set>
      <set comment="kpoint 89">
       <r>   -3.8283    1.0000 </r>
       <r>   -2.0556    1.0000 </r>
       <r>    3.2149    1.0000 </r>
       <r>    3.5559    1.0000 </r>
       <r>   14.5205    0.0000 </r>
       <r>   15.1770    0.0000 </r>
       <r>   26.4703    0.0000 </r>
       <r>   26.5370    0.0000 </r>
      </set>
      <set comment="kpoint 90">
       <r>   -2.9179    1.0000 </r>
       <r>   -2.7858    1.0000 </r>
       <r>    2.4329    1.0000 </r>
       <r>    3.6710    1.0000 </r>
       <r>   14.7685    0.0000 </r>
       <r>   16.1346    0.0000 </r>
       <r>   26.1524    0.0000 </r>
       <r>   26.4314    0.0000 </r>
      </set>
      <set comment="kpoint 91">
       <r>   -2.9910    1.0000 </r>
       <r>   -2.9910    1.0000 </r>
       <r>    3.4801    1.0000 </r>
       <r>    3.4802    1.0000 </r>
       <r>   14.5828    0.0000 </r>
       <r>   14.5828    0.0000 </r>
       <r>   26.7077    0.0000 </r>
       <r>   26.7078    0.0000 </r>
      </set>
      <set comment="kpoint 92">
       <r>  -11.1699    1.0000 </r>
       <r>    7.5400    1.0000 </r>
       <r>    7.9690    1.0000 </r>
       <r>    9.1984    1.0000 </r>
       <r>   15.5408    0.0000 </r>
       <r>   17.2455    0.0000 </r>
       <r>   17.3651    0.0000 </r>
       <r>   23.4827    0.0000 </r>
      </set>
      <set comment="kpoint 93">
       <r>  -10.7439    1.0000 </r>
       <r>    6.0266    1.0000 </r>
       <r>    7.3106    1.0000 </r>
       <r>    8.8806    1.0000 </r>
       <r>   15.9719    0.0000 </r>
       <r>   17.9918    0.0000 </r>
       <r>   18.0233    0.0000 </r>
       <r>   23.5251    0.0000 </r>
      </set>
      <set comment="kpoint 94">
       <r>  -10.1512    1.0000 </r>
       <r>    4.2259    1.0000 </r>
       <r>    6.8340    1.0000 </r>
       <r>    8.4185    1.0000 </r>
       <r>   16.5704    0.0000 </r>
       <r>   18.4912    0.0000 </r>
       <r>   18.6653    0.0000 </r>
       <r>   23.6309    0.0000 </r>
      </set>
      <set comment="kpoint 95">
       <r>   -9.3972    1.0000 </r>
       <r>    2.3758    1.0000 </r>
       <r>    6.4689    1.0000 </r>
       <r>    7.9107    1.0000 </r>
       <r>   17.1476    0.0000 </r>
       <r>   18.7537    0.0000 </r>
       <r>   19.1643    0.0000 </r>
       <r>   23.8932    0.0000 </r>
      </set>
      <set comment="kpoint 96">
       <r>   -8.4916    1.0000 </r>
       <r>    0.5661    1.0000 </r>
       <r>    6.2193    1.0000 </r>
       <r>    7.4276    1.0000 </r>
       <r>   17.5905    0.0000 </r>
       <r>   18.8340    0.0000 </r>
       <r>   19.4777    0.0000 </r>
       <r>   24.3513    0.0000 </r>
      </set>
      <set comment="kpoint 97">
       <r>   -7.4580    1.0000 </r>
       <r>   -1.1368    1.0000 </r>
       <r>    6.0834    1.0000 </r>
       <r>    7.0159    1.0000 </r>
       <r>   17.8808    0.0000 </r>
       <r>   18.7859    0.0000 </r>
       <r>   19.6546    0.0000 </r>
       <r>   24.9029    0.0000 </r>
      </set>
      <set comment="kpoint 98">
       <r>   -6.3794    1.0000 </r>
       <r>   -2.6254    1.0000 </r>
       <r>    6.0435    1.0000 </r>
       <r>    6.7190    1.0000 </r>
       <r>   18.0534    0.0000 </r>
       <r>   18.6891    0.0000 </r>
       <r>   19.7441    0.0000 </r>
       <r>   25.3547    0.0000 </r>
      </set>
      <set comment="kpoint 99">
       <r>   -5.7303    1.0000 </r>
       <r>   -3.4125    1.0000 </r>
       <r>    6.0466    1.0000 </r>
       <r>    6.6024    1.0000 </r>
       <r>   18.1175    0.0000 </r>
       <r>   18.6373    0.0000 </r>
       <r>   19.7715    0.0000 </r>
       <r>   25.5271    0.0000 </r>
      </set>
      <set comment="kpoint 100">
       <r>  -10.6019    1.0000 </r>
       <r>    6.3506    1.0000 </r>
       <r>    6.8630    1.0000 </r>
       <r>    8.2119    1.0000 </r>
       <r>   15.2329    0.0000 </r>
       <r>   18.7492    0.0000 </r>
       <r>   18.8458    0.0000 </r>
       <r>   22.8241    0.0000 </r>
      </set>
      <set comment="kpoint 101">
       <r>  -10.0660    1.0000 </r>
       <r>    4.8544    1.0000 </r>
       <r>    6.2402    1.0000 </r>
       <r>    7.8492    1.0000 </r>
       <r>   15.6745    0.0000 </r>
       <r>   19.2790    0.0000 </r>
       <r>   19.6223    0.0000 </r>
       <r>   22.5196    0.0000 </r>
      </set>
      <set comment="kpoint 102">
       <r>   -9.3674    1.0000 </r>
       <r>    3.1086    1.0000 </r>
       <r>    5.8382    1.0000 </r>
       <r>    7.3613    1.0000 </r>
       <r>   16.2731    0.0000 </r>
       <r>   19.5846    0.0000 </r>
       <r>   20.2358    0.0000 </r>
       <r>   22.4755    0.0000 </r>
      </set>
      <set comment="kpoint 103">
       <r>   -8.5142    1.0000 </r>
       <r>    1.3391    1.0000 </r>
       <r>    5.5579    1.0000 </r>
       <r>    6.8479    1.0000 </r>
       <r>   16.8135    0.0000 </r>
       <r>   19.6831    0.0000 </r>
       <r>   20.6361    0.0000 </r>
       <r>   22.8409    0.0000 </r>
      </set>
      <set comment="kpoint 104">
       <r>   -7.5240    1.0000 </r>
       <r>   -0.3663    1.0000 </r>
       <r>    5.3726    1.0000 </r>
       <r>    6.4011    1.0000 </r>
       <r>   17.1988    0.0000 </r>
       <r>   19.6277    0.0000 </r>
       <r>   20.8622    0.0000 </r>
       <r>   23.5771    0.0000 </r>
      </set>
      <set comment="kpoint 105">
       <r>   -6.4492    1.0000 </r>
       <r>   -1.9183    1.0000 </r>
       <r>    5.2257    1.0000 </r>
       <r>    6.1196    1.0000 </r>
       <r>   17.4671    0.0000 </r>
       <r>   19.4778    0.0000 </r>
       <r>   20.9677    0.0000 </r>
       <r>   24.4729    0.0000 </r>
      </set>
      <set comment="kpoint 106">
       <r>   -5.5522    1.0000 </r>
       <r>   -3.0345    1.0000 </r>
       <r>    5.0570    1.0000 </r>
       <r>    6.0869    1.0000 </r>
       <r>   17.6991    0.0000 </r>
       <r>   19.2744    0.0000 </r>
       <r>   20.9877    0.0000 </r>
       <r>   25.1890    0.0000 </r>
      </set>
      <set comment="kpoint 107">
       <r>   -5.7898    1.0000 </r>
       <r>   -2.7496    1.0000 </r>
       <r>    4.9003    1.0000 </r>
       <r>    6.2790    1.0000 </r>
       <r>   17.9397    0.0000 </r>
       <r>   19.0389    0.0000 </r>
       <r>   20.9396    0.0000 </r>
       <r>   25.3260    0.0000 </r>
      </set>
      <set comment="kpoint 108">
       <r>   -6.8128    1.0000 </r>
       <r>   -1.4143    1.0000 </r>
       <r>    4.8218    1.0000 </r>
       <r>    6.6281    1.0000 </r>
       <r>   18.1592    0.0000 </r>
       <r>   18.7916    0.0000 </r>
       <r>   20.8205    0.0000 </r>
       <r>   24.8317    0.0000 </r>
      </set>
      <set comment="kpoint 109">
       <r>   -7.8695    1.0000 </r>
       <r>    0.2079    1.0000 </r>
       <r>    4.8575    1.0000 </r>
       <r>    7.0856    1.0000 </r>
       <r>   18.1039    0.0000 </r>
       <r>   18.7061    0.0000 </r>
       <r>   20.6032    0.0000 </r>
       <r>   24.0969    0.0000 </r>
      </set>
      <set comment="kpoint 110">
       <r>   -8.8164    1.0000 </r>
       <r>    1.9463    1.0000 </r>
       <r>    5.0259    1.0000 </r>
       <r>    7.6081    1.0000 </r>
       <r>   17.6362    0.0000 </r>
       <r>   18.8054    0.0000 </r>
       <r>   20.2236    0.0000 </r>
       <r>   23.5005    0.0000 </r>
      </set>
      <set comment="kpoint 111">
       <r>   -9.6188    1.0000 </r>
       <r>    3.7057    1.0000 </r>
       <r>    5.3506    1.0000 </r>
       <r>    8.1395    1.0000 </r>
       <r>   17.0019    0.0000 </r>
       <r>   18.7821    0.0000 </r>
       <r>   19.6156    0.0000 </r>
       <r>   23.2591    0.0000 </r>
      </set>
      <set comment="kpoint 112">
       <r>  -10.2635    1.0000 </r>
       <r>    5.2280    1.0000 </r>
       <r>    6.0010    1.0000 </r>
       <r>    8.5973    1.0000 </r>
       <r>   16.3802    0.0000 </r>
       <r>   18.5264    0.0000 </r>
       <r>   18.8218    0.0000 </r>
       <r>   23.3350    0.0000 </r>
      </set>
      <set comment="kpoint 113">
       <r>   -9.8123    1.0000 </r>
       <r>    5.1525    1.0000 </r>
       <r>    5.8105    1.0000 </r>
       <r>    6.9361    1.0000 </r>
       <r>   14.9057    0.0000 </r>
       <r>   20.2997    0.0000 </r>
       <r>   20.5741    0.0000 </r>
       <r>   21.3075    0.0000 </r>
      </set>
      <set comment="kpoint 114">
       <r>   -9.1704    1.0000 </r>
       <r>    3.7383    1.0000 </r>
       <r>    5.2341    1.0000 </r>
       <r>    6.5277    1.0000 </r>
       <r>   15.3733    0.0000 </r>
       <r>   20.6747    0.0000 </r>
       <r>   20.9187    0.0000 </r>
       <r>   21.3568    0.0000 </r>
      </set>
      <set comment="kpoint 115">
       <r>   -8.3721    1.0000 </r>
       <r>    2.1041    1.0000 </r>
       <r>    4.8735    1.0000 </r>
       <r>    6.0290    1.0000 </r>
       <r>   15.9660    0.0000 </r>
       <r>   20.7221    0.0000 </r>
       <r>   21.0947    0.0000 </r>
       <r>   21.9315    0.0000 </r>
      </set>
      <set comment="kpoint 116">
       <r>   -7.4311    1.0000 </r>
       <r>    0.4585    1.0000 </r>
       <r>    4.5747    1.0000 </r>
       <r>    5.5994    1.0000 </r>
       <r>   16.4477    0.0000 </r>
       <r>   20.7590    0.0000 </r>
       <r>   21.6190    0.0000 </r>
       <r>   22.3246    0.0000 </r>
      </set>
      <set comment="kpoint 117">
       <r>   -6.3833    1.0000 </r>
       <r>   -1.0975    1.0000 </r>
       <r>    4.2467    1.0000 </r>
       <r>    5.3912    1.0000 </r>
       <r>   16.7796    0.0000 </r>
       <r>   20.6528    0.0000 </r>
       <r>   22.2197    0.0000 </r>
       <r>   22.9256    0.0000 </r>
      </set>
      <set comment="kpoint 118">
       <r>   -5.3758    1.0000 </r>
       <r>   -2.3827    1.0000 </r>
       <r>    3.8949    1.0000 </r>
       <r>    5.4366    1.0000 </r>
       <r>   17.0591    0.0000 </r>
       <r>   20.4317    0.0000 </r>
       <r>   22.3330    0.0000 </r>
       <r>   24.0767    0.0000 </r>
      </set>
      <set comment="kpoint 119">
       <r>   -5.1554    1.0000 </r>
       <r>   -2.6339    1.0000 </r>
       <r>    3.5963    1.0000 </r>
       <r>    5.6766    1.0000 </r>
       <r>   17.3683    0.0000 </r>
       <r>   20.1240    0.0000 </r>
       <r>   22.2813    0.0000 </r>
       <r>   24.9799    0.0000 </r>
      </set>
      <set comment="kpoint 120">
       <r>   -6.0398    1.0000 </r>
       <r>   -1.5308    1.0000 </r>
       <r>    3.4039    1.0000 </r>
       <r>    6.0616    1.0000 </r>
       <r>   17.7342    0.0000 </r>
       <r>   19.7209    0.0000 </r>
       <r>   22.1381    0.0000 </r>
       <r>   24.8417    0.0000 </r>
      </set>
      <set comment="kpoint 121">
       <r>   -7.1002    1.0000 </r>
       <r>   -0.0158    1.0000 </r>
       <r>    3.3485    1.0000 </r>
       <r>    6.5538    1.0000 </r>
       <r>   18.1356    0.0000 </r>
       <r>   19.1878    0.0000 </r>
       <r>   21.8924    0.0000 </r>
       <r>   24.0103    0.0000 </r>
      </set>
      <set comment="kpoint 122">
       <r>   -8.0798    1.0000 </r>
       <r>    1.6057    1.0000 </r>
       <r>    3.4696    1.0000 </r>
       <r>    7.1099    1.0000 </r>
       <r>   18.4138    0.0000 </r>
       <r>   18.6001    0.0000 </r>
       <r>   21.4282    0.0000 </r>
       <r>   23.2856    0.0000 </r>
      </set>
      <set comment="kpoint 123">
       <r>   -8.9255    1.0000 </r>
       <r>    3.0233    1.0000 </r>
       <r>    3.9897    1.0000 </r>
       <r>    7.6684    1.0000 </r>
       <r>   17.7040    0.0000 </r>
       <r>   18.7795    0.0000 </r>
       <r>   20.6118    0.0000 </r>
       <r>   23.0631    0.0000 </r>
      </set>
      <set comment="kpoint 124">
       <r>   -8.8074    1.0000 </r>
       <r>    3.8923    1.0000 </r>
       <r>    4.8958    1.0000 </r>
       <r>    5.6149    1.0000 </r>
       <r>   14.6329    0.0000 </r>
       <r>   19.5475    0.0000 </r>
       <r>   21.8965    0.0000 </r>
       <r>   22.3064    0.0000 </r>
      </set>
      <set comment="kpoint 125">
       <r>   -8.0657    1.0000 </r>
       <r>    2.6258    1.0000 </r>
       <r>    4.3129    1.0000 </r>
       <r>    5.1939    1.0000 </r>
       <r>   15.1401    0.0000 </r>
       <r>   19.2755    0.0000 </r>
       <r>   22.1821    0.0000 </r>
       <r>   23.0390    0.0000 </r>
      </set>
      <set comment="kpoint 126">
       <r>   -7.1778    1.0000 </r>
       <r>    1.1804    1.0000 </r>
       <r>    3.8056    1.0000 </r>
       <r>    4.8297    1.0000 </r>
       <r>   15.7089    0.0000 </r>
       <r>   19.6088    0.0000 </r>
       <r>   22.2553    0.0000 </r>
       <r>   23.5092    0.0000 </r>
      </set>
      <set comment="kpoint 127">
       <r>   -6.1699    1.0000 </r>
       <r>   -0.2779    1.0000 </r>
       <r>    3.2518    1.0000 </r>
       <r>    4.6968    1.0000 </r>
       <r>   16.1163    0.0000 </r>
       <r>   20.5806    0.0000 </r>
       <r>   22.1768    0.0000 </r>
       <r>   23.7381    0.0000 </r>
      </set>
      <set comment="kpoint 128">
       <r>   -5.1308    1.0000 </r>
       <r>   -1.5970    1.0000 </r>
       <r>    2.7197    1.0000 </r>
       <r>    4.7822    1.0000 </r>
       <r>   16.4215    0.0000 </r>
       <r>   21.6712    0.0000 </r>
       <r>   22.2668    0.0000 </r>
       <r>   23.7965    0.0000 </r>
      </set>
      <set comment="kpoint 129">
       <r>   -4.5382    1.0000 </r>
       <r>   -2.2656    1.0000 </r>
       <r>    2.2827    1.0000 </r>
       <r>    5.0401    1.0000 </r>
       <r>   16.7457    0.0000 </r>
       <r>   21.4876    0.0000 </r>
       <r>   23.3536    0.0000 </r>
       <r>   23.9861    0.0000 </r>
      </set>
      <set comment="kpoint 130">
       <r>   -5.1681    1.0000 </r>
       <r>   -1.4985    1.0000 </r>
       <r>    1.9842    1.0000 </r>
       <r>    5.4387    1.0000 </r>
       <r>   17.1423    0.0000 </r>
       <r>   20.9971    0.0000 </r>
       <r>   23.3872    0.0000 </r>
       <r>   24.6814    0.0000 </r>
      </set>
      <set comment="kpoint 131">
       <r>   -6.2007    1.0000 </r>
       <r>   -0.1477    1.0000 </r>
       <r>    1.8742    1.0000 </r>
       <r>    5.9475    1.0000 </r>
       <r>   17.6101    0.0000 </r>
       <r>   20.3032    0.0000 </r>
       <r>   23.1816    0.0000 </r>
       <r>   24.0753    0.0000 </r>
      </set>
      <set comment="kpoint 132">
       <r>   -7.1991    1.0000 </r>
       <r>    1.0948    1.0000 </r>
       <r>    2.2005    1.0000 </r>
       <r>    6.5253    1.0000 </r>
       <r>   18.1053    0.0000 </r>
       <r>   19.4222    0.0000 </r>
       <r>   22.6067    0.0000 </r>
       <r>   23.3403    0.0000 </r>
      </set>
      <set comment="kpoint 133">
       <r>   -7.5972    1.0000 </r>
       <r>    2.4118    1.0000 </r>
       <r>    4.1607    1.0000 </r>
       <r>    4.5337    1.0000 </r>
       <r>   14.4697    0.0000 </r>
       <r>   17.9611    0.0000 </r>
       <r>   23.4511    0.0000 </r>
       <r>   23.9392    0.0000 </r>
      </set>
      <set comment="kpoint 134">
       <r>   -6.7650    1.0000 </r>
       <r>    1.3398    1.0000 </r>
       <r>    3.4566    1.0000 </r>
       <r>    4.2121    1.0000 </r>
       <r>   15.0201    0.0000 </r>
       <r>   17.9148    0.0000 </r>
       <r>   23.6264    0.0000 </r>
       <r>   24.5638    0.0000 </r>
      </set>
      <set comment="kpoint 135">
       <r>   -5.8047    1.0000 </r>
       <r>    0.1882    1.0000 </r>
       <r>    2.6133    1.0000 </r>
       <r>    4.1103    1.0000 </r>
       <r>   15.5304    0.0000 </r>
       <r>   18.6100    0.0000 </r>
       <r>   23.5950    0.0000 </r>
       <r>   24.8706    0.0000 </r>
      </set>
      <set comment="kpoint 136">
       <r>   -4.7744    1.0000 </r>
       <r>   -0.9597    1.0000 </r>
       <r>    1.8192    1.0000 </r>
       <r>    4.2011    1.0000 </r>
       <r>   15.8664    0.0000 </r>
       <r>   19.9831    0.0000 </r>
       <r>   23.3890    0.0000 </r>
       <r>   24.9009    0.0000 </r>
      </set>
      <set comment="kpoint 137">
       <r>   -3.9586    1.0000 </r>
       <r>   -1.7937    1.0000 </r>
       <r>    1.1856    1.0000 </r>
       <r>    4.4545    1.0000 </r>
       <r>   16.1843    0.0000 </r>
       <r>   21.6911    0.0000 </r>
       <r>   23.0127    0.0000 </r>
       <r>   24.7331    0.0000 </r>
      </set>
      <set comment="kpoint 138">
       <r>   -4.2511    1.0000 </r>
       <r>   -1.4197    1.0000 </r>
       <r>    0.7804    1.0000 </r>
       <r>    4.8490    1.0000 </r>
       <r>   16.5779    0.0000 </r>
       <r>   22.3152    0.0000 </r>
       <r>   23.4623    0.0000 </r>
       <r>   24.4642    0.0000 </r>
      </set>
      <set comment="kpoint 139">
       <r>   -5.2088    1.0000 </r>
       <r>   -0.4894    1.0000 </r>
       <r>    0.8396    1.0000 </r>
       <r>    5.3592    1.0000 </r>
       <r>   17.0630    0.0000 </r>
       <r>   21.4190    0.0000 </r>
       <r>   24.0897    0.0000 </r>
       <r>   24.2474    0.0000 </r>
      </set>
      <set comment="kpoint 140">
       <r>   -6.1963    1.0000 </r>
       <r>    0.6948    1.0000 </r>
       <r>    3.6293    1.0000 </r>
       <r>    3.8097    1.0000 </r>
       <r>   14.4598    0.0000 </r>
       <r>   16.6786    0.0000 </r>
       <r>   24.8583    0.0000 </r>
       <r>   25.3290    0.0000 </r>
      </set>
      <set comment="kpoint 141">
       <r>   -5.2884    1.0000 </r>
       <r>   -0.2306    1.0000 </r>
       <r>    2.8254    1.0000 </r>
       <r>    3.6613    1.0000 </r>
       <r>   15.0371    0.0000 </r>
       <r>   16.8912    0.0000 </r>
       <r>   24.9242    0.0000 </r>
       <r>   25.7226    0.0000 </r>
      </set>
      <set comment="kpoint 142">
       <r>   -4.2883    1.0000 </r>
       <r>   -1.1066    1.0000 </r>
       <r>    1.8072    1.0000 </r>
       <r>    3.7355    1.0000 </r>
       <r>   15.4347    0.0000 </r>
       <r>   17.9879    0.0000 </r>
       <r>   24.7668    0.0000 </r>
       <r>   25.7260    0.0000 </r>
      </set>
      <set comment="kpoint 143">
       <r>   -3.3759    1.0000 </r>
       <r>   -1.8190    1.0000 </r>
       <r>    0.8802    1.0000 </r>
       <r>    3.9699    1.0000 </r>
       <r>   15.7321    0.0000 </r>
       <r>   19.6783    0.0000 </r>
       <r>   24.3371    0.0000 </r>
       <r>   25.4409    0.0000 </r>
      </set>
      <set comment="kpoint 144">
       <r>   -3.4251    1.0000 </r>
       <r>   -1.6968    1.0000 </r>
       <r>    0.3569    1.0000 </r>
       <r>    4.3481    1.0000 </r>
       <r>   16.1015    0.0000 </r>
       <r>   21.5989    0.0000 </r>
       <r>   23.5305    0.0000 </r>
       <r>   25.0185    0.0000 </r>
      </set>
      <set comment="kpoint 145">
       <r>   -4.6259    1.0000 </r>
       <r>   -1.1201    1.0000 </r>
       <r>    3.3164    1.0000 </r>
       <r>    3.3910    1.0000 </r>
       <r>   14.6407    0.0000 </r>
       <r>   15.7154    0.0000 </r>
       <r>   25.9523    0.0000 </r>
       <r>   26.2599    0.0000 </r>
      </set>
      <set comment="kpoint 146">
       <r>   -3.6677    1.0000 </r>
       <r>   -1.9494    1.0000 </r>
       <r>    2.5200    1.0000 </r>
       <r>    3.4086    1.0000 </r>
       <r>   15.1529    0.0000 </r>
       <r>   16.2700    0.0000 </r>
       <r>   25.8616    0.0000 </r>
       <r>   26.2403    0.0000 </r>
      </set>
      <set comment="kpoint 147">
       <r>   -2.8411    1.0000 </r>
       <r>   -2.5094    1.0000 </r>
       <r>    1.5563    1.0000 </r>
       <r>    3.6155    1.0000 </r>
       <r>   15.4066    0.0000 </r>
       <r>   17.7760    0.0000 </r>
       <r>   25.3616    0.0000 </r>
       <r>   25.9049    0.0000 </r>
      </set>
      <set comment="kpoint 148">
       <r>   -2.9180    1.0000 </r>
       <r>   -2.9180    1.0000 </r>
       <r>    3.2331    1.0000 </r>
       <r>    3.2331    1.0000 </r>
       <r>   15.0474    0.0000 </r>
       <r>   15.0474    0.0000 </r>
       <r>   26.4845    0.0000 </r>
       <r>   26.4846    0.0000 </r>
      </set>
      <set comment="kpoint 149">
       <r>   -9.4781    1.0000 </r>
       <r>    4.0907    1.0000 </r>
       <r>    4.9832    1.0000 </r>
       <r>    7.4834    1.0000 </r>
       <r>   16.1418    0.0000 </r>
       <r>   19.5901    0.0000 </r>
       <r>   20.5478    0.0000 </r>
       <r>   22.0937    0.0000 </r>
      </set>
      <set comment="kpoint 150">
       <r>   -8.7310    1.0000 </r>
       <r>    2.6551    1.0000 </r>
       <r>    4.3913    1.0000 </r>
       <r>    6.9784    1.0000 </r>
       <r>   16.8079    0.0000 </r>
       <r>   19.6283    0.0000 </r>
       <r>   21.3189    0.0000 </r>
       <r>   22.0668    0.0000 </r>
      </set>
      <set comment="kpoint 151">
       <r>   -7.8353    1.0000 </r>
       <r>    0.9966    1.0000 </r>
       <r>    4.1387    1.0000 </r>
       <r>    6.4364    1.0000 </r>
       <r>   17.4198    0.0000 </r>
       <r>   19.4856    0.0000 </r>
       <r>   21.7659    0.0000 </r>
       <r>   22.6377    0.0000 </r>
      </set>
      <set comment="kpoint 152">
       <r>   -6.8161    1.0000 </r>
       <r>   -0.6203    1.0000 </r>
       <r>    4.0317    1.0000 </r>
       <r>    5.9506    1.0000 </r>
       <r>   17.8173    0.0000 </r>
       <r>   19.3097    0.0000 </r>
       <r>   22.0737    0.0000 </r>
       <r>   23.5328    0.0000 </r>
      </set>
      <set comment="kpoint 153">
       <r>   -5.7583    1.0000 </r>
       <r>   -2.0518    1.0000 </r>
       <r>    4.0120    1.0000 </r>
       <r>    5.6020    1.0000 </r>
       <r>   18.0042    0.0000 </r>
       <r>   19.1867    0.0000 </r>
       <r>   22.2698    0.0000 </r>
       <r>   24.4939    0.0000 </r>
      </set>
      <set comment="kpoint 154">
       <r>   -5.1289    1.0000 </r>
       <r>   -2.8078    1.0000 </r>
       <r>    4.0177    1.0000 </r>
       <r>    5.4714    1.0000 </r>
       <r>   18.0552    0.0000 </r>
       <r>   19.1440    0.0000 </r>
       <r>   22.3351    0.0000 </r>
       <r>   24.9909    0.0000 </r>
      </set>
      <set comment="kpoint 155">
       <r>   -8.4800    1.0000 </r>
       <r>    2.9929    1.0000 </r>
       <r>    4.0986    1.0000 </r>
       <r>    6.1030    1.0000 </r>
       <r>   15.9097    0.0000 </r>
       <r>   20.3552    0.0000 </r>
       <r>   21.0017    0.0000 </r>
       <r>   22.3218    0.0000 </r>
      </set>
      <set comment="kpoint 156">
       <r>   -7.6388    1.0000 </r>
       <r>    1.6954    1.0000 </r>
       <r>    3.5404    1.0000 </r>
       <r>    5.5710    1.0000 </r>
       <r>   16.6122    0.0000 </r>
       <r>   20.2050    0.0000 </r>
       <r>   21.1725    0.0000 </r>
       <r>   23.0943    0.0000 </r>
      </set>
      <set comment="kpoint 157">
       <r>   -6.6656    1.0000 </r>
       <r>    0.1929    1.0000 </r>
       <r>    3.2833    1.0000 </r>
       <r>    5.0797    1.0000 </r>
       <r>   17.1737    0.0000 </r>
       <r>   20.2622    0.0000 </r>
       <r>   21.5948    0.0000 </r>
       <r>   23.6175    0.0000 </r>
      </set>
      <set comment="kpoint 158">
       <r>   -5.6152    1.0000 </r>
       <r>   -1.2411    1.0000 </r>
       <r>    3.0998    1.0000 </r>
       <r>    4.7653    1.0000 </r>
       <r>   17.5207    0.0000 </r>
       <r>   20.2056    0.0000 </r>
       <r>   22.5052    0.0000 </r>
       <r>   23.9282    0.0000 </r>
      </set>
      <set comment="kpoint 159">
       <r>   -4.7508    1.0000 </r>
       <r>   -2.2829    1.0000 </r>
       <r>    2.9092    1.0000 </r>
       <r>    4.7181    1.0000 </r>
       <r>   17.7875    0.0000 </r>
       <r>   20.0096    0.0000 </r>
       <r>   23.3327    0.0000 </r>
       <r>   24.2570    0.0000 </r>
      </set>
      <set comment="kpoint 160">
       <r>   -4.9853    1.0000 </r>
       <r>   -2.0003    1.0000 </r>
       <r>    2.7290    1.0000 </r>
       <r>    4.9299    1.0000 </r>
       <r>   18.0764    0.0000 </r>
       <r>   19.7155    0.0000 </r>
       <r>   23.3309    0.0000 </r>
       <r>   24.5149    0.0000 </r>
      </set>
      <set comment="kpoint 161">
       <r>   -5.9777    1.0000 </r>
       <r>   -0.7397    1.0000 </r>
       <r>    2.6272    1.0000 </r>
       <r>    5.3341    1.0000 </r>
       <r>   18.3967    0.0000 </r>
       <r>   19.3060    0.0000 </r>
       <r>   22.8632    0.0000 </r>
       <r>   24.0204    0.0000 </r>
      </set>
      <set comment="kpoint 162">
       <r>   -7.0106    1.0000 </r>
       <r>    0.7351    1.0000 </r>
       <r>    2.6814    1.0000 </r>
       <r>    5.8621    1.0000 </r>
       <r>   18.3812    0.0000 </r>
       <r>   19.0645    0.0000 </r>
       <r>   22.3102    0.0000 </r>
       <r>   23.2732    0.0000 </r>
      </set>
      <set comment="kpoint 163">
       <r>   -7.9405    1.0000 </r>
       <r>    2.0299    1.0000 </r>
       <r>    3.1338    1.0000 </r>
       <r>    6.4418    1.0000 </r>
       <r>   17.6198    0.0000 </r>
       <r>   19.3792    0.0000 </r>
       <r>   21.9899    0.0000 </r>
       <r>   22.3844    0.0000 </r>
      </set>
      <set comment="kpoint 164">
       <r>   -7.2810    1.0000 </r>
       <r>    1.8551    1.0000 </r>
       <r>    3.3943    1.0000 </r>
       <r>    4.7144    1.0000 </r>
       <r>   15.7646    0.0000 </r>
       <r>   18.9952    0.0000 </r>
       <r>   22.2489    0.0000 </r>
       <r>   23.9775    0.0000 </r>
      </set>
      <set comment="kpoint 165">
       <r>   -6.3593    1.0000 </r>
       <r>    0.7481    1.0000 </r>
       <r>    2.7919    1.0000 </r>
       <r>    4.2271    1.0000 </r>
       <r>   16.4892    0.0000 </r>
       <r>   19.2777    0.0000 </r>
       <r>   22.1687    0.0000 </r>
       <r>   24.5951    0.0000 </r>
      </set>
      <set comment="kpoint 166">
       <r>   -5.3386    1.0000 </r>
       <r>   -0.5087    1.0000 </r>
       <r>    2.3177    1.0000 </r>
       <r>    3.9634    1.0000 </r>
       <r>   16.9694    0.0000 </r>
       <r>   20.2363    0.0000 </r>
       <r>   22.0329    0.0000 </r>
       <r>   24.8218    0.0000 </r>
      </set>
      <set comment="kpoint 167">
       <r>   -4.3699    1.0000 </r>
       <r>   -1.6191    1.0000 </r>
       <r>    1.8745    1.0000 </r>
       <r>    3.9907    1.0000 </r>
       <r>   17.2884    0.0000 </r>
       <r>   21.1780    0.0000 </r>
       <r>   22.2980    0.0000 </r>
       <r>   24.6261    0.0000 </r>
      </set>
      <set comment="kpoint 168">
       <r>   -4.1849    1.0000 </r>
       <r>   -1.7945    1.0000 </r>
       <r>    1.5158    1.0000 </r>
       <r>    4.2542    1.0000 </r>
       <r>   17.6211    0.0000 </r>
       <r>   21.0312    0.0000 </r>
       <r>   23.5592    0.0000 </r>
       <r>   24.0440    0.0000 </r>
      </set>
      <set comment="kpoint 169">
       <r>   -5.0391    1.0000 </r>
       <r>   -0.7932    1.0000 </r>
       <r>    1.3287    1.0000 </r>
       <r>    4.6915    1.0000 </r>
       <r>   18.0290    0.0000 </r>
       <r>   20.4465    0.0000 </r>
       <r>   23.2225    0.0000 </r>
       <r>   24.4643    0.0000 </r>
      </set>
      <set comment="kpoint 170">
       <r>   -6.0605    1.0000 </r>
       <r>    0.2817    1.0000 </r>
       <r>    1.5689    1.0000 </r>
       <r>    5.2489    1.0000 </r>
       <r>   18.5042    0.0000 </r>
       <r>   19.5265    0.0000 </r>
       <r>   22.6349    0.0000 </r>
       <r>   24.1676    0.0000 </r>
      </set>
      <set comment="kpoint 171">
       <r>   -5.8986    1.0000 </r>
       <r>    0.5249    1.0000 </r>
       <r>    2.8991    1.0000 </r>
       <r>    3.6062    1.0000 </r>
       <r>   15.7568    0.0000 </r>
       <r>   17.8139    0.0000 </r>
       <r>   23.5978    0.0000 </r>
       <r>   25.3002    0.0000 </r>
      </set>
      <set comment="kpoint 172">
       <r>   -4.9205    1.0000 </r>
       <r>   -0.3772    1.0000 </r>
       <r>    2.1433    1.0000 </r>
       <r>    3.3131    1.0000 </r>
       <r>   16.4626    0.0000 </r>
       <r>   18.4332    0.0000 </r>
       <r>   23.4340    0.0000 </r>
       <r>   25.5178    0.0000 </r>
      </set>
      <set comment="kpoint 173">
       <r>   -3.9233    1.0000 </r>
       <r>   -1.2756    1.0000 </r>
       <r>    1.3276    1.0000 </r>
       <r>    3.3786    1.0000 </r>
       <r>   16.8375    0.0000 </r>
       <r>   19.8610    0.0000 </r>
       <r>   23.1629    0.0000 </r>
       <r>   25.1526    0.0000 </r>
      </set>
      <set comment="kpoint 174">
       <r>   -3.4200    1.0000 </r>
       <r>   -1.6852    1.0000 </r>
       <r>    0.7196    1.0000 </r>
       <r>    3.6647    1.0000 </r>
       <r>   17.1623    0.0000 </r>
       <r>   21.5641    0.0000 </r>
       <r>   22.7845    0.0000 </r>
       <r>   24.3679    0.0000 </r>
      </set>
      <set comment="kpoint 175">
       <r>   -4.0749    1.0000 </r>
       <r>   -1.1059    1.0000 </r>
       <r>    0.5754    1.0000 </r>
       <r>    4.1162    1.0000 </r>
       <r>   17.5607    0.0000 </r>
       <r>   21.6636    0.0000 </r>
       <r>   23.5551    0.0000 </r>
       <r>   23.6455    0.0000 </r>
      </set>
      <set comment="kpoint 176">
       <r>   -4.3610    1.0000 </r>
       <r>   -1.0420    1.0000 </r>
       <r>    2.6359    1.0000 </r>
       <r>    2.9288    1.0000 </r>
       <r>   15.9246    0.0000 </r>
       <r>   16.9218    0.0000 </r>
       <r>   24.8382    0.0000 </r>
       <r>   25.9632    0.0000 </r>
      </set>
      <set comment="kpoint 177">
       <r>   -3.3753    1.0000 </r>
       <r>   -1.7906    1.0000 </r>
       <r>    1.7579    1.0000 </r>
       <r>    2.9201    1.0000 </r>
       <r>   16.4990    0.0000 </r>
       <r>   17.9499    0.0000 </r>
       <r>   24.6084    0.0000 </r>
       <r>   25.5059    0.0000 </r>
      </set>
      <set comment="kpoint 178">
       <r>   -2.8183    1.0000 </r>
       <r>   -2.1091    1.0000 </r>
       <r>    0.9078    1.0000 </r>
       <r>    3.2095    1.0000 </r>
       <r>   16.7921    0.0000 </r>
       <r>   19.7178    0.0000 </r>
       <r>   23.9955    0.0000 </r>
       <r>   24.7709    0.0000 </r>
      </set>
      <set comment="kpoint 179">
       <r>   -2.7152    1.0000 </r>
       <r>   -2.7152    1.0000 </r>
       <r>    2.6310    1.0000 </r>
       <r>    2.6311    1.0000 </r>
       <r>   16.3020    0.0000 </r>
       <r>   16.3021    0.0000 </r>
       <r>   25.7403    0.0000 </r>
       <r>   25.7403    0.0000 </r>
      </set>
      <set comment="kpoint 180">
       <r>   -6.7630    1.0000 </r>
       <r>    1.0967    1.0000 </r>
       <r>    2.4627    1.0000 </r>
       <r>    4.9817    1.0000 </r>
       <r>   17.5421    0.0000 </r>
       <r>   19.8309    0.0000 </r>
       <r>   21.3098    0.0000 </r>
       <r>   24.0493    0.0000 </r>
      </set>
      <set comment="kpoint 181">
       <r>   -5.7713    1.0000 </r>
       <r>   -0.0242    1.0000 </r>
       <r>    2.0424    1.0000 </r>
       <r>    4.4183    1.0000 </r>
       <r>   18.3167    0.0000 </r>
       <r>   19.7297    0.0000 </r>
       <r>   21.7002    0.0000 </r>
       <r>   24.6138    0.0000 </r>
      </set>
      <set comment="kpoint 182">
       <r>   -4.7502    1.0000 </r>
       <r>   -1.2621    1.0000 </r>
       <r>    1.9603    1.0000 </r>
       <r>    4.0064    1.0000 </r>
       <r>   18.5913    0.0000 </r>
       <r>   19.8434    0.0000 </r>
       <r>   22.5954    0.0000 </r>
       <r>   24.5679    0.0000 </r>
      </set>
      <set comment="kpoint 183">
       <r>   -4.1482    1.0000 </r>
       <r>   -1.9494    1.0000 </r>
       <r>    1.9567    1.0000 </r>
       <r>    3.8520    1.0000 </r>
       <r>   18.6263    0.0000 </r>
       <r>   19.8998    0.0000 </r>
       <r>   23.6399    0.0000 </r>
       <r>   23.8840    0.0000 </r>
      </set>
      <set comment="kpoint 184">
       <r>   -5.4180    1.0000 </r>
       <r>    0.1289    1.0000 </r>
       <r>    2.0137    1.0000 </r>
       <r>    3.5718    1.0000 </r>
       <r>   17.5618    0.0000 </r>
       <r>   19.2885    0.0000 </r>
       <r>   22.0094    0.0000 </r>
       <r>   25.1797    0.0000 </r>
      </set>
      <set comment="kpoint 185">
       <r>   -4.4099    1.0000 </r>
       <r>   -0.7673    1.0000 </r>
       <r>    1.5472    1.0000 </r>
       <r>    3.1227    1.0000 </r>
       <r>   18.2900    0.0000 </r>
       <r>   20.0025    0.0000 </r>
       <r>   21.8967    0.0000 </r>
       <r>   24.9563    0.0000 </r>
      </set>
      <set comment="kpoint 186">
       <r>   -3.5904    1.0000 </r>
       <r>   -1.5645    1.0000 </r>
       <r>    1.2250    1.0000 </r>
       <r>    3.0372    1.0000 </r>
       <r>   18.5976    0.0000 </r>
       <r>   20.7781    0.0000 </r>
       <r>   22.3599    0.0000 </r>
       <r>   23.9662    0.0000 </r>
      </set>
      <set comment="kpoint 187">
       <r>   -3.8419    1.0000 </r>
       <r>   -1.2903    1.0000 </r>
       <r>    1.0255    1.0000 </r>
       <r>    3.2923    1.0000 </r>
       <r>   18.8855    0.0000 </r>
       <r>   20.5366    0.0000 </r>
       <r>   22.7567    0.0000 </r>
       <r>   23.7198    0.0000 </r>
      </set>
      <set comment="kpoint 188">
       <r>   -4.7868    1.0000 </r>
       <r>   -0.4603    1.0000 </r>
       <r>    1.1859    1.0000 </r>
       <r>    3.7846    1.0000 </r>
       <r>   19.2404    0.0000 </r>
       <r>   19.6156    0.0000 </r>
       <r>   21.9982    0.0000 </r>
       <r>   24.7400    0.0000 </r>
      </set>
      <set comment="kpoint 189">
       <r>   -3.9499    1.0000 </r>
       <r>   -1.0348    1.0000 </r>
       <r>    1.8253    1.0000 </r>
       <r>    2.5155    1.0000 </r>
       <r>   17.7242    0.0000 </r>
       <r>   18.5888    0.0000 </r>
       <r>   23.2023    0.0000 </r>
       <r>   25.2477    0.0000 </r>
      </set>
      <set comment="kpoint 190">
       <r>   -3.0367    1.0000 </r>
       <r>   -1.6893    1.0000 </r>
       <r>    1.2122    1.0000 </r>
       <r>    2.3908    1.0000 </r>
       <r>   18.2954    0.0000 </r>
       <r>   19.8617    0.0000 </r>
       <r>   22.9169    0.0000 </r>
       <r>   24.1793    0.0000 </r>
      </set>
      <set comment="kpoint 191">
       <r>   -3.0235    1.0000 </r>
       <r>   -1.6449    1.0000 </r>
       <r>    0.7533    1.0000 </r>
       <r>    2.7281    1.0000 </r>
       <r>   18.5856    0.0000 </r>
       <r>   21.3279    0.0000 </r>
       <r>   22.5645    0.0000 </r>
       <r>   23.1284    0.0000 </r>
      </set>
      <set comment="kpoint 192">
       <r>   -2.4412    1.0000 </r>
       <r>   -2.4412    1.0000 </r>
       <r>    1.9584    1.0000 </r>
       <r>    1.9585    1.0000 </r>
       <r>   18.0604    0.0000 </r>
       <r>   18.0604    0.0000 </r>
       <r>   24.4003    0.0000 </r>
       <r>   24.4003    0.0000 </r>
      </set>
      <set comment="kpoint 193">
       <r>   -3.4585    1.0000 </r>
       <r>   -1.2379    1.0000 </r>
       <r>    1.1242    1.0000 </r>
       <r>    2.4340    1.0000 </r>
       <r>   19.7668    0.0000 </r>
       <r>   19.8927    0.0000 </r>
       <r>   21.8804    0.0000 </r>
       <r>   23.9102    0.0000 </r>
      </set>
      <set comment="kpoint 194">
       <r>   -2.8615    1.0000 </r>
       <r>   -1.6844    1.0000 </r>
       <r>    1.0367    1.0000 </r>
       <r>    2.1503    1.0000 </r>
       <r>   19.8212    0.0000 </r>
       <r>   20.6539    0.0000 </r>
       <r>   22.3460    0.0000 </r>
       <r>   22.6436    0.0000 </r>
      </set>
      <set comment="kpoint 195">
       <r>   -2.2238    1.0000 </r>
       <r>   -2.2238    1.0000 </r>
       <r>    1.5052    1.0000 </r>
       <r>    1.5052    1.0000 </r>
       <r>   19.9504    0.0000 </r>
       <r>   19.9504    0.0000 </r>
       <r>   22.6971    0.0000 </r>
       <r>   22.6972    0.0000 </r>
      </set>
     </set>
    </set>
   </array>
  </eigenvalues>
  <separator name="orbital magnetization" >
   <v name="MAGDIPOLOUT">      0.00000000      0.00000000      0.00000000</v>
  </separator>
  <dos>
   <i name="efermi">     10.59658369 </i>
   <total>
    <array>
     <dimension dim="1">gridpoints</dimension>
     <dimension dim="2">spin</dimension>
     <field>energy</field>
     <field>total</field>
     <field>integrated</field>
     <set>
      <set comment="spin 1">
       <r>   -13.7410     0.0000     0.0000 </r>
       <r>   -13.5995     0.0000     0.0000 </r>
       <r>   -13.4580     0.0000     0.0000 </r>
       <r>   -13.3165     0.0000     0.0000 </r>
       <r>   -13.1750     0.0000     0.0000 </r>
       <r>   -13.0335     0.0000     0.0000 </r>
       <r>   -12.8920     0.0000     0.0000 </r>
       <r>   -12.7505     0.0000     0.0000 </r>
       <r>   -12.6090     0.0000     0.0000 </r>
       <r>   -12.4675     0.0000     0.0000 </r>
       <r>   -12.3260     0.0000     0.0000 </r>
       <r>   -12.1845     0.0000     0.0000 </r>
       <r>   -12.0430     0.0001     0.0000 </r>
       <r>   -11.9015     0.0015     0.0002 </r>
       <r>   -11.7600     0.0083     0.0014 </r>
       <r>   -11.6185     0.0245     0.0049 </r>
       <r>   -11.4770     0.0455     0.0113 </r>
       <r>   -11.3355     0.0618     0.0200 </r>
       <r>   -11.1940     0.0766     0.0309 </r>
       <r>   -11.0525     0.0894     0.0435 </r>
       <r>   -10.9110     0.0928     0.0567 </r>
       <r>   -10.7695     0.1068     0.0718 </r>
       <r>   -10.6280     0.1230     0.0892 </r>
       <r>   -10.4866     0.1177     0.1058 </r>
       <r>   -10.3451     0.1192     0.1227 </r>
       <r>   -10.2036     0.1454     0.1433 </r>
       <r>   -10.0621     0.1587     0.1657 </r>
       <r>    -9.9206     0.1410     0.1857 </r>
       <r>    -9.7791     0.1415     0.2057 </r>
       <r>    -9.6376     0.1650     0.2291 </r>
       <r>    -9.4961     0.1824     0.2549 </r>
       <r>    -9.3546     0.1919     0.2820 </r>
       <r>    -9.2131     0.1725     0.3064 </r>
       <r>    -9.0716     0.1547     0.3283 </r>
       <r>    -8.9301     0.1879     0.3549 </r>
       <r>    -8.7886     0.2286     0.3872 </r>
       <r>    -8.6471     0.2223     0.4187 </r>
       <r>    -8.5056     0.2029     0.4474 </r>
       <r>    -8.3641     0.1966     0.4752 </r>
       <r>    -8.2226     0.1881     0.5018 </r>
       <r>    -8.0811     0.2264     0.5339 </r>
       <r>    -7.9396     0.2718     0.5723 </r>
       <r>    -7.7981     0.2570     0.6087 </r>
       <r>    -7.6566     0.2280     0.6409 </r>
       <r>    -7.5151     0.2341     0.6741 </r>
       <r>    -7.3736     0.2362     0.7075 </r>
       <r>    -7.2321     0.2359     0.7409 </r>
       <r>    -7.0907     0.2753     0.7798 </r>
       <r>    -6.9492     0.3081     0.8234 </r>
       <r>    -6.8077     0.3163     0.8682 </r>
       <r>    -6.6662     0.2876     0.9089 </r>
       <r>    -6.5247     0.2398     0.9428 </r>
       <r>    -6.3832     0.2617     0.9798 </r>
       <r>    -6.2417     0.3204     1.0251 </r>
       <r>    -6.1002     0.3602     1.0761 </r>
       <r>    -5.9587     0.3871     1.1309 </r>
       <r>    -5.8172     0.4022     1.1878 </r>
       <r>    -5.6757     0.3708     1.2403 </r>
       <r>    -5.5342     0.3002     1.2827 </r>
       <r>    -5.3927     0.2945     1.3244 </r>
       <r>    -5.2512     0.3617     1.3756 </r>
       <r>    -5.1097     0.4043     1.4328 </r>
       <r>    -4.9682     0.3598     1.4837 </r>
       <r>    -4.8267     0.2992     1.5260 </r>
       <r>    -4.6852     0.2739     1.5648 </r>
       <r>    -4.5437     0.2576     1.6012 </r>
       <r>    -4.4022     0.2782     1.6406 </r>
       <r>    -4.2607     0.3061     1.6839 </r>
       <r>    -4.1192     0.2801     1.7236 </r>
       <r>    -3.9777     0.2447     1.7582 </r>
       <r>    -3.8363     0.2292     1.7906 </r>
       <r>    -3.6948     0.2128     1.8207 </r>
       <r>    -3.5533     0.2447     1.8553 </r>
       <r>    -3.4118     0.2986     1.8976 </r>
       <r>    -3.2703     0.2702     1.9358 </r>
       <r>    -3.1288     0.2217     1.9672 </r>
       <r>    -2.9873     0.2684     2.0052 </r>
       <r>    -2.8458     0.3133     2.0495 </r>
       <r>    -2.7043     0.2978     2.0916 </r>
       <r>    -2.5628     0.2545     2.1277 </r>
       <r>    -2.4213     0.2418     2.1619 </r>
       <r>    -2.2798     0.2960     2.2037 </r>
       <r>    -2.1383     0.3554     2.2540 </r>
       <r>    -1.9968     0.4099     2.3120 </r>
       <r>    -1.8553     0.5050     2.3835 </r>
       <r>    -1.7138     0.5888     2.4668 </r>
       <r>    -1.5723     0.5787     2.5487 </r>
       <r>    -1.4308     0.5033     2.6199 </r>
       <r>    -1.2893     0.4681     2.6861 </r>
       <r>    -1.1478     0.4765     2.7536 </r>
       <r>    -1.0063     0.4285     2.8142 </r>
       <r>    -0.8648     0.3539     2.8643 </r>
       <r>    -0.7233     0.3418     2.9126 </r>
       <r>    -0.5819     0.3265     2.9588 </r>
       <r>    -0.4404     0.3109     3.0028 </r>
       <r>    -0.2989     0.3106     3.0468 </r>
       <r>    -0.1574     0.2978     3.0889 </r>
       <r>    -0.0159     0.2860     3.1294 </r>
       <r>     0.1256     0.2873     3.1700 </r>
       <r>     0.2671     0.2796     3.2096 </r>
       <r>     0.4086     0.2559     3.2458 </r>
       <r>     0.5501     0.2994     3.2881 </r>
       <r>     0.6916     0.4117     3.3464 </r>
       <r>     0.8331     0.4677     3.4126 </r>
       <r>     0.9746     0.4405     3.4749 </r>
       <r>     1.1161     0.4701     3.5414 </r>
       <r>     1.2576     0.5387     3.6176 </r>
       <r>     1.3991     0.5102     3.6898 </r>
       <r>     1.5406     0.4619     3.7552 </r>
       <r>     1.6821     0.4782     3.8229 </r>
       <r>     1.8236     0.5396     3.8992 </r>
       <r>     1.9651     0.6095     3.9855 </r>
       <r>     2.1066     0.5624     4.0650 </r>
       <r>     2.2481     0.4394     4.1272 </r>
       <r>     2.3896     0.4190     4.1865 </r>
       <r>     2.5311     0.5407     4.2630 </r>
       <r>     2.6725     0.6744     4.3584 </r>
       <r>     2.8140     0.6430     4.4494 </r>
       <r>     2.9555     0.5531     4.5277 </r>
       <r>     3.0970     0.5698     4.6083 </r>
       <r>     3.2385     0.6605     4.7017 </r>
       <r>     3.3800     0.7412     4.8066 </r>
       <r>     3.5215     0.7479     4.9125 </r>
       <r>     3.6630     0.7277     5.0154 </r>
       <r>     3.8045     0.7050     5.1152 </r>
       <r>     3.9460     0.7398     5.2199 </r>
       <r>     4.0875     0.8740     5.3435 </r>
       <r>     4.2290     0.9254     5.4745 </r>
       <r>     4.3705     0.7675     5.5831 </r>
       <r>     4.5120     0.5662     5.6632 </r>
       <r>     4.6535     0.5746     5.7445 </r>
       <r>     4.7950     0.7875     5.8559 </r>
       <r>     4.9365     0.8756     5.9798 </r>
       <r>     5.0780     0.7436     6.0850 </r>
       <r>     5.2195     0.6675     6.1795 </r>
       <r>     5.3610     0.6943     6.2777 </r>
       <r>     5.5025     0.7041     6.3774 </r>
       <r>     5.6440     0.6533     6.4698 </r>
       <r>     5.7855     0.6039     6.5553 </r>
       <r>     5.9269     0.6557     6.6480 </r>
       <r>     6.0684     0.7457     6.7535 </r>
       <r>     6.2099     0.7064     6.8535 </r>
       <r>     6.3514     0.6356     6.9434 </r>
       <r>     6.4929     0.6274     7.0322 </r>
       <r>     6.6344     0.6137     7.1190 </r>
       <r>     6.7759     0.5976     7.2036 </r>
       <r>     6.9174     0.6060     7.2894 </r>
       <r>     7.0589     0.5771     7.3710 </r>
       <r>     7.2004     0.5149     7.4439 </r>
       <r>     7.3419     0.4743     7.5110 </r>
       <r>     7.4834     0.4149     7.5697 </r>
       <r>     7.6249     0.3350     7.6171 </r>
       <r>     7.7664     0.3059     7.6604 </r>
       <r>     7.9079     0.3132     7.7047 </r>
       <r>     8.0494     0.2735     7.7434 </r>
       <r>     8.1909     0.2358     7.7767 </r>
       <r>     8.3324     0.2487     7.8119 </r>
       <r>     8.4739     0.2421     7.8462 </r>
       <r>     8.6154     0.1877     7.8727 </r>
       <r>     8.7569     0.1488     7.8938 </r>
       <r>     8.8984     0.1587     7.9162 </r>
       <r>     9.0399     0.1476     7.9371 </r>
       <r>     9.1814     0.1139     7.9532 </r>
       <r>     9.3228     0.1073     7.9684 </r>
       <r>     9.4643     0.0946     7.9818 </r>
       <r>     9.6058     0.0633     7.9908 </r>
       <r>     9.7473     0.0397     7.9964 </r>
       <r>     9.8888     0.0196     7.9991 </r>
       <r>    10.0303     0.0053     7.9999 </r>
       <r>    10.1718     0.0007     8.0000 </r>
       <r>    10.3133     0.0001     8.0000 </r>
       <r>    10.4548     0.0000     8.0000 </r>
       <r>    10.5963     0.0000     8.0000 </r>
       <r>    10.7378     0.0000     8.0000 </r>
       <r>    10.8793     0.0000     8.0000 </r>
       <r>    11.0208     0.0000     8.0000 </r>
       <r>    11.1623     0.0000     8.0000 </r>
       <r>    11.3038     0.0000     8.0000 </r>
       <r>    11.4453     0.0000     8.0000 </r>
       <r>    11.5868     0.0000     8.0000 </r>
       <r>    11.7283     0.0000     8.0000 </r>
       <r>    11.8698     0.0000     8.0000 </r>
       <r>    12.0113     0.0000     8.0000 </r>
       <r>    12.1528     0.0000     8.0000 </r>
       <r>    12.2943     0.0000     8.0000 </r>
       <r>    12.4358     0.0000     8.0000 </r>
       <r>    12.5772     0.0000     8.0000 </r>
       <r>    12.7187     0.0000     8.0000 </r>
       <r>    12.8602     0.0000     8.0000 </r>
       <r>    13.0017     0.0000     8.0000 </r>
       <r>    13.1432     0.0000     8.0000 </r>
       <r>    13.2847     0.0000     8.0000 </r>
       <r>    13.4262     0.0000     8.0000 </r>
       <r>    13.5677     0.0001     8.0000 </r>
       <r>    13.7092     0.0009     8.0001 </r>
       <r>    13.8507     0.0057     8.0009 </r>
       <r>    13.9922     0.0206     8.0039 </r>
       <r>    14.1337     0.0519     8.0112 </r>
       <r>    14.2752     0.0927     8.0243 </r>
       <r>    14.4167     0.1281     8.0424 </r>
       <r>    14.5582     0.1664     8.0660 </r>
       <r>    14.6997     0.1931     8.0933 </r>
       <r>    14.8412     0.2073     8.1226 </r>
       <r>    14.9827     0.2641     8.1600 </r>
       <r>    15.1242     0.3541     8.2101 </r>
       <r>    15.2657     0.3749     8.2632 </r>
       <r>    15.4072     0.3610     8.3142 </r>
       <r>    15.5487     0.3814     8.3682 </r>
       <r>    15.6902     0.4292     8.4289 </r>
       <r>    15.8316     0.4724     8.4958 </r>
       <r>    15.9731     0.4888     8.5649 </r>
       <r>    16.1146     0.4850     8.6336 </r>
       <r>    16.2561     0.5004     8.7044 </r>
       <r>    16.3976     0.5497     8.7821 </r>
       <r>    16.5391     0.6163     8.8693 </r>
       <r>    16.6806     0.6468     8.9609 </r>
       <r>    16.8221     0.6431     9.0519 </r>
       <r>    16.9636     0.6193     9.1395 </r>
       <r>    17.1051     0.6341     9.2292 </r>
       <r>    17.2466     0.6823     9.3258 </r>
       <r>    17.3881     0.6747     9.4212 </r>
       <r>    17.5296     0.7070     9.5213 </r>
       <r>    17.6711     0.7925     9.6334 </r>
       <r>    17.8126     0.8681     9.7562 </r>
       <r>    17.9541     1.0013     9.8979 </r>
       <r>    18.0956     1.1194    10.0563 </r>
       <r>    18.2371     1.0531    10.2053 </r>
       <r>    18.3786     0.9863    10.3449 </r>
       <r>    18.5201     1.0299    10.4906 </r>
       <r>    18.6616     1.0812    10.6436 </r>
       <r>    18.8031     1.0471    10.7917 </r>
       <r>    18.9446     0.8504    10.9121 </r>
       <r>    19.0860     0.6711    11.0070 </r>
       <r>    19.2275     0.6861    11.1041 </r>
       <r>    19.3690     0.7505    11.2103 </r>
       <r>    19.5105     0.8358    11.3285 </r>
       <r>    19.6520     1.0559    11.4780 </r>
       <r>    19.7935     1.1253    11.6372 </r>
       <r>    19.9350     0.8999    11.7645 </r>
       <r>    20.0765     0.6547    11.8571 </r>
       <r>    20.2180     0.6143    11.9441 </r>
       <r>    20.3595     0.6198    12.0318 </r>
       <r>    20.5010     0.5808    12.1139 </r>
       <r>    20.6425     0.6571    12.2069 </r>
       <r>    20.7840     0.7078    12.3071 </r>
       <r>    20.9255     0.6951    12.4054 </r>
       <r>    21.0670     0.6680    12.4999 </r>
       <r>    21.2085     0.5600    12.5792 </r>
       <r>    21.3500     0.4666    12.6452 </r>
       <r>    21.4915     0.4716    12.7119 </r>
       <r>    21.6330     0.5449    12.7890 </r>
       <r>    21.7745     0.5820    12.8714 </r>
       <r>    21.9160     0.6034    12.9568 </r>
       <r>    22.0575     0.7215    13.0589 </r>
       <r>    22.1990     0.9171    13.1886 </r>
       <r>    22.3404     1.0390    13.3356 </r>
       <r>    22.4819     0.8830    13.4606 </r>
       <r>    22.6234     0.6352    13.5505 </r>
       <r>    22.7649     0.4986    13.6210 </r>
       <r>    22.9064     0.4917    13.6906 </r>
       <r>    23.0479     0.5745    13.7719 </r>
       <r>    23.1894     0.6978    13.8706 </r>
       <r>    23.3309     0.8793    13.9950 </r>
       <r>    23.4724     1.0786    14.1476 </r>
       <r>    23.6139     1.1256    14.3069 </r>
       <r>    23.7554     0.9677    14.4438 </r>
       <r>    23.8969     0.8679    14.5666 </r>
       <r>    24.0384     0.9125    14.6958 </r>
       <r>    24.1799     0.8174    14.8114 </r>
       <r>    24.3214     0.6691    14.9061 </r>
       <r>    24.4629     0.6947    15.0044 </r>
       <r>    24.6044     0.8209    15.1205 </r>
       <r>    24.7459     0.9034    15.2484 </r>
       <r>    24.8874     0.9058    15.3765 </r>
       <r>    25.0289     0.7742    15.4861 </r>
       <r>    25.1704     0.5994    15.5709 </r>
       <r>    25.3119     0.5479    15.6484 </r>
       <r>    25.4534     0.5431    15.7253 </r>
       <r>    25.5949     0.4574    15.7900 </r>
       <r>    25.7363     0.3636    15.8414 </r>
       <r>    25.8778     0.3142    15.8859 </r>
       <r>    26.0193     0.2375    15.9195 </r>
       <r>    26.1608     0.1575    15.9418 </r>
       <r>    26.3023     0.1287    15.9600 </r>
       <r>    26.4438     0.1211    15.9771 </r>
       <r>    26.5853     0.0959    15.9907 </r>
       <r>    26.7268     0.0487    15.9976 </r>
       <r>    26.8683     0.0142    15.9996 </r>
       <r>    27.0098     0.0025    16.0000 </r>
       <r>    27.1513     0.0003    16.0000 </r>
       <r>    27.2928     0.0000    16.0000 </r>
       <r>    27.4343     0.0000    16.0000 </r>
       <r>    27.5758     0.0000    16.0000 </r>
       <r>    27.7173     0.0000    16.0000 </r>
       <r>    27.8588     0.0000    16.0000 </r>
       <r>    28.0003     0.0000    16.0000 </r>
       <r>    28.1418     0.0000    16.0000 </r>
       <r>    28.2833     0.0000    16.0000 </r>
       <r>    28.4248     0.0000    16.0000 </r>
       <r>    28.5663     0.0000    16.0000 </r>
       <r>    28.7078     0.0000    16.0000 </r>
      </set>
     </set>
    </array>
   </total>
  </dos>
 </calculation>
 <structure name="finalpos" >
  <crystal>
   <varray name="basis" >
    <v>       2.51730013       0.00000000       0.00000000 </v>
    <v>       1.25865006       2.18004586       0.00000000 </v>
    <v>       1.25865006       0.72668195       2.05536695 </v>
   </varray>
   <i name="volume">     11.27950384 </i>
   <varray name="rec_basis" >
    <v>       0.39725100      -0.22935297      -0.16217704 </v>
    <v>       0.00000000       0.45870595      -0.16217704 </v>
    <v>       0.00000000       0.00000000       0.48653113 </v>
   </varray>
  </crystal>
  <varray name="positions" >
   <v>       0.25000000       0.25000000       0.25000000 </v>
   <v>       0.00000000       0.00000000       0.00000000 </v>
  </varray>
 </structure>
</modeling>
