   2   2   1   0
  0.5705170E+01  0.2526996E-09  0.2526996E-09  0.2526996E-09  0.5000000E-15
  1.000000000000000E-004
  CAR 
 unknown system                          
     28.27151701    -13.65881187 3001      9.65445099      1.00000000
    -13.659  0.0000E+00  0.0000E+00
    -13.645  0.0000E+00  0.0000E+00
    -13.631  0.0000E+00  0.0000E+00
    -13.617  0.0000E+00  0.0000E+00
    -13.603  0.0000E+00  0.0000E+00
    -13.589  0.0000E+00  0.0000E+00
    -13.575  0.0000E+00  0.0000E+00
    -13.561  0.0000E+00  0.0000E+00
    -13.547  0.0000E+00  0.0000E+00
    -13.533  0.0000E+00  0.0000E+00
    -13.519  0.0000E+00  0.0000E+00
    -13.505  0.0000E+00  0.0000E+00
    -13.491  0.0000E+00  0.0000E+00
    -13.477  0.0000E+00  0.0000E+00
    -13.463  0.0000E+00  0.0000E+00
    -13.449  0.0000E+00  0.0000E+00
    -13.435  0.0000E+00  0.0000E+00
    -13.421  0.0000E+00  0.0000E+00
    -13.407  0.0000E+00  0.0000E+00
    -13.393  0.0000E+00  0.0000E+00
    -13.379  0.0000E+00  0.0000E+00
    -13.365  0.0000E+00  0.0000E+00
    -13.351  0.0000E+00  0.0000E+00
    -13.337  0.0000E+00  0.0000E+00
    -13.323  0.0000E+00  0.0000E+00
    -13.309  0.0000E+00  0.0000E+00
    -13.295  0.0000E+00  0.0000E+00
    -13.281  0.0000E+00  0.0000E+00
    -13.267  0.0000E+00  0.0000E+00
    -13.253  0.0000E+00  0.0000E+00
    -13.240  0.0000E+00  0.0000E+00
    -13.226  0.0000E+00  0.0000E+00
    -13.212  0.0000E+00  0.0000E+00
    -13.198  0.0000E+00  0.0000E+00
    -13.184  0.0000E+00  0.0000E+00
    -13.170  0.0000E+00  0.0000E+00
    -13.156  0.0000E+00  0.0000E+00
    -13.142  0.0000E+00  0.0000E+00
    -13.128  0.0000E+00  0.0000E+00
    -13.114  0.0000E+00  0.0000E+00
    -13.100  0.0000E+00  0.0000E+00
    -13.086  0.0000E+00  0.0000E+00
    -13.072  0.0000E+00  0.0000E+00
    -13.058  0.0000E+00  0.0000E+00
    -13.044  0.0000E+00  0.0000E+00
    -13.030  0.0000E+00  0.0000E+00
    -13.016  0.0000E+00  0.0000E+00
    -13.002  0.0000E+00  0.0000E+00
    -12.988  0.0000E+00  0.0000E+00
    -12.974  0.0000E+00  0.0000E+00
    -12.960  0.0000E+00  0.0000E+00
    -12.946  0.0000E+00  0.0000E+00
    -12.932  0.0000E+00  0.0000E+00
    -12.918  0.0000E+00  0.0000E+00
    -12.904  0.0000E+00  0.0000E+00
    -12.890  0.0000E+00  0.0000E+00
    -12.876  0.0000E+00  0.0000E+00
    -12.862  0.0000E+00  0.0000E+00
    -12.848  0.0000E+00  0.0000E+00
    -12.834  0.0000E+00  0.0000E+00
    -12.820  0.0000E+00  0.0000E+00
    -12.806  0.0000E+00  0.0000E+00
    -12.792  0.0000E+00  0.0000E+00
    -12.778  0.0000E+00  0.0000E+00
    -12.764  0.0000E+00  0.0000E+00
    -12.750  0.0000E+00  0.0000E+00
    -12.736  0.0000E+00  0.0000E+00
    -12.722  0.0000E+00  0.0000E+00
    -12.708  0.0000E+00  0.0000E+00
    -12.694  0.0000E+00  0.0000E+00
    -12.680  0.0000E+00  0.0000E+00
    -12.666  0.0000E+00  0.0000E+00
    -12.652  0.0000E+00  0.0000E+00
    -12.639  0.0000E+00  0.0000E+00
    -12.625  0.0000E+00  0.0000E+00
    -12.611  0.0000E+00  0.0000E+00
    -12.597  0.0000E+00  0.0000E+00
    -12.583  0.0000E+00  0.0000E+00
    -12.569  0.0000E+00  0.0000E+00
    -12.555  0.0000E+00  0.0000E+00
    -12.541  0.0000E+00  0.0000E+00
    -12.527  0.0000E+00  0.0000E+00
    -12.513  0.0000E+00  0.0000E+00
    -12.499  0.0000E+00  0.0000E+00
    -12.485  0.0000E+00  0.0000E+00
    -12.471  0.0000E+00  0.0000E+00
    -12.457  0.0000E+00  0.0000E+00
    -12.443  0.0000E+00  0.0000E+00
    -12.429  0.0000E+00  0.0000E+00
    -12.415  0.0000E+00  0.0000E+00
    -12.401  0.0000E+00  0.0000E+00
    -12.387  0.0000E+00  0.0000E+00
    -12.373  0.0000E+00  0.0000E+00
    -12.359  0.0000E+00  0.0000E+00
    -12.345  0.0000E+00  0.0000E+00
    -12.331  0.0000E+00  0.0000E+00
    -12.317  0.0000E+00  0.0000E+00
    -12.303  0.0000E+00  0.0000E+00
    -12.289  0.0000E+00  0.0000E+00
    -12.275  0.0000E+00  0.0000E+00
    -12.261  0.0000E+00  0.0000E+00
    -12.247  0.0000E+00  0.0000E+00
    -12.233  0.0000E+00  0.0000E+00
    -12.219  0.0000E+00  0.0000E+00
    -12.205  0.0000E+00  0.0000E+00
    -12.191  0.0000E+00  0.0000E+00
    -12.177  0.0000E+00  0.0000E+00
    -12.163  0.0000E+00  0.0000E+00
    -12.149  0.0000E+00  0.0000E+00
    -12.135  0.0000E+00  0.0000E+00
    -12.121  0.0000E+00  0.0000E+00
    -12.107  0.0000E+00  0.0000E+00
    -12.093  0.0000E+00  0.0000E+00
    -12.079  0.0000E+00  0.0000E+00
    -12.065  0.0000E+00  0.0000E+00
    -12.051  0.0000E+00  0.0000E+00
    -12.038  0.0000E+00  0.0000E+00
    -12.024  0.0000E+00  0.0000E+00
    -12.010  0.0000E+00  0.0000E+00
    -11.996  0.0000E+00  0.0000E+00
    -11.982  0.0000E+00  0.0000E+00
    -11.968  0.0000E+00  0.0000E+00
    -11.954  0.0000E+00  0.0000E+00
    -11.940  0.0000E+00  0.0000E+00
    -11.926  0.0000E+00  0.0000E+00
    -11.912  0.0000E+00  0.0000E+00
    -11.898  0.0000E+00  0.0000E+00
    -11.884  0.0000E+00  0.0000E+00
    -11.870  0.0000E+00  0.0000E+00
    -11.856  0.0000E+00  0.0000E+00
    -11.842  0.0000E+00  0.0000E+00
    -11.828  0.0000E+00  0.0000E+00
    -11.814  0.0000E+00  0.0000E+00
    -11.800  0.0000E+00  0.0000E+00
    -11.786  0.0000E+00  0.0000E+00
    -11.772  0.0000E+00  0.0000E+00
    -11.758  0.0000E+00  0.0000E+00
    -11.744  0.6803E-04  0.2017E-06
    -11.730  0.4498E-03  0.3429E-05
    -11.716  0.1168E-02  0.1434E-04
    -11.702  0.2221E-02  0.3763E-04
    -11.688  0.3611E-02  0.7800E-04
    -11.674  0.5337E-02  0.1401E-03
    -11.660  0.7398E-02  0.2287E-03
    -11.646  0.9796E-02  0.3485E-03
    -11.632  0.1253E-01  0.5041E-03
    -11.618  0.1560E-01  0.7003E-03
    -11.604  0.1900E-01  0.9418E-03
    -11.590  0.2275E-01  0.1233E-02
    -11.576  0.2682E-01  0.1579E-02
    -11.562  0.3124E-01  0.1985E-02
    -11.548  0.3599E-01  0.2454E-02
    -11.534  0.4107E-01  0.2992E-02
    -11.520  0.4649E-01  0.3604E-02
    -11.506  0.5225E-01  0.4293E-02
    -11.492  0.5834E-01  0.5066E-02
    -11.478  0.6477E-01  0.5926E-02
    -11.464  0.6205E-01  0.6817E-02
    -11.450  0.5924E-01  0.7664E-02
    -11.437  0.5722E-01  0.8476E-02
    -11.423  0.5598E-01  0.9267E-02
    -11.409  0.5554E-01  0.1004E-01
    -11.395  0.5588E-01  0.1082E-01
    -11.381  0.5697E-01  0.1161E-01
    -11.367  0.5823E-01  0.1242E-01
    -11.353  0.5950E-01  0.1324E-01
    -11.339  0.6079E-01  0.1408E-01
    -11.325  0.6208E-01  0.1494E-01
    -11.311  0.6339E-01  0.1581E-01
    -11.297  0.6471E-01  0.1671E-01
    -11.283  0.6604E-01  0.1762E-01
    -11.269  0.6738E-01  0.1856E-01
    -11.255  0.6874E-01  0.1951E-01
    -11.241  0.7010E-01  0.2048E-01
    -11.227  0.7148E-01  0.2147E-01
    -11.213  0.7286E-01  0.2248E-01
    -11.199  0.7426E-01  0.2350E-01
    -11.185  0.7567E-01  0.2455E-01
    -11.171  0.7709E-01  0.2562E-01
    -11.157  0.7853E-01  0.2671E-01
    -11.143  0.7997E-01  0.2781E-01
    -11.129  0.8143E-01  0.2894E-01
    -11.115  0.8289E-01  0.3009E-01
    -11.101  0.8437E-01  0.3126E-01
    -11.087  0.8586E-01  0.3245E-01
    -11.073  0.8736E-01  0.3366E-01
    -11.059  0.8888E-01  0.3489E-01
    -11.045  0.9040E-01  0.3614E-01
    -11.031  0.9194E-01  0.3742E-01
    -11.017  0.9348E-01  0.3871E-01
    -11.003  0.9498E-01  0.4003E-01
    -10.989  0.9640E-01  0.4137E-01
    -10.975  0.9774E-01  0.4273E-01
    -10.961  0.9900E-01  0.4410E-01
    -10.947  0.1002E+00  0.4549E-01
    -10.933  0.1013E+00  0.4690E-01
    -10.919  0.1023E+00  0.4832E-01
    -10.905  0.1032E+00  0.4976E-01
    -10.891  0.1041E+00  0.5121E-01
    -10.877  0.1049E+00  0.5267E-01
    -10.863  0.1056E+00  0.5414E-01
    -10.849  0.1062E+00  0.5562E-01
    -10.836  0.1068E+00  0.5711E-01
    -10.822  0.1072E+00  0.5860E-01
    -10.808  0.1076E+00  0.6011E-01
    -10.794  0.1079E+00  0.6161E-01
    -10.780  0.1081E+00  0.6312E-01
    -10.766  0.1083E+00  0.6463E-01
    -10.752  0.1083E+00  0.6615E-01
    -10.738  0.1085E+00  0.6766E-01
    -10.724  0.1089E+00  0.6918E-01
    -10.710  0.1094E+00  0.7071E-01
    -10.696  0.1100E+00  0.7224E-01
    -10.682  0.1106E+00  0.7378E-01
    -10.668  0.1113E+00  0.7533E-01
    -10.654  0.1121E+00  0.7690E-01
    -10.640  0.1130E+00  0.7847E-01
    -10.626  0.1138E+00  0.8005E-01
    -10.612  0.1146E+00  0.8165E-01
    -10.598  0.1154E+00  0.8326E-01
    -10.584  0.1163E+00  0.8488E-01
    -10.570  0.1171E+00  0.8651E-01
    -10.556  0.1180E+00  0.8815E-01
    -10.542  0.1188E+00  0.8980E-01
    -10.528  0.1196E+00  0.9147E-01
    -10.514  0.1205E+00  0.9315E-01
    -10.500  0.1213E+00  0.9484E-01
    -10.486  0.1222E+00  0.9654E-01
    -10.472  0.1230E+00  0.9825E-01
    -10.458  0.1239E+00  0.9998E-01
    -10.444  0.1248E+00  0.1017E+00
    -10.430  0.1256E+00  0.1035E+00
    -10.416  0.1265E+00  0.1052E+00
    -10.402  0.1273E+00  0.1070E+00
    -10.388  0.1282E+00  0.1088E+00
    -10.374  0.1291E+00  0.1106E+00
    -10.360  0.1299E+00  0.1124E+00
    -10.346  0.1308E+00  0.1142E+00
    -10.332  0.1317E+00  0.1161E+00
    -10.318  0.1326E+00  0.1179E+00
    -10.304  0.1334E+00  0.1198E+00
    -10.290  0.1343E+00  0.1216E+00
    -10.276  0.1352E+00  0.1235E+00
    -10.262  0.1361E+00  0.1254E+00
    -10.248  0.1370E+00  0.1273E+00
    -10.235  0.1379E+00  0.1292E+00
    -10.221  0.1388E+00  0.1312E+00
    -10.207  0.1397E+00  0.1331E+00
    -10.193  0.1406E+00  0.1351E+00
    -10.179  0.1415E+00  0.1370E+00
    -10.165  0.1424E+00  0.1390E+00
    -10.151  0.1433E+00  0.1410E+00
    -10.137  0.1442E+00  0.1430E+00
    -10.123  0.1451E+00  0.1451E+00
    -10.109  0.1460E+00  0.1471E+00
    -10.095  0.1469E+00  0.1491E+00
    -10.081  0.1479E+00  0.1512E+00
    -10.067  0.1488E+00  0.1533E+00
    -10.053  0.1497E+00  0.1554E+00
    -10.039  0.1506E+00  0.1575E+00
    -10.025  0.1516E+00  0.1596E+00
    -10.011  0.1518E+00  0.1617E+00
     -9.997  0.1518E+00  0.1638E+00
     -9.983  0.1519E+00  0.1659E+00
     -9.969  0.1522E+00  0.1681E+00
     -9.955  0.1525E+00  0.1702E+00
     -9.941  0.1530E+00  0.1723E+00
     -9.927  0.1535E+00  0.1745E+00
     -9.913  0.1541E+00  0.1766E+00
     -9.899  0.1546E+00  0.1788E+00
     -9.885  0.1552E+00  0.1809E+00
     -9.871  0.1558E+00  0.1831E+00
     -9.857  0.1563E+00  0.1853E+00
     -9.843  0.1569E+00  0.1875E+00
     -9.829  0.1575E+00  0.1897E+00
     -9.815  0.1580E+00  0.1919E+00
     -9.801  0.1586E+00  0.1941E+00
     -9.787  0.1591E+00  0.1963E+00
     -9.773  0.1597E+00  0.1985E+00
     -9.759  0.1602E+00  0.2008E+00
     -9.745  0.1608E+00  0.2030E+00
     -9.731  0.1613E+00  0.2053E+00
     -9.717  0.1619E+00  0.2075E+00
     -9.703  0.1624E+00  0.2098E+00
     -9.689  0.1630E+00  0.2121E+00
     -9.675  0.1635E+00  0.2144E+00
     -9.661  0.1640E+00  0.2166E+00
     -9.647  0.1646E+00  0.2189E+00
     -9.634  0.1651E+00  0.2212E+00
     -9.620  0.1656E+00  0.2236E+00
     -9.606  0.1661E+00  0.2259E+00
     -9.592  0.1667E+00  0.2282E+00
     -9.578  0.1672E+00  0.2305E+00
     -9.564  0.1677E+00  0.2329E+00
     -9.550  0.1683E+00  0.2352E+00
     -9.536  0.1688E+00  0.2376E+00
     -9.522  0.1693E+00  0.2399E+00
     -9.508  0.1699E+00  0.2423E+00
     -9.494  0.1704E+00  0.2447E+00
     -9.480  0.1710E+00  0.2471E+00
     -9.466  0.1716E+00  0.2495E+00
     -9.452  0.1721E+00  0.2519E+00
     -9.438  0.1727E+00  0.2543E+00
     -9.424  0.1733E+00  0.2567E+00
     -9.410  0.1739E+00  0.2591E+00
     -9.396  0.1745E+00  0.2616E+00
     -9.382  0.1751E+00  0.2640E+00
     -9.368  0.1757E+00  0.2665E+00
     -9.354  0.1763E+00  0.2689E+00
     -9.340  0.1769E+00  0.2714E+00
     -9.326  0.1775E+00  0.2739E+00
     -9.312  0.1782E+00  0.2763E+00
     -9.298  0.1788E+00  0.2788E+00
     -9.284  0.1795E+00  0.2813E+00
     -9.270  0.1802E+00  0.2839E+00
     -9.256  0.1808E+00  0.2864E+00
     -9.242  0.1815E+00  0.2889E+00
     -9.228  0.1822E+00  0.2915E+00
     -9.214  0.1829E+00  0.2940E+00
     -9.200  0.1835E+00  0.2966E+00
     -9.186  0.1842E+00  0.2991E+00
     -9.172  0.1849E+00  0.3017E+00
     -9.158  0.1856E+00  0.3043E+00
     -9.144  0.1863E+00  0.3069E+00
     -9.130  0.1869E+00  0.3095E+00
     -9.116  0.1876E+00  0.3121E+00
     -9.102  0.1883E+00  0.3148E+00
     -9.088  0.1890E+00  0.3174E+00
     -9.074  0.1897E+00  0.3200E+00
     -9.060  0.1904E+00  0.3227E+00
     -9.046  0.1910E+00  0.3254E+00
     -9.032  0.1917E+00  0.3280E+00
     -9.019  0.1924E+00  0.3307E+00
     -9.005  0.1931E+00  0.3334E+00
     -8.991  0.1938E+00  0.3361E+00
     -8.977  0.1945E+00  0.3388E+00
     -8.963  0.1952E+00  0.3416E+00
     -8.949  0.1959E+00  0.3443E+00
     -8.935  0.1966E+00  0.3470E+00
     -8.921  0.1973E+00  0.3498E+00
     -8.907  0.1980E+00  0.3525E+00
     -8.893  0.1987E+00  0.3553E+00
     -8.879  0.1994E+00  0.3581E+00
     -8.865  0.2001E+00  0.3609E+00
     -8.851  0.2007E+00  0.3637E+00
     -8.837  0.2014E+00  0.3665E+00
     -8.823  0.2021E+00  0.3693E+00
     -8.809  0.2027E+00  0.3721E+00
     -8.795  0.2033E+00  0.3750E+00
     -8.781  0.2039E+00  0.3778E+00
     -8.767  0.2045E+00  0.3807E+00
     -8.753  0.2050E+00  0.3835E+00
     -8.739  0.2056E+00  0.3864E+00
     -8.725  0.2061E+00  0.3893E+00
     -8.711  0.2066E+00  0.3922E+00
     -8.697  0.2070E+00  0.3951E+00
     -8.683  0.2075E+00  0.3980E+00
     -8.669  0.2079E+00  0.4009E+00
     -8.655  0.2083E+00  0.4038E+00
     -8.641  0.2087E+00  0.4067E+00
     -8.627  0.2091E+00  0.4096E+00
     -8.613  0.2094E+00  0.4125E+00
     -8.599  0.2098E+00  0.4155E+00
     -8.585  0.2101E+00  0.4184E+00
     -8.571  0.2105E+00  0.4213E+00
     -8.557  0.2110E+00  0.4243E+00
     -8.543  0.2114E+00  0.4272E+00
     -8.529  0.2119E+00  0.4302E+00
     -8.515  0.2124E+00  0.4332E+00
     -8.501  0.2130E+00  0.4361E+00
     -8.487  0.2135E+00  0.4391E+00
     -8.473  0.2141E+00  0.4421E+00
     -8.459  0.2146E+00  0.4451E+00
     -8.445  0.2151E+00  0.4481E+00
     -8.431  0.2157E+00  0.4511E+00
     -8.418  0.2162E+00  0.4541E+00
     -8.404  0.2168E+00  0.4572E+00
     -8.390  0.2173E+00  0.4602E+00
     -8.376  0.2178E+00  0.4632E+00
     -8.362  0.2184E+00  0.4663E+00
     -8.348  0.2189E+00  0.4693E+00
     -8.334  0.2195E+00  0.4724E+00
     -8.320  0.2200E+00  0.4755E+00
     -8.306  0.2206E+00  0.4785E+00
     -8.292  0.2211E+00  0.4816E+00
     -8.278  0.2217E+00  0.4847E+00
     -8.264  0.2222E+00  0.4878E+00
     -8.250  0.2228E+00  0.4909E+00
     -8.236  0.2234E+00  0.4941E+00
     -8.222  0.2239E+00  0.4972E+00
     -8.208  0.2245E+00  0.5003E+00
     -8.194  0.2250E+00  0.5035E+00
     -8.180  0.2256E+00  0.5066E+00
     -8.166  0.2262E+00  0.5098E+00
     -8.152  0.2267E+00  0.5129E+00
     -8.138  0.2273E+00  0.5161E+00
     -8.124  0.2279E+00  0.5193E+00
     -8.110  0.2284E+00  0.5225E+00
     -8.096  0.2290E+00  0.5257E+00
     -8.082  0.2296E+00  0.5289E+00
     -8.068  0.2301E+00  0.5321E+00
     -8.054  0.2307E+00  0.5353E+00
     -8.040  0.2313E+00  0.5385E+00
     -8.026  0.2319E+00  0.5418E+00
     -8.012  0.2324E+00  0.5450E+00
     -7.998  0.2330E+00  0.5483E+00
     -7.984  0.2336E+00  0.5515E+00
     -7.970  0.2342E+00  0.5548E+00
     -7.956  0.2347E+00  0.5581E+00
     -7.942  0.2353E+00  0.5614E+00
     -7.928  0.2359E+00  0.5647E+00
     -7.914  0.2365E+00  0.5680E+00
     -7.900  0.2371E+00  0.5713E+00
     -7.886  0.2377E+00  0.5746E+00
     -7.872  0.2383E+00  0.5779E+00
     -7.858  0.2389E+00  0.5812E+00
     -7.844  0.2395E+00  0.5846E+00
     -7.830  0.2401E+00  0.5879E+00
     -7.817  0.2408E+00  0.5913E+00
     -7.803  0.2414E+00  0.5947E+00
     -7.789  0.2420E+00  0.5980E+00
     -7.775  0.2427E+00  0.6014E+00
     -7.761  0.2433E+00  0.6048E+00
     -7.747  0.2440E+00  0.6082E+00
     -7.733  0.2446E+00  0.6117E+00
     -7.719  0.2453E+00  0.6151E+00
     -7.705  0.2460E+00  0.6185E+00
     -7.691  0.2466E+00  0.6220E+00
     -7.677  0.2473E+00  0.6254E+00
     -7.663  0.2480E+00  0.6289E+00
     -7.649  0.2486E+00  0.6323E+00
     -7.635  0.2493E+00  0.6358E+00
     -7.621  0.2500E+00  0.6393E+00
     -7.607  0.2506E+00  0.6428E+00
     -7.593  0.2513E+00  0.6463E+00
     -7.579  0.2520E+00  0.6498E+00
     -7.565  0.2527E+00  0.6534E+00
     -7.551  0.2534E+00  0.6569E+00
     -7.537  0.2541E+00  0.6604E+00
     -7.523  0.2548E+00  0.6640E+00
     -7.509  0.2555E+00  0.6676E+00
     -7.495  0.2562E+00  0.6711E+00
     -7.481  0.2569E+00  0.6747E+00
     -7.467  0.2576E+00  0.6783E+00
     -7.453  0.2583E+00  0.6819E+00
     -7.439  0.2590E+00  0.6855E+00
     -7.425  0.2597E+00  0.6892E+00
     -7.411  0.2604E+00  0.6928E+00
     -7.397  0.2612E+00  0.6964E+00
     -7.383  0.2619E+00  0.7001E+00
     -7.369  0.2626E+00  0.7038E+00
     -7.355  0.2633E+00  0.7074E+00
     -7.341  0.2641E+00  0.7111E+00
     -7.327  0.2648E+00  0.7148E+00
     -7.313  0.2655E+00  0.7185E+00
     -7.299  0.2663E+00  0.7222E+00
     -7.285  0.2670E+00  0.7260E+00
     -7.271  0.2678E+00  0.7297E+00
     -7.257  0.2685E+00  0.7335E+00
     -7.243  0.2693E+00  0.7372E+00
     -7.229  0.2700E+00  0.7410E+00
     -7.216  0.2707E+00  0.7448E+00
     -7.202  0.2714E+00  0.7485E+00
     -7.188  0.2720E+00  0.7523E+00
     -7.174  0.2727E+00  0.7562E+00
     -7.160  0.2734E+00  0.7600E+00
     -7.146  0.2742E+00  0.7638E+00
     -7.132  0.2749E+00  0.7676E+00
     -7.118  0.2757E+00  0.7715E+00
     -7.104  0.2765E+00  0.7753E+00
     -7.090  0.2773E+00  0.7792E+00
     -7.076  0.2781E+00  0.7831E+00
     -7.062  0.2788E+00  0.7870E+00
     -7.048  0.2796E+00  0.7909E+00
     -7.034  0.2805E+00  0.7948E+00
     -7.020  0.2813E+00  0.7987E+00
     -7.006  0.2821E+00  0.8027E+00
     -6.992  0.2829E+00  0.8066E+00
     -6.978  0.2837E+00  0.8106E+00
     -6.964  0.2846E+00  0.8145E+00
     -6.950  0.2854E+00  0.8185E+00
     -6.936  0.2863E+00  0.8225E+00
     -6.922  0.2871E+00  0.8265E+00
     -6.908  0.2880E+00  0.8305E+00
     -6.894  0.2888E+00  0.8346E+00
     -6.880  0.2897E+00  0.8386E+00
     -6.866  0.2906E+00  0.8427E+00
     -6.852  0.2914E+00  0.8467E+00
     -6.838  0.2923E+00  0.8508E+00
     -6.824  0.2932E+00  0.8549E+00
     -6.810  0.2941E+00  0.8590E+00
     -6.796  0.2951E+00  0.8631E+00
     -6.782  0.2960E+00  0.8673E+00
     -6.768  0.2971E+00  0.8714E+00
     -6.754  0.2981E+00  0.8756E+00
     -6.740  0.2992E+00  0.8797E+00
     -6.726  0.3003E+00  0.8839E+00
     -6.712  0.3015E+00  0.8881E+00
     -6.698  0.3027E+00  0.8924E+00
     -6.684  0.3040E+00  0.8966E+00
     -6.670  0.3053E+00  0.9009E+00
     -6.656  0.3066E+00  0.9051E+00
     -6.642  0.3080E+00  0.9094E+00
     -6.628  0.3094E+00  0.9137E+00
     -6.615  0.3109E+00  0.9181E+00
     -6.601  0.3125E+00  0.9224E+00
     -6.587  0.3142E+00  0.9268E+00
     -6.573  0.3159E+00  0.9312E+00
     -6.559  0.3178E+00  0.9356E+00
     -6.545  0.3198E+00  0.9401E+00
     -6.531  0.3219E+00  0.9446E+00
     -6.517  0.3241E+00  0.9491E+00
     -6.503  0.3264E+00  0.9536E+00
     -6.489  0.3287E+00  0.9582E+00
     -6.475  0.3312E+00  0.9628E+00
     -6.461  0.3338E+00  0.9675E+00
     -6.447  0.3364E+00  0.9722E+00
     -6.433  0.3392E+00  0.9769E+00
     -6.419  0.3420E+00  0.9816E+00
     -6.405  0.3450E+00  0.9865E+00
     -6.391  0.3480E+00  0.9913E+00
     -6.377  0.3512E+00  0.9962E+00
     -6.363  0.3544E+00  0.1001E+01
     -6.349  0.3577E+00  0.1006E+01
     -6.335  0.3611E+00  0.1011E+01
     -6.321  0.3646E+00  0.1016E+01
     -6.307  0.3682E+00  0.1021E+01
     -6.293  0.3719E+00  0.1026E+01
     -6.279  0.3757E+00  0.1032E+01
     -6.265  0.3796E+00  0.1037E+01
     -6.251  0.3836E+00  0.1042E+01
     -6.237  0.3877E+00  0.1048E+01
     -6.223  0.3919E+00  0.1053E+01
     -6.209  0.3961E+00  0.1059E+01
     -6.195  0.4005E+00  0.1064E+01
     -6.181  0.4049E+00  0.1070E+01
     -6.167  0.4095E+00  0.1076E+01
     -6.153  0.4141E+00  0.1081E+01
     -6.139  0.4189E+00  0.1087E+01
     -6.125  0.4237E+00  0.1093E+01
     -6.111  0.4286E+00  0.1099E+01
     -6.097  0.4337E+00  0.1105E+01
     -6.083  0.4388E+00  0.1111E+01
     -6.069  0.4440E+00  0.1117E+01
     -6.055  0.4315E+00  0.1123E+01
     -6.041  0.3977E+00  0.1129E+01
     -6.027  0.3764E+00  0.1135E+01
     -6.014  0.3678E+00  0.1140E+01
     -6.000  0.3678E+00  0.1145E+01
     -5.986  0.3683E+00  0.1150E+01
     -5.972  0.3690E+00  0.1155E+01
     -5.958  0.3698E+00  0.1160E+01
     -5.944  0.3708E+00  0.1166E+01
     -5.930  0.3716E+00  0.1171E+01
     -5.916  0.3724E+00  0.1176E+01
     -5.902  0.3731E+00  0.1181E+01
     -5.888  0.3736E+00  0.1186E+01
     -5.874  0.3741E+00  0.1192E+01
     -5.860  0.3744E+00  0.1197E+01
     -5.846  0.3747E+00  0.1202E+01
     -5.832  0.3749E+00  0.1207E+01
     -5.818  0.3749E+00  0.1213E+01
     -5.804  0.3749E+00  0.1218E+01
     -5.790  0.3747E+00  0.1223E+01
     -5.776  0.3745E+00  0.1228E+01
     -5.762  0.3742E+00  0.1234E+01
     -5.748  0.3737E+00  0.1239E+01
     -5.734  0.3732E+00  0.1244E+01
     -5.720  0.3726E+00  0.1249E+01
     -5.706  0.3719E+00  0.1254E+01
     -5.692  0.3710E+00  0.1260E+01
     -5.678  0.3701E+00  0.1265E+01
     -5.664  0.3691E+00  0.1270E+01
     -5.650  0.3679E+00  0.1275E+01
     -5.636  0.3667E+00  0.1280E+01
     -5.622  0.3654E+00  0.1285E+01
     -5.608  0.3640E+00  0.1290E+01
     -5.594  0.3624E+00  0.1295E+01
     -5.580  0.3608E+00  0.1301E+01
     -5.566  0.3591E+00  0.1306E+01
     -5.552  0.3573E+00  0.1311E+01
     -5.538  0.3553E+00  0.1316E+01
     -5.524  0.3534E+00  0.1321E+01
     -5.510  0.3514E+00  0.1325E+01
     -5.496  0.3495E+00  0.1330E+01
     -5.482  0.3476E+00  0.1335E+01
     -5.468  0.3457E+00  0.1340E+01
     -5.454  0.3439E+00  0.1345E+01
     -5.440  0.3421E+00  0.1350E+01
     -5.426  0.3403E+00  0.1354E+01
     -5.413  0.3386E+00  0.1359E+01
     -5.399  0.3394E+00  0.1364E+01
     -5.385  0.3438E+00  0.1369E+01
     -5.371  0.3521E+00  0.1374E+01
     -5.357  0.3632E+00  0.1379E+01
     -5.343  0.3711E+00  0.1384E+01
     -5.329  0.3746E+00  0.1389E+01
     -5.315  0.3741E+00  0.1394E+01
     -5.301  0.3730E+00  0.1399E+01
     -5.287  0.3719E+00  0.1405E+01
     -5.273  0.3707E+00  0.1410E+01
     -5.259  0.3694E+00  0.1415E+01
     -5.245  0.3681E+00  0.1420E+01
     -5.231  0.3668E+00  0.1425E+01
     -5.217  0.3654E+00  0.1430E+01
     -5.203  0.3640E+00  0.1435E+01
     -5.189  0.3626E+00  0.1441E+01
     -5.175  0.3611E+00  0.1446E+01
     -5.161  0.3595E+00  0.1451E+01
     -5.147  0.3580E+00  0.1456E+01
     -5.133  0.3563E+00  0.1461E+01
     -5.119  0.3547E+00  0.1466E+01
     -5.105  0.3530E+00  0.1471E+01
     -5.091  0.3512E+00  0.1475E+01
     -5.077  0.3494E+00  0.1480E+01
     -5.063  0.3476E+00  0.1485E+01
     -5.049  0.3457E+00  0.1490E+01
     -5.035  0.3438E+00  0.1495E+01
     -5.021  0.3418E+00  0.1500E+01
     -5.007  0.3398E+00  0.1504E+01
     -4.993  0.3378E+00  0.1509E+01
     -4.979  0.3357E+00  0.1514E+01
     -4.965  0.3335E+00  0.1519E+01
     -4.951  0.3314E+00  0.1523E+01
     -4.937  0.3291E+00  0.1528E+01
     -4.923  0.3269E+00  0.1532E+01
     -4.909  0.3246E+00  0.1537E+01
     -4.895  0.3222E+00  0.1541E+01
     -4.881  0.3198E+00  0.1546E+01
     -4.867  0.3174E+00  0.1550E+01
     -4.853  0.3149E+00  0.1555E+01
     -4.839  0.3124E+00  0.1559E+01
     -4.825  0.3098E+00  0.1564E+01
     -4.812  0.3071E+00  0.1568E+01
     -4.798  0.3044E+00  0.1572E+01
     -4.784  0.3015E+00  0.1576E+01
     -4.770  0.2986E+00  0.1581E+01
     -4.756  0.2957E+00  0.1585E+01
     -4.742  0.2944E+00  0.1589E+01
     -4.728  0.2934E+00  0.1593E+01
     -4.714  0.2925E+00  0.1597E+01
     -4.700  0.2915E+00  0.1601E+01
     -4.686  0.2905E+00  0.1605E+01
     -4.672  0.2896E+00  0.1609E+01
     -4.658  0.2887E+00  0.1613E+01
     -4.644  0.2878E+00  0.1617E+01
     -4.630  0.2869E+00  0.1621E+01
     -4.616  0.2861E+00  0.1625E+01
     -4.602  0.2852E+00  0.1629E+01
     -4.588  0.2844E+00  0.1633E+01
     -4.574  0.2836E+00  0.1637E+01
     -4.560  0.2828E+00  0.1641E+01
     -4.546  0.2820E+00  0.1645E+01
     -4.532  0.2812E+00  0.1649E+01
     -4.518  0.2805E+00  0.1653E+01
     -4.504  0.2797E+00  0.1657E+01
     -4.490  0.2790E+00  0.1661E+01
     -4.476  0.2785E+00  0.1665E+01
     -4.462  0.2784E+00  0.1669E+01
     -4.448  0.2783E+00  0.1673E+01
     -4.434  0.2782E+00  0.1676E+01
     -4.420  0.2780E+00  0.1680E+01
     -4.406  0.2779E+00  0.1684E+01
     -4.392  0.2778E+00  0.1688E+01
     -4.378  0.2777E+00  0.1692E+01
     -4.364  0.2775E+00  0.1696E+01
     -4.350  0.2774E+00  0.1700E+01
     -4.336  0.2773E+00  0.1704E+01
     -4.322  0.2772E+00  0.1707E+01
     -4.308  0.2770E+00  0.1711E+01
     -4.294  0.2769E+00  0.1715E+01
     -4.280  0.2768E+00  0.1719E+01
     -4.266  0.2766E+00  0.1723E+01
     -4.252  0.2765E+00  0.1727E+01
     -4.238  0.2763E+00  0.1731E+01
     -4.224  0.2762E+00  0.1735E+01
     -4.211  0.2761E+00  0.1738E+01
     -4.197  0.2759E+00  0.1742E+01
     -4.183  0.2758E+00  0.1746E+01
     -4.169  0.2757E+00  0.1750E+01
     -4.155  0.2755E+00  0.1754E+01
     -4.141  0.2754E+00  0.1758E+01
     -4.127  0.2752E+00  0.1762E+01
     -4.113  0.2751E+00  0.1765E+01
     -4.099  0.2752E+00  0.1769E+01
     -4.085  0.2752E+00  0.1773E+01
     -4.071  0.2750E+00  0.1777E+01
     -4.057  0.2747E+00  0.1781E+01
     -4.043  0.2742E+00  0.1785E+01
     -4.029  0.2735E+00  0.1788E+01
     -4.015  0.2727E+00  0.1792E+01
     -4.001  0.2717E+00  0.1796E+01
     -3.987  0.2706E+00  0.1800E+01
     -3.973  0.2721E+00  0.1804E+01
     -3.959  0.2753E+00  0.1807E+01
     -3.945  0.2781E+00  0.1811E+01
     -3.931  0.2805E+00  0.1815E+01
     -3.917  0.2824E+00  0.1819E+01
     -3.903  0.2840E+00  0.1823E+01
     -3.889  0.2851E+00  0.1827E+01
     -3.875  0.2858E+00  0.1831E+01
     -3.861  0.2861E+00  0.1835E+01
     -3.847  0.2859E+00  0.1839E+01
     -3.833  0.2854E+00  0.1843E+01
     -3.819  0.2844E+00  0.1847E+01
     -3.805  0.2830E+00  0.1851E+01
     -3.791  0.2812E+00  0.1855E+01
     -3.777  0.2790E+00  0.1859E+01
     -3.763  0.2764E+00  0.1863E+01
     -3.749  0.2734E+00  0.1867E+01
     -3.735  0.2699E+00  0.1870E+01
     -3.721  0.2660E+00  0.1874E+01
     -3.707  0.2617E+00  0.1878E+01
     -3.693  0.2570E+00  0.1881E+01
     -3.679  0.2521E+00  0.1885E+01
     -3.665  0.2473E+00  0.1888E+01
     -3.651  0.2426E+00  0.1892E+01
     -3.637  0.2380E+00  0.1895E+01
     -3.623  0.2336E+00  0.1899E+01
     -3.610  0.2293E+00  0.1902E+01
     -3.596  0.2251E+00  0.1905E+01
     -3.582  0.2211E+00  0.1908E+01
     -3.568  0.2173E+00  0.1911E+01
     -3.554  0.2136E+00  0.1914E+01
     -3.540  0.2100E+00  0.1917E+01
     -3.526  0.2066E+00  0.1920E+01
     -3.512  0.2033E+00  0.1923E+01
     -3.498  0.2002E+00  0.1926E+01
     -3.484  0.1967E+00  0.1929E+01
     -3.470  0.1933E+00  0.1931E+01
     -3.456  0.1899E+00  0.1934E+01
     -3.442  0.1867E+00  0.1937E+01
     -3.428  0.1836E+00  0.1939E+01
     -3.414  0.1805E+00  0.1942E+01
     -3.400  0.1775E+00  0.1944E+01
     -3.386  0.1747E+00  0.1947E+01
     -3.372  0.1719E+00  0.1949E+01
     -3.358  0.1692E+00  0.1951E+01
     -3.344  0.1665E+00  0.1954E+01
     -3.330  0.1640E+00  0.1956E+01
     -3.316  0.1616E+00  0.1958E+01
     -3.302  0.1592E+00  0.1961E+01
     -3.288  0.1569E+00  0.1963E+01
     -3.274  0.1547E+00  0.1965E+01
     -3.260  0.1526E+00  0.1967E+01
     -3.246  0.1506E+00  0.1969E+01
     -3.232  0.1487E+00  0.1971E+01
     -3.218  0.1469E+00  0.1973E+01
     -3.204  0.1451E+00  0.1975E+01
     -3.190  0.1435E+00  0.1977E+01
     -3.176  0.1419E+00  0.1979E+01
     -3.162  0.1404E+00  0.1981E+01
     -3.148  0.1390E+00  0.1983E+01
     -3.134  0.1377E+00  0.1985E+01
     -3.120  0.1386E+00  0.1987E+01
     -3.106  0.1488E+00  0.1989E+01
     -3.092  0.1575E+00  0.1991E+01
     -3.078  0.1648E+00  0.1994E+01
     -3.064  0.1708E+00  0.1996E+01
     -3.050  0.1753E+00  0.1998E+01
     -3.036  0.1786E+00  0.2001E+01
     -3.022  0.1805E+00  0.2003E+01
     -3.009  0.1811E+00  0.2006E+01
     -2.995  0.1809E+00  0.2008E+01
     -2.981  0.1807E+00  0.2011E+01
     -2.967  0.1807E+00  0.2014E+01
     -2.953  0.1807E+00  0.2016E+01
     -2.939  0.1809E+00  0.2019E+01
     -2.925  0.1812E+00  0.2021E+01
     -2.911  0.1816E+00  0.2024E+01
     -2.897  0.1822E+00  0.2026E+01
     -2.883  0.1828E+00  0.2029E+01
     -2.869  0.1836E+00  0.2031E+01
     -2.855  0.1845E+00  0.2034E+01
     -2.841  0.1854E+00  0.2036E+01
     -2.827  0.1864E+00  0.2039E+01
     -2.813  0.1874E+00  0.2042E+01
     -2.799  0.1884E+00  0.2044E+01
     -2.785  0.1894E+00  0.2047E+01
     -2.771  0.1905E+00  0.2050E+01
     -2.757  0.1915E+00  0.2052E+01
     -2.743  0.1926E+00  0.2055E+01
     -2.729  0.1937E+00  0.2058E+01
     -2.715  0.1948E+00  0.2060E+01
     -2.701  0.1959E+00  0.2063E+01
     -2.687  0.1971E+00  0.2066E+01
     -2.673  0.1983E+00  0.2069E+01
     -2.659  0.1994E+00  0.2071E+01
     -2.645  0.2006E+00  0.2074E+01
     -2.631  0.2018E+00  0.2077E+01
     -2.617  0.2031E+00  0.2080E+01
     -2.603  0.2043E+00  0.2083E+01
     -2.589  0.2056E+00  0.2086E+01
     -2.575  0.2069E+00  0.2088E+01
     -2.561  0.2082E+00  0.2091E+01
     -2.547  0.2095E+00  0.2094E+01
     -2.533  0.2108E+00  0.2097E+01
     -2.519  0.2122E+00  0.2100E+01
     -2.505  0.2136E+00  0.2103E+01
     -2.491  0.2150E+00  0.2106E+01
     -2.477  0.2164E+00  0.2109E+01
     -2.463  0.2181E+00  0.2112E+01
     -2.449  0.2205E+00  0.2115E+01
     -2.435  0.2233E+00  0.2118E+01
     -2.421  0.2267E+00  0.2121E+01
     -2.408  0.2307E+00  0.2125E+01
     -2.394  0.2352E+00  0.2128E+01
     -2.380  0.2419E+00  0.2131E+01
     -2.366  0.2488E+00  0.2135E+01
     -2.352  0.2560E+00  0.2138E+01
     -2.338  0.2633E+00  0.2142E+01
     -2.324  0.2709E+00  0.2146E+01
     -2.310  0.2787E+00  0.2149E+01
     -2.296  0.2868E+00  0.2153E+01
     -2.282  0.2950E+00  0.2157E+01
     -2.268  0.3035E+00  0.2162E+01
     -2.254  0.3122E+00  0.2166E+01
     -2.240  0.3212E+00  0.2170E+01
     -2.226  0.3303E+00  0.2175E+01
     -2.212  0.3397E+00  0.2180E+01
     -2.198  0.3493E+00  0.2184E+01
     -2.184  0.3592E+00  0.2189E+01
     -2.170  0.3692E+00  0.2194E+01
     -2.156  0.3795E+00  0.2200E+01
     -2.142  0.3900E+00  0.2205E+01
     -2.128  0.4007E+00  0.2211E+01
     -2.114  0.4117E+00  0.2216E+01
     -2.100  0.4228E+00  0.2222E+01
     -2.086  0.4342E+00  0.2228E+01
     -2.072  0.4459E+00  0.2234E+01
     -2.058  0.4577E+00  0.2241E+01
     -2.044  0.4698E+00  0.2247E+01
     -2.030  0.4821E+00  0.2254E+01
     -2.016  0.4946E+00  0.2260E+01
     -2.002  0.5073E+00  0.2267E+01
     -1.988  0.5203E+00  0.2275E+01
     -1.974  0.5335E+00  0.2282E+01
     -1.960  0.5460E+00  0.2290E+01
     -1.946  0.5578E+00  0.2297E+01
     -1.932  0.5700E+00  0.2305E+01
     -1.918  0.5826E+00  0.2313E+01
     -1.904  0.5957E+00  0.2321E+01
     -1.890  0.6092E+00  0.2330E+01
     -1.876  0.6232E+00  0.2338E+01
     -1.862  0.6376E+00  0.2347E+01
     -1.848  0.6524E+00  0.2356E+01
     -1.834  0.6677E+00  0.2366E+01
     -1.820  0.6830E+00  0.2375E+01
     -1.807  0.6979E+00  0.2385E+01
     -1.793  0.7123E+00  0.2394E+01
     -1.779  0.7262E+00  0.2405E+01
     -1.765  0.7396E+00  0.2415E+01
     -1.751  0.7526E+00  0.2425E+01
     -1.737  0.7652E+00  0.2436E+01
     -1.723  0.7772E+00  0.2447E+01
     -1.709  0.7888E+00  0.2458E+01
     -1.695  0.8000E+00  0.2469E+01
     -1.681  0.8100E+00  0.2480E+01
     -1.667  0.8156E+00  0.2491E+01
     -1.653  0.8179E+00  0.2503E+01
     -1.639  0.8168E+00  0.2514E+01
     -1.625  0.8123E+00  0.2525E+01
     -1.611  0.8044E+00  0.2537E+01
     -1.597  0.7932E+00  0.2548E+01
     -1.583  0.7786E+00  0.2559E+01
     -1.569  0.7606E+00  0.2570E+01
     -1.555  0.7392E+00  0.2580E+01
     -1.541  0.7160E+00  0.2590E+01
     -1.527  0.6936E+00  0.2600E+01
     -1.513  0.6719E+00  0.2610E+01
     -1.499  0.6511E+00  0.2619E+01
     -1.485  0.6312E+00  0.2628E+01
     -1.471  0.6120E+00  0.2637E+01
     -1.457  0.5937E+00  0.2645E+01
     -1.443  0.5762E+00  0.2653E+01
     -1.429  0.5595E+00  0.2661E+01
     -1.415  0.5437E+00  0.2669E+01
     -1.401  0.5286E+00  0.2676E+01
     -1.387  0.5145E+00  0.2684E+01
     -1.373  0.5101E+00  0.2691E+01
     -1.359  0.5061E+00  0.2698E+01
     -1.345  0.5024E+00  0.2705E+01
     -1.331  0.4991E+00  0.2712E+01
     -1.317  0.4962E+00  0.2719E+01
     -1.303  0.4937E+00  0.2726E+01
     -1.289  0.4915E+00  0.2733E+01
     -1.275  0.4897E+00  0.2740E+01
     -1.261  0.4882E+00  0.2746E+01
     -1.247  0.4832E+00  0.2753E+01
     -1.233  0.4771E+00  0.2760E+01
     -1.219  0.4711E+00  0.2767E+01
     -1.206  0.4653E+00  0.2773E+01
     -1.192  0.4596E+00  0.2780E+01
     -1.178  0.4540E+00  0.2786E+01
     -1.164  0.4486E+00  0.2792E+01
     -1.150  0.4433E+00  0.2798E+01
     -1.136  0.4382E+00  0.2805E+01
     -1.122  0.4331E+00  0.2811E+01
     -1.108  0.4282E+00  0.2817E+01
     -1.094  0.4233E+00  0.2823E+01
     -1.080  0.4186E+00  0.2829E+01
     -1.066  0.4139E+00  0.2834E+01
     -1.052  0.4093E+00  0.2840E+01
     -1.038  0.4048E+00  0.2846E+01
     -1.024  0.4004E+00  0.2851E+01
     -1.010  0.3961E+00  0.2857E+01
     -0.996  0.3919E+00  0.2863E+01
     -0.982  0.3878E+00  0.2868E+01
     -0.968  0.3838E+00  0.2873E+01
     -0.954  0.3799E+00  0.2879E+01
     -0.940  0.3760E+00  0.2884E+01
     -0.926  0.3723E+00  0.2889E+01
     -0.912  0.3686E+00  0.2894E+01
     -0.898  0.3651E+00  0.2900E+01
     -0.884  0.3616E+00  0.2905E+01
     -0.870  0.3582E+00  0.2910E+01
     -0.856  0.3549E+00  0.2915E+01
     -0.842  0.3517E+00  0.2920E+01
     -0.828  0.3486E+00  0.2924E+01
     -0.814  0.3456E+00  0.2929E+01
     -0.800  0.3427E+00  0.2934E+01
     -0.786  0.3399E+00  0.2939E+01
     -0.772  0.3372E+00  0.2944E+01
     -0.758  0.3345E+00  0.2948E+01
     -0.744  0.3320E+00  0.2953E+01
     -0.730  0.3295E+00  0.2958E+01
     -0.716  0.3272E+00  0.2962E+01
     -0.702  0.3249E+00  0.2967E+01
     -0.688  0.3227E+00  0.2971E+01
     -0.674  0.3206E+00  0.2976E+01
     -0.660  0.3186E+00  0.2980E+01
     -0.646  0.3167E+00  0.2985E+01
     -0.632  0.3149E+00  0.2989E+01
     -0.618  0.3132E+00  0.2993E+01
     -0.605  0.3116E+00  0.2998E+01
     -0.591  0.3101E+00  0.3002E+01
     -0.577  0.3086E+00  0.3007E+01
     -0.563  0.3073E+00  0.3011E+01
     -0.549  0.3060E+00  0.3015E+01
     -0.535  0.3049E+00  0.3019E+01
     -0.521  0.3038E+00  0.3024E+01
     -0.507  0.3027E+00  0.3028E+01
     -0.493  0.3018E+00  0.3032E+01
     -0.479  0.3009E+00  0.3036E+01
     -0.465  0.3001E+00  0.3041E+01
     -0.451  0.2992E+00  0.3045E+01
     -0.437  0.2984E+00  0.3049E+01
     -0.423  0.2977E+00  0.3053E+01
     -0.409  0.2969E+00  0.3057E+01
     -0.395  0.2962E+00  0.3061E+01
     -0.381  0.2955E+00  0.3065E+01
     -0.367  0.2948E+00  0.3070E+01
     -0.353  0.2941E+00  0.3074E+01
     -0.339  0.2935E+00  0.3078E+01
     -0.325  0.2929E+00  0.3082E+01
     -0.311  0.2923E+00  0.3086E+01
     -0.297  0.2917E+00  0.3090E+01
     -0.283  0.2912E+00  0.3094E+01
     -0.269  0.2906E+00  0.3098E+01
     -0.255  0.2901E+00  0.3102E+01
     -0.241  0.2896E+00  0.3106E+01
     -0.227  0.2892E+00  0.3110E+01
     -0.213  0.2888E+00  0.3114E+01
     -0.199  0.2883E+00  0.3118E+01
     -0.185  0.2880E+00  0.3122E+01
     -0.171  0.2876E+00  0.3126E+01
     -0.157  0.2872E+00  0.3131E+01
     -0.143  0.2869E+00  0.3135E+01
     -0.129  0.2866E+00  0.3139E+01
     -0.115  0.2863E+00  0.3143E+01
     -0.101  0.2861E+00  0.3147E+01
     -0.087  0.2859E+00  0.3151E+01
     -0.073  0.2856E+00  0.3155E+01
     -0.059  0.2855E+00  0.3159E+01
     -0.045  0.2853E+00  0.3163E+01
     -0.031  0.2852E+00  0.3166E+01
     -0.017  0.2850E+00  0.3170E+01
     -0.004  0.2849E+00  0.3174E+01
      0.010  0.2846E+00  0.3178E+01
      0.024  0.2833E+00  0.3182E+01
      0.038  0.2821E+00  0.3186E+01
      0.052  0.2809E+00  0.3190E+01
      0.066  0.2797E+00  0.3194E+01
      0.080  0.2785E+00  0.3198E+01
      0.094  0.2774E+00  0.3202E+01
      0.108  0.2762E+00  0.3206E+01
      0.122  0.2751E+00  0.3210E+01
      0.136  0.2740E+00  0.3214E+01
      0.150  0.2729E+00  0.3217E+01
      0.164  0.2714E+00  0.3221E+01
      0.178  0.2694E+00  0.3225E+01
      0.192  0.2669E+00  0.3229E+01
      0.206  0.2640E+00  0.3232E+01
      0.220  0.2605E+00  0.3236E+01
      0.234  0.2566E+00  0.3240E+01
      0.248  0.2522E+00  0.3243E+01
      0.262  0.2473E+00  0.3247E+01
      0.276  0.2431E+00  0.3250E+01
      0.290  0.2415E+00  0.3254E+01
      0.304  0.2399E+00  0.3257E+01
      0.318  0.2383E+00  0.3260E+01
      0.332  0.2368E+00  0.3264E+01
      0.346  0.2353E+00  0.3267E+01
      0.360  0.2338E+00  0.3270E+01
      0.374  0.2323E+00  0.3273E+01
      0.388  0.2309E+00  0.3277E+01
      0.402  0.2297E+00  0.3280E+01
      0.416  0.2288E+00  0.3283E+01
      0.430  0.2284E+00  0.3286E+01
      0.444  0.2283E+00  0.3289E+01
      0.458  0.2287E+00  0.3293E+01
      0.472  0.2294E+00  0.3296E+01
      0.486  0.2306E+00  0.3299E+01
      0.500  0.2321E+00  0.3302E+01
      0.514  0.2340E+00  0.3306E+01
      0.528  0.2363E+00  0.3309E+01
      0.542  0.2390E+00  0.3312E+01
      0.556  0.2421E+00  0.3316E+01
      0.570  0.2456E+00  0.3319E+01
      0.584  0.2495E+00  0.3322E+01
      0.597  0.2538E+00  0.3326E+01
      0.611  0.2585E+00  0.3330E+01
      0.625  0.2636E+00  0.3333E+01
      0.639  0.2690E+00  0.3337E+01
      0.653  0.2749E+00  0.3341E+01
      0.667  0.2811E+00  0.3345E+01
      0.681  0.2878E+00  0.3349E+01
      0.695  0.2948E+00  0.3353E+01
      0.709  0.3022E+00  0.3357E+01
      0.723  0.3101E+00  0.3361E+01
      0.737  0.3183E+00  0.3365E+01
      0.751  0.3269E+00  0.3370E+01
      0.765  0.3359E+00  0.3375E+01
      0.779  0.3453E+00  0.3379E+01
      0.793  0.3551E+00  0.3384E+01
      0.807  0.3653E+00  0.3389E+01
      0.821  0.3758E+00  0.3394E+01
      0.835  0.3868E+00  0.3400E+01
      0.849  0.3977E+00  0.3405E+01
      0.863  0.4082E+00  0.3411E+01
      0.877  0.4183E+00  0.3417E+01
      0.891  0.4281E+00  0.3423E+01
      0.905  0.4376E+00  0.3429E+01
      0.919  0.4467E+00  0.3435E+01
      0.933  0.4550E+00  0.3441E+01
      0.947  0.4610E+00  0.3448E+01
      0.961  0.4644E+00  0.3454E+01
      0.975  0.4651E+00  0.3460E+01
      0.989  0.4633E+00  0.3467E+01
      1.003  0.4589E+00  0.3473E+01
      1.017  0.4518E+00  0.3480E+01
      1.031  0.4493E+00  0.3486E+01
      1.045  0.4556E+00  0.3492E+01
      1.059  0.4619E+00  0.3499E+01
      1.073  0.4699E+00  0.3505E+01
      1.087  0.4779E+00  0.3512E+01
      1.101  0.4858E+00  0.3519E+01
      1.115  0.4937E+00  0.3526E+01
      1.129  0.5016E+00  0.3532E+01
      1.143  0.5095E+00  0.3540E+01
      1.157  0.5173E+00  0.3547E+01
      1.171  0.5251E+00  0.3554E+01
      1.185  0.5329E+00  0.3561E+01
      1.199  0.5406E+00  0.3569E+01
      1.212  0.5484E+00  0.3577E+01
      1.226  0.5561E+00  0.3584E+01
      1.240  0.5637E+00  0.3592E+01
      1.254  0.5714E+00  0.3600E+01
      1.268  0.5790E+00  0.3608E+01
      1.282  0.5866E+00  0.3616E+01
      1.296  0.5942E+00  0.3624E+01
      1.310  0.6017E+00  0.3633E+01
      1.324  0.6093E+00  0.3641E+01
      1.338  0.6168E+00  0.3650E+01
      1.352  0.6242E+00  0.3658E+01
      1.366  0.7321E+00  0.3668E+01
      1.380  0.7219E+00  0.3678E+01
      1.394  0.6953E+00  0.3688E+01
      1.408  0.6706E+00  0.3698E+01
      1.422  0.6478E+00  0.3707E+01
      1.436  0.6269E+00  0.3716E+01
      1.450  0.6080E+00  0.3725E+01
      1.464  0.5909E+00  0.3733E+01
      1.478  0.5757E+00  0.3741E+01
      1.492  0.5625E+00  0.3749E+01
      1.506  0.5512E+00  0.3757E+01
      1.520  0.5418E+00  0.3764E+01
      1.534  0.5342E+00  0.3772E+01
      1.548  0.5286E+00  0.3779E+01
      1.562  0.5249E+00  0.3787E+01
      1.576  0.5241E+00  0.3794E+01
      1.590  0.5257E+00  0.3801E+01
      1.604  0.5274E+00  0.3809E+01
      1.618  0.5292E+00  0.3816E+01
      1.632  0.5309E+00  0.3824E+01
      1.646  0.5328E+00  0.3831E+01
      1.660  0.5347E+00  0.3838E+01
      1.674  0.5367E+00  0.3846E+01
      1.688  0.5387E+00  0.3853E+01
      1.702  0.5409E+00  0.3861E+01
      1.716  0.5430E+00  0.3869E+01
      1.730  0.5453E+00  0.3876E+01
      1.744  0.5476E+00  0.3884E+01
      1.758  0.5500E+00  0.3891E+01
      1.772  0.5524E+00  0.3899E+01
      1.786  0.5549E+00  0.3907E+01
      1.800  0.5575E+00  0.3915E+01
      1.813  0.5601E+00  0.3923E+01
      1.827  0.5618E+00  0.3930E+01
      1.841  0.5631E+00  0.3938E+01
      1.855  0.5646E+00  0.3946E+01
      1.869  0.5662E+00  0.3954E+01
      1.883  0.5654E+00  0.3962E+01
      1.897  0.5621E+00  0.3970E+01
      1.911  0.5590E+00  0.3978E+01
      1.925  0.5561E+00  0.3985E+01
      1.939  0.5532E+00  0.3993E+01
      1.953  0.5505E+00  0.4001E+01
      1.967  0.5479E+00  0.4009E+01
      1.981  0.5455E+00  0.4016E+01
      1.995  0.5432E+00  0.4024E+01
      2.009  0.5411E+00  0.4031E+01
      2.023  0.5390E+00  0.4039E+01
      2.037  0.5371E+00  0.4046E+01
      2.051  0.5354E+00  0.4054E+01
      2.065  0.5337E+00  0.4061E+01
      2.079  0.5323E+00  0.4069E+01
      2.093  0.5309E+00  0.4076E+01
      2.107  0.5297E+00  0.4084E+01
      2.121  0.5286E+00  0.4091E+01
      2.135  0.5276E+00  0.4098E+01
      2.149  0.5268E+00  0.4106E+01
      2.163  0.5261E+00  0.4113E+01
      2.177  0.5256E+00  0.4121E+01
      2.191  0.5251E+00  0.4128E+01
      2.205  0.5247E+00  0.4135E+01
      2.219  0.5242E+00  0.4143E+01
      2.233  0.5238E+00  0.4150E+01
      2.247  0.5233E+00  0.4157E+01
      2.261  0.5228E+00  0.4165E+01
      2.275  0.5224E+00  0.4172E+01
      2.289  0.5219E+00  0.4179E+01
      2.303  0.5214E+00  0.4186E+01
      2.317  0.5209E+00  0.4194E+01
      2.331  0.5204E+00  0.4201E+01
      2.345  0.5202E+00  0.4208E+01
      2.359  0.5205E+00  0.4216E+01
      2.373  0.5210E+00  0.4223E+01
      2.387  0.5214E+00  0.4230E+01
      2.401  0.5220E+00  0.4237E+01
      2.414  0.5226E+00  0.4245E+01
      2.428  0.5233E+00  0.4252E+01
      2.442  0.5240E+00  0.4259E+01
      2.456  0.5248E+00  0.4267E+01
      2.470  0.5257E+00  0.4274E+01
      2.484  0.5266E+00  0.4281E+01
      2.498  0.5276E+00  0.4289E+01
      2.512  0.5287E+00  0.4296E+01
      2.526  0.5298E+00  0.4303E+01
      2.540  0.5310E+00  0.4311E+01
      2.554  0.5322E+00  0.4318E+01
      2.568  0.5336E+00  0.4326E+01
      2.582  0.5349E+00  0.4333E+01
      2.596  0.5364E+00  0.4341E+01
      2.610  0.5379E+00  0.4348E+01
      2.624  0.5395E+00  0.4356E+01
      2.638  0.5411E+00  0.4363E+01
      2.652  0.6243E+00  0.4371E+01
      2.666  0.6685E+00  0.4381E+01
      2.680  0.6726E+00  0.4390E+01
      2.694  0.6617E+00  0.4399E+01
      2.708  0.6518E+00  0.4408E+01
      2.722  0.6427E+00  0.4418E+01
      2.736  0.6346E+00  0.4426E+01
      2.750  0.6274E+00  0.4435E+01
      2.764  0.6211E+00  0.4444E+01
      2.778  0.6157E+00  0.4453E+01
      2.792  0.6112E+00  0.4461E+01
      2.806  0.6076E+00  0.4470E+01
      2.820  0.6049E+00  0.4478E+01
      2.834  0.6031E+00  0.4487E+01
      2.848  0.6022E+00  0.4495E+01
      2.862  0.6022E+00  0.4503E+01
      2.876  0.6032E+00  0.4512E+01
      2.890  0.6050E+00  0.4520E+01
      2.904  0.6077E+00  0.4529E+01
      2.918  0.6114E+00  0.4537E+01
      2.932  0.6160E+00  0.4546E+01
      2.946  0.6215E+00  0.4555E+01
      2.960  0.6280E+00  0.4563E+01
      2.974  0.6354E+00  0.4572E+01
      2.988  0.6415E+00  0.4581E+01
      3.002  0.6454E+00  0.4590E+01
      3.015  0.6495E+00  0.4599E+01
      3.029  0.6538E+00  0.4608E+01
      3.043  0.6582E+00  0.4617E+01
      3.057  0.6628E+00  0.4627E+01
      3.071  0.6676E+00  0.4636E+01
      3.085  0.6725E+00  0.4645E+01
      3.099  0.6767E+00  0.4655E+01
      3.113  0.6810E+00  0.4664E+01
      3.127  0.6855E+00  0.4674E+01
      3.141  0.6901E+00  0.4683E+01
      3.155  0.6949E+00  0.4693E+01
      3.169  0.6999E+00  0.4703E+01
      3.183  0.7051E+00  0.4713E+01
      3.197  0.7104E+00  0.4722E+01
      3.211  0.7159E+00  0.4732E+01
      3.225  0.7215E+00  0.4742E+01
      3.239  0.7273E+00  0.4753E+01
      3.253  0.7333E+00  0.4763E+01
      3.267  0.7394E+00  0.4773E+01
      3.281  0.8398E+00  0.4784E+01
      3.295  0.8798E+00  0.4796E+01
      3.309  0.8577E+00  0.4808E+01
      3.323  0.8283E+00  0.4820E+01
      3.337  0.8050E+00  0.4832E+01
      3.351  0.7878E+00  0.4843E+01
      3.365  0.7767E+00  0.4854E+01
      3.379  0.7718E+00  0.4865E+01
      3.393  0.7730E+00  0.4875E+01
      3.407  0.7774E+00  0.4886E+01
      3.421  0.7825E+00  0.4897E+01
      3.435  0.7881E+00  0.4908E+01
      3.449  0.7945E+00  0.4919E+01
      3.463  0.8014E+00  0.4930E+01
      3.477  0.8090E+00  0.4941E+01
      3.491  0.8173E+00  0.4953E+01
      3.505  0.8261E+00  0.4964E+01
      3.519  0.8357E+00  0.4976E+01
      3.533  0.8458E+00  0.4988E+01
      3.547  0.8566E+00  0.5000E+01
      3.561  0.8681E+00  0.5012E+01
      3.575  0.8802E+00  0.5024E+01
      3.589  0.8929E+00  0.5036E+01
      3.603  0.9062E+00  0.5049E+01
      3.616  0.9201E+00  0.5062E+01
      3.630  0.9160E+00  0.5074E+01
      3.644  0.8915E+00  0.5087E+01
      3.658  0.8701E+00  0.5099E+01
      3.672  0.8519E+00  0.5111E+01
      3.686  0.8369E+00  0.5123E+01
      3.700  0.8233E+00  0.5135E+01
      3.714  0.8094E+00  0.5146E+01
      3.728  0.8004E+00  0.5157E+01
      3.742  0.7963E+00  0.5169E+01
      3.756  0.7938E+00  0.5180E+01
      3.770  0.7912E+00  0.5191E+01
      3.784  0.7885E+00  0.5202E+01
      3.798  0.7860E+00  0.5213E+01
      3.812  0.7835E+00  0.5224E+01
      3.826  0.7811E+00  0.5235E+01
      3.840  0.7789E+00  0.5246E+01
      3.854  0.7774E+00  0.5257E+01
      3.868  0.7761E+00  0.5267E+01
      3.882  0.7748E+00  0.5278E+01
      3.896  0.7735E+00  0.5289E+01
      3.910  0.7723E+00  0.5300E+01
      3.924  0.7711E+00  0.5311E+01
      3.938  0.7699E+00  0.5321E+01
      3.952  0.7688E+00  0.5332E+01
      3.966  0.7677E+00  0.5343E+01
      3.980  0.7666E+00  0.5354E+01
      3.994  0.7656E+00  0.5364E+01
      4.008  0.7645E+00  0.5375E+01
      4.022  0.7635E+00  0.5386E+01
      4.036  0.7625E+00  0.5396E+01
      4.050  0.7616E+00  0.5407E+01
      4.064  0.7606E+00  0.5418E+01
      4.078  0.7597E+00  0.5428E+01
      4.092  0.7588E+00  0.5439E+01
      4.106  0.7579E+00  0.5450E+01
      4.120  0.7571E+00  0.5460E+01
      4.134  0.7563E+00  0.5471E+01
      4.148  0.7555E+00  0.5481E+01
      4.162  0.7547E+00  0.5492E+01
      4.176  0.7539E+00  0.5502E+01
      4.190  0.7532E+00  0.5513E+01
      4.204  0.7525E+00  0.5523E+01
      4.217  0.7518E+00  0.5534E+01
      4.231  0.7511E+00  0.5544E+01
      4.245  0.7505E+00  0.5555E+01
      4.259  0.7499E+00  0.5565E+01
      4.273  0.7493E+00  0.5576E+01
      4.287  0.7487E+00  0.5586E+01
      4.301  0.7482E+00  0.5597E+01
      4.315  0.7476E+00  0.5607E+01
      4.329  0.7485E+00  0.5618E+01
      4.343  0.7498E+00  0.5628E+01
      4.357  0.7514E+00  0.5639E+01
      4.371  0.7529E+00  0.5649E+01
      4.385  0.7543E+00  0.5660E+01
      4.399  0.7557E+00  0.5670E+01
      4.413  0.7570E+00  0.5681E+01
      4.427  0.7581E+00  0.5691E+01
      4.441  0.7592E+00  0.5702E+01
      4.455  0.7602E+00  0.5713E+01
      4.469  0.7612E+00  0.5723E+01
      4.483  0.7620E+00  0.5734E+01
      4.497  0.7627E+00  0.5745E+01
      4.511  0.7634E+00  0.5755E+01
      4.525  0.7640E+00  0.5766E+01
      4.539  0.7647E+00  0.5777E+01
      4.553  0.7653E+00  0.5787E+01
      4.567  0.7660E+00  0.5798E+01
      4.581  0.7664E+00  0.5809E+01
      4.595  0.7658E+00  0.5819E+01
      4.609  0.7652E+00  0.5830E+01
      4.623  0.7646E+00  0.5841E+01
      4.637  0.7639E+00  0.5851E+01
      4.651  0.7633E+00  0.5862E+01
      4.665  0.7625E+00  0.5873E+01
      4.679  0.7618E+00  0.5883E+01
      4.693  0.7610E+00  0.5894E+01
      4.707  0.7602E+00  0.5905E+01
      4.721  0.7594E+00  0.5915E+01
      4.735  0.7585E+00  0.5926E+01
      4.749  0.7576E+00  0.5937E+01
      4.763  0.7567E+00  0.5947E+01
      4.777  0.7557E+00  0.5958E+01
      4.791  0.7548E+00  0.5968E+01
      4.805  0.7539E+00  0.5979E+01
      4.818  0.7529E+00  0.5989E+01
      4.832  0.7519E+00  0.6000E+01
      4.846  0.7508E+00  0.6010E+01
      4.860  0.7497E+00  0.6021E+01
      4.874  0.7486E+00  0.6031E+01
      4.888  0.7475E+00  0.6042E+01
      4.902  0.7463E+00  0.6052E+01
      4.916  0.7451E+00  0.6063E+01
      4.930  0.7439E+00  0.6073E+01
      4.944  0.7427E+00  0.6083E+01
      4.958  0.7414E+00  0.6094E+01
      4.972  0.7401E+00  0.6104E+01
      4.986  0.7389E+00  0.6114E+01
      5.000  0.7376E+00  0.6125E+01
      5.014  0.7363E+00  0.6135E+01
      5.028  0.7350E+00  0.6145E+01
      5.042  0.7336E+00  0.6156E+01
      5.056  0.7323E+00  0.6166E+01
      5.070  0.7310E+00  0.6176E+01
      5.084  0.7296E+00  0.6186E+01
      5.098  0.7283E+00  0.6197E+01
      5.112  0.7269E+00  0.6207E+01
      5.126  0.7255E+00  0.6217E+01
      5.140  0.7241E+00  0.6227E+01
      5.154  0.7227E+00  0.6237E+01
      5.168  0.7213E+00  0.6247E+01
      5.182  0.7199E+00  0.6257E+01
      5.196  0.7185E+00  0.6267E+01
      5.210  0.7170E+00  0.6277E+01
      5.224  0.7156E+00  0.6287E+01
      5.238  0.7141E+00  0.6297E+01
      5.252  0.7127E+00  0.6307E+01
      5.266  0.7112E+00  0.6317E+01
      5.280  0.7097E+00  0.6327E+01
      5.294  0.7084E+00  0.6337E+01
      5.308  0.7072E+00  0.6347E+01
      5.322  0.7062E+00  0.6357E+01
      5.336  0.7053E+00  0.6367E+01
      5.350  0.7045E+00  0.6377E+01
      5.364  0.7038E+00  0.6386E+01
      5.378  0.7031E+00  0.6396E+01
      5.392  0.7025E+00  0.6406E+01
      5.406  0.7019E+00  0.6416E+01
      5.419  0.7014E+00  0.6426E+01
      5.433  0.7009E+00  0.6436E+01
      5.447  0.7005E+00  0.6445E+01
      5.461  0.7002E+00  0.6455E+01
      5.475  0.7001E+00  0.6465E+01
      5.489  0.7002E+00  0.6475E+01
      5.503  0.7005E+00  0.6484E+01
      5.517  0.7010E+00  0.6494E+01
      5.531  0.7017E+00  0.6504E+01
      5.545  0.7026E+00  0.6514E+01
      5.559  0.7036E+00  0.6524E+01
      5.573  0.7049E+00  0.6534E+01
      5.587  0.7064E+00  0.6543E+01
      5.601  0.7081E+00  0.6553E+01
      5.615  0.7100E+00  0.6563E+01
      5.629  0.7121E+00  0.6573E+01
      5.643  0.7143E+00  0.6583E+01
      5.657  0.7162E+00  0.6593E+01
      5.671  0.7158E+00  0.6603E+01
      5.685  0.7154E+00  0.6613E+01
      5.699  0.7152E+00  0.6623E+01
      5.713  0.7152E+00  0.6633E+01
      5.727  0.7153E+00  0.6643E+01
      5.741  0.7155E+00  0.6653E+01
      5.755  0.7159E+00  0.6663E+01
      5.769  0.7164E+00  0.6673E+01
      5.783  0.7170E+00  0.6683E+01
      5.797  0.7177E+00  0.6693E+01
      5.811  0.7185E+00  0.6703E+01
      5.825  0.7194E+00  0.6713E+01
      5.839  0.7204E+00  0.6723E+01
      5.853  0.7214E+00  0.6733E+01
      5.867  0.7225E+00  0.6743E+01
      5.881  0.7236E+00  0.6754E+01
      5.895  0.7248E+00  0.6764E+01
      5.909  0.7254E+00  0.6774E+01
      5.923  0.7260E+00  0.6784E+01
      5.937  0.7266E+00  0.6794E+01
      5.951  0.7274E+00  0.6804E+01
      5.965  0.7269E+00  0.6814E+01
      5.979  0.7254E+00  0.6825E+01
      5.993  0.7239E+00  0.6835E+01
      6.007  0.7222E+00  0.6845E+01
      6.020  0.7205E+00  0.6855E+01
      6.034  0.7188E+00  0.6865E+01
      6.048  0.7170E+00  0.6875E+01
      6.062  0.7152E+00  0.6885E+01
      6.076  0.7134E+00  0.6895E+01
      6.090  0.7116E+00  0.6905E+01
      6.104  0.7097E+00  0.6915E+01
      6.118  0.7078E+00  0.6925E+01
      6.132  0.7059E+00  0.6935E+01
      6.146  0.7039E+00  0.6945E+01
      6.160  0.7019E+00  0.6954E+01
      6.174  0.6999E+00  0.6964E+01
      6.188  0.6979E+00  0.6974E+01
      6.202  0.6958E+00  0.6984E+01
      6.216  0.6938E+00  0.6993E+01
      6.230  0.6917E+00  0.7003E+01
      6.244  0.6895E+00  0.7013E+01
      6.258  0.6874E+00  0.7022E+01
      6.272  0.6852E+00  0.7032E+01
      6.286  0.6826E+00  0.7041E+01
      6.300  0.6799E+00  0.7051E+01
      6.314  0.6772E+00  0.7060E+01
      6.328  0.6744E+00  0.7070E+01
      6.342  0.6716E+00  0.7079E+01
      6.356  0.6687E+00  0.7089E+01
      6.370  0.6658E+00  0.7098E+01
      6.384  0.6642E+00  0.7107E+01
      6.398  0.6636E+00  0.7117E+01
      6.412  0.6630E+00  0.7126E+01
      6.426  0.6623E+00  0.7135E+01
      6.440  0.6616E+00  0.7144E+01
      6.454  0.6607E+00  0.7154E+01
      6.468  0.6598E+00  0.7163E+01
      6.482  0.6588E+00  0.7172E+01
      6.496  0.6577E+00  0.7181E+01
      6.510  0.6565E+00  0.7190E+01
      6.524  0.6553E+00  0.7200E+01
      6.538  0.6539E+00  0.7209E+01
      6.552  0.6525E+00  0.7218E+01
      6.566  0.6509E+00  0.7227E+01
      6.580  0.6493E+00  0.7236E+01
      6.594  0.6476E+00  0.7245E+01
      6.608  0.6455E+00  0.7254E+01
      6.621  0.6431E+00  0.7263E+01
      6.635  0.6404E+00  0.7272E+01
      6.649  0.6373E+00  0.7281E+01
      6.663  0.6338E+00  0.7290E+01
      6.677  0.6300E+00  0.7299E+01
      6.691  0.6258E+00  0.7308E+01
      6.705  0.6212E+00  0.7316E+01
      6.719  0.6162E+00  0.7325E+01
      6.733  0.6108E+00  0.7334E+01
      6.747  0.6050E+00  0.7342E+01
      6.761  0.5989E+00  0.7350E+01
      6.775  0.5924E+00  0.7359E+01
      6.789  0.5856E+00  0.7367E+01
      6.803  0.5778E+00  0.7375E+01
      6.817  0.5688E+00  0.7383E+01
      6.831  0.5586E+00  0.7391E+01
      6.845  0.5472E+00  0.7399E+01
      6.859  0.5346E+00  0.7406E+01
      6.873  0.5216E+00  0.7414E+01
      6.887  0.5094E+00  0.7421E+01
      6.901  0.4980E+00  0.7428E+01
      6.915  0.4874E+00  0.7435E+01
      6.929  0.4776E+00  0.7442E+01
      6.943  0.4686E+00  0.7448E+01
      6.957  0.4604E+00  0.7455E+01
      6.971  0.4530E+00  0.7461E+01
      6.985  0.4464E+00  0.7467E+01
      6.999  0.4406E+00  0.7474E+01
      7.013  0.4356E+00  0.7480E+01
      7.027  0.4314E+00  0.7486E+01
      7.041  0.4279E+00  0.7492E+01
      7.055  0.4246E+00  0.7498E+01
      7.069  0.4212E+00  0.7504E+01
      7.083  0.4179E+00  0.7509E+01
      7.097  0.4145E+00  0.7515E+01
      7.111  0.4112E+00  0.7521E+01
      7.125  0.4079E+00  0.7527E+01
      7.139  0.4045E+00  0.7532E+01
      7.153  0.4012E+00  0.7538E+01
      7.167  0.3978E+00  0.7544E+01
      7.181  0.3945E+00  0.7549E+01
      7.195  0.3912E+00  0.7555E+01
      7.209  0.3878E+00  0.7560E+01
      7.222  0.3845E+00  0.7566E+01
      7.236  0.3812E+00  0.7571E+01
      7.250  0.3778E+00  0.7576E+01
      7.264  0.3745E+00  0.7581E+01
      7.278  0.3712E+00  0.7587E+01
      7.292  0.3678E+00  0.7592E+01
      7.306  0.3645E+00  0.7597E+01
      7.320  0.3612E+00  0.7602E+01
      7.334  0.3579E+00  0.7607E+01
      7.348  0.3547E+00  0.7612E+01
      7.362  0.3519E+00  0.7617E+01
      7.376  0.3493E+00  0.7622E+01
      7.390  0.3470E+00  0.7627E+01
      7.404  0.3450E+00  0.7632E+01
      7.418  0.3433E+00  0.7636E+01
      7.432  0.3418E+00  0.7641E+01
      7.446  0.3406E+00  0.7646E+01
      7.460  0.3396E+00  0.7651E+01
      7.474  0.3370E+00  0.7655E+01
      7.488  0.3330E+00  0.7660E+01
      7.502  0.3290E+00  0.7665E+01
      7.516  0.3248E+00  0.7669E+01
      7.530  0.3212E+00  0.7674E+01
      7.544  0.3185E+00  0.7678E+01
      7.558  0.3162E+00  0.7683E+01
      7.572  0.3140E+00  0.7687E+01
      7.586  0.3117E+00  0.7691E+01
      7.600  0.3093E+00  0.7696E+01
      7.614  0.3070E+00  0.7700E+01
      7.628  0.3047E+00  0.7704E+01
      7.642  0.3023E+00  0.7709E+01
      7.656  0.3000E+00  0.7713E+01
      7.670  0.2976E+00  0.7717E+01
      7.684  0.2952E+00  0.7721E+01
      7.698  0.2928E+00  0.7725E+01
      7.712  0.2905E+00  0.7729E+01
      7.726  0.2881E+00  0.7733E+01
      7.740  0.2858E+00  0.7737E+01
      7.754  0.2835E+00  0.7741E+01
      7.768  0.2812E+00  0.7745E+01
      7.782  0.2789E+00  0.7749E+01
      7.796  0.2766E+00  0.7753E+01
      7.810  0.2743E+00  0.7757E+01
      7.823  0.2720E+00  0.7761E+01
      7.837  0.2697E+00  0.7765E+01
      7.851  0.2675E+00  0.7768E+01
      7.865  0.2652E+00  0.7772E+01
      7.879  0.2629E+00  0.7776E+01
      7.893  0.2607E+00  0.7779E+01
      7.907  0.2585E+00  0.7783E+01
      7.921  0.2562E+00  0.7787E+01
      7.935  0.2540E+00  0.7790E+01
      7.949  0.2518E+00  0.7794E+01
      7.963  0.2495E+00  0.7797E+01
      7.977  0.2473E+00  0.7801E+01
      7.991  0.2448E+00  0.7804E+01
      8.005  0.2424E+00  0.7808E+01
      8.019  0.2399E+00  0.7811E+01
      8.033  0.2374E+00  0.7814E+01
      8.047  0.2349E+00  0.7818E+01
      8.061  0.2325E+00  0.7821E+01
      8.075  0.2300E+00  0.7824E+01
      8.089  0.2276E+00  0.7827E+01
      8.103  0.2252E+00  0.7830E+01
      8.117  0.2227E+00  0.7834E+01
      8.131  0.2203E+00  0.7837E+01
      8.145  0.2179E+00  0.7840E+01
      8.159  0.2155E+00  0.7843E+01
      8.173  0.2132E+00  0.7846E+01
      8.187  0.2108E+00  0.7849E+01
      8.201  0.2084E+00  0.7852E+01
      8.215  0.2061E+00  0.7855E+01
      8.229  0.2037E+00  0.7857E+01
      8.243  0.2014E+00  0.7860E+01
      8.257  0.1990E+00  0.7863E+01
      8.271  0.1967E+00  0.7866E+01
      8.285  0.1944E+00  0.7869E+01
      8.299  0.1921E+00  0.7871E+01
      8.313  0.1898E+00  0.7874E+01
      8.327  0.1883E+00  0.7877E+01
      8.341  0.1878E+00  0.7879E+01
      8.355  0.1870E+00  0.7882E+01
      8.369  0.1859E+00  0.7884E+01
      8.383  0.1844E+00  0.7887E+01
      8.397  0.1825E+00  0.7890E+01
      8.411  0.1803E+00  0.7892E+01
      8.424  0.1778E+00  0.7895E+01
      8.438  0.1754E+00  0.7897E+01
      8.452  0.1729E+00  0.7899E+01
      8.466  0.1705E+00  0.7902E+01
      8.480  0.1681E+00  0.7904E+01
      8.494  0.1657E+00  0.7907E+01
      8.508  0.1634E+00  0.7909E+01
      8.522  0.1611E+00  0.7911E+01
      8.536  0.1588E+00  0.7913E+01
      8.550  0.1566E+00  0.7916E+01
      8.564  0.1544E+00  0.7918E+01
      8.578  0.1522E+00  0.7920E+01
      8.592  0.1500E+00  0.7922E+01
      8.606  0.1479E+00  0.7924E+01
      8.620  0.1458E+00  0.7926E+01
      8.634  0.1437E+00  0.7928E+01
      8.648  0.1417E+00  0.7930E+01
      8.662  0.1397E+00  0.7932E+01
      8.676  0.1377E+00  0.7934E+01
      8.690  0.1358E+00  0.7936E+01
      8.704  0.1338E+00  0.7938E+01
      8.718  0.1319E+00  0.7940E+01
      8.732  0.1301E+00  0.7942E+01
      8.746  0.1282E+00  0.7943E+01
      8.760  0.1264E+00  0.7945E+01
      8.774  0.1247E+00  0.7947E+01
      8.788  0.1229E+00  0.7949E+01
      8.802  0.1213E+00  0.7950E+01
      8.816  0.1197E+00  0.7952E+01
      8.830  0.1182E+00  0.7954E+01
      8.844  0.1167E+00  0.7955E+01
      8.858  0.1153E+00  0.7957E+01
      8.872  0.1140E+00  0.7959E+01
      8.886  0.1128E+00  0.7960E+01
      8.900  0.1116E+00  0.7962E+01
      8.914  0.1105E+00  0.7963E+01
      8.928  0.1095E+00  0.7965E+01
      8.942  0.1085E+00  0.7966E+01
      8.956  0.1076E+00  0.7968E+01
      8.970  0.1068E+00  0.7969E+01
      8.984  0.1060E+00  0.7971E+01
      8.998  0.1053E+00  0.7972E+01
      9.012  0.1047E+00  0.7974E+01
      9.025  0.1041E+00  0.7975E+01
      9.039  0.1036E+00  0.7977E+01
      9.053  0.1032E+00  0.7978E+01
      9.067  0.1029E+00  0.7980E+01
      9.081  0.1026E+00  0.7981E+01
      9.095  0.1024E+00  0.7982E+01
      9.109  0.1022E+00  0.7984E+01
      9.123  0.1021E+00  0.7985E+01
      9.137  0.1021E+00  0.7987E+01
      9.151  0.1022E+00  0.7988E+01
      9.165  0.1023E+00  0.7990E+01
      9.179  0.1001E+00  0.7991E+01
      9.193  0.7695E-01  0.7992E+01
      9.207  0.4756E-01  0.7993E+01
      9.221  0.4458E-01  0.7994E+01
      9.235  0.4169E-01  0.7994E+01
      9.249  0.3890E-01  0.7995E+01
      9.263  0.3621E-01  0.7995E+01
      9.277  0.3362E-01  0.7996E+01
      9.291  0.3112E-01  0.7996E+01
      9.305  0.2871E-01  0.7997E+01
      9.319  0.2641E-01  0.7997E+01
      9.333  0.2420E-01  0.7997E+01
      9.347  0.2209E-01  0.7998E+01
      9.361  0.2007E-01  0.7998E+01
      9.375  0.1815E-01  0.7998E+01
      9.389  0.1633E-01  0.7999E+01
      9.403  0.1460E-01  0.7999E+01
      9.417  0.1297E-01  0.7999E+01
      9.431  0.1143E-01  0.7999E+01
      9.445  0.9997E-02  0.7999E+01
      9.459  0.8656E-02  0.7999E+01
      9.473  0.7412E-02  0.8000E+01
      9.487  0.6264E-02  0.8000E+01
      9.501  0.5212E-02  0.8000E+01
      9.515  0.4258E-02  0.8000E+01
      9.529  0.3399E-02  0.8000E+01
      9.543  0.2637E-02  0.8000E+01
      9.557  0.1972E-02  0.8000E+01
      9.571  0.1403E-02  0.8000E+01
      9.585  0.9312E-03  0.8000E+01
      9.599  0.5555E-03  0.8000E+01
      9.613  0.2763E-03  0.8000E+01
      9.626  0.9360E-04  0.8000E+01
      9.640  0.7441E-05  0.8000E+01
      9.654  0.0000E+00  0.8000E+01
      9.668  0.0000E+00  0.8000E+01
      9.682  0.0000E+00  0.8000E+01
      9.696  0.0000E+00  0.8000E+01
      9.710  0.0000E+00  0.8000E+01
      9.724  0.0000E+00  0.8000E+01
      9.738  0.0000E+00  0.8000E+01
      9.752  0.0000E+00  0.8000E+01
      9.766  0.0000E+00  0.8000E+01
      9.780  0.0000E+00  0.8000E+01
      9.794  0.0000E+00  0.8000E+01
      9.808  0.0000E+00  0.8000E+01
      9.822  0.0000E+00  0.8000E+01
      9.836  0.0000E+00  0.8000E+01
      9.850  0.0000E+00  0.8000E+01
      9.864  0.0000E+00  0.8000E+01
      9.878  0.0000E+00  0.8000E+01
      9.892  0.0000E+00  0.8000E+01
      9.906  0.0000E+00  0.8000E+01
      9.920  0.0000E+00  0.8000E+01
      9.934  0.0000E+00  0.8000E+01
      9.948  0.0000E+00  0.8000E+01
      9.962  0.0000E+00  0.8000E+01
      9.976  0.0000E+00  0.8000E+01
      9.990  0.0000E+00  0.8000E+01
     10.004  0.0000E+00  0.8000E+01
     10.018  0.0000E+00  0.8000E+01
     10.032  0.0000E+00  0.8000E+01
     10.046  0.0000E+00  0.8000E+01
     10.060  0.0000E+00  0.8000E+01
     10.074  0.0000E+00  0.8000E+01
     10.088  0.0000E+00  0.8000E+01
     10.102  0.0000E+00  0.8000E+01
     10.116  0.0000E+00  0.8000E+01
     10.130  0.0000E+00  0.8000E+01
     10.144  0.0000E+00  0.8000E+01
     10.158  0.0000E+00  0.8000E+01
     10.172  0.0000E+00  0.8000E+01
     10.186  0.0000E+00  0.8000E+01
     10.200  0.0000E+00  0.8000E+01
     10.214  0.0000E+00  0.8000E+01
     10.227  0.0000E+00  0.8000E+01
     10.241  0.0000E+00  0.8000E+01
     10.255  0.0000E+00  0.8000E+01
     10.269  0.0000E+00  0.8000E+01
     10.283  0.0000E+00  0.8000E+01
     10.297  0.0000E+00  0.8000E+01
     10.311  0.0000E+00  0.8000E+01
     10.325  0.0000E+00  0.8000E+01
     10.339  0.0000E+00  0.8000E+01
     10.353  0.0000E+00  0.8000E+01
     10.367  0.0000E+00  0.8000E+01
     10.381  0.0000E+00  0.8000E+01
     10.395  0.0000E+00  0.8000E+01
     10.409  0.0000E+00  0.8000E+01
     10.423  0.0000E+00  0.8000E+01
     10.437  0.0000E+00  0.8000E+01
     10.451  0.0000E+00  0.8000E+01
     10.465  0.0000E+00  0.8000E+01
     10.479  0.0000E+00  0.8000E+01
     10.493  0.0000E+00  0.8000E+01
     10.507  0.0000E+00  0.8000E+01
     10.521  0.0000E+00  0.8000E+01
     10.535  0.0000E+00  0.8000E+01
     10.549  0.0000E+00  0.8000E+01
     10.563  0.0000E+00  0.8000E+01
     10.577  0.0000E+00  0.8000E+01
     10.591  0.0000E+00  0.8000E+01
     10.605  0.0000E+00  0.8000E+01
     10.619  0.0000E+00  0.8000E+01
     10.633  0.0000E+00  0.8000E+01
     10.647  0.0000E+00  0.8000E+01
     10.661  0.0000E+00  0.8000E+01
     10.675  0.0000E+00  0.8000E+01
     10.689  0.0000E+00  0.8000E+01
     10.703  0.0000E+00  0.8000E+01
     10.717  0.0000E+00  0.8000E+01
     10.731  0.0000E+00  0.8000E+01
     10.745  0.0000E+00  0.8000E+01
     10.759  0.0000E+00  0.8000E+01
     10.773  0.0000E+00  0.8000E+01
     10.787  0.0000E+00  0.8000E+01
     10.801  0.0000E+00  0.8000E+01
     10.815  0.0000E+00  0.8000E+01
     10.829  0.0000E+00  0.8000E+01
     10.842  0.0000E+00  0.8000E+01
     10.856  0.0000E+00  0.8000E+01
     10.870  0.0000E+00  0.8000E+01
     10.884  0.0000E+00  0.8000E+01
     10.898  0.0000E+00  0.8000E+01
     10.912  0.0000E+00  0.8000E+01
     10.926  0.0000E+00  0.8000E+01
     10.940  0.0000E+00  0.8000E+01
     10.954  0.0000E+00  0.8000E+01
     10.968  0.0000E+00  0.8000E+01
     10.982  0.0000E+00  0.8000E+01
     10.996  0.0000E+00  0.8000E+01
     11.010  0.0000E+00  0.8000E+01
     11.024  0.0000E+00  0.8000E+01
     11.038  0.0000E+00  0.8000E+01
     11.052  0.0000E+00  0.8000E+01
     11.066  0.0000E+00  0.8000E+01
     11.080  0.0000E+00  0.8000E+01
     11.094  0.0000E+00  0.8000E+01
     11.108  0.0000E+00  0.8000E+01
     11.122  0.0000E+00  0.8000E+01
     11.136  0.0000E+00  0.8000E+01
     11.150  0.0000E+00  0.8000E+01
     11.164  0.0000E+00  0.8000E+01
     11.178  0.0000E+00  0.8000E+01
     11.192  0.0000E+00  0.8000E+01
     11.206  0.0000E+00  0.8000E+01
     11.220  0.0000E+00  0.8000E+01
     11.234  0.0000E+00  0.8000E+01
     11.248  0.0000E+00  0.8000E+01
     11.262  0.0000E+00  0.8000E+01
     11.276  0.0000E+00  0.8000E+01
     11.290  0.0000E+00  0.8000E+01
     11.304  0.0000E+00  0.8000E+01
     11.318  0.0000E+00  0.8000E+01
     11.332  0.0000E+00  0.8000E+01
     11.346  0.0000E+00  0.8000E+01
     11.360  0.0000E+00  0.8000E+01
     11.374  0.0000E+00  0.8000E+01
     11.388  0.0000E+00  0.8000E+01
     11.402  0.0000E+00  0.8000E+01
     11.416  0.0000E+00  0.8000E+01
     11.430  0.0000E+00  0.8000E+01
     11.443  0.0000E+00  0.8000E+01
     11.457  0.0000E+00  0.8000E+01
     11.471  0.0000E+00  0.8000E+01
     11.485  0.0000E+00  0.8000E+01
     11.499  0.0000E+00  0.8000E+01
     11.513  0.0000E+00  0.8000E+01
     11.527  0.0000E+00  0.8000E+01
     11.541  0.0000E+00  0.8000E+01
     11.555  0.0000E+00  0.8000E+01
     11.569  0.0000E+00  0.8000E+01
     11.583  0.0000E+00  0.8000E+01
     11.597  0.0000E+00  0.8000E+01
     11.611  0.0000E+00  0.8000E+01
     11.625  0.0000E+00  0.8000E+01
     11.639  0.0000E+00  0.8000E+01
     11.653  0.0000E+00  0.8000E+01
     11.667  0.0000E+00  0.8000E+01
     11.681  0.0000E+00  0.8000E+01
     11.695  0.0000E+00  0.8000E+01
     11.709  0.0000E+00  0.8000E+01
     11.723  0.0000E+00  0.8000E+01
     11.737  0.0000E+00  0.8000E+01
     11.751  0.0000E+00  0.8000E+01
     11.765  0.0000E+00  0.8000E+01
     11.779  0.0000E+00  0.8000E+01
     11.793  0.0000E+00  0.8000E+01
     11.807  0.0000E+00  0.8000E+01
     11.821  0.0000E+00  0.8000E+01
     11.835  0.0000E+00  0.8000E+01
     11.849  0.0000E+00  0.8000E+01
     11.863  0.0000E+00  0.8000E+01
     11.877  0.0000E+00  0.8000E+01
     11.891  0.0000E+00  0.8000E+01
     11.905  0.0000E+00  0.8000E+01
     11.919  0.0000E+00  0.8000E+01
     11.933  0.0000E+00  0.8000E+01
     11.947  0.0000E+00  0.8000E+01
     11.961  0.0000E+00  0.8000E+01
     11.975  0.0000E+00  0.8000E+01
     11.989  0.0000E+00  0.8000E+01
     12.003  0.0000E+00  0.8000E+01
     12.017  0.0000E+00  0.8000E+01
     12.031  0.0000E+00  0.8000E+01
     12.044  0.0000E+00  0.8000E+01
     12.058  0.0000E+00  0.8000E+01
     12.072  0.0000E+00  0.8000E+01
     12.086  0.0000E+00  0.8000E+01
     12.100  0.0000E+00  0.8000E+01
     12.114  0.0000E+00  0.8000E+01
     12.128  0.0000E+00  0.8000E+01
     12.142  0.0000E+00  0.8000E+01
     12.156  0.0000E+00  0.8000E+01
     12.170  0.0000E+00  0.8000E+01
     12.184  0.0000E+00  0.8000E+01
     12.198  0.0000E+00  0.8000E+01
     12.212  0.0000E+00  0.8000E+01
     12.226  0.0000E+00  0.8000E+01
     12.240  0.0000E+00  0.8000E+01
     12.254  0.0000E+00  0.8000E+01
     12.268  0.0000E+00  0.8000E+01
     12.282  0.0000E+00  0.8000E+01
     12.296  0.0000E+00  0.8000E+01
     12.310  0.0000E+00  0.8000E+01
     12.324  0.0000E+00  0.8000E+01
     12.338  0.0000E+00  0.8000E+01
     12.352  0.0000E+00  0.8000E+01
     12.366  0.0000E+00  0.8000E+01
     12.380  0.0000E+00  0.8000E+01
     12.394  0.0000E+00  0.8000E+01
     12.408  0.0000E+00  0.8000E+01
     12.422  0.0000E+00  0.8000E+01
     12.436  0.0000E+00  0.8000E+01
     12.450  0.0000E+00  0.8000E+01
     12.464  0.0000E+00  0.8000E+01
     12.478  0.0000E+00  0.8000E+01
     12.492  0.0000E+00  0.8000E+01
     12.506  0.0000E+00  0.8000E+01
     12.520  0.0000E+00  0.8000E+01
     12.534  0.0000E+00  0.8000E+01
     12.548  0.0000E+00  0.8000E+01
     12.562  0.0000E+00  0.8000E+01
     12.576  0.0000E+00  0.8000E+01
     12.590  0.0000E+00  0.8000E+01
     12.604  0.0000E+00  0.8000E+01
     12.618  0.0000E+00  0.8000E+01
     12.632  0.0000E+00  0.8000E+01
     12.645  0.0000E+00  0.8000E+01
     12.659  0.0000E+00  0.8000E+01
     12.673  0.0000E+00  0.8000E+01
     12.687  0.0000E+00  0.8000E+01
     12.701  0.0000E+00  0.8000E+01
     12.715  0.0000E+00  0.8000E+01
     12.729  0.0000E+00  0.8000E+01
     12.743  0.0000E+00  0.8000E+01
     12.757  0.0000E+00  0.8000E+01
     12.771  0.0000E+00  0.8000E+01
     12.785  0.0000E+00  0.8000E+01
     12.799  0.0000E+00  0.8000E+01
     12.813  0.0000E+00  0.8000E+01
     12.827  0.0000E+00  0.8000E+01
     12.841  0.0000E+00  0.8000E+01
     12.855  0.0000E+00  0.8000E+01
     12.869  0.0000E+00  0.8000E+01
     12.883  0.0000E+00  0.8000E+01
     12.897  0.0000E+00  0.8000E+01
     12.911  0.0000E+00  0.8000E+01
     12.925  0.0000E+00  0.8000E+01
     12.939  0.0000E+00  0.8000E+01
     12.953  0.0000E+00  0.8000E+01
     12.967  0.0000E+00  0.8000E+01
     12.981  0.0000E+00  0.8000E+01
     12.995  0.0000E+00  0.8000E+01
     13.009  0.0000E+00  0.8000E+01
     13.023  0.0000E+00  0.8000E+01
     13.037  0.0000E+00  0.8000E+01
     13.051  0.0000E+00  0.8000E+01
     13.065  0.0000E+00  0.8000E+01
     13.079  0.0000E+00  0.8000E+01
     13.093  0.0000E+00  0.8000E+01
     13.107  0.0000E+00  0.8000E+01
     13.121  0.0000E+00  0.8000E+01
     13.135  0.0000E+00  0.8000E+01
     13.149  0.0000E+00  0.8000E+01
     13.163  0.0000E+00  0.8000E+01
     13.177  0.0000E+00  0.8000E+01
     13.191  0.0000E+00  0.8000E+01
     13.205  0.0000E+00  0.8000E+01
     13.219  0.0000E+00  0.8000E+01
     13.233  0.0000E+00  0.8000E+01
     13.246  0.0000E+00  0.8000E+01
     13.260  0.0000E+00  0.8000E+01
     13.274  0.0000E+00  0.8000E+01
     13.288  0.0000E+00  0.8000E+01
     13.302  0.0000E+00  0.8000E+01
     13.316  0.0000E+00  0.8000E+01
     13.330  0.0000E+00  0.8000E+01
     13.344  0.0000E+00  0.8000E+01
     13.358  0.0000E+00  0.8000E+01
     13.372  0.0000E+00  0.8000E+01
     13.386  0.0000E+00  0.8000E+01
     13.400  0.0000E+00  0.8000E+01
     13.414  0.0000E+00  0.8000E+01
     13.428  0.0000E+00  0.8000E+01
     13.442  0.0000E+00  0.8000E+01
     13.456  0.0000E+00  0.8000E+01
     13.470  0.0000E+00  0.8000E+01
     13.484  0.0000E+00  0.8000E+01
     13.498  0.0000E+00  0.8000E+01
     13.512  0.0000E+00  0.8000E+01
     13.526  0.0000E+00  0.8000E+01
     13.540  0.0000E+00  0.8000E+01
     13.554  0.0000E+00  0.8000E+01
     13.568  0.0000E+00  0.8000E+01
     13.582  0.0000E+00  0.8000E+01
     13.596  0.0000E+00  0.8000E+01
     13.610  0.0000E+00  0.8000E+01
     13.624  0.0000E+00  0.8000E+01
     13.638  0.0000E+00  0.8000E+01
     13.652  0.0000E+00  0.8000E+01
     13.666  0.0000E+00  0.8000E+01
     13.680  0.0000E+00  0.8000E+01
     13.694  0.0000E+00  0.8000E+01
     13.708  0.0000E+00  0.8000E+01
     13.722  0.0000E+00  0.8000E+01
     13.736  0.0000E+00  0.8000E+01
     13.750  0.0000E+00  0.8000E+01
     13.764  0.0000E+00  0.8000E+01
     13.778  0.0000E+00  0.8000E+01
     13.792  0.0000E+00  0.8000E+01
     13.806  0.1157E-04  0.8000E+01
     13.820  0.3571E-03  0.8000E+01
     13.834  0.1183E-02  0.8000E+01
     13.847  0.2489E-02  0.8000E+01
     13.861  0.4275E-02  0.8000E+01
     13.875  0.6456E-02  0.8000E+01
     13.889  0.8743E-02  0.8000E+01
     13.903  0.1111E-01  0.8000E+01
     13.917  0.1356E-01  0.8001E+01
     13.931  0.1609E-01  0.8001E+01
     13.945  0.1870E-01  0.8001E+01
     13.959  0.2140E-01  0.8001E+01
     13.973  0.2417E-01  0.8002E+01
     13.987  0.2703E-01  0.8002E+01
     14.001  0.2997E-01  0.8002E+01
     14.015  0.3299E-01  0.8003E+01
     14.029  0.3609E-01  0.8003E+01
     14.043  0.3927E-01  0.8004E+01
     14.057  0.4253E-01  0.8004E+01
     14.071  0.4587E-01  0.8005E+01
     14.085  0.4930E-01  0.8006E+01
     14.099  0.5280E-01  0.8006E+01
     14.113  0.5639E-01  0.8007E+01
     14.127  0.6006E-01  0.8008E+01
     14.141  0.6381E-01  0.8009E+01
     14.155  0.6764E-01  0.8010E+01
     14.169  0.7155E-01  0.8011E+01
     14.183  0.7555E-01  0.8012E+01
     14.197  0.7962E-01  0.8013E+01
     14.211  0.8378E-01  0.8014E+01
     14.225  0.8802E-01  0.8015E+01
     14.239  0.9233E-01  0.8016E+01
     14.253  0.9673E-01  0.8018E+01
     14.267  0.1012E+00  0.8019E+01
     14.281  0.1058E+00  0.8021E+01
     14.295  0.1104E+00  0.8022E+01
     14.309  0.1151E+00  0.8024E+01
     14.323  0.1200E+00  0.8025E+01
     14.337  0.1248E+00  0.8027E+01
     14.351  0.1298E+00  0.8029E+01
     14.365  0.1349E+00  0.8031E+01
     14.379  0.1400E+00  0.8033E+01
     14.393  0.1451E+00  0.8035E+01
     14.407  0.1502E+00  0.8037E+01
     14.421  0.1549E+00  0.8039E+01
     14.435  0.1594E+00  0.8041E+01
     14.448  0.1636E+00  0.8043E+01
     14.462  0.1673E+00  0.8046E+01
     14.476  0.1707E+00  0.8048E+01
     14.490  0.1741E+00  0.8050E+01
     14.504  0.1774E+00  0.8053E+01
     14.518  0.1808E+00  0.8055E+01
     14.532  0.1842E+00  0.8058E+01
     14.546  0.1876E+00  0.8060E+01
     14.560  0.1910E+00  0.8063E+01
     14.574  0.1943E+00  0.8066E+01
     14.588  0.1977E+00  0.8069E+01
     14.602  0.2010E+00  0.8071E+01
     14.616  0.2044E+00  0.8074E+01
     14.630  0.2077E+00  0.8077E+01
     14.644  0.2111E+00  0.8080E+01
     14.658  0.2144E+00  0.8083E+01
     14.672  0.2178E+00  0.8086E+01
     14.686  0.2211E+00  0.8089E+01
     14.700  0.2244E+00  0.8092E+01
     14.714  0.2277E+00  0.8095E+01
     14.728  0.2311E+00  0.8098E+01
     14.742  0.2344E+00  0.8102E+01
     14.756  0.2377E+00  0.8105E+01
     14.770  0.2410E+00  0.8108E+01
     14.784  0.2443E+00  0.8112E+01
     14.798  0.2476E+00  0.8115E+01
     14.812  0.2510E+00  0.8119E+01
     14.826  0.2543E+00  0.8122E+01
     14.840  0.2576E+00  0.8126E+01
     14.854  0.2610E+00  0.8129E+01
     14.868  0.2643E+00  0.8133E+01
     14.882  0.2677E+00  0.8137E+01
     14.896  0.2711E+00  0.8141E+01
     14.910  0.2744E+00  0.8144E+01
     14.924  0.2778E+00  0.8148E+01
     14.938  0.2812E+00  0.8152E+01
     14.952  0.2846E+00  0.8156E+01
     14.966  0.2880E+00  0.8160E+01
     14.980  0.2916E+00  0.8164E+01
     14.994  0.2952E+00  0.8168E+01
     15.008  0.2988E+00  0.8172E+01
     15.022  0.3026E+00  0.8177E+01
     15.036  0.3064E+00  0.8181E+01
     15.049  0.3103E+00  0.8185E+01
     15.063  0.3142E+00  0.8190E+01
     15.077  0.3182E+00  0.8194E+01
     15.091  0.3223E+00  0.8198E+01
     15.105  0.3264E+00  0.8203E+01
     15.119  0.3306E+00  0.8208E+01
     15.133  0.3348E+00  0.8212E+01
     15.147  0.3391E+00  0.8217E+01
     15.161  0.3435E+00  0.8222E+01
     15.175  0.3480E+00  0.8227E+01
     15.189  0.3525E+00  0.8231E+01
     15.203  0.3571E+00  0.8236E+01
     15.217  0.3619E+00  0.8241E+01
     15.231  0.3667E+00  0.8246E+01
     15.245  0.3716E+00  0.8252E+01
     15.259  0.3765E+00  0.8257E+01
     15.273  0.3815E+00  0.8262E+01
     15.287  0.3865E+00  0.8268E+01
     15.301  0.3916E+00  0.8273E+01
     15.315  0.3966E+00  0.8278E+01
     15.329  0.4017E+00  0.8284E+01
     15.343  0.4068E+00  0.8290E+01
     15.357  0.4119E+00  0.8295E+01
     15.371  0.4170E+00  0.8301E+01
     15.385  0.4222E+00  0.8307E+01
     15.399  0.4272E+00  0.8313E+01
     15.413  0.4322E+00  0.8319E+01
     15.427  0.4371E+00  0.8325E+01
     15.441  0.4419E+00  0.8331E+01
     15.455  0.4466E+00  0.8337E+01
     15.469  0.4511E+00  0.8344E+01
     15.483  0.4556E+00  0.8350E+01
     15.497  0.4601E+00  0.8356E+01
     15.511  0.4644E+00  0.8363E+01
     15.525  0.4686E+00  0.8369E+01
     15.539  0.4727E+00  0.8376E+01
     15.553  0.4767E+00  0.8383E+01
     15.567  0.4807E+00  0.8389E+01
     15.581  0.4845E+00  0.8396E+01
     15.595  0.4883E+00  0.8403E+01
     15.609  0.4919E+00  0.8410E+01
     15.623  0.4955E+00  0.8417E+01
     15.637  0.4990E+00  0.8424E+01
     15.650  0.5024E+00  0.8431E+01
     15.664  0.5056E+00  0.8438E+01
     15.678  0.5088E+00  0.8445E+01
     15.692  0.5119E+00  0.8452E+01
     15.706  0.5149E+00  0.8459E+01
     15.720  0.5179E+00  0.8466E+01
     15.734  0.5207E+00  0.8474E+01
     15.748  0.5234E+00  0.8481E+01
     15.762  0.5260E+00  0.8488E+01
     15.776  0.5286E+00  0.8496E+01
     15.790  0.5311E+00  0.8503E+01
     15.804  0.5332E+00  0.8510E+01
     15.818  0.5316E+00  0.8518E+01
     15.832  0.5304E+00  0.8525E+01
     15.846  0.5294E+00  0.8533E+01
     15.860  0.5290E+00  0.8540E+01
     15.874  0.5289E+00  0.8547E+01
     15.888  0.5294E+00  0.8555E+01
     15.902  0.5303E+00  0.8562E+01
     15.916  0.5318E+00  0.8570E+01
     15.930  0.5337E+00  0.8577E+01
     15.944  0.5355E+00  0.8585E+01
     15.958  0.5373E+00  0.8592E+01
     15.972  0.5394E+00  0.8600E+01
     15.986  0.5415E+00  0.8607E+01
     16.000  0.5435E+00  0.8615E+01
     16.014  0.5455E+00  0.8622E+01
     16.028  0.5475E+00  0.8630E+01
     16.042  0.5495E+00  0.8638E+01
     16.056  0.5513E+00  0.8645E+01
     16.070  0.5532E+00  0.8653E+01
     16.084  0.5550E+00  0.8661E+01
     16.098  0.5568E+00  0.8669E+01
     16.112  0.5586E+00  0.8676E+01
     16.126  0.5603E+00  0.8684E+01
     16.140  0.5619E+00  0.8692E+01
     16.154  0.5636E+00  0.8700E+01
     16.168  0.5650E+00  0.8708E+01
     16.182  0.5663E+00  0.8716E+01
     16.196  0.5676E+00  0.8724E+01
     16.210  0.5689E+00  0.8732E+01
     16.224  0.5701E+00  0.8739E+01
     16.238  0.5718E+00  0.8747E+01
     16.251  0.5741E+00  0.8755E+01
     16.265  0.5763E+00  0.8764E+01
     16.279  0.5785E+00  0.8772E+01
     16.293  0.5807E+00  0.8780E+01
     16.307  0.5829E+00  0.8788E+01
     16.321  0.5851E+00  0.8796E+01
     16.335  0.5873E+00  0.8804E+01
     16.349  0.5895E+00  0.8812E+01
     16.363  0.5918E+00  0.8821E+01
     16.377  0.5940E+00  0.8829E+01
     16.391  0.5963E+00  0.8837E+01
     16.405  0.5985E+00  0.8846E+01
     16.419  0.6008E+00  0.8854E+01
     16.433  0.6031E+00  0.8862E+01
     16.447  0.6054E+00  0.8871E+01
     16.461  0.6078E+00  0.8879E+01
     16.475  0.6103E+00  0.8888E+01
     16.489  0.6129E+00  0.8896E+01
     16.503  0.6155E+00  0.8905E+01
     16.517  0.6181E+00  0.8914E+01
     16.531  0.6209E+00  0.8922E+01
     16.545  0.6236E+00  0.8931E+01
     16.559  0.6265E+00  0.8940E+01
     16.573  0.6293E+00  0.8948E+01
     16.587  0.6323E+00  0.8957E+01
     16.601  0.6353E+00  0.8966E+01
     16.615  0.6384E+00  0.8975E+01
     16.629  0.6415E+00  0.8984E+01
     16.643  0.6447E+00  0.8993E+01
     16.657  0.6480E+00  0.9002E+01
     16.671  0.6513E+00  0.9011E+01
     16.685  0.6547E+00  0.9020E+01
     16.699  0.6581E+00  0.9029E+01
     16.713  0.6617E+00  0.9039E+01
     16.727  0.6653E+00  0.9048E+01
     16.741  0.6689E+00  0.9057E+01
     16.755  0.6726E+00  0.9067E+01
     16.769  0.6764E+00  0.9076E+01
     16.783  0.6803E+00  0.9085E+01
     16.797  0.6842E+00  0.9095E+01
     16.811  0.6882E+00  0.9105E+01
     16.825  0.6922E+00  0.9114E+01
     16.839  0.6963E+00  0.9124E+01
     16.852  0.7005E+00  0.9134E+01
     16.866  0.7047E+00  0.9144E+01
     16.880  0.7091E+00  0.9153E+01
     16.894  0.7135E+00  0.9163E+01
     16.908  0.7181E+00  0.9173E+01
     16.922  0.7229E+00  0.9183E+01
     16.936  0.7278E+00  0.9194E+01
     16.950  0.7327E+00  0.9204E+01
     16.964  0.7375E+00  0.9214E+01
     16.978  0.7424E+00  0.9224E+01
     16.992  0.7475E+00  0.9235E+01
     17.006  0.7528E+00  0.9245E+01
     17.020  0.7583E+00  0.9256E+01
     17.034  0.7639E+00  0.9267E+01
     17.048  0.7698E+00  0.9277E+01
     17.062  0.7758E+00  0.9288E+01
     17.076  0.7834E+00  0.9299E+01
     17.090  0.7935E+00  0.9310E+01
     17.104  0.8035E+00  0.9321E+01
     17.118  0.8135E+00  0.9332E+01
     17.132  0.8236E+00  0.9344E+01
     17.146  0.8338E+00  0.9355E+01
     17.160  0.8442E+00  0.9367E+01
     17.174  0.8546E+00  0.9379E+01
     17.188  0.8652E+00  0.9391E+01
     17.202  0.8759E+00  0.9403E+01
     17.216  0.8868E+00  0.9416E+01
     17.230  0.8978E+00  0.9428E+01
     17.244  0.9089E+00  0.9441E+01
     17.258  0.9201E+00  0.9453E+01
     17.272  0.9315E+00  0.9466E+01
     17.286  0.9430E+00  0.9479E+01
     17.300  0.9547E+00  0.9493E+01
     17.314  0.9666E+00  0.9506E+01
     17.328  0.9786E+00  0.9520E+01
     17.342  0.9909E+00  0.9533E+01
     17.356  0.1003E+01  0.9547E+01
     17.370  0.1016E+01  0.9562E+01
     17.384  0.1029E+01  0.9576E+01
     17.398  0.1041E+01  0.9590E+01
     17.412  0.1054E+01  0.9605E+01
     17.426  0.1067E+01  0.9620E+01
     17.440  0.1081E+01  0.9635E+01
     17.453  0.1094E+01  0.9650E+01
     17.467  0.1107E+01  0.9665E+01
     17.481  0.1121E+01  0.9681E+01
     17.495  0.1135E+01  0.9697E+01
     17.509  0.1149E+01  0.9713E+01
     17.523  0.1168E+01  0.9729E+01
     17.537  0.1199E+01  0.9745E+01
     17.551  0.1228E+01  0.9762E+01
     17.565  0.1256E+01  0.9780E+01
     17.579  0.1284E+01  0.9797E+01
     17.593  0.1310E+01  0.9816E+01
     17.607  0.1334E+01  0.9834E+01
     17.621  0.1356E+01  0.9853E+01
     17.635  0.1371E+01  0.9872E+01
     17.649  0.1379E+01  0.9891E+01
     17.663  0.1379E+01  0.9910E+01
     17.677  0.1371E+01  0.9930E+01
     17.691  0.1356E+01  0.9949E+01
     17.705  0.1333E+01  0.9968E+01
     17.719  0.1303E+01  0.9986E+01
     17.733  0.1271E+01  0.1000E+02
     17.747  0.1237E+01  0.1002E+02
     17.761  0.1201E+01  0.1004E+02
     17.775  0.1164E+01  0.1006E+02
     17.789  0.1124E+01  0.1007E+02
     17.803  0.1083E+01  0.1009E+02
     17.817  0.1040E+01  0.1010E+02
     17.831  0.9966E+00  0.1012E+02
     17.845  0.9559E+00  0.1013E+02
     17.859  0.9180E+00  0.1014E+02
     17.873  0.8828E+00  0.1015E+02
     17.887  0.8505E+00  0.1017E+02
     17.901  0.8210E+00  0.1018E+02
     17.915  0.7941E+00  0.1019E+02
     17.929  0.7684E+00  0.1020E+02
     17.943  0.7434E+00  0.1021E+02
     17.957  0.7195E+00  0.1022E+02
     17.971  0.6969E+00  0.1023E+02
     17.985  0.6754E+00  0.1024E+02
     17.999  0.6552E+00  0.1025E+02
     18.013  0.6363E+00  0.1026E+02
     18.027  0.6186E+00  0.1027E+02
     18.041  0.6021E+00  0.1028E+02
     18.054  0.5892E+00  0.1029E+02
     18.068  0.5828E+00  0.1029E+02
     18.082  0.5832E+00  0.1030E+02
     18.096  0.5900E+00  0.1031E+02
     18.110  0.6002E+00  0.1032E+02
     18.124  0.6107E+00  0.1033E+02
     18.138  0.6213E+00  0.1033E+02
     18.152  0.6321E+00  0.1034E+02
     18.166  0.6430E+00  0.1035E+02
     18.180  0.6541E+00  0.1036E+02
     18.194  0.6648E+00  0.1037E+02
     18.208  0.6721E+00  0.1038E+02
     18.222  0.6755E+00  0.1039E+02
     18.236  0.6772E+00  0.1040E+02
     18.250  0.6791E+00  0.1041E+02
     18.264  0.6813E+00  0.1042E+02
     18.278  0.6834E+00  0.1043E+02
     18.292  0.6857E+00  0.1044E+02
     18.306  0.6883E+00  0.1045E+02
     18.320  0.6911E+00  0.1046E+02
     18.334  0.6941E+00  0.1047E+02
     18.348  0.6975E+00  0.1048E+02
     18.362  0.7013E+00  0.1049E+02
     18.376  0.7055E+00  0.1050E+02
     18.390  0.7100E+00  0.1051E+02
     18.404  0.7150E+00  0.1052E+02
     18.418  0.7203E+00  0.1053E+02
     18.432  0.7258E+00  0.1054E+02
     18.446  0.7315E+00  0.1055E+02
     18.460  0.7374E+00  0.1056E+02
     18.474  0.7434E+00  0.1057E+02
     18.488  0.7496E+00  0.1058E+02
     18.502  0.7561E+00  0.1059E+02
     18.516  0.7629E+00  0.1060E+02
     18.530  0.7701E+00  0.1061E+02
     18.544  0.7777E+00  0.1062E+02
     18.558  0.7856E+00  0.1063E+02
     18.572  0.7949E+00  0.1064E+02
     18.586  0.8057E+00  0.1065E+02
     18.600  0.8179E+00  0.1066E+02
     18.614  0.8315E+00  0.1068E+02
     18.628  0.8466E+00  0.1069E+02
     18.642  0.8631E+00  0.1070E+02
     18.655  0.8810E+00  0.1071E+02
     18.669  0.9004E+00  0.1072E+02
     18.683  0.9212E+00  0.1074E+02
     18.697  0.9434E+00  0.1075E+02
     18.711  0.9670E+00  0.1076E+02
     18.725  0.9921E+00  0.1078E+02
     18.739  0.1019E+01  0.1079E+02
     18.753  0.1047E+01  0.1080E+02
     18.767  0.1075E+01  0.1082E+02
     18.781  0.1099E+01  0.1083E+02
     18.795  0.1121E+01  0.1085E+02
     18.809  0.1138E+01  0.1087E+02
     18.823  0.1152E+01  0.1088E+02
     18.837  0.1163E+01  0.1090E+02
     18.851  0.1170E+01  0.1091E+02
     18.865  0.1176E+01  0.1093E+02
     18.879  0.1181E+01  0.1095E+02
     18.893  0.1181E+01  0.1096E+02
     18.907  0.1177E+01  0.1098E+02
     18.921  0.1169E+01  0.1100E+02
     18.935  0.1159E+01  0.1101E+02
     18.949  0.1145E+01  0.1103E+02
     18.963  0.1129E+01  0.1105E+02
     18.977  0.1118E+01  0.1106E+02
     18.991  0.1117E+01  0.1108E+02
     19.005  0.1188E+01  0.1109E+02
     19.019  0.1231E+01  0.1111E+02
     19.033  0.1238E+01  0.1113E+02
     19.047  0.1211E+01  0.1114E+02
     19.061  0.1149E+01  0.1116E+02
     19.075  0.1052E+01  0.1118E+02
     19.089  0.1041E+01  0.1119E+02
     19.103  0.1039E+01  0.1121E+02
     19.117  0.1038E+01  0.1122E+02
     19.131  0.1037E+01  0.1123E+02
     19.145  0.1036E+01  0.1125E+02
     19.159  0.1036E+01  0.1126E+02
     19.173  0.1037E+01  0.1128E+02
     19.187  0.1023E+01  0.1129E+02
     19.201  0.1008E+01  0.1131E+02
     19.215  0.9967E+00  0.1132E+02
     19.229  0.9865E+00  0.1133E+02
     19.243  0.9771E+00  0.1135E+02
     19.256  0.9680E+00  0.1136E+02
     19.270  0.9589E+00  0.1137E+02
     19.284  0.9499E+00  0.1139E+02
     19.298  0.9408E+00  0.1140E+02
     19.312  0.9316E+00  0.1141E+02
     19.326  0.9214E+00  0.1143E+02
     19.340  0.9099E+00  0.1144E+02
     19.354  0.8972E+00  0.1145E+02
     19.368  0.8884E+00  0.1147E+02
     19.382  0.8889E+00  0.1148E+02
     19.396  0.8901E+00  0.1149E+02
     19.410  0.8917E+00  0.1150E+02
     19.424  0.8934E+00  0.1152E+02
     19.438  0.8954E+00  0.1153E+02
     19.452  0.8977E+00  0.1154E+02
     19.466  0.8999E+00  0.1155E+02
     19.480  0.9021E+00  0.1157E+02
     19.494  0.9041E+00  0.1158E+02
     19.508  0.9059E+00  0.1159E+02
     19.522  0.9074E+00  0.1160E+02
     19.536  0.9088E+00  0.1162E+02
     19.550  0.9099E+00  0.1163E+02
     19.564  0.9108E+00  0.1164E+02
     19.578  0.9115E+00  0.1165E+02
     19.592  0.9120E+00  0.1167E+02
     19.606  0.9123E+00  0.1168E+02
     19.620  0.9123E+00  0.1169E+02
     19.634  0.9121E+00  0.1171E+02
     19.648  0.9117E+00  0.1172E+02
     19.662  0.9111E+00  0.1173E+02
     19.676  0.9103E+00  0.1174E+02
     19.690  0.9092E+00  0.1176E+02
     19.704  0.9079E+00  0.1177E+02
     19.718  0.9063E+00  0.1178E+02
     19.732  0.9045E+00  0.1179E+02
     19.746  0.9025E+00  0.1181E+02
     19.760  0.9002E+00  0.1182E+02
     19.774  0.8977E+00  0.1183E+02
     19.788  0.8949E+00  0.1184E+02
     19.802  0.8919E+00  0.1186E+02
     19.816  0.8887E+00  0.1187E+02
     19.830  0.8852E+00  0.1188E+02
     19.844  0.8815E+00  0.1189E+02
     19.857  0.8775E+00  0.1191E+02
     19.871  0.8733E+00  0.1192E+02
     19.885  0.8689E+00  0.1193E+02
     19.899  0.8642E+00  0.1194E+02
     19.913  0.8602E+00  0.1195E+02
     19.927  0.8556E+00  0.1197E+02
     19.941  0.8507E+00  0.1198E+02
     19.955  0.8458E+00  0.1199E+02
     19.969  0.8407E+00  0.1200E+02
     19.983  0.8356E+00  0.1201E+02
     19.997  0.8303E+00  0.1203E+02
     20.011  0.8250E+00  0.1204E+02
     20.025  0.8195E+00  0.1205E+02
     20.039  0.8140E+00  0.1206E+02
     20.053  0.8083E+00  0.1207E+02
     20.067  0.8026E+00  0.1208E+02
     20.081  0.7968E+00  0.1209E+02
     20.095  0.7909E+00  0.1211E+02
     20.109  0.7849E+00  0.1212E+02
     20.123  0.7788E+00  0.1213E+02
     20.137  0.7726E+00  0.1214E+02
     20.151  0.7663E+00  0.1215E+02
     20.165  0.7603E+00  0.1216E+02
     20.179  0.7541E+00  0.1217E+02
     20.193  0.7478E+00  0.1218E+02
     20.207  0.7412E+00  0.1219E+02
     20.221  0.7345E+00  0.1220E+02
     20.235  0.7275E+00  0.1221E+02
     20.249  0.7204E+00  0.1222E+02
     20.263  0.7131E+00  0.1223E+02
     20.277  0.7055E+00  0.1224E+02
     20.291  0.6978E+00  0.1225E+02
     20.305  0.6899E+00  0.1226E+02
     20.319  0.6818E+00  0.1227E+02
     20.333  0.6735E+00  0.1228E+02
     20.347  0.6650E+00  0.1229E+02
     20.361  0.6563E+00  0.1230E+02
     20.375  0.6474E+00  0.1231E+02
     20.389  0.6383E+00  0.1232E+02
     20.403  0.6309E+00  0.1233E+02
     20.417  0.6235E+00  0.1233E+02
     20.431  0.6159E+00  0.1234E+02
     20.445  0.6082E+00  0.1235E+02
     20.458  0.6004E+00  0.1236E+02
     20.472  0.5925E+00  0.1237E+02
     20.486  0.5845E+00  0.1238E+02
     20.500  0.5763E+00  0.1238E+02
     20.514  0.5680E+00  0.1239E+02
     20.528  0.5596E+00  0.1240E+02
     20.542  0.5510E+00  0.1241E+02
     20.556  0.5423E+00  0.1242E+02
     20.570  0.5335E+00  0.1242E+02
     20.584  0.5245E+00  0.1243E+02
     20.598  0.5155E+00  0.1244E+02
     20.612  0.5074E+00  0.1245E+02
     20.626  0.5035E+00  0.1245E+02
     20.640  0.4997E+00  0.1246E+02
     20.654  0.4959E+00  0.1247E+02
     20.668  0.4922E+00  0.1247E+02
     20.682  0.4885E+00  0.1248E+02
     20.696  0.4849E+00  0.1249E+02
     20.710  0.4813E+00  0.1249E+02
     20.724  0.4778E+00  0.1250E+02
     20.738  0.4744E+00  0.1251E+02
     20.752  0.4710E+00  0.1251E+02
     20.766  0.4677E+00  0.1252E+02
     20.780  0.4644E+00  0.1253E+02
     20.794  0.4612E+00  0.1253E+02
     20.808  0.4580E+00  0.1254E+02
     20.822  0.4550E+00  0.1255E+02
     20.836  0.4527E+00  0.1255E+02
     20.850  0.4511E+00  0.1256E+02
     20.864  0.4501E+00  0.1256E+02
     20.878  0.4497E+00  0.1257E+02
     20.892  0.4495E+00  0.1258E+02
     20.906  0.4494E+00  0.1258E+02
     20.920  0.4513E+00  0.1259E+02
     20.934  0.4539E+00  0.1260E+02
     20.948  0.4567E+00  0.1260E+02
     20.962  0.4597E+00  0.1261E+02
     20.976  0.4629E+00  0.1262E+02
     20.990  0.4663E+00  0.1262E+02
     21.004  0.4699E+00  0.1263E+02
     21.018  0.4737E+00  0.1264E+02
     21.032  0.4777E+00  0.1264E+02
     21.046  0.4819E+00  0.1265E+02
     21.060  0.4863E+00  0.1266E+02
     21.073  0.4908E+00  0.1266E+02
     21.087  0.4956E+00  0.1267E+02
     21.101  0.5005E+00  0.1268E+02
     21.115  0.5057E+00  0.1268E+02
     21.129  0.5110E+00  0.1269E+02
     21.143  0.5166E+00  0.1270E+02
     21.157  0.5222E+00  0.1270E+02
     21.171  0.5280E+00  0.1271E+02
     21.185  0.5339E+00  0.1272E+02
     21.199  0.5400E+00  0.1273E+02
     21.213  0.5462E+00  0.1273E+02
     21.227  0.5525E+00  0.1274E+02
     21.241  0.5589E+00  0.1275E+02
     21.255  0.5655E+00  0.1276E+02
     21.269  0.5722E+00  0.1277E+02
     21.283  0.5791E+00  0.1277E+02
     21.297  0.5861E+00  0.1278E+02
     21.311  0.5930E+00  0.1279E+02
     21.325  0.6000E+00  0.1280E+02
     21.339  0.6112E+00  0.1281E+02
     21.353  0.6387E+00  0.1282E+02
     21.367  0.6931E+00  0.1282E+02
     21.381  0.7581E+00  0.1284E+02
     21.395  0.7163E+00  0.1285E+02
     21.409  0.7015E+00  0.1286E+02
     21.423  0.6884E+00  0.1286E+02
     21.437  0.6766E+00  0.1287E+02
     21.451  0.6661E+00  0.1288E+02
     21.465  0.6567E+00  0.1289E+02
     21.479  0.6487E+00  0.1290E+02
     21.493  0.6418E+00  0.1291E+02
     21.507  0.6362E+00  0.1292E+02
     21.521  0.6320E+00  0.1293E+02
     21.535  0.6291E+00  0.1294E+02
     21.549  0.6276E+00  0.1295E+02
     21.563  0.6274E+00  0.1296E+02
     21.577  0.6286E+00  0.1296E+02
     21.591  0.6311E+00  0.1297E+02
     21.605  0.6332E+00  0.1298E+02
     21.619  0.6326E+00  0.1299E+02
     21.633  0.6310E+00  0.1300E+02
     21.647  0.6294E+00  0.1301E+02
     21.661  0.6280E+00  0.1302E+02
     21.674  0.6267E+00  0.1303E+02
     21.688  0.6255E+00  0.1303E+02
     21.702  0.6243E+00  0.1304E+02
     21.716  0.6233E+00  0.1305E+02
     21.730  0.6223E+00  0.1306E+02
     21.744  0.6215E+00  0.1307E+02
     21.758  0.6207E+00  0.1308E+02
     21.772  0.6200E+00  0.1309E+02
     21.786  0.6194E+00  0.1310E+02
     21.800  0.6189E+00  0.1310E+02
     21.814  0.6185E+00  0.1311E+02
     21.828  0.6182E+00  0.1312E+02
     21.842  0.6180E+00  0.1313E+02
     21.856  0.6178E+00  0.1314E+02
     21.870  0.6178E+00  0.1315E+02
     21.884  0.6178E+00  0.1316E+02
     21.898  0.6180E+00  0.1316E+02
     21.912  0.6181E+00  0.1317E+02
     21.926  0.6182E+00  0.1318E+02
     21.940  0.6183E+00  0.1319E+02
     21.954  0.6182E+00  0.1320E+02
     21.968  0.6181E+00  0.1321E+02
     21.982  0.6178E+00  0.1322E+02
     21.996  0.6175E+00  0.1323E+02
     22.010  0.6171E+00  0.1323E+02
     22.024  0.6167E+00  0.1324E+02
     22.038  0.6161E+00  0.1325E+02
     22.052  0.6155E+00  0.1326E+02
     22.066  0.6148E+00  0.1327E+02
     22.080  0.6140E+00  0.1328E+02
     22.094  0.6131E+00  0.1329E+02
     22.108  0.6121E+00  0.1329E+02
     22.122  0.6111E+00  0.1330E+02
     22.136  0.6099E+00  0.1331E+02
     22.150  0.6087E+00  0.1332E+02
     22.164  0.6075E+00  0.1333E+02
     22.178  0.6088E+00  0.1334E+02
     22.192  0.6112E+00  0.1335E+02
     22.206  0.6137E+00  0.1335E+02
     22.220  0.6175E+00  0.1336E+02
     22.234  0.6251E+00  0.1337E+02
     22.248  0.6365E+00  0.1338E+02
     22.262  0.6516E+00  0.1339E+02
     22.275  0.6705E+00  0.1340E+02
     22.289  0.6931E+00  0.1341E+02
     22.303  0.6999E+00  0.1342E+02
     22.317  0.7018E+00  0.1343E+02
     22.331  0.7039E+00  0.1344E+02
     22.345  0.7061E+00  0.1345E+02
     22.359  0.7084E+00  0.1346E+02
     22.373  0.7108E+00  0.1347E+02
     22.387  0.7133E+00  0.1348E+02
     22.401  0.7159E+00  0.1349E+02
     22.415  0.7186E+00  0.1350E+02
     22.429  0.7214E+00  0.1351E+02
     22.443  0.7243E+00  0.1352E+02
     22.457  0.7274E+00  0.1353E+02
     22.471  0.7305E+00  0.1354E+02
     22.485  0.7337E+00  0.1355E+02
     22.499  0.7371E+00  0.1356E+02
     22.513  0.7406E+00  0.1357E+02
     22.527  0.7828E+00  0.1358E+02
     22.541  0.8458E+00  0.1359E+02
     22.555  0.9191E+00  0.1360E+02
     22.569  0.9752E+00  0.1362E+02
     22.583  0.1012E+01  0.1363E+02
     22.597  0.1028E+01  0.1364E+02
     22.611  0.1025E+01  0.1366E+02
     22.625  0.1022E+01  0.1367E+02
     22.639  0.1018E+01  0.1369E+02
     22.653  0.1014E+01  0.1370E+02
     22.667  0.1010E+01  0.1371E+02
     22.681  0.1005E+01  0.1373E+02
     22.695  0.1001E+01  0.1374E+02
     22.709  0.9954E+00  0.1376E+02
     22.723  0.9899E+00  0.1377E+02
     22.737  0.9841E+00  0.1378E+02
     22.751  0.9779E+00  0.1380E+02
     22.765  0.9713E+00  0.1381E+02
     22.779  0.9644E+00  0.1383E+02
     22.793  0.9571E+00  0.1384E+02
     22.807  0.9494E+00  0.1385E+02
     22.821  0.9468E+00  0.1387E+02
     22.835  0.9483E+00  0.1388E+02
     22.849  0.9491E+00  0.1389E+02
     22.863  0.9501E+00  0.1391E+02
     22.876  0.9517E+00  0.1392E+02
     22.890  0.9539E+00  0.1393E+02
     22.904  0.9567E+00  0.1395E+02
     22.918  0.9628E+00  0.1396E+02
     22.932  0.9923E+00  0.1397E+02
     22.946  0.1019E+01  0.1399E+02
     22.960  0.1043E+01  0.1400E+02
     22.974  0.1064E+01  0.1402E+02
     22.988  0.1079E+01  0.1403E+02
     23.002  0.1088E+01  0.1405E+02
     23.016  0.1091E+01  0.1406E+02
     23.030  0.1089E+01  0.1408E+02
     23.044  0.1080E+01  0.1409E+02
     23.058  0.1064E+01  0.1411E+02
     23.072  0.1044E+01  0.1412E+02
     23.086  0.1029E+01  0.1414E+02
     23.100  0.1005E+01  0.1415E+02
     23.114  0.9834E+00  0.1416E+02
     23.128  0.9632E+00  0.1418E+02
     23.142  0.9448E+00  0.1419E+02
     23.156  0.9283E+00  0.1420E+02
     23.170  0.9136E+00  0.1422E+02
     23.184  0.9007E+00  0.1423E+02
     23.198  0.8895E+00  0.1424E+02
     23.212  0.8801E+00  0.1425E+02
     23.226  0.8725E+00  0.1427E+02
     23.240  0.8665E+00  0.1428E+02
     23.254  0.8623E+00  0.1429E+02
     23.268  0.8597E+00  0.1430E+02
     23.282  0.8585E+00  0.1431E+02
     23.296  0.8574E+00  0.1433E+02
     23.310  0.8561E+00  0.1434E+02
     23.324  0.8547E+00  0.1435E+02
     23.338  0.8532E+00  0.1436E+02
     23.352  0.8515E+00  0.1437E+02
     23.366  0.8497E+00  0.1439E+02
     23.380  0.8477E+00  0.1440E+02
     23.394  0.8456E+00  0.1441E+02
     23.408  0.8434E+00  0.1442E+02
     23.422  0.8410E+00  0.1443E+02
     23.436  0.8385E+00  0.1445E+02
     23.450  0.8359E+00  0.1446E+02
     23.464  0.8331E+00  0.1447E+02
     23.477  0.8301E+00  0.1448E+02
     23.491  0.8270E+00  0.1449E+02
     23.505  0.8244E+00  0.1450E+02
     23.519  0.8218E+00  0.1451E+02
     23.533  0.8192E+00  0.1453E+02
     23.547  0.8165E+00  0.1454E+02
     23.561  0.8138E+00  0.1455E+02
     23.575  0.8123E+00  0.1456E+02
     23.589  0.8132E+00  0.1457E+02
     23.603  0.8147E+00  0.1458E+02
     23.617  0.8169E+00  0.1459E+02
     23.631  0.8196E+00  0.1461E+02
     23.645  0.8231E+00  0.1462E+02
     23.659  0.8273E+00  0.1463E+02
     23.673  0.8328E+00  0.1464E+02
     23.687  0.8388E+00  0.1465E+02
     23.701  0.8451E+00  0.1466E+02
     23.715  0.8517E+00  0.1468E+02
     23.729  0.8597E+00  0.1469E+02
     23.743  0.8698E+00  0.1470E+02
     23.757  0.8818E+00  0.1471E+02
     23.771  0.8958E+00  0.1472E+02
     23.785  0.9111E+00  0.1474E+02
     23.799  0.9254E+00  0.1475E+02
     23.813  0.9387E+00  0.1476E+02
     23.827  0.9508E+00  0.1478E+02
     23.841  0.9618E+00  0.1479E+02
     23.855  0.9717E+00  0.1480E+02
     23.869  0.9834E+00  0.1482E+02
     23.883  0.9992E+00  0.1483E+02
     23.897  0.1019E+01  0.1484E+02
     23.911  0.1043E+01  0.1486E+02
     23.925  0.1071E+01  0.1487E+02
     23.939  0.1102E+01  0.1489E+02
     23.953  0.1138E+01  0.1490E+02
     23.967  0.1173E+01  0.1492E+02
     23.981  0.1208E+01  0.1494E+02
     23.995  0.1242E+01  0.1495E+02
     24.009  0.1276E+01  0.1497E+02
     24.023  0.1304E+01  0.1499E+02
     24.037  0.1330E+01  0.1501E+02
     24.051  0.1361E+01  0.1503E+02
     24.065  0.1395E+01  0.1505E+02
     24.078  0.1406E+01  0.1507E+02
     24.092  0.1351E+01  0.1509E+02
     24.106  0.1253E+01  0.1510E+02
     24.120  0.1201E+01  0.1512E+02
     24.134  0.1153E+01  0.1514E+02
     24.148  0.1108E+01  0.1515E+02
     24.162  0.1070E+01  0.1517E+02
     24.176  0.1053E+01  0.1518E+02
     24.190  0.1035E+01  0.1520E+02
     24.204  0.1018E+01  0.1521E+02
     24.218  0.1001E+01  0.1523E+02
     24.232  0.9837E+00  0.1524E+02
     24.246  0.9671E+00  0.1525E+02
     24.260  0.9507E+00  0.1527E+02
     24.274  0.9345E+00  0.1528E+02
     24.288  0.9186E+00  0.1529E+02
     24.302  0.9029E+00  0.1531E+02
     24.316  0.8874E+00  0.1532E+02
     24.330  0.8721E+00  0.1533E+02
     24.344  0.8570E+00  0.1534E+02
     24.358  0.8421E+00  0.1535E+02
     24.372  0.8274E+00  0.1537E+02
     24.386  0.8128E+00  0.1538E+02
     24.400  0.7985E+00  0.1539E+02
     24.414  0.7843E+00  0.1540E+02
     24.428  0.7704E+00  0.1541E+02
     24.442  0.7566E+00  0.1542E+02
     24.456  0.7431E+00  0.1543E+02
     24.470  0.7297E+00  0.1544E+02
     24.484  0.7165E+00  0.1545E+02
     24.498  0.7035E+00  0.1546E+02
     24.512  0.6907E+00  0.1547E+02
     24.526  0.6781E+00  0.1548E+02
     24.540  0.6657E+00  0.1549E+02
     24.554  0.6535E+00  0.1550E+02
     24.568  0.6414E+00  0.1551E+02
     24.582  0.6296E+00  0.1552E+02
     24.596  0.6179E+00  0.1553E+02
     24.610  0.6065E+00  0.1554E+02
     24.624  0.5954E+00  0.1554E+02
     24.638  0.5845E+00  0.1555E+02
     24.652  0.5740E+00  0.1556E+02
     24.666  0.5636E+00  0.1557E+02
     24.679  0.5535E+00  0.1558E+02
     24.693  0.5436E+00  0.1558E+02
     24.707  0.5339E+00  0.1559E+02
     24.721  0.5244E+00  0.1560E+02
     24.735  0.5151E+00  0.1561E+02
     24.749  0.5059E+00  0.1561E+02
     24.763  0.4970E+00  0.1562E+02
     24.777  0.4883E+00  0.1563E+02
     24.791  0.4798E+00  0.1563E+02
     24.805  0.4715E+00  0.1564E+02
     24.819  0.4656E+00  0.1565E+02
     24.833  0.4640E+00  0.1565E+02
     24.847  0.4668E+00  0.1566E+02
     24.861  0.4724E+00  0.1567E+02
     24.875  0.4778E+00  0.1567E+02
     24.889  0.4829E+00  0.1568E+02
     24.903  0.4877E+00  0.1569E+02
     24.917  0.4921E+00  0.1569E+02
     24.931  0.4962E+00  0.1570E+02
     24.945  0.5000E+00  0.1571E+02
     24.959  0.5035E+00  0.1571E+02
     24.973  0.5066E+00  0.1572E+02
     24.987  0.5095E+00  0.1573E+02
     25.001  0.5120E+00  0.1574E+02
     25.015  0.5142E+00  0.1574E+02
     25.029  0.5161E+00  0.1575E+02
     25.043  0.5177E+00  0.1576E+02
     25.057  0.5189E+00  0.1576E+02
     25.071  0.5187E+00  0.1577E+02
     25.085  0.5183E+00  0.1578E+02
     25.099  0.5256E+00  0.1579E+02
     25.113  0.5405E+00  0.1579E+02
     25.127  0.5632E+00  0.1580E+02
     25.141  0.5844E+00  0.1581E+02
     25.155  0.5296E+00  0.1582E+02
     25.169  0.4751E+00  0.1582E+02
     25.183  0.4263E+00  0.1583E+02
     25.197  0.3832E+00  0.1584E+02
     25.211  0.3457E+00  0.1584E+02
     25.225  0.3137E+00  0.1585E+02
     25.239  0.2873E+00  0.1585E+02
     25.253  0.2664E+00  0.1585E+02
     25.267  0.2510E+00  0.1586E+02
     25.280  0.2411E+00  0.1586E+02
     25.294  0.2365E+00  0.1586E+02
     25.308  0.2358E+00  0.1587E+02
     25.322  0.2353E+00  0.1587E+02
     25.336  0.2347E+00  0.1587E+02
     25.350  0.2341E+00  0.1588E+02
     25.364  0.2334E+00  0.1588E+02
     25.378  0.2327E+00  0.1588E+02
     25.392  0.2319E+00  0.1589E+02
     25.406  0.2311E+00  0.1589E+02
     25.420  0.2303E+00  0.1589E+02
     25.434  0.2294E+00  0.1590E+02
     25.448  0.2284E+00  0.1590E+02
     25.462  0.2274E+00  0.1590E+02
     25.476  0.2263E+00  0.1591E+02
     25.490  0.2252E+00  0.1591E+02
     25.504  0.2241E+00  0.1591E+02
     25.518  0.2229E+00  0.1592E+02
     25.532  0.2217E+00  0.1592E+02
     25.546  0.2204E+00  0.1592E+02
     25.560  0.2191E+00  0.1593E+02
     25.574  0.2184E+00  0.1593E+02
     25.588  0.2184E+00  0.1593E+02
     25.602  0.2192E+00  0.1593E+02
     25.616  0.2314E+00  0.1594E+02
     25.630  0.2403E+00  0.1594E+02
     25.644  0.2358E+00  0.1594E+02
     25.658  0.2307E+00  0.1595E+02
     25.672  0.2248E+00  0.1595E+02
     25.686  0.2182E+00  0.1595E+02
     25.700  0.2108E+00  0.1596E+02
     25.714  0.2028E+00  0.1596E+02
     25.728  0.1940E+00  0.1596E+02
     25.742  0.1845E+00  0.1597E+02
     25.756  0.1743E+00  0.1597E+02
     25.770  0.1633E+00  0.1597E+02
     25.784  0.1517E+00  0.1597E+02
     25.798  0.1393E+00  0.1597E+02
     25.812  0.1293E+00  0.1598E+02
     25.826  0.1228E+00  0.1598E+02
     25.840  0.1165E+00  0.1598E+02
     25.854  0.1104E+00  0.1598E+02
     25.868  0.1045E+00  0.1598E+02
     25.881  0.9870E-01  0.1598E+02
     25.895  0.9309E-01  0.1599E+02
     25.909  0.8763E-01  0.1599E+02
     25.923  0.8234E-01  0.1599E+02
     25.937  0.7722E-01  0.1599E+02
     25.951  0.7226E-01  0.1599E+02
     25.965  0.6747E-01  0.1599E+02
     25.979  0.6284E-01  0.1599E+02
     25.993  0.5837E-01  0.1599E+02
     26.007  0.5407E-01  0.1599E+02
     26.021  0.4993E-01  0.1599E+02
     26.035  0.4596E-01  0.1599E+02
     26.049  0.4215E-01  0.1600E+02
     26.063  0.3851E-01  0.1600E+02
     26.077  0.3503E-01  0.1600E+02
     26.091  0.3172E-01  0.1600E+02
     26.105  0.2857E-01  0.1600E+02
     26.119  0.2559E-01  0.1600E+02
     26.133  0.2277E-01  0.1600E+02
     26.147  0.2011E-01  0.1600E+02
     26.161  0.1762E-01  0.1600E+02
     26.175  0.1529E-01  0.1600E+02
     26.189  0.1313E-01  0.1600E+02
     26.203  0.1114E-01  0.1600E+02
     26.217  0.9304E-02  0.1600E+02
     26.231  0.7636E-02  0.1600E+02
     26.245  0.6133E-02  0.1600E+02
     26.259  0.4794E-02  0.1600E+02
     26.273  0.3621E-02  0.1600E+02
     26.287  0.2611E-02  0.1600E+02
     26.301  0.1766E-02  0.1600E+02
     26.315  0.1086E-02  0.1600E+02
     26.329  0.5705E-03  0.1600E+02
     26.343  0.2194E-03  0.1600E+02
     26.357  0.3297E-04  0.1600E+02
     26.371  0.0000E+00  0.1600E+02
     26.385  0.0000E+00  0.1600E+02
     26.399  0.0000E+00  0.1600E+02
     26.413  0.0000E+00  0.1600E+02
     26.427  0.0000E+00  0.1600E+02
     26.441  0.0000E+00  0.1600E+02
     26.455  0.0000E+00  0.1600E+02
     26.469  0.0000E+00  0.1600E+02
     26.482  0.0000E+00  0.1600E+02
     26.496  0.0000E+00  0.1600E+02
     26.510  0.0000E+00  0.1600E+02
     26.524  0.0000E+00  0.1600E+02
     26.538  0.0000E+00  0.1600E+02
     26.552  0.0000E+00  0.1600E+02
     26.566  0.0000E+00  0.1600E+02
     26.580  0.0000E+00  0.1600E+02
     26.594  0.0000E+00  0.1600E+02
     26.608  0.0000E+00  0.1600E+02
     26.622  0.0000E+00  0.1600E+02
     26.636  0.0000E+00  0.1600E+02
     26.650  0.0000E+00  0.1600E+02
     26.664  0.0000E+00  0.1600E+02
     26.678  0.0000E+00  0.1600E+02
     26.692  0.0000E+00  0.1600E+02
     26.706  0.0000E+00  0.1600E+02
     26.720  0.0000E+00  0.1600E+02
     26.734  0.0000E+00  0.1600E+02
     26.748  0.0000E+00  0.1600E+02
     26.762  0.0000E+00  0.1600E+02
     26.776  0.0000E+00  0.1600E+02
     26.790  0.0000E+00  0.1600E+02
     26.804  0.0000E+00  0.1600E+02
     26.818  0.0000E+00  0.1600E+02
     26.832  0.0000E+00  0.1600E+02
     26.846  0.0000E+00  0.1600E+02
     26.860  0.0000E+00  0.1600E+02
     26.874  0.0000E+00  0.1600E+02
     26.888  0.0000E+00  0.1600E+02
     26.902  0.0000E+00  0.1600E+02
     26.916  0.0000E+00  0.1600E+02
     26.930  0.0000E+00  0.1600E+02
     26.944  0.0000E+00  0.1600E+02
     26.958  0.0000E+00  0.1600E+02
     26.972  0.0000E+00  0.1600E+02
     26.986  0.0000E+00  0.1600E+02
     27.000  0.0000E+00  0.1600E+02
     27.014  0.0000E+00  0.1600E+02
     27.028  0.0000E+00  0.1600E+02
     27.042  0.0000E+00  0.1600E+02
     27.056  0.0000E+00  0.1600E+02
     27.070  0.0000E+00  0.1600E+02
     27.083  0.0000E+00  0.1600E+02
     27.097  0.0000E+00  0.1600E+02
     27.111  0.0000E+00  0.1600E+02
     27.125  0.0000E+00  0.1600E+02
     27.139  0.0000E+00  0.1600E+02
     27.153  0.0000E+00  0.1600E+02
     27.167  0.0000E+00  0.1600E+02
     27.181  0.0000E+00  0.1600E+02
     27.195  0.0000E+00  0.1600E+02
     27.209  0.0000E+00  0.1600E+02
     27.223  0.0000E+00  0.1600E+02
     27.237  0.0000E+00  0.1600E+02
     27.251  0.0000E+00  0.1600E+02
     27.265  0.0000E+00  0.1600E+02
     27.279  0.0000E+00  0.1600E+02
     27.293  0.0000E+00  0.1600E+02
     27.307  0.0000E+00  0.1600E+02
     27.321  0.0000E+00  0.1600E+02
     27.335  0.0000E+00  0.1600E+02
     27.349  0.0000E+00  0.1600E+02
     27.363  0.0000E+00  0.1600E+02
     27.377  0.0000E+00  0.1600E+02
     27.391  0.0000E+00  0.1600E+02
     27.405  0.0000E+00  0.1600E+02
     27.419  0.0000E+00  0.1600E+02
     27.433  0.0000E+00  0.1600E+02
     27.447  0.0000E+00  0.1600E+02
     27.461  0.0000E+00  0.1600E+02
     27.475  0.0000E+00  0.1600E+02
     27.489  0.0000E+00  0.1600E+02
     27.503  0.0000E+00  0.1600E+02
     27.517  0.0000E+00  0.1600E+02
     27.531  0.0000E+00  0.1600E+02
     27.545  0.0000E+00  0.1600E+02
     27.559  0.0000E+00  0.1600E+02
     27.573  0.0000E+00  0.1600E+02
     27.587  0.0000E+00  0.1600E+02
     27.601  0.0000E+00  0.1600E+02
     27.615  0.0000E+00  0.1600E+02
     27.629  0.0000E+00  0.1600E+02
     27.643  0.0000E+00  0.1600E+02
     27.657  0.0000E+00  0.1600E+02
     27.671  0.0000E+00  0.1600E+02
     27.684  0.0000E+00  0.1600E+02
     27.698  0.0000E+00  0.1600E+02
     27.712  0.0000E+00  0.1600E+02
     27.726  0.0000E+00  0.1600E+02
     27.740  0.0000E+00  0.1600E+02
     27.754  0.0000E+00  0.1600E+02
     27.768  0.0000E+00  0.1600E+02
     27.782  0.0000E+00  0.1600E+02
     27.796  0.0000E+00  0.1600E+02
     27.810  0.0000E+00  0.1600E+02
     27.824  0.0000E+00  0.1600E+02
     27.838  0.0000E+00  0.1600E+02
     27.852  0.0000E+00  0.1600E+02
     27.866  0.0000E+00  0.1600E+02
     27.880  0.0000E+00  0.1600E+02
     27.894  0.0000E+00  0.1600E+02
     27.908  0.0000E+00  0.1600E+02
     27.922  0.0000E+00  0.1600E+02
     27.936  0.0000E+00  0.1600E+02
     27.950  0.0000E+00  0.1600E+02
     27.964  0.0000E+00  0.1600E+02
     27.978  0.0000E+00  0.1600E+02
     27.992  0.0000E+00  0.1600E+02
     28.006  0.0000E+00  0.1600E+02
     28.020  0.0000E+00  0.1600E+02
     28.034  0.0000E+00  0.1600E+02
     28.048  0.0000E+00  0.1600E+02
     28.062  0.0000E+00  0.1600E+02
     28.076  0.0000E+00  0.1600E+02
     28.090  0.0000E+00  0.1600E+02
     28.104  0.0000E+00  0.1600E+02
     28.118  0.0000E+00  0.1600E+02
     28.132  0.0000E+00  0.1600E+02
     28.146  0.0000E+00  0.1600E+02
     28.160  0.0000E+00  0.1600E+02
     28.174  0.0000E+00  0.1600E+02
     28.188  0.0000E+00  0.1600E+02
     28.202  0.0000E+00  0.1600E+02
     28.216  0.0000E+00  0.1600E+02
     28.230  0.0000E+00  0.1600E+02
     28.244  0.0000E+00  0.1600E+02
     28.258  0.0000E+00  0.1600E+02
     28.272  0.0000E+00  0.1600E+02
     28.27151701    -13.65881187 3001      9.65445099      1.00000000
    -13.659  0.0000E+00  0.0000E+00  0.0000E+00  0.0000E+00  0.0000E+00  0.0000E+00  0.0000E+00  0.0000E+00  0.0000E+00
    -13.645  0.0000E+00  0.0000E+00  0.0000E+00  0.0000E+00  0.0000E+00  0.0000E+00  0.0000E+00  0.0000E+00  0.0000E+00
    -13.631  0.0000E+00  0.0000E+00  0.0000E+00  0.0000E+00  0.0000E+00  0.0000E+00  0.0000E+00  0.0000E+00  0.0000E+00
    -13.617  0.0000E+00  0.0000E+00  0.0000E+00  0.0000E+00  0.0000E+00  0.0000E+00  0.0000E+00  0.0000E+00  0.0000E+00
    -13.603  0.0000E+00  0.0000E+00  0.0000E+00  0.0000E+00  0.0000E+00  0.0000E+00  0.0000E+00  0.0000E+00  0.0000E+00
    -13.589  0.0000E+00  0.0000E+00  0.0000E+00  0.0000E+00  0.0000E+00  0.0000E+00  0.0000E+00  0.0000E+00  0.0000E+00
    -13.575  0.0000E+00  0.0000E+00  0.0000E+00  0.0000E+00  0.0000E+00  0.0000E+00  0.0000E+00  0.0000E+00  0.0000E+00
    -13.561  0.0000E+00  0.0000E+00  0.0000E+00  0.0000E+00  0.0000E+00  0.0000E+00  0.0000E+00  0.0000E+00  0.0000E+00
    -13.547  0.0000E+00  0.0000E+00  0.0000E+00  0.0000E+00  0.0000E+00  0.0000E+00  0.0000E+00  0.0000E+00  0.0000E+00
    -13.533  0.0000E+00  0.0000E+00  0.0000E+00  0.0000E+00  0.0000E+00  0.0000E+00  0.0000E+00  0.0000E+00  0.0000E+00
    -13.519  0.0000E+00  0.0000E+00  0.0000E+00  0.0000E+00  0.0000E+00  0.0000E+00  0.0000E+00  0.0000E+00  0.0000E+00
    -13.505  0.0000E+00  0.0000E+00  0.0000E+00  0.0000E+00  0.0000E+00  0.0000E+00  0.0000E+00  0.0000E+00  0.0000E+00
    -13.491  0.0000E+00  0.0000E+00  0.0000E+00  0.0000E+00  0.0000E+00  0.0000E+00  0.0000E+00  0.0000E+00  0.0000E+00
    -13.477  0.0000E+00  0.0000E+00  0.0000E+00  0.0000E+00  0.0000E+00  0.0000E+00  0.0000E+00  0.0000E+00  0.0000E+00
    -13.463  0.0000E+00  0.0000E+00  0.0000E+00  0.0000E+00  0.0000E+00  0.0000E+00  0.0000E+00  0.0000E+00  0.0000E+00
    -13.449  0.0000E+00  0.0000E+00  0.0000E+00  0.0000E+00  0.0000E+00  0.0000E+00  0.0000E+00  0.0000E+00  0.0000E+00
    -13.435  0.0000E+00  0.0000E+00  0.0000E+00  0.0000E+00  0.0000E+00  0.0000E+00  0.0000E+00  0.0000E+00  0.0000E+00
    -13.421  0.0000E+00  0.0000E+00  0.0000E+00  0.0000E+00  0.0000E+00  0.0000E+00  0.0000E+00  0.0000E+00  0.0000E+00
    -13.407  0.0000E+00  0.0000E+00  0.0000E+00  0.0000E+00  0.0000E+00  0.0000E+00  0.0000E+00  0.0000E+00  0.0000E+00
    -13.393  0.0000E+00  0.0000E+00  0.0000E+00  0.0000E+00  0.0000E+00  0.0000E+00  0.0000E+00  0.0000E+00  0.0000E+00
    -13.379  0.0000E+00  0.0000E+00  0.0000E+00  0.0000E+00  0.0000E+00  0.0000E+00  0.0000E+00  0.0000E+00  0.0000E+00
    -13.365  0.0000E+00  0.0000E+00  0.0000E+00  0.0000E+00  0.0000E+00  0.0000E+00  0.0000E+00  0.0000E+00  0.0000E+00
    -13.351  0.0000E+00  0.0000E+00  0.0000E+00  0.0000E+00  0.0000E+00  0.0000E+00  0.0000E+00  0.0000E+00  0.0000E+00
    -13.337  0.0000E+00  0.0000E+00  0.0000E+00  0.0000E+00  0.0000E+00  0.0000E+00  0.0000E+00  0.0000E+00  0.0000E+00
    -13.323  0.0000E+00  0.0000E+00  0.0000E+00  0.0000E+00  0.0000E+00  0.0000E+00  0.0000E+00  0.0000E+00  0.0000E+00
    -13.309  0.0000E+00  0.0000E+00  0.0000E+00  0.0000E+00  0.0000E+00  0.0000E+00  0.0000E+00  0.0000E+00  0.0000E+00
    -13.295  0.0000E+00  0.0000E+00  0.0000E+00  0.0000E+00  0.0000E+00  0.0000E+00  0.0000E+00  0.0000E+00  0.0000E+00
    -13.281  0.0000E+00  0.0000E+00  0.0000E+00  0.0000E+00  0.0000E+00  0.0000E+00  0.0000E+00  0.0000E+00  0.0000E+00
    -13.267  0.0000E+00  0.0000E+00  0.0000E+00  0.0000E+00  0.0000E+00  0.0000E+00  0.0000E+00  0.0000E+00  0.0000E+00
    -13.253  0.0000E+00  0.0000E+00  0.0000E+00  0.0000E+00  0.0000E+00  0.0000E+00  0.0000E+00  0.0000E+00  0.0000E+00
    -13.240  0.0000E+00  0.0000E+00  0.0000E+00  0.0000E+00  0.0000E+00  0.0000E+00  0.0000E+00  0.0000E+00  0.0000E+00
    -13.226  0.0000E+00  0.0000E+00  0.0000E+00  0.0000E+00  0.0000E+00  0.0000E+00  0.0000E+00  0.0000E+00  0.0000E+00
    -13.212  0.0000E+00  0.0000E+00  0.0000E+00  0.0000E+00  0.0000E+00  0.0000E+00  0.0000E+00  0.0000E+00  0.0000E+00
    -13.198  0.0000E+00  0.0000E+00  0.0000E+00  0.0000E+00  0.0000E+00  0.0000E+00  0.0000E+00  0.0000E+00  0.0000E+00
    -13.184  0.0000E+00  0.0000E+00  0.0000E+00  0.0000E+00  0.0000E+00  0.0000E+00  0.0000E+00  0.0000E+00  0.0000E+00
    -13.170  0.0000E+00  0.0000E+00  0.0000E+00  0.0000E+00  0.0000E+00  0.0000E+00  0.0000E+00  0.0000E+00  0.0000E+00
    -13.156  0.0000E+00  0.0000E+00  0.0000E+00  0.0000E+00  0.0000E+00  0.0000E+00  0.0000E+00  0.0000E+00  0.0000E+00
    -13.142  0.0000E+00  0.0000E+00  0.0000E+00  0.0000E+00  0.0000E+00  0.0000E+00  0.0000E+00  0.0000E+00  0.0000E+00
    -13.128  0.0000E+00  0.0000E+00  0.0000E+00  0.0000E+00  0.0000E+00  0.0000E+00  0.0000E+00  0.0000E+00  0.0000E+00
    -13.114  0.0000E+00  0.0000E+00  0.0000E+00  0.0000E+00  0.0000E+00  0.0000E+00  0.0000E+00  0.0000E+00  0.0000E+00
    -13.100  0.0000E+00  0.0000E+00  0.0000E+00  0.0000E+00  0.0000E+00  0.0000E+00  0.0000E+00  0.0000E+00  0.0000E+00
    -13.086  0.0000E+00  0.0000E+00  0.0000E+00  0.0000E+00  0.0000E+00  0.0000E+00  0.0000E+00  0.0000E+00  0.0000E+00
    -13.072  0.0000E+00  0.0000E+00  0.0000E+00  0.0000E+00  0.0000E+00  0.0000E+00  0.0000E+00  0.0000E+00  0.0000E+00
    -13.058  0.0000E+00  0.0000E+00  0.0000E+00  0.0000E+00  0.0000E+00  0.0000E+00  0.0000E+00  0.0000E+00  0.0000E+00
    -13.044  0.0000E+00  0.0000E+00  0.0000E+00  0.0000E+00  0.0000E+00  0.0000E+00  0.0000E+00  0.0000E+00  0.0000E+00
    -13.030  0.0000E+00  0.0000E+00  0.0000E+00  0.0000E+00  0.0000E+00  0.0000E+00  0.0000E+00  0.0000E+00  0.0000E+00
    -13.016  0.0000E+00  0.0000E+00  0.0000E+00  0.0000E+00  0.0000E+00  0.0000E+00  0.0000E+00  0.0000E+00  0.0000E+00
    -13.002  0.0000E+00  0.0000E+00  0.0000E+00  0.0000E+00  0.0000E+00  0.0000E+00  0.0000E+00  0.0000E+00  0.0000E+00
    -12.988  0.0000E+00  0.0000E+00  0.0000E+00  0.0000E+00  0.0000E+00  0.0000E+00  0.0000E+00  0.0000E+00  0.0000E+00
    -12.974  0.0000E+00  0.0000E+00  0.0000E+00  0.0000E+00  0.0000E+00  0.0000E+00  0.0000E+00  0.0000E+00  0.0000E+00
    -12.960  0.0000E+00  0.0000E+00  0.0000E+00  0.0000E+00  0.0000E+00  0.0000E+00  0.0000E+00  0.0000E+00  0.0000E+00
    -12.946  0.0000E+00  0.0000E+00  0.0000E+00  0.0000E+00  0.0000E+00  0.0000E+00  0.0000E+00  0.0000E+00  0.0000E+00
    -12.932  0.0000E+00  0.0000E+00  0.0000E+00  0.0000E+00  0.0000E+00  0.0000E+00  0.0000E+00  0.0000E+00  0.0000E+00
    -12.918  0.0000E+00  0.0000E+00  0.0000E+00  0.0000E+00  0.0000E+00  0.0000E+00  0.0000E+00  0.0000E+00  0.0000E+00
    -12.904  0.0000E+00  0.0000E+00  0.0000E+00  0.0000E+00  0.0000E+00  0.0000E+00  0.0000E+00  0.0000E+00  0.0000E+00
    -12.890  0.0000E+00  0.0000E+00  0.0000E+00  0.0000E+00  0.0000E+00  0.0000E+00  0.0000E+00  0.0000E+00  0.0000E+00
    -12.876  0.0000E+00  0.0000E+00  0.0000E+00  0.0000E+00  0.0000E+00  0.0000E+00  0.0000E+00  0.0000E+00  0.0000E+00
    -12.862  0.0000E+00  0.0000E+00  0.0000E+00  0.0000E+00  0.0000E+00  0.0000E+00  0.0000E+00  0.0000E+00  0.0000E+00
    -12.848  0.0000E+00  0.0000E+00  0.0000E+00  0.0000E+00  0.0000E+00  0.0000E+00  0.0000E+00  0.0000E+00  0.0000E+00
    -12.834  0.0000E+00  0.0000E+00  0.0000E+00  0.0000E+00  0.0000E+00  0.0000E+00  0.0000E+00  0.0000E+00  0.0000E+00
    -12.820  0.0000E+00  0.0000E+00  0.0000E+00  0.0000E+00  0.0000E+00  0.0000E+00  0.0000E+00  0.0000E+00  0.0000E+00
    -12.806  0.0000E+00  0.0000E+00  0.0000E+00  0.0000E+00  0.0000E+00  0.0000E+00  0.0000E+00  0.0000E+00  0.0000E+00
    -12.792  0.0000E+00  0.0000E+00  0.0000E+00  0.0000E+00  0.0000E+00  0.0000E+00  0.0000E+00  0.0000E+00  0.0000E+00
    -12.778  0.0000E+00  0.0000E+00  0.0000E+00  0.0000E+00  0.0000E+00  0.0000E+00  0.0000E+00  0.0000E+00  0.0000E+00
    -12.764  0.0000E+00  0.0000E+00  0.0000E+00  0.0000E+00  0.0000E+00  0.0000E+00  0.0000E+00  0.0000E+00  0.0000E+00
    -12.750  0.0000E+00  0.0000E+00  0.0000E+00  0.0000E+00  0.0000E+00  0.0000E+00  0.0000E+00  0.0000E+00  0.0000E+00
    -12.736  0.0000E+00  0.0000E+00  0.0000E+00  0.0000E+00  0.0000E+00  0.0000E+00  0.0000E+00  0.0000E+00  0.0000E+00
    -12.722  0.0000E+00  0.0000E+00  0.0000E+00  0.0000E+00  0.0000E+00  0.0000E+00  0.0000E+00  0.0000E+00  0.0000E+00
    -12.708  0.0000E+00  0.0000E+00  0.0000E+00  0.0000E+00  0.0000E+00  0.0000E+00  0.0000E+00  0.0000E+00  0.0000E+00
    -12.694  0.0000E+00  0.0000E+00  0.0000E+00  0.0000E+00  0.0000E+00  0.0000E+00  0.0000E+00  0.0000E+00  0.0000E+00
    -12.680  0.0000E+00  0.0000E+00  0.0000E+00  0.0000E+00  0.0000E+00  0.0000E+00  0.0000E+00  0.0000E+00  0.0000E+00
    -12.666  0.0000E+00  0.0000E+00  0.0000E+00  0.0000E+00  0.0000E+00  0.0000E+00  0.0000E+00  0.0000E+00  0.0000E+00
    -12.652  0.0000E+00  0.0000E+00  0.0000E+00  0.0000E+00  0.0000E+00  0.0000E+00  0.0000E+00  0.0000E+00  0.0000E+00
    -12.639  0.0000E+00  0.0000E+00  0.0000E+00  0.0000E+00  0.0000E+00  0.0000E+00  0.0000E+00  0.0000E+00  0.0000E+00
    -12.625  0.0000E+00  0.0000E+00  0.0000E+00  0.0000E+00  0.0000E+00  0.0000E+00  0.0000E+00  0.0000E+00  0.0000E+00
    -12.611  0.0000E+00  0.0000E+00  0.0000E+00  0.0000E+00  0.0000E+00  0.0000E+00  0.0000E+00  0.0000E+00  0.0000E+00
    -12.597  0.0000E+00  0.0000E+00  0.0000E+00  0.0000E+00  0.0000E+00  0.0000E+00  0.0000E+00  0.0000E+00  0.0000E+00
    -12.583  0.0000E+00  0.0000E+00  0.0000E+00  0.0000E+00  0.0000E+00  0.0000E+00  0.0000E+00  0.0000E+00  0.0000E+00
    -12.569  0.0000E+00  0.0000E+00  0.0000E+00  0.0000E+00  0.0000E+00  0.0000E+00  0.0000E+00  0.0000E+00  0.0000E+00
    -12.555  0.0000E+00  0.0000E+00  0.0000E+00  0.0000E+00  0.0000E+00  0.0000E+00  0.0000E+00  0.0000E+00  0.0000E+00
    -12.541  0.0000E+00  0.0000E+00  0.0000E+00  0.0000E+00  0.0000E+00  0.0000E+00  0.0000E+00  0.0000E+00  0.0000E+00
    -12.527  0.0000E+00  0.0000E+00  0.0000E+00  0.0000E+00  0.0000E+00  0.0000E+00  0.0000E+00  0.0000E+00  0.0000E+00
    -12.513  0.0000E+00  0.0000E+00  0.0000E+00  0.0000E+00  0.0000E+00  0.0000E+00  0.0000E+00  0.0000E+00  0.0000E+00
    -12.499  0.0000E+00  0.0000E+00  0.0000E+00  0.0000E+00  0.0000E+00  0.0000E+00  0.0000E+00  0.0000E+00  0.0000E+00
    -12.485  0.0000E+00  0.0000E+00  0.0000E+00  0.0000E+00  0.0000E+00  0.0000E+00  0.0000E+00  0.0000E+00  0.0000E+00
    -12.471  0.0000E+00  0.0000E+00  0.0000E+00  0.0000E+00  0.0000E+00  0.0000E+00  0.0000E+00  0.0000E+00  0.0000E+00
    -12.457  0.0000E+00  0.0000E+00  0.0000E+00  0.0000E+00  0.0000E+00  0.0000E+00  0.0000E+00  0.0000E+00  0.0000E+00
    -12.443  0.0000E+00  0.0000E+00  0.0000E+00  0.0000E+00  0.0000E+00  0.0000E+00  0.0000E+00  0.0000E+00  0.0000E+00
    -12.429  0.0000E+00  0.0000E+00  0.0000E+00  0.0000E+00  0.0000E+00  0.0000E+00  0.0000E+00  0.0000E+00  0.0000E+00
    -12.415  0.0000E+00  0.0000E+00  0.0000E+00  0.0000E+00  0.0000E+00  0.0000E+00  0.0000E+00  0.0000E+00  0.0000E+00
    -12.401  0.0000E+00  0.0000E+00  0.0000E+00  0.0000E+00  0.0000E+00  0.0000E+00  0.0000E+00  0.0000E+00  0.0000E+00
    -12.387  0.0000E+00  0.0000E+00  0.0000E+00  0.0000E+00  0.0000E+00  0.0000E+00  0.0000E+00  0.0000E+00  0.0000E+00
    -12.373  0.0000E+00  0.0000E+00  0.0000E+00  0.0000E+00  0.0000E+00  0.0000E+00  0.0000E+00  0.0000E+00  0.0000E+00
    -12.359  0.0000E+00  0.0000E+00  0.0000E+00  0.0000E+00  0.0000E+00  0.0000E+00  0.0000E+00  0.0000E+00  0.0000E+00
    -12.345  0.0000E+00  0.0000E+00  0.0000E+00  0.0000E+00  0.0000E+00  0.0000E+00  0.0000E+00  0.0000E+00  0.0000E+00
    -12.331  0.0000E+00  0.0000E+00  0.0000E+00  0.0000E+00  0.0000E+00  0.0000E+00  0.0000E+00  0.0000E+00  0.0000E+00
    -12.317  0.0000E+00  0.0000E+00  0.0000E+00  0.0000E+00  0.0000E+00  0.0000E+00  0.0000E+00  0.0000E+00  0.0000E+00
    -12.303  0.0000E+00  0.0000E+00  0.0000E+00  0.0000E+00  0.0000E+00  0.0000E+00  0.0000E+00  0.0000E+00  0.0000E+00
    -12.289  0.0000E+00  0.0000E+00  0.0000E+00  0.0000E+00  0.0000E+00  0.0000E+00  0.0000E+00  0.0000E+00  0.0000E+00
    -12.275  0.0000E+00  0.0000E+00  0.0000E+00  0.0000E+00  0.0000E+00  0.0000E+00  0.0000E+00  0.0000E+00  0.0000E+00
    -12.261  0.0000E+00  0.0000E+00  0.0000E+00  0.0000E+00  0.0000E+00  0.0000E+00  0.0000E+00  0.0000E+00  0.0000E+00
    -12.247  0.0000E+00  0.0000E+00  0.0000E+00  0.0000E+00  0.0000E+00  0.0000E+00  0.0000E+00  0.0000E+00  0.0000E+00
    -12.233  0.0000E+00  0.0000E+00  0.0000E+00  0.0000E+00  0.0000E+00  0.0000E+00  0.0000E+00  0.0000E+00  0.0000E+00
    -12.219  0.0000E+00  0.0000E+00  0.0000E+00  0.0000E+00  0.0000E+00  0.0000E+00  0.0000E+00  0.0000E+00  0.0000E+00
    -12.205  0.0000E+00  0.0000E+00  0.0000E+00  0.0000E+00  0.0000E+00  0.0000E+00  0.0000E+00  0.0000E+00  0.0000E+00
    -12.191  0.0000E+00  0.0000E+00  0.0000E+00  0.0000E+00  0.0000E+00  0.0000E+00  0.0000E+00  0.0000E+00  0.0000E+00
    -12.177  0.0000E+00  0.0000E+00  0.0000E+00  0.0000E+00  0.0000E+00  0.0000E+00  0.0000E+00  0.0000E+00  0.0000E+00
    -12.163  0.0000E+00  0.0000E+00  0.0000E+00  0.0000E+00  0.0000E+00  0.0000E+00  0.0000E+00  0.0000E+00  0.0000E+00
    -12.149  0.0000E+00  0.0000E+00  0.0000E+00  0.0000E+00  0.0000E+00  0.0000E+00  0.0000E+00  0.0000E+00  0.0000E+00
    -12.135  0.0000E+00  0.0000E+00  0.0000E+00  0.0000E+00  0.0000E+00  0.0000E+00  0.0000E+00  0.0000E+00  0.0000E+00
    -12.121  0.0000E+00  0.0000E+00  0.0000E+00  0.0000E+00  0.0000E+00  0.0000E+00  0.0000E+00  0.0000E+00  0.0000E+00
    -12.107  0.0000E+00  0.0000E+00  0.0000E+00  0.0000E+00  0.0000E+00  0.0000E+00  0.0000E+00  0.0000E+00  0.0000E+00
    -12.093  0.0000E+00  0.0000E+00  0.0000E+00  0.0000E+00  0.0000E+00  0.0000E+00  0.0000E+00  0.0000E+00  0.0000E+00
    -12.079  0.0000E+00  0.0000E+00  0.0000E+00  0.0000E+00  0.0000E+00  0.0000E+00  0.0000E+00  0.0000E+00  0.0000E+00
    -12.065  0.0000E+00  0.0000E+00  0.0000E+00  0.0000E+00  0.0000E+00  0.0000E+00  0.0000E+00  0.0000E+00  0.0000E+00
    -12.051  0.0000E+00  0.0000E+00  0.0000E+00  0.0000E+00  0.0000E+00  0.0000E+00  0.0000E+00  0.0000E+00  0.0000E+00
    -12.038  0.0000E+00  0.0000E+00  0.0000E+00  0.0000E+00  0.0000E+00  0.0000E+00  0.0000E+00  0.0000E+00  0.0000E+00
    -12.024  0.0000E+00  0.0000E+00  0.0000E+00  0.0000E+00  0.0000E+00  0.0000E+00  0.0000E+00  0.0000E+00  0.0000E+00
    -12.010  0.0000E+00  0.0000E+00  0.0000E+00  0.0000E+00  0.0000E+00  0.0000E+00  0.0000E+00  0.0000E+00  0.0000E+00
    -11.996  0.0000E+00  0.0000E+00  0.0000E+00  0.0000E+00  0.0000E+00  0.0000E+00  0.0000E+00  0.0000E+00  0.0000E+00
    -11.982  0.0000E+00  0.0000E+00  0.0000E+00  0.0000E+00  0.0000E+00  0.0000E+00  0.0000E+00  0.0000E+00  0.0000E+00
    -11.968  0.0000E+00  0.0000E+00  0.0000E+00  0.0000E+00  0.0000E+00  0.0000E+00  0.0000E+00  0.0000E+00  0.0000E+00
    -11.954  0.0000E+00  0.0000E+00  0.0000E+00  0.0000E+00  0.0000E+00  0.0000E+00  0.0000E+00  0.0000E+00  0.0000E+00
    -11.940  0.0000E+00  0.0000E+00  0.0000E+00  0.0000E+00  0.0000E+00  0.0000E+00  0.0000E+00  0.0000E+00  0.0000E+00
    -11.926  0.0000E+00  0.0000E+00  0.0000E+00  0.0000E+00  0.0000E+00  0.0000E+00  0.0000E+00  0.0000E+00  0.0000E+00
    -11.912  0.0000E+00  0.0000E+00  0.0000E+00  0.0000E+00  0.0000E+00  0.0000E+00  0.0000E+00  0.0000E+00  0.0000E+00
    -11.898  0.0000E+00  0.0000E+00  0.0000E+00  0.0000E+00  0.0000E+00  0.0000E+00  0.0000E+00  0.0000E+00  0.0000E+00
    -11.884  0.0000E+00  0.0000E+00  0.0000E+00  0.0000E+00  0.0000E+00  0.0000E+00  0.0000E+00  0.0000E+00  0.0000E+00
    -11.870  0.0000E+00  0.0000E+00  0.0000E+00  0.0000E+00  0.0000E+00  0.0000E+00  0.0000E+00  0.0000E+00  0.0000E+00
    -11.856  0.0000E+00  0.0000E+00  0.0000E+00  0.0000E+00  0.0000E+00  0.0000E+00  0.0000E+00  0.0000E+00  0.0000E+00
    -11.842  0.0000E+00  0.0000E+00  0.0000E+00  0.0000E+00  0.0000E+00  0.0000E+00  0.0000E+00  0.0000E+00  0.0000E+00
    -11.828  0.0000E+00  0.0000E+00  0.0000E+00  0.0000E+00  0.0000E+00  0.0000E+00  0.0000E+00  0.0000E+00  0.0000E+00
    -11.814  0.0000E+00  0.0000E+00  0.0000E+00  0.0000E+00  0.0000E+00  0.0000E+00  0.0000E+00  0.0000E+00  0.0000E+00
    -11.800  0.0000E+00  0.0000E+00  0.0000E+00  0.0000E+00  0.0000E+00  0.0000E+00  0.0000E+00  0.0000E+00  0.0000E+00
    -11.786  0.0000E+00  0.0000E+00  0.0000E+00  0.0000E+00  0.0000E+00  0.0000E+00  0.0000E+00  0.0000E+00  0.0000E+00
    -11.772  0.0000E+00  0.0000E+00  0.0000E+00  0.0000E+00  0.0000E+00  0.0000E+00  0.0000E+00  0.0000E+00  0.0000E+00
    -11.758  0.0000E+00  0.0000E+00  0.0000E+00  0.0000E+00  0.0000E+00  0.0000E+00  0.0000E+00  0.0000E+00  0.0000E+00
    -11.744  0.1863E-04  0.6938E-07  0.6938E-07  0.6938E-07  0.0000E+00  0.0000E+00  0.0000E+00  0.0000E+00  0.0000E+00
    -11.730  0.1232E-03  0.4588E-06  0.4588E-06  0.4588E-06  0.0000E+00  0.0000E+00  0.0000E+00  0.0000E+00  0.0000E+00
    -11.716  0.3197E-03  0.1191E-05  0.1191E-05  0.1191E-05  0.0000E+00  0.0000E+00  0.0000E+00  0.0000E+00  0.0000E+00
    -11.702  0.6082E-03  0.2265E-05  0.2265E-05  0.2265E-05  0.0000E+00  0.0000E+00  0.0000E+00  0.0000E+00  0.0000E+00
    -11.688  0.9888E-03  0.3683E-05  0.3683E-05  0.3683E-05  0.0000E+00  0.0000E+00  0.0000E+00  0.0000E+00  0.0000E+00
    -11.674  0.1461E-02  0.5443E-05  0.5443E-05  0.5443E-05  0.0000E+00  0.0000E+00  0.0000E+00  0.0000E+00  0.0000E+00
    -11.660  0.2026E-02  0.7545E-05  0.7545E-05  0.7545E-05  0.0000E+00  0.0000E+00  0.0000E+00  0.0000E+00  0.0000E+00
    -11.646  0.2682E-02  0.9991E-05  0.9991E-05  0.9991E-05  0.0000E+00  0.0000E+00  0.0000E+00  0.0000E+00  0.0000E+00
    -11.632  0.3431E-02  0.1278E-04  0.1278E-04  0.1278E-04  0.0000E+00  0.0000E+00  0.0000E+00  0.0000E+00  0.0000E+00
    -11.618  0.4271E-02  0.1591E-04  0.1591E-04  0.1591E-04  0.0000E+00  0.0000E+00  0.0000E+00  0.0000E+00  0.0000E+00
    -11.604  0.5204E-02  0.1938E-04  0.1938E-04  0.1938E-04  0.0000E+00  0.0000E+00  0.0000E+00  0.0000E+00  0.0000E+00
    -11.590  0.6228E-02  0.2320E-04  0.2320E-04  0.2320E-04  0.0000E+00  0.0000E+00  0.0000E+00  0.0000E+00  0.0000E+00
    -11.576  0.7345E-02  0.2736E-04  0.2736E-04  0.2736E-04  0.0000E+00  0.0000E+00  0.0000E+00  0.0000E+00  0.0000E+00
    -11.562  0.8553E-02  0.3186E-04  0.3186E-04  0.3186E-04  0.0000E+00  0.0000E+00  0.0000E+00  0.0000E+00  0.0000E+00
    -11.548  0.9854E-02  0.3670E-04  0.3670E-04  0.3670E-04  0.0000E+00  0.0000E+00  0.0000E+00  0.0000E+00  0.0000E+00
    -11.534  0.1125E-01  0.4189E-04  0.4189E-04  0.4189E-04  0.0000E+00  0.0000E+00  0.0000E+00  0.0000E+00  0.0000E+00
    -11.520  0.1273E-01  0.4742E-04  0.4742E-04  0.4742E-04  0.0000E+00  0.0000E+00  0.0000E+00  0.0000E+00  0.0000E+00
    -11.506  0.1431E-01  0.5329E-04  0.5329E-04  0.5329E-04  0.0000E+00  0.0000E+00  0.0000E+00  0.0000E+00  0.0000E+00
    -11.492  0.1598E-01  0.5950E-04  0.5950E-04  0.5950E-04  0.0000E+00  0.0000E+00  0.0000E+00  0.0000E+00  0.0000E+00
    -11.478  0.1774E-01  0.6606E-04  0.6606E-04  0.6606E-04  0.0000E+00  0.0000E+00  0.0000E+00  0.0000E+00  0.0000E+00
    -11.464  0.1697E-01  0.7458E-04  0.7458E-04  0.7458E-04  0.0000E+00  0.0000E+00  0.0000E+00  0.0000E+00  0.0000E+00
    -11.450  0.1618E-01  0.8287E-04  0.8287E-04  0.8287E-04  0.0000E+00  0.0000E+00  0.0000E+00  0.0000E+00  0.0000E+00
    -11.437  0.1560E-01  0.9076E-04  0.9076E-04  0.9076E-04  0.0000E+00  0.0000E+00  0.0000E+00  0.0000E+00  0.0000E+00
    -11.423  0.1525E-01  0.9824E-04  0.9824E-04  0.9824E-04  0.0000E+00  0.0000E+00  0.0000E+00  0.0000E+00  0.0000E+00
    -11.409  0.1511E-01  0.1053E-03  0.1053E-03  0.1053E-03  0.0000E+00  0.0000E+00  0.0000E+00  0.0000E+00  0.0000E+00
    -11.395  0.1519E-01  0.1120E-03  0.1120E-03  0.1120E-03  0.0000E+00  0.0000E+00  0.0000E+00  0.0000E+00  0.0000E+00
    -11.381  0.1548E-01  0.1183E-03  0.1183E-03  0.1183E-03  0.0000E+00  0.0000E+00  0.0000E+00  0.0000E+00  0.0000E+00
    -11.367  0.1581E-01  0.1245E-03  0.1245E-03  0.1245E-03  0.0000E+00  0.0000E+00  0.0000E+00  0.0000E+00  0.0000E+00
    -11.353  0.1615E-01  0.1308E-03  0.1308E-03  0.1308E-03  0.0000E+00  0.0000E+00  0.0000E+00  0.0000E+00  0.0000E+00
    -11.339  0.1649E-01  0.1372E-03  0.1372E-03  0.1372E-03  0.0000E+00  0.0000E+00  0.0000E+00  0.0000E+00  0.0000E+00
    -11.325  0.1684E-01  0.1437E-03  0.1437E-03  0.1437E-03  0.0000E+00  0.0000E+00  0.0000E+00  0.0000E+00  0.0000E+00
    -11.311  0.1719E-01  0.1502E-03  0.1502E-03  0.1502E-03  0.0000E+00  0.0000E+00  0.0000E+00  0.0000E+00  0.0000E+00
    -11.297  0.1754E-01  0.1568E-03  0.1568E-03  0.1568E-03  0.0000E+00  0.0000E+00  0.0000E+00  0.0000E+00  0.0000E+00
    -11.283  0.1789E-01  0.1635E-03  0.1635E-03  0.1635E-03  0.0000E+00  0.0000E+00  0.0000E+00  0.0000E+00  0.0000E+00
    -11.269  0.1825E-01  0.1702E-03  0.1702E-03  0.1702E-03  0.0000E+00  0.0000E+00  0.0000E+00  0.0000E+00  0.0000E+00
    -11.255  0.1861E-01  0.1770E-03  0.1770E-03  0.1770E-03  0.0000E+00  0.0000E+00  0.0000E+00  0.0000E+00  0.0000E+00
    -11.241  0.1897E-01  0.1839E-03  0.1839E-03  0.1839E-03  0.0000E+00  0.0000E+00  0.0000E+00  0.0000E+00  0.0000E+00
    -11.227  0.1934E-01  0.1908E-03  0.1908E-03  0.1908E-03  0.0000E+00  0.0000E+00  0.0000E+00  0.0000E+00  0.0000E+00
    -11.213  0.1971E-01  0.1979E-03  0.1979E-03  0.1979E-03  0.0000E+00  0.0000E+00  0.0000E+00  0.0000E+00  0.0000E+00
    -11.199  0.2008E-01  0.2049E-03  0.2049E-03  0.2049E-03  0.0000E+00  0.0000E+00  0.0000E+00  0.0000E+00  0.0000E+00
    -11.185  0.2045E-01  0.2121E-03  0.2121E-03  0.2121E-03  0.0000E+00  0.0000E+00  0.0000E+00  0.0000E+00  0.0000E+00
    -11.171  0.2083E-01  0.2193E-03  0.2193E-03  0.2193E-03  0.0000E+00  0.0000E+00  0.0000E+00  0.0000E+00  0.0000E+00
    -11.157  0.2121E-01  0.2266E-03  0.2266E-03  0.2266E-03  0.0000E+00  0.0000E+00  0.0000E+00  0.0000E+00  0.0000E+00
    -11.143  0.2159E-01  0.2340E-03  0.2340E-03  0.2340E-03  0.0000E+00  0.0000E+00  0.0000E+00  0.0000E+00  0.0000E+00
    -11.129  0.2198E-01  0.2414E-03  0.2414E-03  0.2414E-03  0.0000E+00  0.0000E+00  0.0000E+00  0.0000E+00  0.0000E+00
    -11.115  0.2237E-01  0.2489E-03  0.2489E-03  0.2489E-03  0.0000E+00  0.0000E+00  0.0000E+00  0.0000E+00  0.0000E+00
    -11.101  0.2276E-01  0.2564E-03  0.2564E-03  0.2564E-03  0.0000E+00  0.0000E+00  0.0000E+00  0.0000E+00  0.0000E+00
    -11.087  0.2316E-01  0.2641E-03  0.2641E-03  0.2641E-03  0.0000E+00  0.0000E+00  0.0000E+00  0.0000E+00  0.0000E+00
    -11.073  0.2356E-01  0.2718E-03  0.2718E-03  0.2718E-03  0.0000E+00  0.0000E+00  0.0000E+00  0.0000E+00  0.0000E+00
    -11.059  0.2396E-01  0.2795E-03  0.2795E-03  0.2795E-03  0.0000E+00  0.0000E+00  0.0000E+00  0.0000E+00  0.0000E+00
    -11.045  0.2437E-01  0.2874E-03  0.2874E-03  0.2874E-03  0.0000E+00  0.0000E+00  0.0000E+00  0.0000E+00  0.0000E+00
    -11.031  0.2477E-01  0.2953E-03  0.2953E-03  0.2953E-03  0.0000E+00  0.0000E+00  0.0000E+00  0.0000E+00  0.0000E+00
    -11.017  0.2519E-01  0.3033E-03  0.3033E-03  0.3033E-03  0.0000E+00  0.0000E+00  0.0000E+00  0.0000E+00  0.0000E+00
    -11.003  0.2558E-01  0.3115E-03  0.3115E-03  0.3115E-03  0.0000E+00  0.0000E+00  0.0000E+00  0.0000E+00  0.0000E+00
    -10.989  0.2596E-01  0.3199E-03  0.3199E-03  0.3199E-03  0.0000E+00  0.0000E+00  0.0000E+00  0.0000E+00  0.0000E+00
    -10.975  0.2631E-01  0.3287E-03  0.3287E-03  0.3287E-03  0.0000E+00  0.0000E+00  0.0000E+00  0.0000E+00  0.0000E+00
    -10.961  0.2664E-01  0.3377E-03  0.3377E-03  0.3377E-03  0.0000E+00  0.0000E+00  0.0000E+00  0.0000E+00  0.0000E+00
    -10.947  0.2695E-01  0.3469E-03  0.3469E-03  0.3469E-03  0.0000E+00  0.0000E+00  0.0000E+00  0.0000E+00  0.0000E+00
    -10.933  0.2723E-01  0.3565E-03  0.3565E-03  0.3565E-03  0.0000E+00  0.0000E+00  0.0000E+00  0.0000E+00  0.0000E+00
    -10.919  0.2749E-01  0.3663E-03  0.3663E-03  0.3663E-03  0.0000E+00  0.0000E+00  0.0000E+00  0.0000E+00  0.0000E+00
    -10.905  0.2773E-01  0.3764E-03  0.3764E-03  0.3764E-03  0.0000E+00  0.0000E+00  0.0000E+00  0.0000E+00  0.0000E+00
    -10.891  0.2795E-01  0.3868E-03  0.3868E-03  0.3868E-03  0.0000E+00  0.0000E+00  0.0000E+00  0.0000E+00  0.0000E+00
    -10.877  0.2815E-01  0.3974E-03  0.3974E-03  0.3974E-03  0.0000E+00  0.0000E+00  0.0000E+00  0.0000E+00  0.0000E+00
    -10.863  0.2832E-01  0.4083E-03  0.4083E-03  0.4083E-03  0.0000E+00  0.0000E+00  0.0000E+00  0.0000E+00  0.0000E+00
    -10.849  0.2847E-01  0.4195E-03  0.4195E-03  0.4195E-03  0.0000E+00  0.0000E+00  0.0000E+00  0.0000E+00  0.0000E+00
    -10.836  0.2860E-01  0.4310E-03  0.4310E-03  0.4310E-03  0.0000E+00  0.0000E+00  0.0000E+00  0.0000E+00  0.0000E+00
    -10.822  0.2870E-01  0.4427E-03  0.4427E-03  0.4427E-03  0.0000E+00  0.0000E+00  0.0000E+00  0.0000E+00  0.0000E+00
    -10.808  0.2878E-01  0.4547E-03  0.4547E-03  0.4547E-03  0.0000E+00  0.0000E+00  0.0000E+00  0.0000E+00  0.0000E+00
    -10.794  0.2884E-01  0.4670E-03  0.4670E-03  0.4670E-03  0.0000E+00  0.0000E+00  0.0000E+00  0.0000E+00  0.0000E+00
    -10.780  0.2888E-01  0.4796E-03  0.4796E-03  0.4796E-03  0.0000E+00  0.0000E+00  0.0000E+00  0.0000E+00  0.0000E+00
    -10.766  0.2890E-01  0.4924E-03  0.4924E-03  0.4924E-03  0.0000E+00  0.0000E+00  0.0000E+00  0.0000E+00  0.0000E+00
    -10.752  0.2889E-01  0.5055E-03  0.5055E-03  0.5055E-03  0.0000E+00  0.0000E+00  0.0000E+00  0.0000E+00  0.0000E+00
    -10.738  0.2892E-01  0.5182E-03  0.5182E-03  0.5182E-03  0.0000E+00  0.0000E+00  0.0000E+00  0.0000E+00  0.0000E+00
    -10.724  0.2901E-01  0.5301E-03  0.5301E-03  0.5301E-03  0.0000E+00  0.0000E+00  0.0000E+00  0.0000E+00  0.0000E+00
    -10.710  0.2912E-01  0.5418E-03  0.5418E-03  0.5418E-03  0.0000E+00  0.0000E+00  0.0000E+00  0.0000E+00  0.0000E+00
    -10.696  0.2925E-01  0.5532E-03  0.5532E-03  0.5532E-03  0.0000E+00  0.0000E+00  0.0000E+00  0.0000E+00  0.0000E+00
    -10.682  0.2941E-01  0.5643E-03  0.5643E-03  0.5643E-03  0.0000E+00  0.0000E+00  0.0000E+00  0.0000E+00  0.0000E+00
    -10.668  0.2958E-01  0.5752E-03  0.5752E-03  0.5752E-03  0.0000E+00  0.0000E+00  0.0000E+00  0.0000E+00  0.0000E+00
    -10.654  0.2978E-01  0.5858E-03  0.5858E-03  0.5858E-03  0.0000E+00  0.0000E+00  0.0000E+00  0.0000E+00  0.0000E+00
    -10.640  0.2999E-01  0.5964E-03  0.5964E-03  0.5964E-03  0.0000E+00  0.0000E+00  0.0000E+00  0.0000E+00  0.0000E+00
    -10.626  0.3020E-01  0.6070E-03  0.6070E-03  0.6070E-03  0.0000E+00  0.0000E+00  0.0000E+00  0.0000E+00  0.0000E+00
    -10.612  0.3041E-01  0.6176E-03  0.6176E-03  0.6176E-03  0.0000E+00  0.0000E+00  0.0000E+00  0.0000E+00  0.0000E+00
    -10.598  0.3062E-01  0.6283E-03  0.6283E-03  0.6283E-03  0.0000E+00  0.0000E+00  0.0000E+00  0.0000E+00  0.0000E+00
    -10.584  0.3083E-01  0.6390E-03  0.6390E-03  0.6390E-03  0.0000E+00  0.0000E+00  0.0000E+00  0.0000E+00  0.0000E+00
    -10.570  0.3104E-01  0.6497E-03  0.6497E-03  0.6497E-03  0.0000E+00  0.0000E+00  0.0000E+00  0.0000E+00  0.0000E+00
    -10.556  0.3125E-01  0.6605E-03  0.6605E-03  0.6605E-03  0.0000E+00  0.0000E+00  0.0000E+00  0.0000E+00  0.0000E+00
    -10.542  0.3146E-01  0.6713E-03  0.6713E-03  0.6713E-03  0.0000E+00  0.0000E+00  0.0000E+00  0.0000E+00  0.0000E+00
    -10.528  0.3167E-01  0.6822E-03  0.6822E-03  0.6822E-03  0.0000E+00  0.0000E+00  0.0000E+00  0.0000E+00  0.0000E+00
    -10.514  0.3188E-01  0.6930E-03  0.6930E-03  0.6930E-03  0.0000E+00  0.0000E+00  0.0000E+00  0.0000E+00  0.0000E+00
    -10.500  0.3210E-01  0.7040E-03  0.7040E-03  0.7040E-03  0.0000E+00  0.0000E+00  0.0000E+00  0.0000E+00  0.0000E+00
    -10.486  0.3231E-01  0.7150E-03  0.7150E-03  0.7150E-03  0.0000E+00  0.0000E+00  0.0000E+00  0.0000E+00  0.0000E+00
    -10.472  0.3252E-01  0.7260E-03  0.7260E-03  0.7260E-03  0.0000E+00  0.0000E+00  0.0000E+00  0.0000E+00  0.0000E+00
    -10.458  0.3274E-01  0.7370E-03  0.7370E-03  0.7370E-03  0.0000E+00  0.0000E+00  0.0000E+00  0.0000E+00  0.0000E+00
    -10.444  0.3295E-01  0.7481E-03  0.7481E-03  0.7481E-03  0.0000E+00  0.0000E+00  0.0000E+00  0.0000E+00  0.0000E+00
    -10.430  0.3317E-01  0.7592E-03  0.7592E-03  0.7592E-03  0.0000E+00  0.0000E+00  0.0000E+00  0.0000E+00  0.0000E+00
    -10.416  0.3338E-01  0.7704E-03  0.7704E-03  0.7704E-03  0.0000E+00  0.0000E+00  0.0000E+00  0.0000E+00  0.0000E+00
    -10.402  0.3360E-01  0.7816E-03  0.7816E-03  0.7816E-03  0.0000E+00  0.0000E+00  0.0000E+00  0.0000E+00  0.0000E+00
    -10.388  0.3382E-01  0.7929E-03  0.7929E-03  0.7929E-03  0.0000E+00  0.0000E+00  0.0000E+00  0.0000E+00  0.0000E+00
    -10.374  0.3404E-01  0.8042E-03  0.8042E-03  0.8042E-03  0.0000E+00  0.0000E+00  0.0000E+00  0.0000E+00  0.0000E+00
    -10.360  0.3425E-01  0.8155E-03  0.8155E-03  0.8155E-03  0.0000E+00  0.0000E+00  0.0000E+00  0.0000E+00  0.0000E+00
    -10.346  0.3447E-01  0.8269E-03  0.8269E-03  0.8269E-03  0.0000E+00  0.0000E+00  0.0000E+00  0.0000E+00  0.0000E+00
    -10.332  0.3469E-01  0.8383E-03  0.8383E-03  0.8383E-03  0.0000E+00  0.0000E+00  0.0000E+00  0.0000E+00  0.0000E+00
    -10.318  0.3491E-01  0.8497E-03  0.8497E-03  0.8497E-03  0.0000E+00  0.0000E+00  0.0000E+00  0.0000E+00  0.0000E+00
    -10.304  0.3513E-01  0.8612E-03  0.8612E-03  0.8612E-03  0.0000E+00  0.0000E+00  0.0000E+00  0.0000E+00  0.0000E+00
    -10.290  0.3535E-01  0.8727E-03  0.8727E-03  0.8727E-03  0.0000E+00  0.0000E+00  0.0000E+00  0.0000E+00  0.0000E+00
    -10.276  0.3557E-01  0.8843E-03  0.8843E-03  0.8843E-03  0.0000E+00  0.0000E+00  0.0000E+00  0.0000E+00  0.0000E+00
    -10.262  0.3580E-01  0.8959E-03  0.8959E-03  0.8959E-03  0.0000E+00  0.0000E+00  0.0000E+00  0.0000E+00  0.0000E+00
    -10.248  0.3602E-01  0.9075E-03  0.9075E-03  0.9075E-03  0.0000E+00  0.0000E+00  0.0000E+00  0.0000E+00  0.0000E+00
    -10.235  0.3624E-01  0.9192E-03  0.9192E-03  0.9192E-03  0.0000E+00  0.0000E+00  0.0000E+00  0.0000E+00  0.0000E+00
    -10.221  0.3647E-01  0.9309E-03  0.9309E-03  0.9309E-03  0.0000E+00  0.0000E+00  0.0000E+00  0.0000E+00  0.0000E+00
    -10.207  0.3669E-01  0.9426E-03  0.9426E-03  0.9426E-03  0.0000E+00  0.0000E+00  0.0000E+00  0.0000E+00  0.0000E+00
    -10.193  0.3692E-01  0.9544E-03  0.9544E-03  0.9544E-03  0.0000E+00  0.0000E+00  0.0000E+00  0.0000E+00  0.0000E+00
    -10.179  0.3714E-01  0.9662E-03  0.9662E-03  0.9662E-03  0.0000E+00  0.0000E+00  0.0000E+00  0.0000E+00  0.0000E+00
    -10.165  0.3737E-01  0.9781E-03  0.9781E-03  0.9781E-03  0.0000E+00  0.0000E+00  0.0000E+00  0.0000E+00  0.0000E+00
    -10.151  0.3760E-01  0.9899E-03  0.9899E-03  0.9899E-03  0.0000E+00  0.0000E+00  0.0000E+00  0.0000E+00  0.0000E+00
    -10.137  0.3783E-01  0.1002E-02  0.1002E-02  0.1002E-02  0.0000E+00  0.0000E+00  0.0000E+00  0.0000E+00  0.0000E+00
    -10.123  0.3806E-01  0.1014E-02  0.1014E-02  0.1014E-02  0.0000E+00  0.0000E+00  0.0000E+00  0.0000E+00  0.0000E+00
    -10.109  0.3829E-01  0.1026E-02  0.1026E-02  0.1026E-02  0.0000E+00  0.0000E+00  0.0000E+00  0.0000E+00  0.0000E+00
    -10.095  0.3852E-01  0.1038E-02  0.1038E-02  0.1038E-02  0.0000E+00  0.0000E+00  0.0000E+00  0.0000E+00  0.0000E+00
    -10.081  0.3875E-01  0.1050E-02  0.1050E-02  0.1050E-02  0.0000E+00  0.0000E+00  0.0000E+00  0.0000E+00  0.0000E+00
    -10.067  0.3898E-01  0.1062E-02  0.1062E-02  0.1062E-02  0.0000E+00  0.0000E+00  0.0000E+00  0.0000E+00  0.0000E+00
    -10.053  0.3921E-01  0.1074E-02  0.1074E-02  0.1074E-02  0.0000E+00  0.0000E+00  0.0000E+00  0.0000E+00  0.0000E+00
    -10.039  0.3945E-01  0.1086E-02  0.1086E-02  0.1086E-02  0.0000E+00  0.0000E+00  0.0000E+00  0.0000E+00  0.0000E+00
    -10.025  0.3968E-01  0.1099E-02  0.1099E-02  0.1099E-02  0.0000E+00  0.0000E+00  0.0000E+00  0.0000E+00  0.0000E+00
    -10.011  0.3970E-01  0.1116E-02  0.1116E-02  0.1116E-02  0.0000E+00  0.0000E+00  0.0000E+00  0.0000E+00  0.0000E+00
     -9.997  0.3968E-01  0.1135E-02  0.1135E-02  0.1135E-02  0.0000E+00  0.0000E+00  0.0000E+00  0.0000E+00  0.0000E+00
     -9.983  0.3968E-01  0.1153E-02  0.1153E-02  0.1153E-02  0.0000E+00  0.0000E+00  0.0000E+00  0.0000E+00  0.0000E+00
     -9.969  0.3971E-01  0.1170E-02  0.1170E-02  0.1170E-02  0.0000E+00  0.0000E+00  0.0000E+00  0.0000E+00  0.0000E+00
     -9.955  0.3978E-01  0.1186E-02  0.1186E-02  0.1186E-02  0.0000E+00  0.0000E+00  0.0000E+00  0.0000E+00  0.0000E+00
     -9.941  0.3987E-01  0.1202E-02  0.1202E-02  0.1202E-02  0.0000E+00  0.0000E+00  0.0000E+00  0.0000E+00  0.0000E+00
     -9.927  0.3999E-01  0.1217E-02  0.1217E-02  0.1217E-02  0.0000E+00  0.0000E+00  0.0000E+00  0.0000E+00  0.0000E+00
     -9.913  0.4012E-01  0.1232E-02  0.1232E-02  0.1232E-02  0.0000E+00  0.0000E+00  0.0000E+00  0.0000E+00  0.0000E+00
     -9.899  0.4025E-01  0.1246E-02  0.1246E-02  0.1246E-02  0.0000E+00  0.0000E+00  0.0000E+00  0.0000E+00  0.0000E+00
     -9.885  0.4038E-01  0.1261E-02  0.1261E-02  0.1261E-02  0.0000E+00  0.0000E+00  0.0000E+00  0.0000E+00  0.0000E+00
     -9.871  0.4051E-01  0.1276E-02  0.1276E-02  0.1276E-02  0.0000E+00  0.0000E+00  0.0000E+00  0.0000E+00  0.0000E+00
     -9.857  0.4064E-01  0.1291E-02  0.1291E-02  0.1291E-02  0.0000E+00  0.0000E+00  0.0000E+00  0.0000E+00  0.0000E+00
     -9.843  0.4077E-01  0.1306E-02  0.1306E-02  0.1306E-02  0.0000E+00  0.0000E+00  0.0000E+00  0.0000E+00  0.0000E+00
     -9.829  0.4089E-01  0.1321E-02  0.1321E-02  0.1321E-02  0.0000E+00  0.0000E+00  0.0000E+00  0.0000E+00  0.0000E+00
     -9.815  0.4102E-01  0.1336E-02  0.1336E-02  0.1336E-02  0.0000E+00  0.0000E+00  0.0000E+00  0.0000E+00  0.0000E+00
     -9.801  0.4114E-01  0.1351E-02  0.1351E-02  0.1351E-02  0.0000E+00  0.0000E+00  0.0000E+00  0.0000E+00  0.0000E+00
     -9.787  0.4127E-01  0.1367E-02  0.1367E-02  0.1367E-02  0.0000E+00  0.0000E+00  0.0000E+00  0.0000E+00  0.0000E+00
     -9.773  0.4139E-01  0.1382E-02  0.1382E-02  0.1382E-02  0.0000E+00  0.0000E+00  0.0000E+00  0.0000E+00  0.0000E+00
     -9.759  0.4152E-01  0.1397E-02  0.1397E-02  0.1397E-02  0.0000E+00  0.0000E+00  0.0000E+00  0.0000E+00  0.0000E+00
     -9.745  0.4164E-01  0.1412E-02  0.1412E-02  0.1412E-02  0.0000E+00  0.0000E+00  0.0000E+00  0.0000E+00  0.0000E+00
     -9.731  0.4176E-01  0.1428E-02  0.1428E-02  0.1428E-02  0.0000E+00  0.0000E+00  0.0000E+00  0.0000E+00  0.0000E+00
     -9.717  0.4189E-01  0.1443E-02  0.1443E-02  0.1443E-02  0.0000E+00  0.0000E+00  0.0000E+00  0.0000E+00  0.0000E+00
     -9.703  0.4201E-01  0.1458E-02  0.1458E-02  0.1458E-02  0.0000E+00  0.0000E+00  0.0000E+00  0.0000E+00  0.0000E+00
     -9.689  0.4213E-01  0.1474E-02  0.1474E-02  0.1474E-02  0.0000E+00  0.0000E+00  0.0000E+00  0.0000E+00  0.0000E+00
     -9.675  0.4225E-01  0.1490E-02  0.1490E-02  0.1490E-02  0.0000E+00  0.0000E+00  0.0000E+00  0.0000E+00  0.0000E+00
     -9.661  0.4237E-01  0.1505E-02  0.1505E-02  0.1505E-02  0.0000E+00  0.0000E+00  0.0000E+00  0.0000E+00  0.0000E+00
     -9.647  0.4249E-01  0.1521E-02  0.1521E-02  0.1521E-02  0.0000E+00  0.0000E+00  0.0000E+00  0.0000E+00  0.0000E+00
     -9.634  0.4260E-01  0.1536E-02  0.1536E-02  0.1536E-02  0.0000E+00  0.0000E+00  0.0000E+00  0.0000E+00  0.0000E+00
     -9.620  0.4272E-01  0.1552E-02  0.1552E-02  0.1552E-02  0.0000E+00  0.0000E+00  0.0000E+00  0.0000E+00  0.0000E+00
     -9.606  0.4284E-01  0.1568E-02  0.1568E-02  0.1568E-02  0.0000E+00  0.0000E+00  0.0000E+00  0.0000E+00  0.0000E+00
     -9.592  0.4296E-01  0.1584E-02  0.1584E-02  0.1584E-02  0.0000E+00  0.0000E+00  0.0000E+00  0.0000E+00  0.0000E+00
     -9.578  0.4307E-01  0.1600E-02  0.1600E-02  0.1600E-02  0.0000E+00  0.0000E+00  0.0000E+00  0.0000E+00  0.0000E+00
     -9.564  0.4319E-01  0.1615E-02  0.1615E-02  0.1615E-02  0.0000E+00  0.0000E+00  0.0000E+00  0.0000E+00  0.0000E+00
     -9.550  0.4331E-01  0.1631E-02  0.1631E-02  0.1631E-02  0.0000E+00  0.0000E+00  0.0000E+00  0.0000E+00  0.0000E+00
     -9.536  0.4342E-01  0.1647E-02  0.1647E-02  0.1647E-02  0.0000E+00  0.0000E+00  0.0000E+00  0.0000E+00  0.0000E+00
     -9.522  0.4355E-01  0.1663E-02  0.1663E-02  0.1663E-02  0.0000E+00  0.0000E+00  0.0000E+00  0.0000E+00  0.0000E+00
     -9.508  0.4367E-01  0.1679E-02  0.1679E-02  0.1679E-02  0.0000E+00  0.0000E+00  0.0000E+00  0.0000E+00  0.0000E+00
     -9.494  0.4379E-01  0.1694E-02  0.1694E-02  0.1694E-02  0.0000E+00  0.0000E+00  0.0000E+00  0.0000E+00  0.0000E+00
     -9.480  0.4392E-01  0.1710E-02  0.1710E-02  0.1710E-02  0.0000E+00  0.0000E+00  0.0000E+00  0.0000E+00  0.0000E+00
     -9.466  0.4405E-01  0.1726E-02  0.1726E-02  0.1726E-02  0.0000E+00  0.0000E+00  0.0000E+00  0.0000E+00  0.0000E+00
     -9.452  0.4418E-01  0.1741E-02  0.1741E-02  0.1741E-02  0.0000E+00  0.0000E+00  0.0000E+00  0.0000E+00  0.0000E+00
     -9.438  0.4431E-01  0.1757E-02  0.1757E-02  0.1757E-02  0.0000E+00  0.0000E+00  0.0000E+00  0.0000E+00  0.0000E+00
     -9.424  0.4444E-01  0.1773E-02  0.1773E-02  0.1773E-02  0.0000E+00  0.0000E+00  0.0000E+00  0.0000E+00  0.0000E+00
     -9.410  0.4458E-01  0.1788E-02  0.1788E-02  0.1788E-02  0.0000E+00  0.0000E+00  0.0000E+00  0.0000E+00  0.0000E+00
     -9.396  0.4471E-01  0.1804E-02  0.1804E-02  0.1804E-02  0.0000E+00  0.0000E+00  0.0000E+00  0.0000E+00  0.0000E+00
     -9.382  0.4485E-01  0.1819E-02  0.1819E-02  0.1819E-02  0.0000E+00  0.0000E+00  0.0000E+00  0.0000E+00  0.0000E+00
     -9.368  0.4499E-01  0.1835E-02  0.1835E-02  0.1835E-02  0.0000E+00  0.0000E+00  0.0000E+00  0.0000E+00  0.0000E+00
     -9.354  0.4513E-01  0.1850E-02  0.1850E-02  0.1850E-02  0.0000E+00  0.0000E+00  0.0000E+00  0.0000E+00  0.0000E+00
     -9.340  0.4528E-01  0.1865E-02  0.1865E-02  0.1865E-02  0.0000E+00  0.0000E+00  0.0000E+00  0.0000E+00  0.0000E+00
     -9.326  0.4542E-01  0.1881E-02  0.1881E-02  0.1881E-02  0.0000E+00  0.0000E+00  0.0000E+00  0.0000E+00  0.0000E+00
     -9.312  0.4557E-01  0.1896E-02  0.1896E-02  0.1896E-02  0.0000E+00  0.0000E+00  0.0000E+00  0.0000E+00  0.0000E+00
     -9.298  0.4572E-01  0.1911E-02  0.1911E-02  0.1911E-02  0.0000E+00  0.0000E+00  0.0000E+00  0.0000E+00  0.0000E+00
     -9.284  0.4588E-01  0.1926E-02  0.1926E-02  0.1926E-02  0.0000E+00  0.0000E+00  0.0000E+00  0.0000E+00  0.0000E+00
     -9.270  0.4604E-01  0.1941E-02  0.1941E-02  0.1941E-02  0.0000E+00  0.0000E+00  0.0000E+00  0.0000E+00  0.0000E+00
     -9.256  0.4620E-01  0.1956E-02  0.1956E-02  0.1956E-02  0.0000E+00  0.0000E+00  0.0000E+00  0.0000E+00  0.0000E+00
     -9.242  0.4636E-01  0.1971E-02  0.1971E-02  0.1971E-02  0.0000E+00  0.0000E+00  0.0000E+00  0.0000E+00  0.0000E+00
     -9.228  0.4652E-01  0.1986E-02  0.1986E-02  0.1986E-02  0.0000E+00  0.0000E+00  0.0000E+00  0.0000E+00  0.0000E+00
     -9.214  0.4668E-01  0.2001E-02  0.2001E-02  0.2001E-02  0.0000E+00  0.0000E+00  0.0000E+00  0.0000E+00  0.0000E+00
     -9.200  0.4684E-01  0.2017E-02  0.2017E-02  0.2017E-02  0.0000E+00  0.0000E+00  0.0000E+00  0.0000E+00  0.0000E+00
     -9.186  0.4700E-01  0.2032E-02  0.2032E-02  0.2032E-02  0.0000E+00  0.0000E+00  0.0000E+00  0.0000E+00  0.0000E+00
     -9.172  0.4716E-01  0.2047E-02  0.2047E-02  0.2047E-02  0.0000E+00  0.0000E+00  0.0000E+00  0.0000E+00  0.0000E+00
     -9.158  0.4732E-01  0.2062E-02  0.2062E-02  0.2062E-02  0.0000E+00  0.0000E+00  0.0000E+00  0.0000E+00  0.0000E+00
     -9.144  0.4748E-01  0.2077E-02  0.2077E-02  0.2077E-02  0.0000E+00  0.0000E+00  0.0000E+00  0.0000E+00  0.0000E+00
     -9.130  0.4764E-01  0.2093E-02  0.2093E-02  0.2093E-02  0.0000E+00  0.0000E+00  0.0000E+00  0.0000E+00  0.0000E+00
     -9.116  0.4780E-01  0.2108E-02  0.2108E-02  0.2108E-02  0.0000E+00  0.0000E+00  0.0000E+00  0.0000E+00  0.0000E+00
     -9.102  0.4796E-01  0.2123E-02  0.2123E-02  0.2123E-02  0.0000E+00  0.0000E+00  0.0000E+00  0.0000E+00  0.0000E+00
     -9.088  0.4812E-01  0.2139E-02  0.2139E-02  0.2139E-02  0.0000E+00  0.0000E+00  0.0000E+00  0.0000E+00  0.0000E+00
     -9.074  0.4828E-01  0.2154E-02  0.2154E-02  0.2154E-02  0.0000E+00  0.0000E+00  0.0000E+00  0.0000E+00  0.0000E+00
     -9.060  0.4845E-01  0.2169E-02  0.2169E-02  0.2169E-02  0.0000E+00  0.0000E+00  0.0000E+00  0.0000E+00  0.0000E+00
     -9.046  0.4861E-01  0.2185E-02  0.2185E-02  0.2185E-02  0.0000E+00  0.0000E+00  0.0000E+00  0.0000E+00  0.0000E+00
     -9.032  0.4877E-01  0.2200E-02  0.2200E-02  0.2200E-02  0.0000E+00  0.0000E+00  0.0000E+00  0.0000E+00  0.0000E+00
     -9.019  0.4893E-01  0.2216E-02  0.2216E-02  0.2216E-02  0.0000E+00  0.0000E+00  0.0000E+00  0.0000E+00  0.0000E+00
     -9.005  0.4910E-01  0.2231E-02  0.2231E-02  0.2231E-02  0.0000E+00  0.0000E+00  0.0000E+00  0.0000E+00  0.0000E+00
     -8.991  0.4926E-01  0.2247E-02  0.2247E-02  0.2247E-02  0.0000E+00  0.0000E+00  0.0000E+00  0.0000E+00  0.0000E+00
     -8.977  0.4942E-01  0.2262E-02  0.2262E-02  0.2262E-02  0.0000E+00  0.0000E+00  0.0000E+00  0.0000E+00  0.0000E+00
     -8.963  0.4959E-01  0.2278E-02  0.2278E-02  0.2278E-02  0.0000E+00  0.0000E+00  0.0000E+00  0.0000E+00  0.0000E+00
     -8.949  0.4975E-01  0.2294E-02  0.2294E-02  0.2294E-02  0.0000E+00  0.0000E+00  0.0000E+00  0.0000E+00  0.0000E+00
     -8.935  0.4991E-01  0.2309E-02  0.2309E-02  0.2309E-02  0.0000E+00  0.0000E+00  0.0000E+00  0.0000E+00  0.0000E+00
     -8.921  0.5008E-01  0.2325E-02  0.2325E-02  0.2325E-02  0.0000E+00  0.0000E+00  0.0000E+00  0.0000E+00  0.0000E+00
     -8.907  0.5024E-01  0.2341E-02  0.2341E-02  0.2341E-02  0.0000E+00  0.0000E+00  0.0000E+00  0.0000E+00  0.0000E+00
     -8.893  0.5041E-01  0.2356E-02  0.2356E-02  0.2356E-02  0.0000E+00  0.0000E+00  0.0000E+00  0.0000E+00  0.0000E+00
     -8.879  0.5057E-01  0.2372E-02  0.2372E-02  0.2372E-02  0.0000E+00  0.0000E+00  0.0000E+00  0.0000E+00  0.0000E+00
     -8.865  0.5074E-01  0.2388E-02  0.2388E-02  0.2388E-02  0.0000E+00  0.0000E+00  0.0000E+00  0.0000E+00  0.0000E+00
     -8.851  0.5090E-01  0.2404E-02  0.2404E-02  0.2404E-02  0.0000E+00  0.0000E+00  0.0000E+00  0.0000E+00  0.0000E+00
     -8.837  0.5106E-01  0.2420E-02  0.2420E-02  0.2420E-02  0.0000E+00  0.0000E+00  0.0000E+00  0.0000E+00  0.0000E+00
     -8.823  0.5121E-01  0.2437E-02  0.2437E-02  0.2437E-02  0.0000E+00  0.0000E+00  0.0000E+00  0.0000E+00  0.0000E+00
     -8.809  0.5136E-01  0.2454E-02  0.2454E-02  0.2454E-02  0.0000E+00  0.0000E+00  0.0000E+00  0.0000E+00  0.0000E+00
     -8.795  0.5149E-01  0.2471E-02  0.2471E-02  0.2471E-02  0.0000E+00  0.0000E+00  0.0000E+00  0.0000E+00  0.0000E+00
     -8.781  0.5163E-01  0.2489E-02  0.2489E-02  0.2489E-02  0.0000E+00  0.0000E+00  0.0000E+00  0.0000E+00  0.0000E+00
     -8.767  0.5176E-01  0.2507E-02  0.2507E-02  0.2507E-02  0.0000E+00  0.0000E+00  0.0000E+00  0.0000E+00  0.0000E+00
     -8.753  0.5188E-01  0.2525E-02  0.2525E-02  0.2525E-02  0.0000E+00  0.0000E+00  0.0000E+00  0.0000E+00  0.0000E+00
     -8.739  0.5199E-01  0.2544E-02  0.2544E-02  0.2544E-02  0.0000E+00  0.0000E+00  0.0000E+00  0.0000E+00  0.0000E+00
     -8.725  0.5210E-01  0.2563E-02  0.2563E-02  0.2563E-02  0.0000E+00  0.0000E+00  0.0000E+00  0.0000E+00  0.0000E+00
     -8.711  0.5220E-01  0.2583E-02  0.2583E-02  0.2583E-02  0.0000E+00  0.0000E+00  0.0000E+00  0.0000E+00  0.0000E+00
     -8.697  0.5230E-01  0.2603E-02  0.2603E-02  0.2603E-02  0.0000E+00  0.0000E+00  0.0000E+00  0.0000E+00  0.0000E+00
     -8.683  0.5239E-01  0.2623E-02  0.2623E-02  0.2623E-02  0.0000E+00  0.0000E+00  0.0000E+00  0.0000E+00  0.0000E+00
     -8.669  0.5248E-01  0.2643E-02  0.2643E-02  0.2643E-02  0.0000E+00  0.0000E+00  0.0000E+00  0.0000E+00  0.0000E+00
     -8.655  0.5256E-01  0.2664E-02  0.2664E-02  0.2664E-02  0.0000E+00  0.0000E+00  0.0000E+00  0.0000E+00  0.0000E+00
     -8.641  0.5263E-01  0.2686E-02  0.2686E-02  0.2686E-02  0.0000E+00  0.0000E+00  0.0000E+00  0.0000E+00  0.0000E+00
     -8.627  0.5270E-01  0.2707E-02  0.2707E-02  0.2707E-02  0.0000E+00  0.0000E+00  0.0000E+00  0.0000E+00  0.0000E+00
     -8.613  0.5276E-01  0.2729E-02  0.2729E-02  0.2729E-02  0.0000E+00  0.0000E+00  0.0000E+00  0.0000E+00  0.0000E+00
     -8.599  0.5281E-01  0.2751E-02  0.2751E-02  0.2751E-02  0.0000E+00  0.0000E+00  0.0000E+00  0.0000E+00  0.0000E+00
     -8.585  0.5288E-01  0.2773E-02  0.2773E-02  0.2773E-02  0.0000E+00  0.0000E+00  0.0000E+00  0.0000E+00  0.0000E+00
     -8.571  0.5296E-01  0.2794E-02  0.2794E-02  0.2794E-02  0.0000E+00  0.0000E+00  0.0000E+00  0.0000E+00  0.0000E+00
     -8.557  0.5305E-01  0.2815E-02  0.2815E-02  0.2815E-02  0.0000E+00  0.0000E+00  0.0000E+00  0.0000E+00  0.0000E+00
     -8.543  0.5314E-01  0.2835E-02  0.2835E-02  0.2835E-02  0.0000E+00  0.0000E+00  0.0000E+00  0.0000E+00  0.0000E+00
     -8.529  0.5325E-01  0.2855E-02  0.2855E-02  0.2855E-02  0.0000E+00  0.0000E+00  0.0000E+00  0.0000E+00  0.0000E+00
     -8.515  0.5336E-01  0.2874E-02  0.2874E-02  0.2874E-02  0.0000E+00  0.0000E+00  0.0000E+00  0.0000E+00  0.0000E+00
     -8.501  0.5348E-01  0.2893E-02  0.2893E-02  0.2893E-02  0.0000E+00  0.0000E+00  0.0000E+00  0.0000E+00  0.0000E+00
     -8.487  0.5360E-01  0.2912E-02  0.2912E-02  0.2912E-02  0.0000E+00  0.0000E+00  0.0000E+00  0.0000E+00  0.0000E+00
     -8.473  0.5371E-01  0.2931E-02  0.2931E-02  0.2931E-02  0.0000E+00  0.0000E+00  0.0000E+00  0.0000E+00  0.0000E+00
     -8.459  0.5383E-01  0.2951E-02  0.2951E-02  0.2951E-02  0.0000E+00  0.0000E+00  0.0000E+00  0.0000E+00  0.0000E+00
     -8.445  0.5395E-01  0.2970E-02  0.2970E-02  0.2970E-02  0.0000E+00  0.0000E+00  0.0000E+00  0.0000E+00  0.0000E+00
     -8.431  0.5407E-01  0.2989E-02  0.2989E-02  0.2989E-02  0.0000E+00  0.0000E+00  0.0000E+00  0.0000E+00  0.0000E+00
     -8.418  0.5419E-01  0.3008E-02  0.3008E-02  0.3008E-02  0.0000E+00  0.0000E+00  0.0000E+00  0.0000E+00  0.0000E+00
     -8.404  0.5431E-01  0.3027E-02  0.3027E-02  0.3027E-02  0.0000E+00  0.0000E+00  0.0000E+00  0.0000E+00  0.0000E+00
     -8.390  0.5443E-01  0.3047E-02  0.3047E-02  0.3047E-02  0.0000E+00  0.0000E+00  0.0000E+00  0.0000E+00  0.0000E+00
     -8.376  0.5455E-01  0.3066E-02  0.3066E-02  0.3066E-02  0.0000E+00  0.0000E+00  0.0000E+00  0.0000E+00  0.0000E+00
     -8.362  0.5468E-01  0.3085E-02  0.3085E-02  0.3085E-02  0.0000E+00  0.0000E+00  0.0000E+00  0.0000E+00  0.0000E+00
     -8.348  0.5480E-01  0.3104E-02  0.3104E-02  0.3104E-02  0.0000E+00  0.0000E+00  0.0000E+00  0.0000E+00  0.0000E+00
     -8.334  0.5492E-01  0.3124E-02  0.3124E-02  0.3124E-02  0.0000E+00  0.0000E+00  0.0000E+00  0.0000E+00  0.0000E+00
     -8.320  0.5504E-01  0.3143E-02  0.3143E-02  0.3143E-02  0.0000E+00  0.0000E+00  0.0000E+00  0.0000E+00  0.0000E+00
     -8.306  0.5517E-01  0.3162E-02  0.3162E-02  0.3162E-02  0.0000E+00  0.0000E+00  0.0000E+00  0.0000E+00  0.0000E+00
     -8.292  0.5529E-01  0.3182E-02  0.3182E-02  0.3182E-02  0.0000E+00  0.0000E+00  0.0000E+00  0.0000E+00  0.0000E+00
     -8.278  0.5541E-01  0.3201E-02  0.3201E-02  0.3201E-02  0.0000E+00  0.0000E+00  0.0000E+00  0.0000E+00  0.0000E+00
     -8.264  0.5554E-01  0.3220E-02  0.3220E-02  0.3220E-02  0.0000E+00  0.0000E+00  0.0000E+00  0.0000E+00  0.0000E+00
     -8.250  0.5566E-01  0.3240E-02  0.3240E-02  0.3240E-02  0.0000E+00  0.0000E+00  0.0000E+00  0.0000E+00  0.0000E+00
     -8.236  0.5579E-01  0.3259E-02  0.3259E-02  0.3259E-02  0.0000E+00  0.0000E+00  0.0000E+00  0.0000E+00  0.0000E+00
     -8.222  0.5591E-01  0.3279E-02  0.3279E-02  0.3279E-02  0.0000E+00  0.0000E+00  0.0000E+00  0.0000E+00  0.0000E+00
     -8.208  0.5604E-01  0.3298E-02  0.3298E-02  0.3298E-02  0.0000E+00  0.0000E+00  0.0000E+00  0.0000E+00  0.0000E+00
     -8.194  0.5616E-01  0.3317E-02  0.3317E-02  0.3317E-02  0.0000E+00  0.0000E+00  0.0000E+00  0.0000E+00  0.0000E+00
     -8.180  0.5629E-01  0.3337E-02  0.3337E-02  0.3337E-02  0.0000E+00  0.0000E+00  0.0000E+00  0.0000E+00  0.0000E+00
     -8.166  0.5642E-01  0.3356E-02  0.3356E-02  0.3356E-02  0.0000E+00  0.0000E+00  0.0000E+00  0.0000E+00  0.0000E+00
     -8.152  0.5655E-01  0.3376E-02  0.3376E-02  0.3376E-02  0.0000E+00  0.0000E+00  0.0000E+00  0.0000E+00  0.0000E+00
     -8.138  0.5667E-01  0.3395E-02  0.3395E-02  0.3395E-02  0.0000E+00  0.0000E+00  0.0000E+00  0.0000E+00  0.0000E+00
     -8.124  0.5680E-01  0.3415E-02  0.3415E-02  0.3415E-02  0.0000E+00  0.0000E+00  0.0000E+00  0.0000E+00  0.0000E+00
     -8.110  0.5693E-01  0.3434E-02  0.3434E-02  0.3434E-02  0.0000E+00  0.0000E+00  0.0000E+00  0.0000E+00  0.0000E+00
     -8.096  0.5706E-01  0.3454E-02  0.3454E-02  0.3454E-02  0.0000E+00  0.0000E+00  0.0000E+00  0.0000E+00  0.0000E+00
     -8.082  0.5719E-01  0.3474E-02  0.3474E-02  0.3474E-02  0.0000E+00  0.0000E+00  0.0000E+00  0.0000E+00  0.0000E+00
     -8.068  0.5732E-01  0.3493E-02  0.3493E-02  0.3493E-02  0.0000E+00  0.0000E+00  0.0000E+00  0.0000E+00  0.0000E+00
     -8.054  0.5745E-01  0.3513E-02  0.3513E-02  0.3513E-02  0.0000E+00  0.0000E+00  0.0000E+00  0.0000E+00  0.0000E+00
     -8.040  0.5758E-01  0.3532E-02  0.3532E-02  0.3532E-02  0.0000E+00  0.0000E+00  0.0000E+00  0.0000E+00  0.0000E+00
     -8.026  0.5771E-01  0.3552E-02  0.3552E-02  0.3552E-02  0.0000E+00  0.0000E+00  0.0000E+00  0.0000E+00  0.0000E+00
     -8.012  0.5784E-01  0.3572E-02  0.3572E-02  0.3572E-02  0.0000E+00  0.0000E+00  0.0000E+00  0.0000E+00  0.0000E+00
     -7.998  0.5797E-01  0.3591E-02  0.3591E-02  0.3591E-02  0.0000E+00  0.0000E+00  0.0000E+00  0.0000E+00  0.0000E+00
     -7.984  0.5810E-01  0.3611E-02  0.3611E-02  0.3611E-02  0.0000E+00  0.0000E+00  0.0000E+00  0.0000E+00  0.0000E+00
     -7.970  0.5823E-01  0.3631E-02  0.3631E-02  0.3631E-02  0.0000E+00  0.0000E+00  0.0000E+00  0.0000E+00  0.0000E+00
     -7.956  0.5836E-01  0.3650E-02  0.3650E-02  0.3650E-02  0.0000E+00  0.0000E+00  0.0000E+00  0.0000E+00  0.0000E+00
     -7.942  0.5850E-01  0.3670E-02  0.3670E-02  0.3670E-02  0.0000E+00  0.0000E+00  0.0000E+00  0.0000E+00  0.0000E+00
     -7.928  0.5863E-01  0.3690E-02  0.3690E-02  0.3690E-02  0.0000E+00  0.0000E+00  0.0000E+00  0.0000E+00  0.0000E+00
     -7.914  0.5876E-01  0.3710E-02  0.3710E-02  0.3710E-02  0.0000E+00  0.0000E+00  0.0000E+00  0.0000E+00  0.0000E+00
     -7.900  0.5890E-01  0.3729E-02  0.3729E-02  0.3729E-02  0.0000E+00  0.0000E+00  0.0000E+00  0.0000E+00  0.0000E+00
     -7.886  0.5903E-01  0.3749E-02  0.3749E-02  0.3749E-02  0.0000E+00  0.0000E+00  0.0000E+00  0.0000E+00  0.0000E+00
     -7.872  0.5917E-01  0.3769E-02  0.3769E-02  0.3769E-02  0.0000E+00  0.0000E+00  0.0000E+00  0.0000E+00  0.0000E+00
     -7.858  0.5931E-01  0.3788E-02  0.3788E-02  0.3788E-02  0.0000E+00  0.0000E+00  0.0000E+00  0.0000E+00  0.0000E+00
     -7.844  0.5946E-01  0.3808E-02  0.3808E-02  0.3808E-02  0.0000E+00  0.0000E+00  0.0000E+00  0.0000E+00  0.0000E+00
     -7.830  0.5960E-01  0.3827E-02  0.3827E-02  0.3827E-02  0.0000E+00  0.0000E+00  0.0000E+00  0.0000E+00  0.0000E+00
     -7.817  0.5975E-01  0.3846E-02  0.3846E-02  0.3846E-02  0.0000E+00  0.0000E+00  0.0000E+00  0.0000E+00  0.0000E+00
     -7.803  0.5990E-01  0.3865E-02  0.3865E-02  0.3865E-02  0.0000E+00  0.0000E+00  0.0000E+00  0.0000E+00  0.0000E+00
     -7.789  0.6006E-01  0.3885E-02  0.3885E-02  0.3885E-02  0.0000E+00  0.0000E+00  0.0000E+00  0.0000E+00  0.0000E+00
     -7.775  0.6021E-01  0.3904E-02  0.3904E-02  0.3904E-02  0.0000E+00  0.0000E+00  0.0000E+00  0.0000E+00  0.0000E+00
     -7.761  0.6036E-01  0.3923E-02  0.3923E-02  0.3923E-02  0.0000E+00  0.0000E+00  0.0000E+00  0.0000E+00  0.0000E+00
     -7.747  0.6052E-01  0.3942E-02  0.3942E-02  0.3942E-02  0.0000E+00  0.0000E+00  0.0000E+00  0.0000E+00  0.0000E+00
     -7.733  0.6068E-01  0.3962E-02  0.3962E-02  0.3962E-02  0.0000E+00  0.0000E+00  0.0000E+00  0.0000E+00  0.0000E+00
     -7.719  0.6083E-01  0.3981E-02  0.3981E-02  0.3981E-02  0.0000E+00  0.0000E+00  0.0000E+00  0.0000E+00  0.0000E+00
     -7.705  0.6099E-01  0.4000E-02  0.4000E-02  0.4000E-02  0.0000E+00  0.0000E+00  0.0000E+00  0.0000E+00  0.0000E+00
     -7.691  0.6115E-01  0.4019E-02  0.4019E-02  0.4019E-02  0.0000E+00  0.0000E+00  0.0000E+00  0.0000E+00  0.0000E+00
     -7.677  0.6131E-01  0.4039E-02  0.4039E-02  0.4039E-02  0.0000E+00  0.0000E+00  0.0000E+00  0.0000E+00  0.0000E+00
     -7.663  0.6147E-01  0.4058E-02  0.4058E-02  0.4058E-02  0.0000E+00  0.0000E+00  0.0000E+00  0.0000E+00  0.0000E+00
     -7.649  0.6163E-01  0.4077E-02  0.4077E-02  0.4077E-02  0.0000E+00  0.0000E+00  0.0000E+00  0.0000E+00  0.0000E+00
     -7.635  0.6179E-01  0.4097E-02  0.4097E-02  0.4097E-02  0.0000E+00  0.0000E+00  0.0000E+00  0.0000E+00  0.0000E+00
     -7.621  0.6195E-01  0.4116E-02  0.4116E-02  0.4116E-02  0.0000E+00  0.0000E+00  0.0000E+00  0.0000E+00  0.0000E+00
     -7.607  0.6212E-01  0.4135E-02  0.4135E-02  0.4135E-02  0.0000E+00  0.0000E+00  0.0000E+00  0.0000E+00  0.0000E+00
     -7.593  0.6228E-01  0.4155E-02  0.4155E-02  0.4155E-02  0.0000E+00  0.0000E+00  0.0000E+00  0.0000E+00  0.0000E+00
     -7.579  0.6244E-01  0.4174E-02  0.4174E-02  0.4174E-02  0.0000E+00  0.0000E+00  0.0000E+00  0.0000E+00  0.0000E+00
     -7.565  0.6261E-01  0.4194E-02  0.4194E-02  0.4194E-02  0.0000E+00  0.0000E+00  0.0000E+00  0.0000E+00  0.0000E+00
     -7.551  0.6278E-01  0.4213E-02  0.4213E-02  0.4213E-02  0.0000E+00  0.0000E+00  0.0000E+00  0.0000E+00  0.0000E+00
     -7.537  0.6295E-01  0.4232E-02  0.4232E-02  0.4232E-02  0.0000E+00  0.0000E+00  0.0000E+00  0.0000E+00  0.0000E+00
     -7.523  0.6311E-01  0.4252E-02  0.4252E-02  0.4252E-02  0.0000E+00  0.0000E+00  0.0000E+00  0.0000E+00  0.0000E+00
     -7.509  0.6328E-01  0.4271E-02  0.4271E-02  0.4271E-02  0.0000E+00  0.0000E+00  0.0000E+00  0.0000E+00  0.0000E+00
     -7.495  0.6345E-01  0.4291E-02  0.4291E-02  0.4291E-02  0.0000E+00  0.0000E+00  0.0000E+00  0.0000E+00  0.0000E+00
     -7.481  0.6362E-01  0.4310E-02  0.4310E-02  0.4310E-02  0.0000E+00  0.0000E+00  0.0000E+00  0.0000E+00  0.0000E+00
     -7.467  0.6380E-01  0.4330E-02  0.4330E-02  0.4330E-02  0.0000E+00  0.0000E+00  0.0000E+00  0.0000E+00  0.0000E+00
     -7.453  0.6397E-01  0.4349E-02  0.4349E-02  0.4349E-02  0.0000E+00  0.0000E+00  0.0000E+00  0.0000E+00  0.0000E+00
     -7.439  0.6414E-01  0.4369E-02  0.4369E-02  0.4369E-02  0.0000E+00  0.0000E+00  0.0000E+00  0.0000E+00  0.0000E+00
     -7.425  0.6432E-01  0.4389E-02  0.4389E-02  0.4389E-02  0.0000E+00  0.0000E+00  0.0000E+00  0.0000E+00  0.0000E+00
     -7.411  0.6449E-01  0.4408E-02  0.4408E-02  0.4408E-02  0.0000E+00  0.0000E+00  0.0000E+00  0.0000E+00  0.0000E+00
     -7.397  0.6467E-01  0.4428E-02  0.4428E-02  0.4428E-02  0.0000E+00  0.0000E+00  0.0000E+00  0.0000E+00  0.0000E+00
     -7.383  0.6485E-01  0.4448E-02  0.4448E-02  0.4448E-02  0.0000E+00  0.0000E+00  0.0000E+00  0.0000E+00  0.0000E+00
     -7.369  0.6502E-01  0.4467E-02  0.4467E-02  0.4467E-02  0.0000E+00  0.0000E+00  0.0000E+00  0.0000E+00  0.0000E+00
     -7.355  0.6520E-01  0.4487E-02  0.4487E-02  0.4487E-02  0.0000E+00  0.0000E+00  0.0000E+00  0.0000E+00  0.0000E+00
     -7.341  0.6538E-01  0.4507E-02  0.4507E-02  0.4507E-02  0.0000E+00  0.0000E+00  0.0000E+00  0.0000E+00  0.0000E+00
     -7.327  0.6556E-01  0.4527E-02  0.4527E-02  0.4527E-02  0.0000E+00  0.0000E+00  0.0000E+00  0.0000E+00  0.0000E+00
     -7.313  0.6575E-01  0.4547E-02  0.4547E-02  0.4547E-02  0.0000E+00  0.0000E+00  0.0000E+00  0.0000E+00  0.0000E+00
     -7.299  0.6593E-01  0.4567E-02  0.4567E-02  0.4567E-02  0.0000E+00  0.0000E+00  0.0000E+00  0.0000E+00  0.0000E+00
     -7.285  0.6611E-01  0.4587E-02  0.4587E-02  0.4587E-02  0.0000E+00  0.0000E+00  0.0000E+00  0.0000E+00  0.0000E+00
     -7.271  0.6630E-01  0.4607E-02  0.4607E-02  0.4607E-02  0.0000E+00  0.0000E+00  0.0000E+00  0.0000E+00  0.0000E+00
     -7.257  0.6648E-01  0.4627E-02  0.4627E-02  0.4627E-02  0.0000E+00  0.0000E+00  0.0000E+00  0.0000E+00  0.0000E+00
     -7.243  0.6667E-01  0.4647E-02  0.4647E-02  0.4647E-02  0.0000E+00  0.0000E+00  0.0000E+00  0.0000E+00  0.0000E+00
     -7.229  0.6686E-01  0.4667E-02  0.4667E-02  0.4667E-02  0.0000E+00  0.0000E+00  0.0000E+00  0.0000E+00  0.0000E+00
     -7.216  0.6702E-01  0.4693E-02  0.4693E-02  0.4693E-02  0.0000E+00  0.0000E+00  0.0000E+00  0.0000E+00  0.0000E+00
     -7.202  0.6717E-01  0.4722E-02  0.4722E-02  0.4722E-02  0.0000E+00  0.0000E+00  0.0000E+00  0.0000E+00  0.0000E+00
     -7.188  0.6733E-01  0.4750E-02  0.4750E-02  0.4750E-02  0.0000E+00  0.0000E+00  0.0000E+00  0.0000E+00  0.0000E+00
     -7.174  0.6749E-01  0.4777E-02  0.4777E-02  0.4777E-02  0.0000E+00  0.0000E+00  0.0000E+00  0.0000E+00  0.0000E+00
     -7.160  0.6767E-01  0.4803E-02  0.4803E-02  0.4803E-02  0.0000E+00  0.0000E+00  0.0000E+00  0.0000E+00  0.0000E+00
     -7.146  0.6785E-01  0.4829E-02  0.4829E-02  0.4829E-02  0.0000E+00  0.0000E+00  0.0000E+00  0.0000E+00  0.0000E+00
     -7.132  0.6804E-01  0.4855E-02  0.4855E-02  0.4855E-02  0.0000E+00  0.0000E+00  0.0000E+00  0.0000E+00  0.0000E+00
     -7.118  0.6823E-01  0.4880E-02  0.4880E-02  0.4880E-02  0.0000E+00  0.0000E+00  0.0000E+00  0.0000E+00  0.0000E+00
     -7.104  0.6842E-01  0.4905E-02  0.4905E-02  0.4905E-02  0.0000E+00  0.0000E+00  0.0000E+00  0.0000E+00  0.0000E+00
     -7.090  0.6862E-01  0.4930E-02  0.4930E-02  0.4930E-02  0.0000E+00  0.0000E+00  0.0000E+00  0.0000E+00  0.0000E+00
     -7.076  0.6882E-01  0.4955E-02  0.4955E-02  0.4955E-02  0.0000E+00  0.0000E+00  0.0000E+00  0.0000E+00  0.0000E+00
     -7.062  0.6902E-01  0.4981E-02  0.4981E-02  0.4981E-02  0.0000E+00  0.0000E+00  0.0000E+00  0.0000E+00  0.0000E+00
     -7.048  0.6922E-01  0.5006E-02  0.5006E-02  0.5006E-02  0.0000E+00  0.0000E+00  0.0000E+00  0.0000E+00  0.0000E+00
     -7.034  0.6942E-01  0.5032E-02  0.5032E-02  0.5032E-02  0.0000E+00  0.0000E+00  0.0000E+00  0.0000E+00  0.0000E+00
     -7.020  0.6962E-01  0.5058E-02  0.5058E-02  0.5058E-02  0.0000E+00  0.0000E+00  0.0000E+00  0.0000E+00  0.0000E+00
     -7.006  0.6983E-01  0.5084E-02  0.5084E-02  0.5084E-02  0.0000E+00  0.0000E+00  0.0000E+00  0.0000E+00  0.0000E+00
     -6.992  0.7004E-01  0.5110E-02  0.5110E-02  0.5110E-02  0.0000E+00  0.0000E+00  0.0000E+00  0.0000E+00  0.0000E+00
     -6.978  0.7025E-01  0.5136E-02  0.5136E-02  0.5136E-02  0.0000E+00  0.0000E+00  0.0000E+00  0.0000E+00  0.0000E+00
     -6.964  0.7046E-01  0.5162E-02  0.5162E-02  0.5162E-02  0.0000E+00  0.0000E+00  0.0000E+00  0.0000E+00  0.0000E+00
     -6.950  0.7067E-01  0.5188E-02  0.5188E-02  0.5188E-02  0.0000E+00  0.0000E+00  0.0000E+00  0.0000E+00  0.0000E+00
     -6.936  0.7089E-01  0.5215E-02  0.5215E-02  0.5215E-02  0.0000E+00  0.0000E+00  0.0000E+00  0.0000E+00  0.0000E+00
     -6.922  0.7110E-01  0.5241E-02  0.5241E-02  0.5241E-02  0.0000E+00  0.0000E+00  0.0000E+00  0.0000E+00  0.0000E+00
     -6.908  0.7132E-01  0.5268E-02  0.5268E-02  0.5268E-02  0.0000E+00  0.0000E+00  0.0000E+00  0.0000E+00  0.0000E+00
     -6.894  0.7154E-01  0.5294E-02  0.5294E-02  0.5294E-02  0.0000E+00  0.0000E+00  0.0000E+00  0.0000E+00  0.0000E+00
     -6.880  0.7176E-01  0.5321E-02  0.5321E-02  0.5321E-02  0.0000E+00  0.0000E+00  0.0000E+00  0.0000E+00  0.0000E+00
     -6.866  0.7199E-01  0.5348E-02  0.5348E-02  0.5348E-02  0.0000E+00  0.0000E+00  0.0000E+00  0.0000E+00  0.0000E+00
     -6.852  0.7221E-01  0.5375E-02  0.5375E-02  0.5375E-02  0.0000E+00  0.0000E+00  0.0000E+00  0.0000E+00  0.0000E+00
     -6.838  0.7244E-01  0.5402E-02  0.5402E-02  0.5402E-02  0.0000E+00  0.0000E+00  0.0000E+00  0.0000E+00  0.0000E+00
     -6.824  0.7267E-01  0.5429E-02  0.5429E-02  0.5429E-02  0.0000E+00  0.0000E+00  0.0000E+00  0.0000E+00  0.0000E+00
     -6.810  0.7290E-01  0.5457E-02  0.5457E-02  0.5457E-02  0.0000E+00  0.0000E+00  0.0000E+00  0.0000E+00  0.0000E+00
     -6.796  0.7314E-01  0.5484E-02  0.5484E-02  0.5484E-02  0.0000E+00  0.0000E+00  0.0000E+00  0.0000E+00  0.0000E+00
     -6.782  0.7340E-01  0.5513E-02  0.5513E-02  0.5513E-02  0.0000E+00  0.0000E+00  0.0000E+00  0.0000E+00  0.0000E+00
     -6.768  0.7366E-01  0.5541E-02  0.5541E-02  0.5541E-02  0.0000E+00  0.0000E+00  0.0000E+00  0.0000E+00  0.0000E+00
     -6.754  0.7394E-01  0.5570E-02  0.5570E-02  0.5570E-02  0.0000E+00  0.0000E+00  0.0000E+00  0.0000E+00  0.0000E+00
     -6.740  0.7423E-01  0.5600E-02  0.5600E-02  0.5600E-02  0.0000E+00  0.0000E+00  0.0000E+00  0.0000E+00  0.0000E+00
     -6.726  0.7452E-01  0.5630E-02  0.5630E-02  0.5630E-02  0.0000E+00  0.0000E+00  0.0000E+00  0.0000E+00  0.0000E+00
     -6.712  0.7483E-01  0.5660E-02  0.5660E-02  0.5660E-02  0.0000E+00  0.0000E+00  0.0000E+00  0.0000E+00  0.0000E+00
     -6.698  0.7515E-01  0.5690E-02  0.5690E-02  0.5690E-02  0.0000E+00  0.0000E+00  0.0000E+00  0.0000E+00  0.0000E+00
     -6.684  0.7549E-01  0.5722E-02  0.5722E-02  0.5722E-02  0.0000E+00  0.0000E+00  0.0000E+00  0.0000E+00  0.0000E+00
     -6.670  0.7583E-01  0.5753E-02  0.5753E-02  0.5753E-02  0.0000E+00  0.0000E+00  0.0000E+00  0.0000E+00  0.0000E+00
     -6.656  0.7618E-01  0.5785E-02  0.5785E-02  0.5785E-02  0.0000E+00  0.0000E+00  0.0000E+00  0.0000E+00  0.0000E+00
     -6.642  0.7655E-01  0.5817E-02  0.5817E-02  0.5817E-02  0.0000E+00  0.0000E+00  0.0000E+00  0.0000E+00  0.0000E+00
     -6.628  0.7692E-01  0.5850E-02  0.5850E-02  0.5850E-02  0.0000E+00  0.0000E+00  0.0000E+00  0.0000E+00  0.0000E+00
     -6.615  0.7732E-01  0.5884E-02  0.5884E-02  0.5884E-02  0.0000E+00  0.0000E+00  0.0000E+00  0.0000E+00  0.0000E+00
     -6.601  0.7775E-01  0.5919E-02  0.5919E-02  0.5919E-02  0.0000E+00  0.0000E+00  0.0000E+00  0.0000E+00  0.0000E+00
     -6.587  0.7821E-01  0.5956E-02  0.5956E-02  0.5956E-02  0.0000E+00  0.0000E+00  0.0000E+00  0.0000E+00  0.0000E+00
     -6.573  0.7869E-01  0.5994E-02  0.5994E-02  0.5994E-02  0.0000E+00  0.0000E+00  0.0000E+00  0.0000E+00  0.0000E+00
     -6.559  0.7920E-01  0.6034E-02  0.6034E-02  0.6034E-02  0.0000E+00  0.0000E+00  0.0000E+00  0.0000E+00  0.0000E+00
     -6.545  0.7973E-01  0.6075E-02  0.6075E-02  0.6075E-02  0.0000E+00  0.0000E+00  0.0000E+00  0.0000E+00  0.0000E+00
     -6.531  0.8030E-01  0.6117E-02  0.6117E-02  0.6117E-02  0.0000E+00  0.0000E+00  0.0000E+00  0.0000E+00  0.0000E+00
     -6.517  0.8089E-01  0.6161E-02  0.6161E-02  0.6161E-02  0.0000E+00  0.0000E+00  0.0000E+00  0.0000E+00  0.0000E+00
     -6.503  0.8151E-01  0.6205E-02  0.6205E-02  0.6205E-02  0.0000E+00  0.0000E+00  0.0000E+00  0.0000E+00  0.0000E+00
     -6.489  0.8215E-01  0.6251E-02  0.6251E-02  0.6251E-02  0.0000E+00  0.0000E+00  0.0000E+00  0.0000E+00  0.0000E+00
     -6.475  0.8282E-01  0.6299E-02  0.6299E-02  0.6299E-02  0.0000E+00  0.0000E+00  0.0000E+00  0.0000E+00  0.0000E+00
     -6.461  0.8352E-01  0.6348E-02  0.6348E-02  0.6348E-02  0.0000E+00  0.0000E+00  0.0000E+00  0.0000E+00  0.0000E+00
     -6.447  0.8424E-01  0.6398E-02  0.6398E-02  0.6398E-02  0.0000E+00  0.0000E+00  0.0000E+00  0.0000E+00  0.0000E+00
     -6.433  0.8499E-01  0.6450E-02  0.6450E-02  0.6450E-02  0.0000E+00  0.0000E+00  0.0000E+00  0.0000E+00  0.0000E+00
     -6.419  0.8576E-01  0.6503E-02  0.6503E-02  0.6503E-02  0.0000E+00  0.0000E+00  0.0000E+00  0.0000E+00  0.0000E+00
     -6.405  0.8656E-01  0.6557E-02  0.6557E-02  0.6557E-02  0.0000E+00  0.0000E+00  0.0000E+00  0.0000E+00  0.0000E+00
     -6.391  0.8738E-01  0.6613E-02  0.6613E-02  0.6613E-02  0.0000E+00  0.0000E+00  0.0000E+00  0.0000E+00  0.0000E+00
     -6.377  0.8824E-01  0.6670E-02  0.6670E-02  0.6670E-02  0.0000E+00  0.0000E+00  0.0000E+00  0.0000E+00  0.0000E+00
     -6.363  0.8911E-01  0.6729E-02  0.6729E-02  0.6729E-02  0.0000E+00  0.0000E+00  0.0000E+00  0.0000E+00  0.0000E+00
     -6.349  0.9002E-01  0.6789E-02  0.6789E-02  0.6789E-02  0.0000E+00  0.0000E+00  0.0000E+00  0.0000E+00  0.0000E+00
     -6.335  0.9095E-01  0.6850E-02  0.6850E-02  0.6850E-02  0.0000E+00  0.0000E+00  0.0000E+00  0.0000E+00  0.0000E+00
     -6.321  0.9190E-01  0.6913E-02  0.6913E-02  0.6913E-02  0.0000E+00  0.0000E+00  0.0000E+00  0.0000E+00  0.0000E+00
     -6.307  0.9288E-01  0.6977E-02  0.6977E-02  0.6977E-02  0.0000E+00  0.0000E+00  0.0000E+00  0.0000E+00  0.0000E+00
     -6.293  0.9389E-01  0.7042E-02  0.7042E-02  0.7042E-02  0.0000E+00  0.0000E+00  0.0000E+00  0.0000E+00  0.0000E+00
     -6.279  0.9492E-01  0.7109E-02  0.7109E-02  0.7109E-02  0.0000E+00  0.0000E+00  0.0000E+00  0.0000E+00  0.0000E+00
     -6.265  0.9598E-01  0.7177E-02  0.7177E-02  0.7177E-02  0.0000E+00  0.0000E+00  0.0000E+00  0.0000E+00  0.0000E+00
     -6.251  0.9707E-01  0.7247E-02  0.7247E-02  0.7247E-02  0.0000E+00  0.0000E+00  0.0000E+00  0.0000E+00  0.0000E+00
     -6.237  0.9818E-01  0.7318E-02  0.7318E-02  0.7318E-02  0.0000E+00  0.0000E+00  0.0000E+00  0.0000E+00  0.0000E+00
     -6.223  0.9932E-01  0.7390E-02  0.7390E-02  0.7390E-02  0.0000E+00  0.0000E+00  0.0000E+00  0.0000E+00  0.0000E+00
     -6.209  0.1005E+00  0.7464E-02  0.7464E-02  0.7464E-02  0.0000E+00  0.0000E+00  0.0000E+00  0.0000E+00  0.0000E+00
     -6.195  0.1017E+00  0.7539E-02  0.7539E-02  0.7539E-02  0.0000E+00  0.0000E+00  0.0000E+00  0.0000E+00  0.0000E+00
     -6.181  0.1029E+00  0.7616E-02  0.7616E-02  0.7616E-02  0.0000E+00  0.0000E+00  0.0000E+00  0.0000E+00  0.0000E+00
     -6.167  0.1041E+00  0.7694E-02  0.7694E-02  0.7694E-02  0.0000E+00  0.0000E+00  0.0000E+00  0.0000E+00  0.0000E+00
     -6.153  0.1054E+00  0.7773E-02  0.7773E-02  0.7773E-02  0.0000E+00  0.0000E+00  0.0000E+00  0.0000E+00  0.0000E+00
     -6.139  0.1067E+00  0.7854E-02  0.7854E-02  0.7854E-02  0.0000E+00  0.0000E+00  0.0000E+00  0.0000E+00  0.0000E+00
     -6.125  0.1080E+00  0.7936E-02  0.7936E-02  0.7936E-02  0.0000E+00  0.0000E+00  0.0000E+00  0.0000E+00  0.0000E+00
     -6.111  0.1093E+00  0.8019E-02  0.8019E-02  0.8019E-02  0.0000E+00  0.0000E+00  0.0000E+00  0.0000E+00  0.0000E+00
     -6.097  0.1107E+00  0.8104E-02  0.8104E-02  0.8104E-02  0.0000E+00  0.0000E+00  0.0000E+00  0.0000E+00  0.0000E+00
     -6.083  0.1121E+00  0.8190E-02  0.8190E-02  0.8190E-02  0.0000E+00  0.0000E+00  0.0000E+00  0.0000E+00  0.0000E+00
     -6.069  0.1135E+00  0.8278E-02  0.8278E-02  0.8278E-02  0.0000E+00  0.0000E+00  0.0000E+00  0.0000E+00  0.0000E+00
     -6.055  0.1101E+00  0.8118E-02  0.8118E-02  0.8118E-02  0.0000E+00  0.0000E+00  0.0000E+00  0.0000E+00  0.0000E+00
     -6.041  0.1008E+00  0.7656E-02  0.7656E-02  0.7656E-02  0.0000E+00  0.0000E+00  0.0000E+00  0.0000E+00  0.0000E+00
     -6.027  0.9497E-01  0.7371E-02  0.7371E-02  0.7371E-02  0.0000E+00  0.0000E+00  0.0000E+00  0.0000E+00  0.0000E+00
     -6.014  0.9258E-01  0.7263E-02  0.7263E-02  0.7263E-02  0.0000E+00  0.0000E+00  0.0000E+00  0.0000E+00  0.0000E+00
     -6.000  0.9259E-01  0.7277E-02  0.7277E-02  0.7277E-02  0.0000E+00  0.0000E+00  0.0000E+00  0.0000E+00  0.0000E+00
     -5.986  0.9271E-01  0.7298E-02  0.7298E-02  0.7298E-02  0.0000E+00  0.0000E+00  0.0000E+00  0.0000E+00  0.0000E+00
     -5.972  0.9289E-01  0.7321E-02  0.7321E-02  0.7321E-02  0.0000E+00  0.0000E+00  0.0000E+00  0.0000E+00  0.0000E+00
     -5.958  0.9311E-01  0.7348E-02  0.7348E-02  0.7348E-02  0.0000E+00  0.0000E+00  0.0000E+00  0.0000E+00  0.0000E+00
     -5.944  0.9335E-01  0.7376E-02  0.7376E-02  0.7376E-02  0.0000E+00  0.0000E+00  0.0000E+00  0.0000E+00  0.0000E+00
     -5.930  0.9357E-01  0.7403E-02  0.7403E-02  0.7403E-02  0.0000E+00  0.0000E+00  0.0000E+00  0.0000E+00  0.0000E+00
     -5.916  0.9377E-01  0.7429E-02  0.7429E-02  0.7429E-02  0.0000E+00  0.0000E+00  0.0000E+00  0.0000E+00  0.0000E+00
     -5.902  0.9394E-01  0.7452E-02  0.7452E-02  0.7452E-02  0.0000E+00  0.0000E+00  0.0000E+00  0.0000E+00  0.0000E+00
     -5.888  0.9408E-01  0.7474E-02  0.7474E-02  0.7474E-02  0.0000E+00  0.0000E+00  0.0000E+00  0.0000E+00  0.0000E+00
     -5.874  0.9419E-01  0.7495E-02  0.7495E-02  0.7495E-02  0.0000E+00  0.0000E+00  0.0000E+00  0.0000E+00  0.0000E+00
     -5.860  0.9428E-01  0.7514E-02  0.7514E-02  0.7514E-02  0.0000E+00  0.0000E+00  0.0000E+00  0.0000E+00  0.0000E+00
     -5.846  0.9434E-01  0.7531E-02  0.7531E-02  0.7531E-02  0.0000E+00  0.0000E+00  0.0000E+00  0.0000E+00  0.0000E+00
     -5.832  0.9437E-01  0.7547E-02  0.7547E-02  0.7547E-02  0.0000E+00  0.0000E+00  0.0000E+00  0.0000E+00  0.0000E+00
     -5.818  0.9438E-01  0.7561E-02  0.7561E-02  0.7561E-02  0.0000E+00  0.0000E+00  0.0000E+00  0.0000E+00  0.0000E+00
     -5.804  0.9436E-01  0.7574E-02  0.7574E-02  0.7574E-02  0.0000E+00  0.0000E+00  0.0000E+00  0.0000E+00  0.0000E+00
     -5.790  0.9431E-01  0.7585E-02  0.7585E-02  0.7585E-02  0.0000E+00  0.0000E+00  0.0000E+00  0.0000E+00  0.0000E+00
     -5.776  0.9423E-01  0.7594E-02  0.7594E-02  0.7594E-02  0.0000E+00  0.0000E+00  0.0000E+00  0.0000E+00  0.0000E+00
     -5.762  0.9413E-01  0.7602E-02  0.7602E-02  0.7602E-02  0.0000E+00  0.0000E+00  0.0000E+00  0.0000E+00  0.0000E+00
     -5.748  0.9401E-01  0.7608E-02  0.7608E-02  0.7608E-02  0.0000E+00  0.0000E+00  0.0000E+00  0.0000E+00  0.0000E+00
     -5.734  0.9385E-01  0.7613E-02  0.7613E-02  0.7613E-02  0.0000E+00  0.0000E+00  0.0000E+00  0.0000E+00  0.0000E+00
     -5.720  0.9367E-01  0.7616E-02  0.7616E-02  0.7616E-02  0.0000E+00  0.0000E+00  0.0000E+00  0.0000E+00  0.0000E+00
     -5.706  0.9346E-01  0.7617E-02  0.7617E-02  0.7617E-02  0.0000E+00  0.0000E+00  0.0000E+00  0.0000E+00  0.0000E+00
     -5.692  0.9323E-01  0.7617E-02  0.7617E-02  0.7617E-02  0.0000E+00  0.0000E+00  0.0000E+00  0.0000E+00  0.0000E+00
     -5.678  0.9297E-01  0.7615E-02  0.7615E-02  0.7615E-02  0.0000E+00  0.0000E+00  0.0000E+00  0.0000E+00  0.0000E+00
     -5.664  0.9268E-01  0.7612E-02  0.7612E-02  0.7612E-02  0.0000E+00  0.0000E+00  0.0000E+00  0.0000E+00  0.0000E+00
     -5.650  0.9236E-01  0.7607E-02  0.7607E-02  0.7607E-02  0.0000E+00  0.0000E+00  0.0000E+00  0.0000E+00  0.0000E+00
     -5.636  0.9202E-01  0.7600E-02  0.7600E-02  0.7600E-02  0.0000E+00  0.0000E+00  0.0000E+00  0.0000E+00  0.0000E+00
     -5.622  0.9165E-01  0.7592E-02  0.7592E-02  0.7592E-02  0.0000E+00  0.0000E+00  0.0000E+00  0.0000E+00  0.0000E+00
     -5.608  0.9125E-01  0.7582E-02  0.7582E-02  0.7582E-02  0.0000E+00  0.0000E+00  0.0000E+00  0.0000E+00  0.0000E+00
     -5.594  0.9083E-01  0.7571E-02  0.7571E-02  0.7571E-02  0.0000E+00  0.0000E+00  0.0000E+00  0.0000E+00  0.0000E+00
     -5.580  0.9038E-01  0.7558E-02  0.7558E-02  0.7558E-02  0.0000E+00  0.0000E+00  0.0000E+00  0.0000E+00  0.0000E+00
     -5.566  0.8990E-01  0.7543E-02  0.7543E-02  0.7543E-02  0.0000E+00  0.0000E+00  0.0000E+00  0.0000E+00  0.0000E+00
     -5.552  0.8940E-01  0.7527E-02  0.7527E-02  0.7527E-02  0.0000E+00  0.0000E+00  0.0000E+00  0.0000E+00  0.0000E+00
     -5.538  0.8887E-01  0.7509E-02  0.7509E-02  0.7509E-02  0.0000E+00  0.0000E+00  0.0000E+00  0.0000E+00  0.0000E+00
     -5.524  0.8832E-01  0.7491E-02  0.7491E-02  0.7491E-02  0.0000E+00  0.0000E+00  0.0000E+00  0.0000E+00  0.0000E+00
     -5.510  0.8778E-01  0.7474E-02  0.7474E-02  0.7474E-02  0.0000E+00  0.0000E+00  0.0000E+00  0.0000E+00  0.0000E+00
     -5.496  0.8724E-01  0.7460E-02  0.7460E-02  0.7460E-02  0.0000E+00  0.0000E+00  0.0000E+00  0.0000E+00  0.0000E+00
     -5.482  0.8672E-01  0.7448E-02  0.7448E-02  0.7448E-02  0.0000E+00  0.0000E+00  0.0000E+00  0.0000E+00  0.0000E+00
     -5.468  0.8620E-01  0.7437E-02  0.7437E-02  0.7437E-02  0.0000E+00  0.0000E+00  0.0000E+00  0.0000E+00  0.0000E+00
     -5.454  0.8570E-01  0.7429E-02  0.7429E-02  0.7429E-02  0.0000E+00  0.0000E+00  0.0000E+00  0.0000E+00  0.0000E+00
     -5.440  0.8520E-01  0.7424E-02  0.7424E-02  0.7424E-02  0.0000E+00  0.0000E+00  0.0000E+00  0.0000E+00  0.0000E+00
     -5.426  0.8471E-01  0.7420E-02  0.7420E-02  0.7420E-02  0.0000E+00  0.0000E+00  0.0000E+00  0.0000E+00  0.0000E+00
     -5.413  0.8424E-01  0.7419E-02  0.7419E-02  0.7419E-02  0.0000E+00  0.0000E+00  0.0000E+00  0.0000E+00  0.0000E+00
     -5.399  0.8441E-01  0.7466E-02  0.7466E-02  0.7466E-02  0.0000E+00  0.0000E+00  0.0000E+00  0.0000E+00  0.0000E+00
     -5.385  0.8558E-01  0.7584E-02  0.7584E-02  0.7584E-02  0.0000E+00  0.0000E+00  0.0000E+00  0.0000E+00  0.0000E+00
     -5.371  0.8775E-01  0.7775E-02  0.7775E-02  0.7775E-02  0.0000E+00  0.0000E+00  0.0000E+00  0.0000E+00  0.0000E+00
     -5.357  0.9069E-01  0.8020E-02  0.8020E-02  0.8020E-02  0.0000E+00  0.0000E+00  0.0000E+00  0.0000E+00  0.0000E+00
     -5.343  0.9277E-01  0.8201E-02  0.8201E-02  0.8201E-02  0.0000E+00  0.0000E+00  0.0000E+00  0.0000E+00  0.0000E+00
     -5.329  0.9368E-01  0.8291E-02  0.8291E-02  0.8291E-02  0.0000E+00  0.0000E+00  0.0000E+00  0.0000E+00  0.0000E+00
     -5.315  0.9354E-01  0.8300E-02  0.8300E-02  0.8300E-02  0.0000E+00  0.0000E+00  0.0000E+00  0.0000E+00  0.0000E+00
     -5.301  0.9323E-01  0.8296E-02  0.8296E-02  0.8296E-02  0.0000E+00  0.0000E+00  0.0000E+00  0.0000E+00  0.0000E+00
     -5.287  0.9292E-01  0.8290E-02  0.8290E-02  0.8290E-02  0.0000E+00  0.0000E+00  0.0000E+00  0.0000E+00  0.0000E+00
     -5.273  0.9259E-01  0.8284E-02  0.8284E-02  0.8284E-02  0.0000E+00  0.0000E+00  0.0000E+00  0.0000E+00  0.0000E+00
     -5.259  0.9225E-01  0.8276E-02  0.8276E-02  0.8276E-02  0.0000E+00  0.0000E+00  0.0000E+00  0.0000E+00  0.0000E+00
     -5.245  0.9190E-01  0.8268E-02  0.8268E-02  0.8268E-02  0.0000E+00  0.0000E+00  0.0000E+00  0.0000E+00  0.0000E+00
     -5.231  0.9154E-01  0.8259E-02  0.8259E-02  0.8259E-02  0.0000E+00  0.0000E+00  0.0000E+00  0.0000E+00  0.0000E+00
     -5.217  0.9116E-01  0.8249E-02  0.8249E-02  0.8249E-02  0.0000E+00  0.0000E+00  0.0000E+00  0.0000E+00  0.0000E+00
     -5.203  0.9078E-01  0.8237E-02  0.8237E-02  0.8237E-02  0.0000E+00  0.0000E+00  0.0000E+00  0.0000E+00  0.0000E+00
     -5.189  0.9038E-01  0.8225E-02  0.8225E-02  0.8225E-02  0.0000E+00  0.0000E+00  0.0000E+00  0.0000E+00  0.0000E+00
     -5.175  0.8998E-01  0.8213E-02  0.8213E-02  0.8213E-02  0.0000E+00  0.0000E+00  0.0000E+00  0.0000E+00  0.0000E+00
     -5.161  0.8956E-01  0.8199E-02  0.8199E-02  0.8199E-02  0.0000E+00  0.0000E+00  0.0000E+00  0.0000E+00  0.0000E+00
     -5.147  0.8913E-01  0.8184E-02  0.8184E-02  0.8184E-02  0.0000E+00  0.0000E+00  0.0000E+00  0.0000E+00  0.0000E+00
     -5.133  0.8869E-01  0.8168E-02  0.8168E-02  0.8168E-02  0.0000E+00  0.0000E+00  0.0000E+00  0.0000E+00  0.0000E+00
     -5.119  0.8824E-01  0.8151E-02  0.8151E-02  0.8151E-02  0.0000E+00  0.0000E+00  0.0000E+00  0.0000E+00  0.0000E+00
     -5.105  0.8778E-01  0.8134E-02  0.8134E-02  0.8134E-02  0.0000E+00  0.0000E+00  0.0000E+00  0.0000E+00  0.0000E+00
     -5.091  0.8731E-01  0.8115E-02  0.8115E-02  0.8115E-02  0.0000E+00  0.0000E+00  0.0000E+00  0.0000E+00  0.0000E+00
     -5.077  0.8683E-01  0.8096E-02  0.8096E-02  0.8096E-02  0.0000E+00  0.0000E+00  0.0000E+00  0.0000E+00  0.0000E+00
     -5.063  0.8633E-01  0.8076E-02  0.8076E-02  0.8076E-02  0.0000E+00  0.0000E+00  0.0000E+00  0.0000E+00  0.0000E+00
     -5.049  0.8583E-01  0.8054E-02  0.8054E-02  0.8054E-02  0.0000E+00  0.0000E+00  0.0000E+00  0.0000E+00  0.0000E+00
     -5.035  0.8531E-01  0.8032E-02  0.8032E-02  0.8032E-02  0.0000E+00  0.0000E+00  0.0000E+00  0.0000E+00  0.0000E+00
     -5.021  0.8478E-01  0.8009E-02  0.8009E-02  0.8009E-02  0.0000E+00  0.0000E+00  0.0000E+00  0.0000E+00  0.0000E+00
     -5.007  0.8424E-01  0.7985E-02  0.7985E-02  0.7985E-02  0.0000E+00  0.0000E+00  0.0000E+00  0.0000E+00  0.0000E+00
     -4.993  0.8369E-01  0.7960E-02  0.7960E-02  0.7960E-02  0.0000E+00  0.0000E+00  0.0000E+00  0.0000E+00  0.0000E+00
     -4.979  0.8313E-01  0.7934E-02  0.7934E-02  0.7934E-02  0.0000E+00  0.0000E+00  0.0000E+00  0.0000E+00  0.0000E+00
     -4.965  0.8256E-01  0.7907E-02  0.7907E-02  0.7907E-02  0.0000E+00  0.0000E+00  0.0000E+00  0.0000E+00  0.0000E+00
     -4.951  0.8198E-01  0.7879E-02  0.7879E-02  0.7879E-02  0.0000E+00  0.0000E+00  0.0000E+00  0.0000E+00  0.0000E+00
     -4.937  0.8138E-01  0.7851E-02  0.7851E-02  0.7851E-02  0.0000E+00  0.0000E+00  0.0000E+00  0.0000E+00  0.0000E+00
     -4.923  0.8078E-01  0.7821E-02  0.7821E-02  0.7821E-02  0.0000E+00  0.0000E+00  0.0000E+00  0.0000E+00  0.0000E+00
     -4.909  0.8016E-01  0.7790E-02  0.7790E-02  0.7790E-02  0.0000E+00  0.0000E+00  0.0000E+00  0.0000E+00  0.0000E+00
     -4.895  0.7953E-01  0.7759E-02  0.7759E-02  0.7759E-02  0.0000E+00  0.0000E+00  0.0000E+00  0.0000E+00  0.0000E+00
     -4.881  0.7889E-01  0.7727E-02  0.7727E-02  0.7727E-02  0.0000E+00  0.0000E+00  0.0000E+00  0.0000E+00  0.0000E+00
     -4.867  0.7824E-01  0.7693E-02  0.7693E-02  0.7693E-02  0.0000E+00  0.0000E+00  0.0000E+00  0.0000E+00  0.0000E+00
     -4.853  0.7758E-01  0.7659E-02  0.7659E-02  0.7659E-02  0.0000E+00  0.0000E+00  0.0000E+00  0.0000E+00  0.0000E+00
     -4.839  0.7691E-01  0.7623E-02  0.7623E-02  0.7623E-02  0.0000E+00  0.0000E+00  0.0000E+00  0.0000E+00  0.0000E+00
     -4.825  0.7621E-01  0.7586E-02  0.7586E-02  0.7586E-02  0.0000E+00  0.0000E+00  0.0000E+00  0.0000E+00  0.0000E+00
     -4.812  0.7550E-01  0.7547E-02  0.7547E-02  0.7547E-02  0.0000E+00  0.0000E+00  0.0000E+00  0.0000E+00  0.0000E+00
     -4.798  0.7476E-01  0.7506E-02  0.7506E-02  0.7506E-02  0.0000E+00  0.0000E+00  0.0000E+00  0.0000E+00  0.0000E+00
     -4.784  0.7401E-01  0.7464E-02  0.7464E-02  0.7464E-02  0.0000E+00  0.0000E+00  0.0000E+00  0.0000E+00  0.0000E+00
     -4.770  0.7324E-01  0.7420E-02  0.7420E-02  0.7420E-02  0.0000E+00  0.0000E+00  0.0000E+00  0.0000E+00  0.0000E+00
     -4.756  0.7245E-01  0.7374E-02  0.7374E-02  0.7374E-02  0.0000E+00  0.0000E+00  0.0000E+00  0.0000E+00  0.0000E+00
     -4.742  0.7212E-01  0.7359E-02  0.7359E-02  0.7359E-02  0.0000E+00  0.0000E+00  0.0000E+00  0.0000E+00  0.0000E+00
     -4.728  0.7186E-01  0.7348E-02  0.7348E-02  0.7348E-02  0.0000E+00  0.0000E+00  0.0000E+00  0.0000E+00  0.0000E+00
     -4.714  0.7160E-01  0.7337E-02  0.7337E-02  0.7337E-02  0.0000E+00  0.0000E+00  0.0000E+00  0.0000E+00  0.0000E+00
     -4.700  0.7134E-01  0.7327E-02  0.7327E-02  0.7327E-02  0.0000E+00  0.0000E+00  0.0000E+00  0.0000E+00  0.0000E+00
     -4.686  0.7109E-01  0.7317E-02  0.7317E-02  0.7317E-02  0.0000E+00  0.0000E+00  0.0000E+00  0.0000E+00  0.0000E+00
     -4.672  0.7085E-01  0.7307E-02  0.7307E-02  0.7307E-02  0.0000E+00  0.0000E+00  0.0000E+00  0.0000E+00  0.0000E+00
     -4.658  0.7061E-01  0.7298E-02  0.7298E-02  0.7298E-02  0.0000E+00  0.0000E+00  0.0000E+00  0.0000E+00  0.0000E+00
     -4.644  0.7037E-01  0.7288E-02  0.7288E-02  0.7288E-02  0.0000E+00  0.0000E+00  0.0000E+00  0.0000E+00  0.0000E+00
     -4.630  0.7014E-01  0.7280E-02  0.7280E-02  0.7280E-02  0.0000E+00  0.0000E+00  0.0000E+00  0.0000E+00  0.0000E+00
     -4.616  0.6991E-01  0.7271E-02  0.7271E-02  0.7271E-02  0.0000E+00  0.0000E+00  0.0000E+00  0.0000E+00  0.0000E+00
     -4.602  0.6968E-01  0.7263E-02  0.7263E-02  0.7263E-02  0.0000E+00  0.0000E+00  0.0000E+00  0.0000E+00  0.0000E+00
     -4.588  0.6946E-01  0.7255E-02  0.7255E-02  0.7255E-02  0.0000E+00  0.0000E+00  0.0000E+00  0.0000E+00  0.0000E+00
     -4.574  0.6925E-01  0.7248E-02  0.7248E-02  0.7248E-02  0.0000E+00  0.0000E+00  0.0000E+00  0.0000E+00  0.0000E+00
     -4.560  0.6904E-01  0.7241E-02  0.7241E-02  0.7241E-02  0.0000E+00  0.0000E+00  0.0000E+00  0.0000E+00  0.0000E+00
     -4.546  0.6883E-01  0.7234E-02  0.7234E-02  0.7234E-02  0.0000E+00  0.0000E+00  0.0000E+00  0.0000E+00  0.0000E+00
     -4.532  0.6863E-01  0.7228E-02  0.7228E-02  0.7228E-02  0.0000E+00  0.0000E+00  0.0000E+00  0.0000E+00  0.0000E+00
     -4.518  0.6843E-01  0.7221E-02  0.7221E-02  0.7221E-02  0.0000E+00  0.0000E+00  0.0000E+00  0.0000E+00  0.0000E+00
     -4.504  0.6823E-01  0.7215E-02  0.7215E-02  0.7215E-02  0.0000E+00  0.0000E+00  0.0000E+00  0.0000E+00  0.0000E+00
     -4.490  0.6804E-01  0.7210E-02  0.7210E-02  0.7210E-02  0.0000E+00  0.0000E+00  0.0000E+00  0.0000E+00  0.0000E+00
     -4.476  0.6790E-01  0.7212E-02  0.7212E-02  0.7212E-02  0.0000E+00  0.0000E+00  0.0000E+00  0.0000E+00  0.0000E+00
     -4.462  0.6785E-01  0.7225E-02  0.7225E-02  0.7225E-02  0.0000E+00  0.0000E+00  0.0000E+00  0.0000E+00  0.0000E+00
     -4.448  0.6779E-01  0.7238E-02  0.7238E-02  0.7238E-02  0.0000E+00  0.0000E+00  0.0000E+00  0.0000E+00  0.0000E+00
     -4.434  0.6774E-01  0.7252E-02  0.7252E-02  0.7252E-02  0.0000E+00  0.0000E+00  0.0000E+00  0.0000E+00  0.0000E+00
     -4.420  0.6768E-01  0.7264E-02  0.7264E-02  0.7264E-02  0.0000E+00  0.0000E+00  0.0000E+00  0.0000E+00  0.0000E+00
     -4.406  0.6762E-01  0.7277E-02  0.7277E-02  0.7277E-02  0.0000E+00  0.0000E+00  0.0000E+00  0.0000E+00  0.0000E+00
     -4.392  0.6757E-01  0.7289E-02  0.7289E-02  0.7289E-02  0.0000E+00  0.0000E+00  0.0000E+00  0.0000E+00  0.0000E+00
     -4.378  0.6752E-01  0.7301E-02  0.7301E-02  0.7301E-02  0.0000E+00  0.0000E+00  0.0000E+00  0.0000E+00  0.0000E+00
     -4.364  0.6746E-01  0.7313E-02  0.7313E-02  0.7313E-02  0.0000E+00  0.0000E+00  0.0000E+00  0.0000E+00  0.0000E+00
     -4.350  0.6741E-01  0.7324E-02  0.7324E-02  0.7324E-02  0.0000E+00  0.0000E+00  0.0000E+00  0.0000E+00  0.0000E+00
     -4.336  0.6736E-01  0.7336E-02  0.7336E-02  0.7336E-02  0.0000E+00  0.0000E+00  0.0000E+00  0.0000E+00  0.0000E+00
     -4.322  0.6730E-01  0.7347E-02  0.7347E-02  0.7347E-02  0.0000E+00  0.0000E+00  0.0000E+00  0.0000E+00  0.0000E+00
     -4.308  0.6725E-01  0.7358E-02  0.7358E-02  0.7358E-02  0.0000E+00  0.0000E+00  0.0000E+00  0.0000E+00  0.0000E+00
     -4.294  0.6720E-01  0.7368E-02  0.7368E-02  0.7368E-02  0.0000E+00  0.0000E+00  0.0000E+00  0.0000E+00  0.0000E+00
     -4.280  0.6715E-01  0.7378E-02  0.7378E-02  0.7378E-02  0.0000E+00  0.0000E+00  0.0000E+00  0.0000E+00  0.0000E+00
     -4.266  0.6710E-01  0.7388E-02  0.7388E-02  0.7388E-02  0.0000E+00  0.0000E+00  0.0000E+00  0.0000E+00  0.0000E+00
     -4.252  0.6705E-01  0.7398E-02  0.7398E-02  0.7398E-02  0.0000E+00  0.0000E+00  0.0000E+00  0.0000E+00  0.0000E+00
     -4.238  0.6700E-01  0.7408E-02  0.7408E-02  0.7408E-02  0.0000E+00  0.0000E+00  0.0000E+00  0.0000E+00  0.0000E+00
     -4.224  0.6695E-01  0.7417E-02  0.7417E-02  0.7417E-02  0.0000E+00  0.0000E+00  0.0000E+00  0.0000E+00  0.0000E+00
     -4.211  0.6690E-01  0.7426E-02  0.7426E-02  0.7426E-02  0.0000E+00  0.0000E+00  0.0000E+00  0.0000E+00  0.0000E+00
     -4.197  0.6685E-01  0.7435E-02  0.7435E-02  0.7435E-02  0.0000E+00  0.0000E+00  0.0000E+00  0.0000E+00  0.0000E+00
     -4.183  0.6680E-01  0.7443E-02  0.7443E-02  0.7443E-02  0.0000E+00  0.0000E+00  0.0000E+00  0.0000E+00  0.0000E+00
     -4.169  0.6676E-01  0.7452E-02  0.7452E-02  0.7452E-02  0.0000E+00  0.0000E+00  0.0000E+00  0.0000E+00  0.0000E+00
     -4.155  0.6671E-01  0.7460E-02  0.7460E-02  0.7460E-02  0.0000E+00  0.0000E+00  0.0000E+00  0.0000E+00  0.0000E+00
     -4.141  0.6666E-01  0.7468E-02  0.7468E-02  0.7468E-02  0.0000E+00  0.0000E+00  0.0000E+00  0.0000E+00  0.0000E+00
     -4.127  0.6662E-01  0.7475E-02  0.7475E-02  0.7475E-02  0.0000E+00  0.0000E+00  0.0000E+00  0.0000E+00  0.0000E+00
     -4.113  0.6657E-01  0.7482E-02  0.7482E-02  0.7482E-02  0.0000E+00  0.0000E+00  0.0000E+00  0.0000E+00  0.0000E+00
     -4.099  0.6659E-01  0.7499E-02  0.7499E-02  0.7499E-02  0.0000E+00  0.0000E+00  0.0000E+00  0.0000E+00  0.0000E+00
     -4.085  0.6658E-01  0.7511E-02  0.7511E-02  0.7511E-02  0.0000E+00  0.0000E+00  0.0000E+00  0.0000E+00  0.0000E+00
     -4.071  0.6653E-01  0.7520E-02  0.7520E-02  0.7520E-02  0.0000E+00  0.0000E+00  0.0000E+00  0.0000E+00  0.0000E+00
     -4.057  0.6644E-01  0.7525E-02  0.7525E-02  0.7525E-02  0.0000E+00  0.0000E+00  0.0000E+00  0.0000E+00  0.0000E+00
     -4.043  0.6630E-01  0.7527E-02  0.7527E-02  0.7527E-02  0.0000E+00  0.0000E+00  0.0000E+00  0.0000E+00  0.0000E+00
     -4.029  0.6613E-01  0.7524E-02  0.7524E-02  0.7524E-02  0.0000E+00  0.0000E+00  0.0000E+00  0.0000E+00  0.0000E+00
     -4.015  0.6592E-01  0.7517E-02  0.7517E-02  0.7517E-02  0.0000E+00  0.0000E+00  0.0000E+00  0.0000E+00  0.0000E+00
     -4.001  0.6566E-01  0.7507E-02  0.7507E-02  0.7507E-02  0.0000E+00  0.0000E+00  0.0000E+00  0.0000E+00  0.0000E+00
     -3.987  0.6537E-01  0.7493E-02  0.7493E-02  0.7493E-02  0.0000E+00  0.0000E+00  0.0000E+00  0.0000E+00  0.0000E+00
     -3.973  0.6570E-01  0.7559E-02  0.7559E-02  0.7559E-02  0.0000E+00  0.0000E+00  0.0000E+00  0.0000E+00  0.0000E+00
     -3.959  0.6643E-01  0.7677E-02  0.7677E-02  0.7677E-02  0.0000E+00  0.0000E+00  0.0000E+00  0.0000E+00  0.0000E+00
     -3.945  0.6705E-01  0.7781E-02  0.7781E-02  0.7781E-02  0.0000E+00  0.0000E+00  0.0000E+00  0.0000E+00  0.0000E+00
     -3.931  0.6758E-01  0.7874E-02  0.7874E-02  0.7874E-02  0.0000E+00  0.0000E+00  0.0000E+00  0.0000E+00  0.0000E+00
     -3.917  0.6800E-01  0.7954E-02  0.7954E-02  0.7954E-02  0.0000E+00  0.0000E+00  0.0000E+00  0.0000E+00  0.0000E+00
     -3.903  0.6833E-01  0.8022E-02  0.8022E-02  0.8022E-02  0.0000E+00  0.0000E+00  0.0000E+00  0.0000E+00  0.0000E+00
     -3.889  0.6855E-01  0.8077E-02  0.8077E-02  0.8077E-02  0.0000E+00  0.0000E+00  0.0000E+00  0.0000E+00  0.0000E+00
     -3.875  0.6868E-01  0.8119E-02  0.8119E-02  0.8119E-02  0.0000E+00  0.0000E+00  0.0000E+00  0.0000E+00  0.0000E+00
     -3.861  0.6870E-01  0.8150E-02  0.8150E-02  0.8150E-02  0.0000E+00  0.0000E+00  0.0000E+00  0.0000E+00  0.0000E+00
     -3.847  0.6863E-01  0.8168E-02  0.8168E-02  0.8168E-02  0.0000E+00  0.0000E+00  0.0000E+00  0.0000E+00  0.0000E+00
     -3.833  0.6845E-01  0.8173E-02  0.8173E-02  0.8173E-02  0.0000E+00  0.0000E+00  0.0000E+00  0.0000E+00  0.0000E+00
     -3.819  0.6818E-01  0.8166E-02  0.8166E-02  0.8166E-02  0.0000E+00  0.0000E+00  0.0000E+00  0.0000E+00  0.0000E+00
     -3.805  0.6780E-01  0.8147E-02  0.8147E-02  0.8147E-02  0.0000E+00  0.0000E+00  0.0000E+00  0.0000E+00  0.0000E+00
     -3.791  0.6733E-01  0.8115E-02  0.8115E-02  0.8115E-02  0.0000E+00  0.0000E+00  0.0000E+00  0.0000E+00  0.0000E+00
     -3.777  0.6675E-01  0.8071E-02  0.8071E-02  0.8071E-02  0.0000E+00  0.0000E+00  0.0000E+00  0.0000E+00  0.0000E+00
     -3.763  0.6608E-01  0.8014E-02  0.8014E-02  0.8014E-02  0.0000E+00  0.0000E+00  0.0000E+00  0.0000E+00  0.0000E+00
     -3.749  0.6530E-01  0.7945E-02  0.7945E-02  0.7945E-02  0.0000E+00  0.0000E+00  0.0000E+00  0.0000E+00  0.0000E+00
     -3.735  0.6443E-01  0.7863E-02  0.7863E-02  0.7863E-02  0.0000E+00  0.0000E+00  0.0000E+00  0.0000E+00  0.0000E+00
     -3.721  0.6345E-01  0.7769E-02  0.7769E-02  0.7769E-02  0.0000E+00  0.0000E+00  0.0000E+00  0.0000E+00  0.0000E+00
     -3.707  0.6238E-01  0.7663E-02  0.7663E-02  0.7663E-02  0.0000E+00  0.0000E+00  0.0000E+00  0.0000E+00  0.0000E+00
     -3.693  0.6120E-01  0.7544E-02  0.7544E-02  0.7544E-02  0.0000E+00  0.0000E+00  0.0000E+00  0.0000E+00  0.0000E+00
     -3.679  0.5998E-01  0.7420E-02  0.7420E-02  0.7420E-02  0.0000E+00  0.0000E+00  0.0000E+00  0.0000E+00  0.0000E+00
     -3.665  0.5879E-01  0.7296E-02  0.7296E-02  0.7296E-02  0.0000E+00  0.0000E+00  0.0000E+00  0.0000E+00  0.0000E+00
     -3.651  0.5762E-01  0.7176E-02  0.7176E-02  0.7176E-02  0.0000E+00  0.0000E+00  0.0000E+00  0.0000E+00  0.0000E+00
     -3.637  0.5647E-01  0.7060E-02  0.7060E-02  0.7060E-02  0.0000E+00  0.0000E+00  0.0000E+00  0.0000E+00  0.0000E+00
     -3.623  0.5535E-01  0.6950E-02  0.6950E-02  0.6950E-02  0.0000E+00  0.0000E+00  0.0000E+00  0.0000E+00  0.0000E+00
     -3.610  0.5427E-01  0.6846E-02  0.6846E-02  0.6846E-02  0.0000E+00  0.0000E+00  0.0000E+00  0.0000E+00  0.0000E+00
     -3.596  0.5321E-01  0.6747E-02  0.6747E-02  0.6747E-02  0.0000E+00  0.0000E+00  0.0000E+00  0.0000E+00  0.0000E+00
     -3.582  0.5217E-01  0.6653E-02  0.6653E-02  0.6653E-02  0.0000E+00  0.0000E+00  0.0000E+00  0.0000E+00  0.0000E+00
     -3.568  0.5117E-01  0.6565E-02  0.6565E-02  0.6565E-02  0.0000E+00  0.0000E+00  0.0000E+00  0.0000E+00  0.0000E+00
     -3.554  0.5020E-01  0.6482E-02  0.6482E-02  0.6482E-02  0.0000E+00  0.0000E+00  0.0000E+00  0.0000E+00  0.0000E+00
     -3.540  0.4925E-01  0.6405E-02  0.6405E-02  0.6405E-02  0.0000E+00  0.0000E+00  0.0000E+00  0.0000E+00  0.0000E+00
     -3.526  0.4833E-01  0.6333E-02  0.6333E-02  0.6333E-02  0.0000E+00  0.0000E+00  0.0000E+00  0.0000E+00  0.0000E+00
     -3.512  0.4744E-01  0.6266E-02  0.6266E-02  0.6266E-02  0.0000E+00  0.0000E+00  0.0000E+00  0.0000E+00  0.0000E+00
     -3.498  0.4657E-01  0.6205E-02  0.6205E-02  0.6205E-02  0.0000E+00  0.0000E+00  0.0000E+00  0.0000E+00  0.0000E+00
     -3.484  0.4562E-01  0.6130E-02  0.6130E-02  0.6130E-02  0.0000E+00  0.0000E+00  0.0000E+00  0.0000E+00  0.0000E+00
     -3.470  0.4467E-01  0.6060E-02  0.6060E-02  0.6060E-02  0.0000E+00  0.0000E+00  0.0000E+00  0.0000E+00  0.0000E+00
     -3.456  0.4374E-01  0.5994E-02  0.5994E-02  0.5994E-02  0.0000E+00  0.0000E+00  0.0000E+00  0.0000E+00  0.0000E+00
     -3.442  0.4282E-01  0.5932E-02  0.5932E-02  0.5932E-02  0.0000E+00  0.0000E+00  0.0000E+00  0.0000E+00  0.0000E+00
     -3.428  0.4191E-01  0.5874E-02  0.5874E-02  0.5874E-02  0.0000E+00  0.0000E+00  0.0000E+00  0.0000E+00  0.0000E+00
     -3.414  0.4102E-01  0.5821E-02  0.5821E-02  0.5821E-02  0.0000E+00  0.0000E+00  0.0000E+00  0.0000E+00  0.0000E+00
     -3.400  0.4014E-01  0.5772E-02  0.5772E-02  0.5772E-02  0.0000E+00  0.0000E+00  0.0000E+00  0.0000E+00  0.0000E+00
     -3.386  0.3927E-01  0.5727E-02  0.5727E-02  0.5727E-02  0.0000E+00  0.0000E+00  0.0000E+00  0.0000E+00  0.0000E+00
     -3.372  0.3841E-01  0.5686E-02  0.5686E-02  0.5686E-02  0.0000E+00  0.0000E+00  0.0000E+00  0.0000E+00  0.0000E+00
     -3.358  0.3757E-01  0.5650E-02  0.5650E-02  0.5650E-02  0.0000E+00  0.0000E+00  0.0000E+00  0.0000E+00  0.0000E+00
     -3.344  0.3674E-01  0.5618E-02  0.5618E-02  0.5618E-02  0.0000E+00  0.0000E+00  0.0000E+00  0.0000E+00  0.0000E+00
     -3.330  0.3592E-01  0.5590E-02  0.5590E-02  0.5590E-02  0.0000E+00  0.0000E+00  0.0000E+00  0.0000E+00  0.0000E+00
     -3.316  0.3512E-01  0.5566E-02  0.5566E-02  0.5566E-02  0.0000E+00  0.0000E+00  0.0000E+00  0.0000E+00  0.0000E+00
     -3.302  0.3433E-01  0.5547E-02  0.5547E-02  0.5547E-02  0.0000E+00  0.0000E+00  0.0000E+00  0.0000E+00  0.0000E+00
     -3.288  0.3355E-01  0.5532E-02  0.5532E-02  0.5532E-02  0.0000E+00  0.0000E+00  0.0000E+00  0.0000E+00  0.0000E+00
     -3.274  0.3278E-01  0.5521E-02  0.5521E-02  0.5521E-02  0.0000E+00  0.0000E+00  0.0000E+00  0.0000E+00  0.0000E+00
     -3.260  0.3203E-01  0.5514E-02  0.5514E-02  0.5514E-02  0.0000E+00  0.0000E+00  0.0000E+00  0.0000E+00  0.0000E+00
     -3.246  0.3129E-01  0.5512E-02  0.5512E-02  0.5512E-02  0.0000E+00  0.0000E+00  0.0000E+00  0.0000E+00  0.0000E+00
     -3.232  0.3056E-01  0.5514E-02  0.5514E-02  0.5514E-02  0.0000E+00  0.0000E+00  0.0000E+00  0.0000E+00  0.0000E+00
     -3.218  0.2984E-01  0.5520E-02  0.5520E-02  0.5520E-02  0.0000E+00  0.0000E+00  0.0000E+00  0.0000E+00  0.0000E+00
     -3.204  0.2914E-01  0.5530E-02  0.5530E-02  0.5530E-02  0.0000E+00  0.0000E+00  0.0000E+00  0.0000E+00  0.0000E+00
     -3.190  0.2845E-01  0.5545E-02  0.5545E-02  0.5545E-02  0.0000E+00  0.0000E+00  0.0000E+00  0.0000E+00  0.0000E+00
     -3.176  0.2778E-01  0.5564E-02  0.5564E-02  0.5564E-02  0.0000E+00  0.0000E+00  0.0000E+00  0.0000E+00  0.0000E+00
     -3.162  0.2711E-01  0.5587E-02  0.5587E-02  0.5587E-02  0.0000E+00  0.0000E+00  0.0000E+00  0.0000E+00  0.0000E+00
     -3.148  0.2646E-01  0.5614E-02  0.5614E-02  0.5614E-02  0.0000E+00  0.0000E+00  0.0000E+00  0.0000E+00  0.0000E+00
     -3.134  0.2582E-01  0.5646E-02  0.5646E-02  0.5646E-02  0.0000E+00  0.0000E+00  0.0000E+00  0.0000E+00  0.0000E+00
     -3.120  0.2540E-01  0.5808E-02  0.5808E-02  0.5808E-02  0.0000E+00  0.0000E+00  0.0000E+00  0.0000E+00  0.0000E+00
     -3.106  0.2589E-01  0.6531E-02  0.6531E-02  0.6531E-02  0.0000E+00  0.0000E+00  0.0000E+00  0.0000E+00  0.0000E+00
     -3.092  0.2625E-01  0.7167E-02  0.7167E-02  0.7167E-02  0.0000E+00  0.0000E+00  0.0000E+00  0.0000E+00  0.0000E+00
     -3.078  0.2648E-01  0.7717E-02  0.7717E-02  0.7717E-02  0.0000E+00  0.0000E+00  0.0000E+00  0.0000E+00  0.0000E+00
     -3.064  0.2659E-01  0.8180E-02  0.8180E-02  0.8180E-02  0.0000E+00  0.0000E+00  0.0000E+00  0.0000E+00  0.0000E+00
     -3.050  0.2657E-01  0.8560E-02  0.8560E-02  0.8560E-02  0.0000E+00  0.0000E+00  0.0000E+00  0.0000E+00  0.0000E+00
     -3.036  0.2644E-01  0.8855E-02  0.8855E-02  0.8855E-02  0.0000E+00  0.0000E+00  0.0000E+00  0.0000E+00  0.0000E+00
     -3.022  0.2620E-01  0.9067E-02  0.9067E-02  0.9067E-02  0.0000E+00  0.0000E+00  0.0000E+00  0.0000E+00  0.0000E+00
     -3.009  0.2586E-01  0.9198E-02  0.9198E-02  0.9198E-02  0.0000E+00  0.0000E+00  0.0000E+00  0.0000E+00  0.0000E+00
     -2.995  0.2547E-01  0.9271E-02  0.9271E-02  0.9271E-02  0.0000E+00  0.0000E+00  0.0000E+00  0.0000E+00  0.0000E+00
     -2.981  0.2510E-01  0.9344E-02  0.9344E-02  0.9344E-02  0.0000E+00  0.0000E+00  0.0000E+00  0.0000E+00  0.0000E+00
     -2.967  0.2477E-01  0.9419E-02  0.9419E-02  0.9419E-02  0.0000E+00  0.0000E+00  0.0000E+00  0.0000E+00  0.0000E+00
     -2.953  0.2447E-01  0.9496E-02  0.9496E-02  0.9496E-02  0.0000E+00  0.0000E+00  0.0000E+00  0.0000E+00  0.0000E+00
     -2.939  0.2421E-01  0.9575E-02  0.9575E-02  0.9575E-02  0.0000E+00  0.0000E+00  0.0000E+00  0.0000E+00  0.0000E+00
     -2.925  0.2398E-01  0.9656E-02  0.9656E-02  0.9656E-02  0.0000E+00  0.0000E+00  0.0000E+00  0.0000E+00  0.0000E+00
     -2.911  0.2379E-01  0.9739E-02  0.9739E-02  0.9739E-02  0.0000E+00  0.0000E+00  0.0000E+00  0.0000E+00  0.0000E+00
     -2.897  0.2363E-01  0.9824E-02  0.9824E-02  0.9824E-02  0.0000E+00  0.0000E+00  0.0000E+00  0.0000E+00  0.0000E+00
     -2.883  0.2351E-01  0.9911E-02  0.9911E-02  0.9911E-02  0.0000E+00  0.0000E+00  0.0000E+00  0.0000E+00  0.0000E+00
     -2.869  0.2342E-01  0.1000E-01  0.1000E-01  0.1000E-01  0.0000E+00  0.0000E+00  0.0000E+00  0.0000E+00  0.0000E+00
     -2.855  0.2337E-01  0.1009E-01  0.1009E-01  0.1009E-01  0.0000E+00  0.0000E+00  0.0000E+00  0.0000E+00  0.0000E+00
     -2.841  0.2334E-01  0.1018E-01  0.1018E-01  0.1018E-01  0.0000E+00  0.0000E+00  0.0000E+00  0.0000E+00  0.0000E+00
     -2.827  0.2333E-01  0.1027E-01  0.1027E-01  0.1027E-01  0.0000E+00  0.0000E+00  0.0000E+00  0.0000E+00  0.0000E+00
     -2.813  0.2333E-01  0.1036E-01  0.1036E-01  0.1036E-01  0.0000E+00  0.0000E+00  0.0000E+00  0.0000E+00  0.0000E+00
     -2.799  0.2333E-01  0.1045E-01  0.1045E-01  0.1045E-01  0.0000E+00  0.0000E+00  0.0000E+00  0.0000E+00  0.0000E+00
     -2.785  0.2336E-01  0.1054E-01  0.1054E-01  0.1054E-01  0.0000E+00  0.0000E+00  0.0000E+00  0.0000E+00  0.0000E+00
     -2.771  0.2339E-01  0.1063E-01  0.1063E-01  0.1063E-01  0.0000E+00  0.0000E+00  0.0000E+00  0.0000E+00  0.0000E+00
     -2.757  0.2344E-01  0.1071E-01  0.1071E-01  0.1071E-01  0.0000E+00  0.0000E+00  0.0000E+00  0.0000E+00  0.0000E+00
     -2.743  0.2349E-01  0.1080E-01  0.1080E-01  0.1080E-01  0.0000E+00  0.0000E+00  0.0000E+00  0.0000E+00  0.0000E+00
     -2.729  0.2356E-01  0.1088E-01  0.1088E-01  0.1088E-01  0.0000E+00  0.0000E+00  0.0000E+00  0.0000E+00  0.0000E+00
     -2.715  0.2365E-01  0.1097E-01  0.1097E-01  0.1097E-01  0.0000E+00  0.0000E+00  0.0000E+00  0.0000E+00  0.0000E+00
     -2.701  0.2374E-01  0.1105E-01  0.1105E-01  0.1105E-01  0.0000E+00  0.0000E+00  0.0000E+00  0.0000E+00  0.0000E+00
     -2.687  0.2385E-01  0.1113E-01  0.1113E-01  0.1113E-01  0.0000E+00  0.0000E+00  0.0000E+00  0.0000E+00  0.0000E+00
     -2.673  0.2397E-01  0.1121E-01  0.1121E-01  0.1121E-01  0.0000E+00  0.0000E+00  0.0000E+00  0.0000E+00  0.0000E+00
     -2.659  0.2410E-01  0.1130E-01  0.1130E-01  0.1130E-01  0.0000E+00  0.0000E+00  0.0000E+00  0.0000E+00  0.0000E+00
     -2.645  0.2424E-01  0.1137E-01  0.1137E-01  0.1137E-01  0.0000E+00  0.0000E+00  0.0000E+00  0.0000E+00  0.0000E+00
     -2.631  0.2440E-01  0.1145E-01  0.1145E-01  0.1145E-01  0.0000E+00  0.0000E+00  0.0000E+00  0.0000E+00  0.0000E+00
     -2.617  0.2457E-01  0.1153E-01  0.1153E-01  0.1153E-01  0.0000E+00  0.0000E+00  0.0000E+00  0.0000E+00  0.0000E+00
     -2.603  0.2475E-01  0.1161E-01  0.1161E-01  0.1161E-01  0.0000E+00  0.0000E+00  0.0000E+00  0.0000E+00  0.0000E+00
     -2.589  0.2494E-01  0.1168E-01  0.1168E-01  0.1168E-01  0.0000E+00  0.0000E+00  0.0000E+00  0.0000E+00  0.0000E+00
     -2.575  0.2514E-01  0.1176E-01  0.1176E-01  0.1176E-01  0.0000E+00  0.0000E+00  0.0000E+00  0.0000E+00  0.0000E+00
     -2.561  0.2536E-01  0.1183E-01  0.1183E-01  0.1183E-01  0.0000E+00  0.0000E+00  0.0000E+00  0.0000E+00  0.0000E+00
     -2.547  0.2559E-01  0.1191E-01  0.1191E-01  0.1191E-01  0.0000E+00  0.0000E+00  0.0000E+00  0.0000E+00  0.0000E+00
     -2.533  0.2583E-01  0.1198E-01  0.1198E-01  0.1198E-01  0.0000E+00  0.0000E+00  0.0000E+00  0.0000E+00  0.0000E+00
     -2.519  0.2608E-01  0.1205E-01  0.1205E-01  0.1205E-01  0.0000E+00  0.0000E+00  0.0000E+00  0.0000E+00  0.0000E+00
     -2.505  0.2635E-01  0.1212E-01  0.1212E-01  0.1212E-01  0.0000E+00  0.0000E+00  0.0000E+00  0.0000E+00  0.0000E+00
     -2.491  0.2663E-01  0.1219E-01  0.1219E-01  0.1219E-01  0.0000E+00  0.0000E+00  0.0000E+00  0.0000E+00  0.0000E+00
     -2.477  0.2692E-01  0.1226E-01  0.1226E-01  0.1226E-01  0.0000E+00  0.0000E+00  0.0000E+00  0.0000E+00  0.0000E+00
     -2.463  0.2726E-01  0.1235E-01  0.1235E-01  0.1235E-01  0.0000E+00  0.0000E+00  0.0000E+00  0.0000E+00  0.0000E+00
     -2.449  0.2766E-01  0.1247E-01  0.1247E-01  0.1247E-01  0.0000E+00  0.0000E+00  0.0000E+00  0.0000E+00  0.0000E+00
     -2.435  0.2813E-01  0.1262E-01  0.1262E-01  0.1262E-01  0.0000E+00  0.0000E+00  0.0000E+00  0.0000E+00  0.0000E+00
     -2.421  0.2866E-01  0.1280E-01  0.1280E-01  0.1280E-01  0.0000E+00  0.0000E+00  0.0000E+00  0.0000E+00  0.0000E+00
     -2.408  0.2927E-01  0.1301E-01  0.1301E-01  0.1301E-01  0.0000E+00  0.0000E+00  0.0000E+00  0.0000E+00  0.0000E+00
     -2.394  0.2995E-01  0.1326E-01  0.1326E-01  0.1326E-01  0.0000E+00  0.0000E+00  0.0000E+00  0.0000E+00  0.0000E+00
     -2.380  0.3107E-01  0.1359E-01  0.1359E-01  0.1359E-01  0.0000E+00  0.0000E+00  0.0000E+00  0.0000E+00  0.0000E+00
     -2.366  0.3222E-01  0.1393E-01  0.1393E-01  0.1393E-01  0.0000E+00  0.0000E+00  0.0000E+00  0.0000E+00  0.0000E+00
     -2.352  0.3340E-01  0.1429E-01  0.1429E-01  0.1429E-01  0.0000E+00  0.0000E+00  0.0000E+00  0.0000E+00  0.0000E+00
     -2.338  0.3462E-01  0.1466E-01  0.1466E-01  0.1466E-01  0.0000E+00  0.0000E+00  0.0000E+00  0.0000E+00  0.0000E+00
     -2.324  0.3587E-01  0.1504E-01  0.1504E-01  0.1504E-01  0.0000E+00  0.0000E+00  0.0000E+00  0.0000E+00  0.0000E+00
     -2.310  0.3715E-01  0.1543E-01  0.1543E-01  0.1543E-01  0.0000E+00  0.0000E+00  0.0000E+00  0.0000E+00  0.0000E+00
     -2.296  0.3847E-01  0.1584E-01  0.1584E-01  0.1584E-01  0.0000E+00  0.0000E+00  0.0000E+00  0.0000E+00  0.0000E+00
     -2.282  0.3982E-01  0.1626E-01  0.1626E-01  0.1626E-01  0.0000E+00  0.0000E+00  0.0000E+00  0.0000E+00  0.0000E+00
     -2.268  0.4120E-01  0.1669E-01  0.1669E-01  0.1669E-01  0.0000E+00  0.0000E+00  0.0000E+00  0.0000E+00  0.0000E+00
     -2.254  0.4262E-01  0.1713E-01  0.1713E-01  0.1713E-01  0.0000E+00  0.0000E+00  0.0000E+00  0.0000E+00  0.0000E+00
     -2.240  0.4407E-01  0.1759E-01  0.1759E-01  0.1759E-01  0.0000E+00  0.0000E+00  0.0000E+00  0.0000E+00  0.0000E+00
     -2.226  0.4555E-01  0.1805E-01  0.1805E-01  0.1805E-01  0.0000E+00  0.0000E+00  0.0000E+00  0.0000E+00  0.0000E+00
     -2.212  0.4706E-01  0.1853E-01  0.1853E-01  0.1853E-01  0.0000E+00  0.0000E+00  0.0000E+00  0.0000E+00  0.0000E+00
     -2.198  0.4861E-01  0.1902E-01  0.1902E-01  0.1902E-01  0.0000E+00  0.0000E+00  0.0000E+00  0.0000E+00  0.0000E+00
     -2.184  0.5019E-01  0.1953E-01  0.1953E-01  0.1953E-01  0.0000E+00  0.0000E+00  0.0000E+00  0.0000E+00  0.0000E+00
     -2.170  0.5181E-01  0.2004E-01  0.2004E-01  0.2004E-01  0.0000E+00  0.0000E+00  0.0000E+00  0.0000E+00  0.0000E+00
     -2.156  0.5345E-01  0.2057E-01  0.2057E-01  0.2057E-01  0.0000E+00  0.0000E+00  0.0000E+00  0.0000E+00  0.0000E+00
     -2.142  0.5513E-01  0.2111E-01  0.2111E-01  0.2111E-01  0.0000E+00  0.0000E+00  0.0000E+00  0.0000E+00  0.0000E+00
     -2.128  0.5685E-01  0.2166E-01  0.2166E-01  0.2166E-01  0.0000E+00  0.0000E+00  0.0000E+00  0.0000E+00  0.0000E+00
     -2.114  0.5859E-01  0.2223E-01  0.2223E-01  0.2223E-01  0.0000E+00  0.0000E+00  0.0000E+00  0.0000E+00  0.0000E+00
     -2.100  0.6037E-01  0.2280E-01  0.2280E-01  0.2280E-01  0.0000E+00  0.0000E+00  0.0000E+00  0.0000E+00  0.0000E+00
     -2.086  0.6218E-01  0.2339E-01  0.2339E-01  0.2339E-01  0.0000E+00  0.0000E+00  0.0000E+00  0.0000E+00  0.0000E+00
     -2.072  0.6403E-01  0.2399E-01  0.2399E-01  0.2399E-01  0.0000E+00  0.0000E+00  0.0000E+00  0.0000E+00  0.0000E+00
     -2.058  0.6591E-01  0.2460E-01  0.2460E-01  0.2460E-01  0.0000E+00  0.0000E+00  0.0000E+00  0.0000E+00  0.0000E+00
     -2.044  0.6782E-01  0.2523E-01  0.2523E-01  0.2523E-01  0.0000E+00  0.0000E+00  0.0000E+00  0.0000E+00  0.0000E+00
     -2.030  0.6976E-01  0.2587E-01  0.2587E-01  0.2587E-01  0.0000E+00  0.0000E+00  0.0000E+00  0.0000E+00  0.0000E+00
     -2.016  0.7174E-01  0.2652E-01  0.2652E-01  0.2652E-01  0.0000E+00  0.0000E+00  0.0000E+00  0.0000E+00  0.0000E+00
     -2.002  0.7375E-01  0.2718E-01  0.2718E-01  0.2718E-01  0.0000E+00  0.0000E+00  0.0000E+00  0.0000E+00  0.0000E+00
     -1.988  0.7580E-01  0.2785E-01  0.2785E-01  0.2785E-01  0.0000E+00  0.0000E+00  0.0000E+00  0.0000E+00  0.0000E+00
     -1.974  0.7787E-01  0.2854E-01  0.2854E-01  0.2854E-01  0.0000E+00  0.0000E+00  0.0000E+00  0.0000E+00  0.0000E+00
     -1.960  0.8032E-01  0.2912E-01  0.2912E-01  0.2912E-01  0.0000E+00  0.0000E+00  0.0000E+00  0.0000E+00  0.0000E+00
     -1.946  0.8272E-01  0.2966E-01  0.2966E-01  0.2966E-01  0.0000E+00  0.0000E+00  0.0000E+00  0.0000E+00  0.0000E+00
     -1.932  0.8515E-01  0.3023E-01  0.3023E-01  0.3023E-01  0.0000E+00  0.0000E+00  0.0000E+00  0.0000E+00  0.0000E+00
     -1.918  0.8760E-01  0.3083E-01  0.3083E-01  0.3083E-01  0.0000E+00  0.0000E+00  0.0000E+00  0.0000E+00  0.0000E+00
     -1.904  0.9009E-01  0.3145E-01  0.3145E-01  0.3145E-01  0.0000E+00  0.0000E+00  0.0000E+00  0.0000E+00  0.0000E+00
     -1.890  0.9261E-01  0.3211E-01  0.3211E-01  0.3211E-01  0.0000E+00  0.0000E+00  0.0000E+00  0.0000E+00  0.0000E+00
     -1.876  0.9516E-01  0.3279E-01  0.3279E-01  0.3279E-01  0.0000E+00  0.0000E+00  0.0000E+00  0.0000E+00  0.0000E+00
     -1.862  0.9774E-01  0.3350E-01  0.3350E-01  0.3350E-01  0.0000E+00  0.0000E+00  0.0000E+00  0.0000E+00  0.0000E+00
     -1.848  0.1004E+00  0.3424E-01  0.3424E-01  0.3424E-01  0.0000E+00  0.0000E+00  0.0000E+00  0.0000E+00  0.0000E+00
     -1.834  0.1030E+00  0.3501E-01  0.3501E-01  0.3501E-01  0.0000E+00  0.0000E+00  0.0000E+00  0.0000E+00  0.0000E+00
     -1.820  0.1056E+00  0.3578E-01  0.3578E-01  0.3578E-01  0.0000E+00  0.0000E+00  0.0000E+00  0.0000E+00  0.0000E+00
     -1.807  0.1082E+00  0.3653E-01  0.3653E-01  0.3653E-01  0.0000E+00  0.0000E+00  0.0000E+00  0.0000E+00  0.0000E+00
     -1.793  0.1107E+00  0.3725E-01  0.3725E-01  0.3725E-01  0.0000E+00  0.0000E+00  0.0000E+00  0.0000E+00  0.0000E+00
     -1.779  0.1131E+00  0.3795E-01  0.3795E-01  0.3795E-01  0.0000E+00  0.0000E+00  0.0000E+00  0.0000E+00  0.0000E+00
     -1.765  0.1155E+00  0.3862E-01  0.3862E-01  0.3862E-01  0.0000E+00  0.0000E+00  0.0000E+00  0.0000E+00  0.0000E+00
     -1.751  0.1178E+00  0.3927E-01  0.3927E-01  0.3927E-01  0.0000E+00  0.0000E+00  0.0000E+00  0.0000E+00  0.0000E+00
     -1.737  0.1201E+00  0.3989E-01  0.3989E-01  0.3989E-01  0.0000E+00  0.0000E+00  0.0000E+00  0.0000E+00  0.0000E+00
     -1.723  0.1223E+00  0.4048E-01  0.4048E-01  0.4048E-01  0.0000E+00  0.0000E+00  0.0000E+00  0.0000E+00  0.0000E+00
     -1.709  0.1244E+00  0.4105E-01  0.4105E-01  0.4105E-01  0.0000E+00  0.0000E+00  0.0000E+00  0.0000E+00  0.0000E+00
     -1.695  0.1265E+00  0.4159E-01  0.4159E-01  0.4159E-01  0.0000E+00  0.0000E+00  0.0000E+00  0.0000E+00  0.0000E+00
     -1.681  0.1283E+00  0.4208E-01  0.4208E-01  0.4208E-01  0.0000E+00  0.0000E+00  0.0000E+00  0.0000E+00  0.0000E+00
     -1.667  0.1294E+00  0.4237E-01  0.4237E-01  0.4237E-01  0.0000E+00  0.0000E+00  0.0000E+00  0.0000E+00  0.0000E+00
     -1.653  0.1299E+00  0.4249E-01  0.4249E-01  0.4249E-01  0.0000E+00  0.0000E+00  0.0000E+00  0.0000E+00  0.0000E+00
     -1.639  0.1298E+00  0.4244E-01  0.4244E-01  0.4244E-01  0.0000E+00  0.0000E+00  0.0000E+00  0.0000E+00  0.0000E+00
     -1.625  0.1291E+00  0.4222E-01  0.4222E-01  0.4222E-01  0.0000E+00  0.0000E+00  0.0000E+00  0.0000E+00  0.0000E+00
     -1.611  0.1279E+00  0.4184E-01  0.4184E-01  0.4184E-01  0.0000E+00  0.0000E+00  0.0000E+00  0.0000E+00  0.0000E+00
     -1.597  0.1261E+00  0.4128E-01  0.4128E-01  0.4128E-01  0.0000E+00  0.0000E+00  0.0000E+00  0.0000E+00  0.0000E+00
     -1.583  0.1238E+00  0.4055E-01  0.4055E-01  0.4055E-01  0.0000E+00  0.0000E+00  0.0000E+00  0.0000E+00  0.0000E+00
     -1.569  0.1208E+00  0.3966E-01  0.3966E-01  0.3966E-01  0.0000E+00  0.0000E+00  0.0000E+00  0.0000E+00  0.0000E+00
     -1.555  0.1173E+00  0.3859E-01  0.3859E-01  0.3859E-01  0.0000E+00  0.0000E+00  0.0000E+00  0.0000E+00  0.0000E+00
     -1.541  0.1135E+00  0.3744E-01  0.3744E-01  0.3744E-01  0.0000E+00  0.0000E+00  0.0000E+00  0.0000E+00  0.0000E+00
     -1.527  0.1098E+00  0.3632E-01  0.3632E-01  0.3632E-01  0.0000E+00  0.0000E+00  0.0000E+00  0.0000E+00  0.0000E+00
     -1.513  0.1062E+00  0.3526E-01  0.3526E-01  0.3526E-01  0.0000E+00  0.0000E+00  0.0000E+00  0.0000E+00  0.0000E+00
     -1.499  0.1027E+00  0.3424E-01  0.3424E-01  0.3424E-01  0.0000E+00  0.0000E+00  0.0000E+00  0.0000E+00  0.0000E+00
     -1.485  0.9928E-01  0.3327E-01  0.3327E-01  0.3327E-01  0.0000E+00  0.0000E+00  0.0000E+00  0.0000E+00  0.0000E+00
     -1.471  0.9600E-01  0.3234E-01  0.3234E-01  0.3234E-01  0.0000E+00  0.0000E+00  0.0000E+00  0.0000E+00  0.0000E+00
     -1.457  0.9282E-01  0.3146E-01  0.3146E-01  0.3146E-01  0.0000E+00  0.0000E+00  0.0000E+00  0.0000E+00  0.0000E+00
     -1.443  0.8976E-01  0.3063E-01  0.3063E-01  0.3063E-01  0.0000E+00  0.0000E+00  0.0000E+00  0.0000E+00  0.0000E+00
     -1.429  0.8680E-01  0.2985E-01  0.2985E-01  0.2985E-01  0.0000E+00  0.0000E+00  0.0000E+00  0.0000E+00  0.0000E+00
     -1.415  0.8395E-01  0.2911E-01  0.2911E-01  0.2911E-01  0.0000E+00  0.0000E+00  0.0000E+00  0.0000E+00  0.0000E+00
     -1.401  0.8122E-01  0.2842E-01  0.2842E-01  0.2842E-01  0.0000E+00  0.0000E+00  0.0000E+00  0.0000E+00  0.0000E+00
     -1.387  0.7860E-01  0.2777E-01  0.2777E-01  0.2777E-01  0.0000E+00  0.0000E+00  0.0000E+00  0.0000E+00  0.0000E+00
     -1.373  0.7794E-01  0.2755E-01  0.2755E-01  0.2755E-01  0.0000E+00  0.0000E+00  0.0000E+00  0.0000E+00  0.0000E+00
     -1.359  0.7732E-01  0.2736E-01  0.2736E-01  0.2736E-01  0.0000E+00  0.0000E+00  0.0000E+00  0.0000E+00  0.0000E+00
     -1.345  0.7676E-01  0.2718E-01  0.2718E-01  0.2718E-01  0.0000E+00  0.0000E+00  0.0000E+00  0.0000E+00  0.0000E+00
     -1.331  0.7625E-01  0.2703E-01  0.2703E-01  0.2703E-01  0.0000E+00  0.0000E+00  0.0000E+00  0.0000E+00  0.0000E+00
     -1.317  0.7578E-01  0.2689E-01  0.2689E-01  0.2689E-01  0.0000E+00  0.0000E+00  0.0000E+00  0.0000E+00  0.0000E+00
     -1.303  0.7537E-01  0.2677E-01  0.2677E-01  0.2677E-01  0.0000E+00  0.0000E+00  0.0000E+00  0.0000E+00  0.0000E+00
     -1.289  0.7500E-01  0.2668E-01  0.2668E-01  0.2668E-01  0.0000E+00  0.0000E+00  0.0000E+00  0.0000E+00  0.0000E+00
     -1.275  0.7469E-01  0.2660E-01  0.2660E-01  0.2660E-01  0.0000E+00  0.0000E+00  0.0000E+00  0.0000E+00  0.0000E+00
     -1.261  0.7442E-01  0.2655E-01  0.2655E-01  0.2655E-01  0.0000E+00  0.0000E+00  0.0000E+00  0.0000E+00  0.0000E+00
     -1.247  0.7359E-01  0.2631E-01  0.2631E-01  0.2631E-01  0.0000E+00  0.0000E+00  0.0000E+00  0.0000E+00  0.0000E+00
     -1.233  0.7259E-01  0.2600E-01  0.2600E-01  0.2600E-01  0.0000E+00  0.0000E+00  0.0000E+00  0.0000E+00  0.0000E+00
     -1.219  0.7160E-01  0.2571E-01  0.2571E-01  0.2571E-01  0.0000E+00  0.0000E+00  0.0000E+00  0.0000E+00  0.0000E+00
     -1.206  0.7064E-01  0.2542E-01  0.2542E-01  0.2542E-01  0.0000E+00  0.0000E+00  0.0000E+00  0.0000E+00  0.0000E+00
     -1.192  0.6969E-01  0.2514E-01  0.2514E-01  0.2514E-01  0.0000E+00  0.0000E+00  0.0000E+00  0.0000E+00  0.0000E+00
     -1.178  0.6877E-01  0.2487E-01  0.2487E-01  0.2487E-01  0.0000E+00  0.0000E+00  0.0000E+00  0.0000E+00  0.0000E+00
     -1.164  0.6786E-01  0.2461E-01  0.2461E-01  0.2461E-01  0.0000E+00  0.0000E+00  0.0000E+00  0.0000E+00  0.0000E+00
     -1.150  0.6698E-01  0.2435E-01  0.2435E-01  0.2435E-01  0.0000E+00  0.0000E+00  0.0000E+00  0.0000E+00  0.0000E+00
     -1.136  0.6611E-01  0.2410E-01  0.2410E-01  0.2410E-01  0.0000E+00  0.0000E+00  0.0000E+00  0.0000E+00  0.0000E+00
     -1.122  0.6526E-01  0.2385E-01  0.2385E-01  0.2385E-01  0.0000E+00  0.0000E+00  0.0000E+00  0.0000E+00  0.0000E+00
     -1.108  0.6443E-01  0.2361E-01  0.2361E-01  0.2361E-01  0.0000E+00  0.0000E+00  0.0000E+00  0.0000E+00  0.0000E+00
     -1.094  0.6361E-01  0.2338E-01  0.2338E-01  0.2338E-01  0.0000E+00  0.0000E+00  0.0000E+00  0.0000E+00  0.0000E+00
     -1.080  0.6281E-01  0.2315E-01  0.2315E-01  0.2315E-01  0.0000E+00  0.0000E+00  0.0000E+00  0.0000E+00  0.0000E+00
     -1.066  0.6203E-01  0.2292E-01  0.2292E-01  0.2292E-01  0.0000E+00  0.0000E+00  0.0000E+00  0.0000E+00  0.0000E+00
     -1.052  0.6126E-01  0.2270E-01  0.2270E-01  0.2270E-01  0.0000E+00  0.0000E+00  0.0000E+00  0.0000E+00  0.0000E+00
     -1.038  0.6050E-01  0.2248E-01  0.2248E-01  0.2248E-01  0.0000E+00  0.0000E+00  0.0000E+00  0.0000E+00  0.0000E+00
     -1.024  0.5976E-01  0.2227E-01  0.2227E-01  0.2227E-01  0.0000E+00  0.0000E+00  0.0000E+00  0.0000E+00  0.0000E+00
     -1.010  0.5904E-01  0.2207E-01  0.2207E-01  0.2207E-01  0.0000E+00  0.0000E+00  0.0000E+00  0.0000E+00  0.0000E+00
     -0.996  0.5833E-01  0.2186E-01  0.2186E-01  0.2186E-01  0.0000E+00  0.0000E+00  0.0000E+00  0.0000E+00  0.0000E+00
     -0.982  0.5764E-01  0.2166E-01  0.2166E-01  0.2166E-01  0.0000E+00  0.0000E+00  0.0000E+00  0.0000E+00  0.0000E+00
     -0.968  0.5697E-01  0.2147E-01  0.2147E-01  0.2147E-01  0.0000E+00  0.0000E+00  0.0000E+00  0.0000E+00  0.0000E+00
     -0.954  0.5631E-01  0.2128E-01  0.2128E-01  0.2128E-01  0.0000E+00  0.0000E+00  0.0000E+00  0.0000E+00  0.0000E+00
     -0.940  0.5566E-01  0.2110E-01  0.2110E-01  0.2110E-01  0.0000E+00  0.0000E+00  0.0000E+00  0.0000E+00  0.0000E+00
     -0.926  0.5503E-01  0.2092E-01  0.2092E-01  0.2092E-01  0.0000E+00  0.0000E+00  0.0000E+00  0.0000E+00  0.0000E+00
     -0.912  0.5442E-01  0.2074E-01  0.2074E-01  0.2074E-01  0.0000E+00  0.0000E+00  0.0000E+00  0.0000E+00  0.0000E+00
     -0.898  0.5382E-01  0.2057E-01  0.2057E-01  0.2057E-01  0.0000E+00  0.0000E+00  0.0000E+00  0.0000E+00  0.0000E+00
     -0.884  0.5324E-01  0.2041E-01  0.2041E-01  0.2041E-01  0.0000E+00  0.0000E+00  0.0000E+00  0.0000E+00  0.0000E+00
     -0.870  0.5268E-01  0.2024E-01  0.2024E-01  0.2024E-01  0.0000E+00  0.0000E+00  0.0000E+00  0.0000E+00  0.0000E+00
     -0.856  0.5213E-01  0.2009E-01  0.2009E-01  0.2009E-01  0.0000E+00  0.0000E+00  0.0000E+00  0.0000E+00  0.0000E+00
     -0.842  0.5159E-01  0.1993E-01  0.1993E-01  0.1993E-01  0.0000E+00  0.0000E+00  0.0000E+00  0.0000E+00  0.0000E+00
     -0.828  0.5107E-01  0.1979E-01  0.1979E-01  0.1979E-01  0.0000E+00  0.0000E+00  0.0000E+00  0.0000E+00  0.0000E+00
     -0.814  0.5057E-01  0.1964E-01  0.1964E-01  0.1964E-01  0.0000E+00  0.0000E+00  0.0000E+00  0.0000E+00  0.0000E+00
     -0.800  0.5008E-01  0.1951E-01  0.1951E-01  0.1951E-01  0.0000E+00  0.0000E+00  0.0000E+00  0.0000E+00  0.0000E+00
     -0.786  0.4961E-01  0.1937E-01  0.1937E-01  0.1937E-01  0.0000E+00  0.0000E+00  0.0000E+00  0.0000E+00  0.0000E+00
     -0.772  0.4916E-01  0.1924E-01  0.1924E-01  0.1924E-01  0.0000E+00  0.0000E+00  0.0000E+00  0.0000E+00  0.0000E+00
     -0.758  0.4872E-01  0.1912E-01  0.1912E-01  0.1912E-01  0.0000E+00  0.0000E+00  0.0000E+00  0.0000E+00  0.0000E+00
     -0.744  0.4829E-01  0.1900E-01  0.1900E-01  0.1900E-01  0.0000E+00  0.0000E+00  0.0000E+00  0.0000E+00  0.0000E+00
     -0.730  0.4788E-01  0.1888E-01  0.1888E-01  0.1888E-01  0.0000E+00  0.0000E+00  0.0000E+00  0.0000E+00  0.0000E+00
     -0.716  0.4749E-01  0.1877E-01  0.1877E-01  0.1877E-01  0.0000E+00  0.0000E+00  0.0000E+00  0.0000E+00  0.0000E+00
     -0.702  0.4711E-01  0.1867E-01  0.1867E-01  0.1867E-01  0.0000E+00  0.0000E+00  0.0000E+00  0.0000E+00  0.0000E+00
     -0.688  0.4675E-01  0.1856E-01  0.1856E-01  0.1856E-01  0.0000E+00  0.0000E+00  0.0000E+00  0.0000E+00  0.0000E+00
     -0.674  0.4640E-01  0.1847E-01  0.1847E-01  0.1847E-01  0.0000E+00  0.0000E+00  0.0000E+00  0.0000E+00  0.0000E+00
     -0.660  0.4607E-01  0.1837E-01  0.1837E-01  0.1837E-01  0.0000E+00  0.0000E+00  0.0000E+00  0.0000E+00  0.0000E+00
     -0.646  0.4576E-01  0.1829E-01  0.1829E-01  0.1829E-01  0.0000E+00  0.0000E+00  0.0000E+00  0.0000E+00  0.0000E+00
     -0.632  0.4546E-01  0.1820E-01  0.1820E-01  0.1820E-01  0.0000E+00  0.0000E+00  0.0000E+00  0.0000E+00  0.0000E+00
     -0.618  0.4517E-01  0.1813E-01  0.1813E-01  0.1813E-01  0.0000E+00  0.0000E+00  0.0000E+00  0.0000E+00  0.0000E+00
     -0.605  0.4491E-01  0.1805E-01  0.1805E-01  0.1805E-01  0.0000E+00  0.0000E+00  0.0000E+00  0.0000E+00  0.0000E+00
     -0.591  0.4465E-01  0.1798E-01  0.1798E-01  0.1798E-01  0.0000E+00  0.0000E+00  0.0000E+00  0.0000E+00  0.0000E+00
     -0.577  0.4442E-01  0.1792E-01  0.1792E-01  0.1792E-01  0.0000E+00  0.0000E+00  0.0000E+00  0.0000E+00  0.0000E+00
     -0.563  0.4420E-01  0.1786E-01  0.1786E-01  0.1786E-01  0.0000E+00  0.0000E+00  0.0000E+00  0.0000E+00  0.0000E+00
     -0.549  0.4399E-01  0.1780E-01  0.1780E-01  0.1780E-01  0.0000E+00  0.0000E+00  0.0000E+00  0.0000E+00  0.0000E+00
     -0.535  0.4380E-01  0.1775E-01  0.1775E-01  0.1775E-01  0.0000E+00  0.0000E+00  0.0000E+00  0.0000E+00  0.0000E+00
     -0.521  0.4362E-01  0.1770E-01  0.1770E-01  0.1770E-01  0.0000E+00  0.0000E+00  0.0000E+00  0.0000E+00  0.0000E+00
     -0.507  0.4345E-01  0.1766E-01  0.1766E-01  0.1766E-01  0.0000E+00  0.0000E+00  0.0000E+00  0.0000E+00  0.0000E+00
     -0.493  0.4330E-01  0.1762E-01  0.1762E-01  0.1762E-01  0.0000E+00  0.0000E+00  0.0000E+00  0.0000E+00  0.0000E+00
     -0.479  0.4316E-01  0.1758E-01  0.1758E-01  0.1758E-01  0.0000E+00  0.0000E+00  0.0000E+00  0.0000E+00  0.0000E+00
     -0.465  0.4302E-01  0.1755E-01  0.1755E-01  0.1755E-01  0.0000E+00  0.0000E+00  0.0000E+00  0.0000E+00  0.0000E+00
     -0.451  0.4289E-01  0.1751E-01  0.1751E-01  0.1751E-01  0.0000E+00  0.0000E+00  0.0000E+00  0.0000E+00  0.0000E+00
     -0.437  0.4275E-01  0.1748E-01  0.1748E-01  0.1748E-01  0.0000E+00  0.0000E+00  0.0000E+00  0.0000E+00  0.0000E+00
     -0.423  0.4263E-01  0.1745E-01  0.1745E-01  0.1745E-01  0.0000E+00  0.0000E+00  0.0000E+00  0.0000E+00  0.0000E+00
     -0.409  0.4250E-01  0.1742E-01  0.1742E-01  0.1742E-01  0.0000E+00  0.0000E+00  0.0000E+00  0.0000E+00  0.0000E+00
     -0.395  0.4237E-01  0.1739E-01  0.1739E-01  0.1739E-01  0.0000E+00  0.0000E+00  0.0000E+00  0.0000E+00  0.0000E+00
     -0.381  0.4225E-01  0.1737E-01  0.1737E-01  0.1737E-01  0.0000E+00  0.0000E+00  0.0000E+00  0.0000E+00  0.0000E+00
     -0.367  0.4213E-01  0.1734E-01  0.1734E-01  0.1734E-01  0.0000E+00  0.0000E+00  0.0000E+00  0.0000E+00  0.0000E+00
     -0.353  0.4202E-01  0.1732E-01  0.1732E-01  0.1732E-01  0.0000E+00  0.0000E+00  0.0000E+00  0.0000E+00  0.0000E+00
     -0.339  0.4190E-01  0.1730E-01  0.1730E-01  0.1730E-01  0.0000E+00  0.0000E+00  0.0000E+00  0.0000E+00  0.0000E+00
     -0.325  0.4179E-01  0.1728E-01  0.1728E-01  0.1728E-01  0.0000E+00  0.0000E+00  0.0000E+00  0.0000E+00  0.0000E+00
     -0.311  0.4168E-01  0.1726E-01  0.1726E-01  0.1726E-01  0.0000E+00  0.0000E+00  0.0000E+00  0.0000E+00  0.0000E+00
     -0.297  0.4157E-01  0.1725E-01  0.1725E-01  0.1725E-01  0.0000E+00  0.0000E+00  0.0000E+00  0.0000E+00  0.0000E+00
     -0.283  0.4147E-01  0.1723E-01  0.1723E-01  0.1723E-01  0.0000E+00  0.0000E+00  0.0000E+00  0.0000E+00  0.0000E+00
     -0.269  0.4137E-01  0.1722E-01  0.1722E-01  0.1722E-01  0.0000E+00  0.0000E+00  0.0000E+00  0.0000E+00  0.0000E+00
     -0.255  0.4127E-01  0.1720E-01  0.1720E-01  0.1720E-01  0.0000E+00  0.0000E+00  0.0000E+00  0.0000E+00  0.0000E+00
     -0.241  0.4117E-01  0.1719E-01  0.1719E-01  0.1719E-01  0.0000E+00  0.0000E+00  0.0000E+00  0.0000E+00  0.0000E+00
     -0.227  0.4107E-01  0.1718E-01  0.1718E-01  0.1718E-01  0.0000E+00  0.0000E+00  0.0000E+00  0.0000E+00  0.0000E+00
     -0.213  0.4098E-01  0.1718E-01  0.1718E-01  0.1718E-01  0.0000E+00  0.0000E+00  0.0000E+00  0.0000E+00  0.0000E+00
     -0.199  0.4089E-01  0.1717E-01  0.1717E-01  0.1717E-01  0.0000E+00  0.0000E+00  0.0000E+00  0.0000E+00  0.0000E+00
     -0.185  0.4080E-01  0.1716E-01  0.1716E-01  0.1716E-01  0.0000E+00  0.0000E+00  0.0000E+00  0.0000E+00  0.0000E+00
     -0.171  0.4072E-01  0.1716E-01  0.1716E-01  0.1716E-01  0.0000E+00  0.0000E+00  0.0000E+00  0.0000E+00  0.0000E+00
     -0.157  0.4063E-01  0.1716E-01  0.1716E-01  0.1716E-01  0.0000E+00  0.0000E+00  0.0000E+00  0.0000E+00  0.0000E+00
     -0.143  0.4055E-01  0.1716E-01  0.1716E-01  0.1716E-01  0.0000E+00  0.0000E+00  0.0000E+00  0.0000E+00  0.0000E+00
     -0.129  0.4047E-01  0.1716E-01  0.1716E-01  0.1716E-01  0.0000E+00  0.0000E+00  0.0000E+00  0.0000E+00  0.0000E+00
     -0.115  0.4040E-01  0.1716E-01  0.1716E-01  0.1716E-01  0.0000E+00  0.0000E+00  0.0000E+00  0.0000E+00  0.0000E+00
     -0.101  0.4033E-01  0.1717E-01  0.1717E-01  0.1717E-01  0.0000E+00  0.0000E+00  0.0000E+00  0.0000E+00  0.0000E+00
     -0.087  0.4025E-01  0.1717E-01  0.1717E-01  0.1717E-01  0.0000E+00  0.0000E+00  0.0000E+00  0.0000E+00  0.0000E+00
     -0.073  0.4019E-01  0.1718E-01  0.1718E-01  0.1718E-01  0.0000E+00  0.0000E+00  0.0000E+00  0.0000E+00  0.0000E+00
     -0.059  0.4012E-01  0.1719E-01  0.1719E-01  0.1719E-01  0.0000E+00  0.0000E+00  0.0000E+00  0.0000E+00  0.0000E+00
     -0.045  0.4006E-01  0.1720E-01  0.1720E-01  0.1720E-01  0.0000E+00  0.0000E+00  0.0000E+00  0.0000E+00  0.0000E+00
     -0.031  0.4000E-01  0.1721E-01  0.1721E-01  0.1721E-01  0.0000E+00  0.0000E+00  0.0000E+00  0.0000E+00  0.0000E+00
     -0.017  0.3994E-01  0.1722E-01  0.1722E-01  0.1722E-01  0.0000E+00  0.0000E+00  0.0000E+00  0.0000E+00  0.0000E+00
     -0.004  0.3988E-01  0.1724E-01  0.1724E-01  0.1724E-01  0.0000E+00  0.0000E+00  0.0000E+00  0.0000E+00  0.0000E+00
      0.010  0.3978E-01  0.1724E-01  0.1724E-01  0.1724E-01  0.0000E+00  0.0000E+00  0.0000E+00  0.0000E+00  0.0000E+00
      0.024  0.3957E-01  0.1718E-01  0.1718E-01  0.1718E-01  0.0000E+00  0.0000E+00  0.0000E+00  0.0000E+00  0.0000E+00
      0.038  0.3936E-01  0.1713E-01  0.1713E-01  0.1713E-01  0.0000E+00  0.0000E+00  0.0000E+00  0.0000E+00  0.0000E+00
      0.052  0.3915E-01  0.1707E-01  0.1707E-01  0.1707E-01  0.0000E+00  0.0000E+00  0.0000E+00  0.0000E+00  0.0000E+00
      0.066  0.3894E-01  0.1702E-01  0.1702E-01  0.1702E-01  0.0000E+00  0.0000E+00  0.0000E+00  0.0000E+00  0.0000E+00
      0.080  0.3873E-01  0.1697E-01  0.1697E-01  0.1697E-01  0.0000E+00  0.0000E+00  0.0000E+00  0.0000E+00  0.0000E+00
      0.094  0.3853E-01  0.1692E-01  0.1692E-01  0.1692E-01  0.0000E+00  0.0000E+00  0.0000E+00  0.0000E+00  0.0000E+00
      0.108  0.3833E-01  0.1687E-01  0.1687E-01  0.1687E-01  0.0000E+00  0.0000E+00  0.0000E+00  0.0000E+00  0.0000E+00
      0.122  0.3813E-01  0.1682E-01  0.1682E-01  0.1682E-01  0.0000E+00  0.0000E+00  0.0000E+00  0.0000E+00  0.0000E+00
      0.136  0.3793E-01  0.1678E-01  0.1678E-01  0.1678E-01  0.0000E+00  0.0000E+00  0.0000E+00  0.0000E+00  0.0000E+00
      0.150  0.3773E-01  0.1673E-01  0.1673E-01  0.1673E-01  0.0000E+00  0.0000E+00  0.0000E+00  0.0000E+00  0.0000E+00
      0.164  0.3746E-01  0.1666E-01  0.1666E-01  0.1666E-01  0.0000E+00  0.0000E+00  0.0000E+00  0.0000E+00  0.0000E+00
      0.178  0.3712E-01  0.1657E-01  0.1657E-01  0.1657E-01  0.0000E+00  0.0000E+00  0.0000E+00  0.0000E+00  0.0000E+00
      0.192  0.3669E-01  0.1644E-01  0.1644E-01  0.1644E-01  0.0000E+00  0.0000E+00  0.0000E+00  0.0000E+00  0.0000E+00
      0.206  0.3618E-01  0.1629E-01  0.1629E-01  0.1629E-01  0.0000E+00  0.0000E+00  0.0000E+00  0.0000E+00  0.0000E+00
      0.220  0.3559E-01  0.1612E-01  0.1612E-01  0.1612E-01  0.0000E+00  0.0000E+00  0.0000E+00  0.0000E+00  0.0000E+00
      0.234  0.3492E-01  0.1592E-01  0.1592E-01  0.1592E-01  0.0000E+00  0.0000E+00  0.0000E+00  0.0000E+00  0.0000E+00
      0.248  0.3417E-01  0.1569E-01  0.1569E-01  0.1569E-01  0.0000E+00  0.0000E+00  0.0000E+00  0.0000E+00  0.0000E+00
      0.262  0.3335E-01  0.1543E-01  0.1543E-01  0.1543E-01  0.0000E+00  0.0000E+00  0.0000E+00  0.0000E+00  0.0000E+00
      0.276  0.3263E-01  0.1521E-01  0.1521E-01  0.1521E-01  0.0000E+00  0.0000E+00  0.0000E+00  0.0000E+00  0.0000E+00
      0.290  0.3238E-01  0.1512E-01  0.1512E-01  0.1512E-01  0.0000E+00  0.0000E+00  0.0000E+00  0.0000E+00  0.0000E+00
      0.304  0.3212E-01  0.1504E-01  0.1504E-01  0.1504E-01  0.0000E+00  0.0000E+00  0.0000E+00  0.0000E+00  0.0000E+00
      0.318  0.3187E-01  0.1496E-01  0.1496E-01  0.1496E-01  0.0000E+00  0.0000E+00  0.0000E+00  0.0000E+00  0.0000E+00
      0.332  0.3163E-01  0.1488E-01  0.1488E-01  0.1488E-01  0.0000E+00  0.0000E+00  0.0000E+00  0.0000E+00  0.0000E+00
      0.346  0.3139E-01  0.1480E-01  0.1480E-01  0.1480E-01  0.0000E+00  0.0000E+00  0.0000E+00  0.0000E+00  0.0000E+00
      0.360  0.3115E-01  0.1473E-01  0.1473E-01  0.1473E-01  0.0000E+00  0.0000E+00  0.0000E+00  0.0000E+00  0.0000E+00
      0.374  0.3091E-01  0.1465E-01  0.1465E-01  0.1465E-01  0.0000E+00  0.0000E+00  0.0000E+00  0.0000E+00  0.0000E+00
      0.388  0.3068E-01  0.1458E-01  0.1458E-01  0.1458E-01  0.0000E+00  0.0000E+00  0.0000E+00  0.0000E+00  0.0000E+00
      0.402  0.3046E-01  0.1452E-01  0.1452E-01  0.1452E-01  0.0000E+00  0.0000E+00  0.0000E+00  0.0000E+00  0.0000E+00
      0.416  0.3025E-01  0.1450E-01  0.1450E-01  0.1450E-01  0.0000E+00  0.0000E+00  0.0000E+00  0.0000E+00  0.0000E+00
      0.430  0.3006E-01  0.1451E-01  0.1451E-01  0.1451E-01  0.0000E+00  0.0000E+00  0.0000E+00  0.0000E+00  0.0000E+00
      0.444  0.2988E-01  0.1455E-01  0.1455E-01  0.1455E-01  0.0000E+00  0.0000E+00  0.0000E+00  0.0000E+00  0.0000E+00
      0.458  0.2971E-01  0.1463E-01  0.1463E-01  0.1463E-01  0.0000E+00  0.0000E+00  0.0000E+00  0.0000E+00  0.0000E+00
      0.472  0.2956E-01  0.1473E-01  0.1473E-01  0.1473E-01  0.0000E+00  0.0000E+00  0.0000E+00  0.0000E+00  0.0000E+00
      0.486  0.2942E-01  0.1488E-01  0.1488E-01  0.1488E-01  0.0000E+00  0.0000E+00  0.0000E+00  0.0000E+00  0.0000E+00
      0.500  0.2930E-01  0.1505E-01  0.1505E-01  0.1505E-01  0.0000E+00  0.0000E+00  0.0000E+00  0.0000E+00  0.0000E+00
      0.514  0.2919E-01  0.1526E-01  0.1526E-01  0.1526E-01  0.0000E+00  0.0000E+00  0.0000E+00  0.0000E+00  0.0000E+00
      0.528  0.2910E-01  0.1550E-01  0.1550E-01  0.1550E-01  0.0000E+00  0.0000E+00  0.0000E+00  0.0000E+00  0.0000E+00
      0.542  0.2901E-01  0.1577E-01  0.1577E-01  0.1577E-01  0.0000E+00  0.0000E+00  0.0000E+00  0.0000E+00  0.0000E+00
      0.556  0.2895E-01  0.1608E-01  0.1608E-01  0.1608E-01  0.0000E+00  0.0000E+00  0.0000E+00  0.0000E+00  0.0000E+00
      0.570  0.2889E-01  0.1641E-01  0.1641E-01  0.1641E-01  0.0000E+00  0.0000E+00  0.0000E+00  0.0000E+00  0.0000E+00
      0.584  0.2885E-01  0.1679E-01  0.1679E-01  0.1679E-01  0.0000E+00  0.0000E+00  0.0000E+00  0.0000E+00  0.0000E+00
      0.597  0.2882E-01  0.1719E-01  0.1719E-01  0.1719E-01  0.0000E+00  0.0000E+00  0.0000E+00  0.0000E+00  0.0000E+00
      0.611  0.2881E-01  0.1763E-01  0.1763E-01  0.1763E-01  0.0000E+00  0.0000E+00  0.0000E+00  0.0000E+00  0.0000E+00
      0.625  0.2881E-01  0.1810E-01  0.1810E-01  0.1810E-01  0.0000E+00  0.0000E+00  0.0000E+00  0.0000E+00  0.0000E+00
      0.639  0.2883E-01  0.1860E-01  0.1860E-01  0.1860E-01  0.0000E+00  0.0000E+00  0.0000E+00  0.0000E+00  0.0000E+00
      0.653  0.2886E-01  0.1914E-01  0.1914E-01  0.1914E-01  0.0000E+00  0.0000E+00  0.0000E+00  0.0000E+00  0.0000E+00
      0.667  0.2890E-01  0.1971E-01  0.1971E-01  0.1971E-01  0.0000E+00  0.0000E+00  0.0000E+00  0.0000E+00  0.0000E+00
      0.681  0.2896E-01  0.2031E-01  0.2031E-01  0.2031E-01  0.0000E+00  0.0000E+00  0.0000E+00  0.0000E+00  0.0000E+00
      0.695  0.2903E-01  0.2094E-01  0.2094E-01  0.2094E-01  0.0000E+00  0.0000E+00  0.0000E+00  0.0000E+00  0.0000E+00
      0.709  0.2911E-01  0.2161E-01  0.2161E-01  0.2161E-01  0.0000E+00  0.0000E+00  0.0000E+00  0.0000E+00  0.0000E+00
      0.723  0.2921E-01  0.2231E-01  0.2231E-01  0.2231E-01  0.0000E+00  0.0000E+00  0.0000E+00  0.0000E+00  0.0000E+00
      0.737  0.2933E-01  0.2304E-01  0.2304E-01  0.2304E-01  0.0000E+00  0.0000E+00  0.0000E+00  0.0000E+00  0.0000E+00
      0.751  0.2945E-01  0.2381E-01  0.2381E-01  0.2381E-01  0.0000E+00  0.0000E+00  0.0000E+00  0.0000E+00  0.0000E+00
      0.765  0.2959E-01  0.2461E-01  0.2461E-01  0.2461E-01  0.0000E+00  0.0000E+00  0.0000E+00  0.0000E+00  0.0000E+00
      0.779  0.2975E-01  0.2544E-01  0.2544E-01  0.2544E-01  0.0000E+00  0.0000E+00  0.0000E+00  0.0000E+00  0.0000E+00
      0.793  0.2992E-01  0.2630E-01  0.2630E-01  0.2630E-01  0.0000E+00  0.0000E+00  0.0000E+00  0.0000E+00  0.0000E+00
      0.807  0.3010E-01  0.2720E-01  0.2720E-01  0.2720E-01  0.0000E+00  0.0000E+00  0.0000E+00  0.0000E+00  0.0000E+00
      0.821  0.3029E-01  0.2813E-01  0.2813E-01  0.2813E-01  0.0000E+00  0.0000E+00  0.0000E+00  0.0000E+00  0.0000E+00
      0.835  0.3050E-01  0.2909E-01  0.2909E-01  0.2909E-01  0.0000E+00  0.0000E+00  0.0000E+00  0.0000E+00  0.0000E+00
      0.849  0.3071E-01  0.3005E-01  0.3005E-01  0.3005E-01  0.0000E+00  0.0000E+00  0.0000E+00  0.0000E+00  0.0000E+00
      0.863  0.3090E-01  0.3097E-01  0.3097E-01  0.3097E-01  0.0000E+00  0.0000E+00  0.0000E+00  0.0000E+00  0.0000E+00
      0.877  0.3109E-01  0.3187E-01  0.3187E-01  0.3187E-01  0.0000E+00  0.0000E+00  0.0000E+00  0.0000E+00  0.0000E+00
      0.891  0.3126E-01  0.3274E-01  0.3274E-01  0.3274E-01  0.0000E+00  0.0000E+00  0.0000E+00  0.0000E+00  0.0000E+00
      0.905  0.3141E-01  0.3358E-01  0.3358E-01  0.3358E-01  0.0000E+00  0.0000E+00  0.0000E+00  0.0000E+00  0.0000E+00
      0.919  0.3156E-01  0.3439E-01  0.3439E-01  0.3439E-01  0.0000E+00  0.0000E+00  0.0000E+00  0.0000E+00  0.0000E+00
      0.933  0.3168E-01  0.3514E-01  0.3514E-01  0.3514E-01  0.0000E+00  0.0000E+00  0.0000E+00  0.0000E+00  0.0000E+00
      0.947  0.3174E-01  0.3569E-01  0.3569E-01  0.3569E-01  0.0000E+00  0.0000E+00  0.0000E+00  0.0000E+00  0.0000E+00
      0.961  0.3174E-01  0.3601E-01  0.3601E-01  0.3601E-01  0.0000E+00  0.0000E+00  0.0000E+00  0.0000E+00  0.0000E+00
      0.975  0.3167E-01  0.3612E-01  0.3612E-01  0.3612E-01  0.0000E+00  0.0000E+00  0.0000E+00  0.0000E+00  0.0000E+00
      0.989  0.3153E-01  0.3601E-01  0.3601E-01  0.3601E-01  0.0000E+00  0.0000E+00  0.0000E+00  0.0000E+00  0.0000E+00
      1.003  0.3133E-01  0.3568E-01  0.3568E-01  0.3568E-01  0.0000E+00  0.0000E+00  0.0000E+00  0.0000E+00  0.0000E+00
      1.017  0.3105E-01  0.3512E-01  0.3512E-01  0.3512E-01  0.0000E+00  0.0000E+00  0.0000E+00  0.0000E+00  0.0000E+00
      1.031  0.3092E-01  0.3495E-01  0.3495E-01  0.3495E-01  0.0000E+00  0.0000E+00  0.0000E+00  0.0000E+00  0.0000E+00
      1.045  0.3106E-01  0.3551E-01  0.3551E-01  0.3551E-01  0.0000E+00  0.0000E+00  0.0000E+00  0.0000E+00  0.0000E+00
      1.059  0.3120E-01  0.3609E-01  0.3609E-01  0.3609E-01  0.0000E+00  0.0000E+00  0.0000E+00  0.0000E+00  0.0000E+00
      1.073  0.3137E-01  0.3681E-01  0.3681E-01  0.3681E-01  0.0000E+00  0.0000E+00  0.0000E+00  0.0000E+00  0.0000E+00
      1.087  0.3154E-01  0.3753E-01  0.3753E-01  0.3753E-01  0.0000E+00  0.0000E+00  0.0000E+00  0.0000E+00  0.0000E+00
      1.101  0.3171E-01  0.3825E-01  0.3825E-01  0.3825E-01  0.0000E+00  0.0000E+00  0.0000E+00  0.0000E+00  0.0000E+00
      1.115  0.3188E-01  0.3896E-01  0.3896E-01  0.3896E-01  0.0000E+00  0.0000E+00  0.0000E+00  0.0000E+00  0.0000E+00
      1.129  0.3205E-01  0.3968E-01  0.3968E-01  0.3968E-01  0.0000E+00  0.0000E+00  0.0000E+00  0.0000E+00  0.0000E+00
      1.143  0.3223E-01  0.4039E-01  0.4039E-01  0.4039E-01  0.0000E+00  0.0000E+00  0.0000E+00  0.0000E+00  0.0000E+00
      1.157  0.3240E-01  0.4110E-01  0.4110E-01  0.4110E-01  0.0000E+00  0.0000E+00  0.0000E+00  0.0000E+00  0.0000E+00
      1.171  0.3258E-01  0.4181E-01  0.4181E-01  0.4181E-01  0.0000E+00  0.0000E+00  0.0000E+00  0.0000E+00  0.0000E+00
      1.185  0.3276E-01  0.4252E-01  0.4252E-01  0.4252E-01  0.0000E+00  0.0000E+00  0.0000E+00  0.0000E+00  0.0000E+00
      1.199  0.3294E-01  0.4322E-01  0.4322E-01  0.4322E-01  0.0000E+00  0.0000E+00  0.0000E+00  0.0000E+00  0.0000E+00
      1.212  0.3312E-01  0.4392E-01  0.4392E-01  0.4392E-01  0.0000E+00  0.0000E+00  0.0000E+00  0.0000E+00  0.0000E+00
      1.226  0.3330E-01  0.4462E-01  0.4462E-01  0.4462E-01  0.0000E+00  0.0000E+00  0.0000E+00  0.0000E+00  0.0000E+00
      1.240  0.3348E-01  0.4532E-01  0.4532E-01  0.4532E-01  0.0000E+00  0.0000E+00  0.0000E+00  0.0000E+00  0.0000E+00
      1.254  0.3366E-01  0.4602E-01  0.4602E-01  0.4602E-01  0.0000E+00  0.0000E+00  0.0000E+00  0.0000E+00  0.0000E+00
      1.268  0.3385E-01  0.4671E-01  0.4671E-01  0.4671E-01  0.0000E+00  0.0000E+00  0.0000E+00  0.0000E+00  0.0000E+00
      1.282  0.3403E-01  0.4740E-01  0.4740E-01  0.4740E-01  0.0000E+00  0.0000E+00  0.0000E+00  0.0000E+00  0.0000E+00
      1.296  0.3422E-01  0.4809E-01  0.4809E-01  0.4809E-01  0.0000E+00  0.0000E+00  0.0000E+00  0.0000E+00  0.0000E+00
      1.310  0.3440E-01  0.4878E-01  0.4878E-01  0.4878E-01  0.0000E+00  0.0000E+00  0.0000E+00  0.0000E+00  0.0000E+00
      1.324  0.3459E-01  0.4947E-01  0.4947E-01  0.4947E-01  0.0000E+00  0.0000E+00  0.0000E+00  0.0000E+00  0.0000E+00
      1.338  0.3478E-01  0.5015E-01  0.5015E-01  0.5015E-01  0.0000E+00  0.0000E+00  0.0000E+00  0.0000E+00  0.0000E+00
      1.352  0.3497E-01  0.5084E-01  0.5084E-01  0.5084E-01  0.0000E+00  0.0000E+00  0.0000E+00  0.0000E+00  0.0000E+00
      1.366  0.3647E-01  0.6062E-01  0.6062E-01  0.6062E-01  0.0000E+00  0.0000E+00  0.0000E+00  0.0000E+00  0.0000E+00
      1.380  0.3625E-01  0.5977E-01  0.5977E-01  0.5977E-01  0.0000E+00  0.0000E+00  0.0000E+00  0.0000E+00  0.0000E+00
      1.394  0.3578E-01  0.5743E-01  0.5743E-01  0.5743E-01  0.0000E+00  0.0000E+00  0.0000E+00  0.0000E+00  0.0000E+00
      1.408  0.3536E-01  0.5527E-01  0.5527E-01  0.5527E-01  0.0000E+00  0.0000E+00  0.0000E+00  0.0000E+00  0.0000E+00
      1.422  0.3497E-01  0.5327E-01  0.5327E-01  0.5327E-01  0.0000E+00  0.0000E+00  0.0000E+00  0.0000E+00  0.0000E+00
      1.436  0.3461E-01  0.5145E-01  0.5145E-01  0.5145E-01  0.0000E+00  0.0000E+00  0.0000E+00  0.0000E+00  0.0000E+00
      1.450  0.3429E-01  0.4979E-01  0.4979E-01  0.4979E-01  0.0000E+00  0.0000E+00  0.0000E+00  0.0000E+00  0.0000E+00
      1.464  0.3400E-01  0.4830E-01  0.4830E-01  0.4830E-01  0.0000E+00  0.0000E+00  0.0000E+00  0.0000E+00  0.0000E+00
      1.478  0.3375E-01  0.4698E-01  0.4698E-01  0.4698E-01  0.0000E+00  0.0000E+00  0.0000E+00  0.0000E+00  0.0000E+00
      1.492  0.3353E-01  0.4583E-01  0.4583E-01  0.4583E-01  0.0000E+00  0.0000E+00  0.0000E+00  0.0000E+00  0.0000E+00
      1.506  0.3335E-01  0.4484E-01  0.4484E-01  0.4484E-01  0.0000E+00  0.0000E+00  0.0000E+00  0.0000E+00  0.0000E+00
      1.520  0.3320E-01  0.4403E-01  0.4403E-01  0.4403E-01  0.0000E+00  0.0000E+00  0.0000E+00  0.0000E+00  0.0000E+00
      1.534  0.3309E-01  0.4338E-01  0.4338E-01  0.4338E-01  0.0000E+00  0.0000E+00  0.0000E+00  0.0000E+00  0.0000E+00
      1.548  0.3301E-01  0.4291E-01  0.4291E-01  0.4291E-01  0.0000E+00  0.0000E+00  0.0000E+00  0.0000E+00  0.0000E+00
      1.562  0.3296E-01  0.4260E-01  0.4260E-01  0.4260E-01  0.0000E+00  0.0000E+00  0.0000E+00  0.0000E+00  0.0000E+00
      1.576  0.3297E-01  0.4254E-01  0.4254E-01  0.4254E-01  0.0000E+00  0.0000E+00  0.0000E+00  0.0000E+00  0.0000E+00
      1.590  0.3302E-01  0.4271E-01  0.4271E-01  0.4271E-01  0.0000E+00  0.0000E+00  0.0000E+00  0.0000E+00  0.0000E+00
      1.604  0.3307E-01  0.4288E-01  0.4288E-01  0.4288E-01  0.0000E+00  0.0000E+00  0.0000E+00  0.0000E+00  0.0000E+00
      1.618  0.3312E-01  0.4306E-01  0.4306E-01  0.4306E-01  0.0000E+00  0.0000E+00  0.0000E+00  0.0000E+00  0.0000E+00
      1.632  0.3318E-01  0.4324E-01  0.4324E-01  0.4324E-01  0.0000E+00  0.0000E+00  0.0000E+00  0.0000E+00  0.0000E+00
      1.646  0.3323E-01  0.4342E-01  0.4342E-01  0.4342E-01  0.0000E+00  0.0000E+00  0.0000E+00  0.0000E+00  0.0000E+00
      1.660  0.3329E-01  0.4362E-01  0.4362E-01  0.4362E-01  0.0000E+00  0.0000E+00  0.0000E+00  0.0000E+00  0.0000E+00
      1.674  0.3335E-01  0.4382E-01  0.4382E-01  0.4382E-01  0.0000E+00  0.0000E+00  0.0000E+00  0.0000E+00  0.0000E+00
      1.688  0.3341E-01  0.4402E-01  0.4402E-01  0.4402E-01  0.0000E+00  0.0000E+00  0.0000E+00  0.0000E+00  0.0000E+00
      1.702  0.3348E-01  0.4423E-01  0.4423E-01  0.4423E-01  0.0000E+00  0.0000E+00  0.0000E+00  0.0000E+00  0.0000E+00
      1.716  0.3354E-01  0.4445E-01  0.4445E-01  0.4445E-01  0.0000E+00  0.0000E+00  0.0000E+00  0.0000E+00  0.0000E+00
      1.730  0.3362E-01  0.4467E-01  0.4467E-01  0.4467E-01  0.0000E+00  0.0000E+00  0.0000E+00  0.0000E+00  0.0000E+00
      1.744  0.3369E-01  0.4490E-01  0.4490E-01  0.4490E-01  0.0000E+00  0.0000E+00  0.0000E+00  0.0000E+00  0.0000E+00
      1.758  0.3376E-01  0.4513E-01  0.4513E-01  0.4513E-01  0.0000E+00  0.0000E+00  0.0000E+00  0.0000E+00  0.0000E+00
      1.772  0.3384E-01  0.4537E-01  0.4537E-01  0.4537E-01  0.0000E+00  0.0000E+00  0.0000E+00  0.0000E+00  0.0000E+00
      1.786  0.3392E-01  0.4562E-01  0.4562E-01  0.4562E-01  0.0000E+00  0.0000E+00  0.0000E+00  0.0000E+00  0.0000E+00
      1.800  0.3401E-01  0.4587E-01  0.4587E-01  0.4587E-01  0.0000E+00  0.0000E+00  0.0000E+00  0.0000E+00  0.0000E+00
      1.813  0.3410E-01  0.4612E-01  0.4612E-01  0.4612E-01  0.0000E+00  0.0000E+00  0.0000E+00  0.0000E+00  0.0000E+00
      1.827  0.3405E-01  0.4631E-01  0.4631E-01  0.4631E-01  0.0000E+00  0.0000E+00  0.0000E+00  0.0000E+00  0.0000E+00
      1.841  0.3398E-01  0.4649E-01  0.4649E-01  0.4649E-01  0.0000E+00  0.0000E+00  0.0000E+00  0.0000E+00  0.0000E+00
      1.855  0.3391E-01  0.4667E-01  0.4667E-01  0.4667E-01  0.0000E+00  0.0000E+00  0.0000E+00  0.0000E+00  0.0000E+00
      1.869  0.3384E-01  0.4685E-01  0.4685E-01  0.4685E-01  0.0000E+00  0.0000E+00  0.0000E+00  0.0000E+00  0.0000E+00
      1.883  0.3366E-01  0.4684E-01  0.4684E-01  0.4684E-01  0.0000E+00  0.0000E+00  0.0000E+00  0.0000E+00  0.0000E+00
      1.897  0.3336E-01  0.4663E-01  0.4663E-01  0.4663E-01  0.0000E+00  0.0000E+00  0.0000E+00  0.0000E+00  0.0000E+00
      1.911  0.3308E-01  0.4642E-01  0.4642E-01  0.4642E-01  0.0000E+00  0.0000E+00  0.0000E+00  0.0000E+00  0.0000E+00
      1.925  0.3279E-01  0.4623E-01  0.4623E-01  0.4623E-01  0.0000E+00  0.0000E+00  0.0000E+00  0.0000E+00  0.0000E+00
      1.939  0.3252E-01  0.4604E-01  0.4604E-01  0.4604E-01  0.0000E+00  0.0000E+00  0.0000E+00  0.0000E+00  0.0000E+00
      1.953  0.3225E-01  0.4587E-01  0.4587E-01  0.4587E-01  0.0000E+00  0.0000E+00  0.0000E+00  0.0000E+00  0.0000E+00
      1.967  0.3199E-01  0.4571E-01  0.4571E-01  0.4571E-01  0.0000E+00  0.0000E+00  0.0000E+00  0.0000E+00  0.0000E+00
      1.981  0.3174E-01  0.4557E-01  0.4557E-01  0.4557E-01  0.0000E+00  0.0000E+00  0.0000E+00  0.0000E+00  0.0000E+00
      1.995  0.3150E-01  0.4543E-01  0.4543E-01  0.4543E-01  0.0000E+00  0.0000E+00  0.0000E+00  0.0000E+00  0.0000E+00
      2.009  0.3126E-01  0.4530E-01  0.4530E-01  0.4530E-01  0.0000E+00  0.0000E+00  0.0000E+00  0.0000E+00  0.0000E+00
      2.023  0.3103E-01  0.4519E-01  0.4519E-01  0.4519E-01  0.0000E+00  0.0000E+00  0.0000E+00  0.0000E+00  0.0000E+00
      2.037  0.3081E-01  0.4509E-01  0.4509E-01  0.4509E-01  0.0000E+00  0.0000E+00  0.0000E+00  0.0000E+00  0.0000E+00
      2.051  0.3059E-01  0.4499E-01  0.4499E-01  0.4499E-01  0.0000E+00  0.0000E+00  0.0000E+00  0.0000E+00  0.0000E+00
      2.065  0.3038E-01  0.4491E-01  0.4491E-01  0.4491E-01  0.0000E+00  0.0000E+00  0.0000E+00  0.0000E+00  0.0000E+00
      2.079  0.3018E-01  0.4485E-01  0.4485E-01  0.4485E-01  0.0000E+00  0.0000E+00  0.0000E+00  0.0000E+00  0.0000E+00
      2.093  0.2999E-01  0.4479E-01  0.4479E-01  0.4479E-01  0.0000E+00  0.0000E+00  0.0000E+00  0.0000E+00  0.0000E+00
      2.107  0.2980E-01  0.4474E-01  0.4474E-01  0.4474E-01  0.0000E+00  0.0000E+00  0.0000E+00  0.0000E+00  0.0000E+00
      2.121  0.2962E-01  0.4471E-01  0.4471E-01  0.4471E-01  0.0000E+00  0.0000E+00  0.0000E+00  0.0000E+00  0.0000E+00
      2.135  0.2945E-01  0.4468E-01  0.4468E-01  0.4468E-01  0.0000E+00  0.0000E+00  0.0000E+00  0.0000E+00  0.0000E+00
      2.149  0.2929E-01  0.4467E-01  0.4467E-01  0.4467E-01  0.0000E+00  0.0000E+00  0.0000E+00  0.0000E+00  0.0000E+00
      2.163  0.2913E-01  0.4467E-01  0.4467E-01  0.4467E-01  0.0000E+00  0.0000E+00  0.0000E+00  0.0000E+00  0.0000E+00
      2.177  0.2898E-01  0.4468E-01  0.4468E-01  0.4468E-01  0.0000E+00  0.0000E+00  0.0000E+00  0.0000E+00  0.0000E+00
      2.191  0.2884E-01  0.4470E-01  0.4470E-01  0.4470E-01  0.0000E+00  0.0000E+00  0.0000E+00  0.0000E+00  0.0000E+00
      2.205  0.2870E-01  0.4472E-01  0.4472E-01  0.4472E-01  0.0000E+00  0.0000E+00  0.0000E+00  0.0000E+00  0.0000E+00
      2.219  0.2856E-01  0.4474E-01  0.4474E-01  0.4474E-01  0.0000E+00  0.0000E+00  0.0000E+00  0.0000E+00  0.0000E+00
      2.233  0.2842E-01  0.4476E-01  0.4476E-01  0.4476E-01  0.0000E+00  0.0000E+00  0.0000E+00  0.0000E+00  0.0000E+00
      2.247  0.2828E-01  0.4478E-01  0.4478E-01  0.4478E-01  0.0000E+00  0.0000E+00  0.0000E+00  0.0000E+00  0.0000E+00
      2.261  0.2814E-01  0.4480E-01  0.4480E-01  0.4480E-01  0.0000E+00  0.0000E+00  0.0000E+00  0.0000E+00  0.0000E+00
      2.275  0.2800E-01  0.4481E-01  0.4481E-01  0.4481E-01  0.0000E+00  0.0000E+00  0.0000E+00  0.0000E+00  0.0000E+00
      2.289  0.2786E-01  0.4483E-01  0.4483E-01  0.4483E-01  0.0000E+00  0.0000E+00  0.0000E+00  0.0000E+00  0.0000E+00
      2.303  0.2773E-01  0.4484E-01  0.4484E-01  0.4484E-01  0.0000E+00  0.0000E+00  0.0000E+00  0.0000E+00  0.0000E+00
      2.317  0.2759E-01  0.4486E-01  0.4486E-01  0.4486E-01  0.0000E+00  0.0000E+00  0.0000E+00  0.0000E+00  0.0000E+00
      2.331  0.2746E-01  0.4487E-01  0.4487E-01  0.4487E-01  0.0000E+00  0.0000E+00  0.0000E+00  0.0000E+00  0.0000E+00
      2.345  0.2734E-01  0.4491E-01  0.4491E-01  0.4491E-01  0.0000E+00  0.0000E+00  0.0000E+00  0.0000E+00  0.0000E+00
      2.359  0.2725E-01  0.4500E-01  0.4500E-01  0.4500E-01  0.0000E+00  0.0000E+00  0.0000E+00  0.0000E+00  0.0000E+00
      2.373  0.2716E-01  0.4508E-01  0.4508E-01  0.4508E-01  0.0000E+00  0.0000E+00  0.0000E+00  0.0000E+00  0.0000E+00
      2.387  0.2708E-01  0.4518E-01  0.4518E-01  0.4518E-01  0.0000E+00  0.0000E+00  0.0000E+00  0.0000E+00  0.0000E+00
      2.401  0.2700E-01  0.4527E-01  0.4527E-01  0.4527E-01  0.0000E+00  0.0000E+00  0.0000E+00  0.0000E+00  0.0000E+00
      2.414  0.2693E-01  0.4538E-01  0.4538E-01  0.4538E-01  0.0000E+00  0.0000E+00  0.0000E+00  0.0000E+00  0.0000E+00
      2.428  0.2686E-01  0.4549E-01  0.4549E-01  0.4549E-01  0.0000E+00  0.0000E+00  0.0000E+00  0.0000E+00  0.0000E+00
      2.442  0.2680E-01  0.4560E-01  0.4560E-01  0.4560E-01  0.0000E+00  0.0000E+00  0.0000E+00  0.0000E+00  0.0000E+00
      2.456  0.2674E-01  0.4572E-01  0.4572E-01  0.4572E-01  0.0000E+00  0.0000E+00  0.0000E+00  0.0000E+00  0.0000E+00
      2.470  0.2668E-01  0.4585E-01  0.4585E-01  0.4585E-01  0.0000E+00  0.0000E+00  0.0000E+00  0.0000E+00  0.0000E+00
      2.484  0.2663E-01  0.4598E-01  0.4598E-01  0.4598E-01  0.0000E+00  0.0000E+00  0.0000E+00  0.0000E+00  0.0000E+00
      2.498  0.2658E-01  0.4612E-01  0.4612E-01  0.4612E-01  0.0000E+00  0.0000E+00  0.0000E+00  0.0000E+00  0.0000E+00
      2.512  0.2654E-01  0.4626E-01  0.4626E-01  0.4626E-01  0.0000E+00  0.0000E+00  0.0000E+00  0.0000E+00  0.0000E+00
      2.526  0.2650E-01  0.4641E-01  0.4641E-01  0.4641E-01  0.0000E+00  0.0000E+00  0.0000E+00  0.0000E+00  0.0000E+00
      2.540  0.2646E-01  0.4656E-01  0.4656E-01  0.4656E-01  0.0000E+00  0.0000E+00  0.0000E+00  0.0000E+00  0.0000E+00
      2.554  0.2643E-01  0.4672E-01  0.4672E-01  0.4672E-01  0.0000E+00  0.0000E+00  0.0000E+00  0.0000E+00  0.0000E+00
      2.568  0.2640E-01  0.4688E-01  0.4688E-01  0.4688E-01  0.0000E+00  0.0000E+00  0.0000E+00  0.0000E+00  0.0000E+00
      2.582  0.2638E-01  0.4705E-01  0.4705E-01  0.4705E-01  0.0000E+00  0.0000E+00  0.0000E+00  0.0000E+00  0.0000E+00
      2.596  0.2636E-01  0.4723E-01  0.4723E-01  0.4723E-01  0.0000E+00  0.0000E+00  0.0000E+00  0.0000E+00  0.0000E+00
      2.610  0.2635E-01  0.4741E-01  0.4741E-01  0.4741E-01  0.0000E+00  0.0000E+00  0.0000E+00  0.0000E+00  0.0000E+00
      2.624  0.2633E-01  0.4759E-01  0.4759E-01  0.4759E-01  0.0000E+00  0.0000E+00  0.0000E+00  0.0000E+00  0.0000E+00
      2.638  0.2632E-01  0.4778E-01  0.4778E-01  0.4778E-01  0.0000E+00  0.0000E+00  0.0000E+00  0.0000E+00  0.0000E+00
      2.652  0.2692E-01  0.5629E-01  0.5629E-01  0.5629E-01  0.0000E+00  0.0000E+00  0.0000E+00  0.0000E+00  0.0000E+00
      2.666  0.2721E-01  0.6083E-01  0.6083E-01  0.6083E-01  0.0000E+00  0.0000E+00  0.0000E+00  0.0000E+00  0.0000E+00
      2.680  0.2720E-01  0.6129E-01  0.6129E-01  0.6129E-01  0.0000E+00  0.0000E+00  0.0000E+00  0.0000E+00  0.0000E+00
      2.694  0.2708E-01  0.6024E-01  0.6024E-01  0.6024E-01  0.0000E+00  0.0000E+00  0.0000E+00  0.0000E+00  0.0000E+00
      2.708  0.2696E-01  0.5928E-01  0.5928E-01  0.5928E-01  0.0000E+00  0.0000E+00  0.0000E+00  0.0000E+00  0.0000E+00
      2.722  0.2686E-01  0.5841E-01  0.5841E-01  0.5841E-01  0.0000E+00  0.0000E+00  0.0000E+00  0.0000E+00  0.0000E+00
      2.736  0.2676E-01  0.5763E-01  0.5763E-01  0.5763E-01  0.0000E+00  0.0000E+00  0.0000E+00  0.0000E+00  0.0000E+00
      2.750  0.2666E-01  0.5694E-01  0.5694E-01  0.5694E-01  0.0000E+00  0.0000E+00  0.0000E+00  0.0000E+00  0.0000E+00
      2.764  0.2658E-01  0.5635E-01  0.5635E-01  0.5635E-01  0.0000E+00  0.0000E+00  0.0000E+00  0.0000E+00  0.0000E+00
      2.778  0.2650E-01  0.5584E-01  0.5584E-01  0.5584E-01  0.0000E+00  0.0000E+00  0.0000E+00  0.0000E+00  0.0000E+00
      2.792  0.2643E-01  0.5543E-01  0.5543E-01  0.5543E-01  0.0000E+00  0.0000E+00  0.0000E+00  0.0000E+00  0.0000E+00
      2.806  0.2637E-01  0.5510E-01  0.5510E-01  0.5510E-01  0.0000E+00  0.0000E+00  0.0000E+00  0.0000E+00  0.0000E+00
      2.820  0.2632E-01  0.5487E-01  0.5487E-01  0.5487E-01  0.0000E+00  0.0000E+00  0.0000E+00  0.0000E+00  0.0000E+00
      2.834  0.2627E-01  0.5473E-01  0.5473E-01  0.5473E-01  0.0000E+00  0.0000E+00  0.0000E+00  0.0000E+00  0.0000E+00
      2.848  0.2624E-01  0.5468E-01  0.5468E-01  0.5468E-01  0.0000E+00  0.0000E+00  0.0000E+00  0.0000E+00  0.0000E+00
      2.862  0.2621E-01  0.5472E-01  0.5472E-01  0.5472E-01  0.0000E+00  0.0000E+00  0.0000E+00  0.0000E+00  0.0000E+00
      2.876  0.2619E-01  0.5485E-01  0.5485E-01  0.5485E-01  0.0000E+00  0.0000E+00  0.0000E+00  0.0000E+00  0.0000E+00
      2.890  0.2617E-01  0.5507E-01  0.5507E-01  0.5507E-01  0.0000E+00  0.0000E+00  0.0000E+00  0.0000E+00  0.0000E+00
      2.904  0.2617E-01  0.5539E-01  0.5539E-01  0.5539E-01  0.0000E+00  0.0000E+00  0.0000E+00  0.0000E+00  0.0000E+00
      2.918  0.2618E-01  0.5579E-01  0.5579E-01  0.5579E-01  0.0000E+00  0.0000E+00  0.0000E+00  0.0000E+00  0.0000E+00
      2.932  0.2621E-01  0.5629E-01  0.5629E-01  0.5629E-01  0.0000E+00  0.0000E+00  0.0000E+00  0.0000E+00  0.0000E+00
      2.946  0.2627E-01  0.5689E-01  0.5689E-01  0.5689E-01  0.0000E+00  0.0000E+00  0.0000E+00  0.0000E+00  0.0000E+00
      2.960  0.2635E-01  0.5757E-01  0.5757E-01  0.5757E-01  0.0000E+00  0.0000E+00  0.0000E+00  0.0000E+00  0.0000E+00
      2.974  0.2645E-01  0.5835E-01  0.5835E-01  0.5835E-01  0.0000E+00  0.0000E+00  0.0000E+00  0.0000E+00  0.0000E+00
      2.988  0.2650E-01  0.5900E-01  0.5900E-01  0.5900E-01  0.0000E+00  0.0000E+00  0.0000E+00  0.0000E+00  0.0000E+00
      3.002  0.2647E-01  0.5944E-01  0.5944E-01  0.5944E-01  0.0000E+00  0.0000E+00  0.0000E+00  0.0000E+00  0.0000E+00
      3.015  0.2645E-01  0.5990E-01  0.5990E-01  0.5990E-01  0.0000E+00  0.0000E+00  0.0000E+00  0.0000E+00  0.0000E+00
      3.029  0.2643E-01  0.6038E-01  0.6038E-01  0.6038E-01  0.0000E+00  0.0000E+00  0.0000E+00  0.0000E+00  0.0000E+00
      3.043  0.2641E-01  0.6088E-01  0.6088E-01  0.6088E-01  0.0000E+00  0.0000E+00  0.0000E+00  0.0000E+00  0.0000E+00
      3.057  0.2639E-01  0.6139E-01  0.6139E-01  0.6139E-01  0.0000E+00  0.0000E+00  0.0000E+00  0.0000E+00  0.0000E+00
      3.071  0.2637E-01  0.6192E-01  0.6192E-01  0.6192E-01  0.0000E+00  0.0000E+00  0.0000E+00  0.0000E+00  0.0000E+00
      3.085  0.2635E-01  0.6247E-01  0.6247E-01  0.6247E-01  0.0000E+00  0.0000E+00  0.0000E+00  0.0000E+00  0.0000E+00
      3.099  0.2629E-01  0.6295E-01  0.6295E-01  0.6295E-01  0.0000E+00  0.0000E+00  0.0000E+00  0.0000E+00  0.0000E+00
      3.113  0.2623E-01  0.6345E-01  0.6345E-01  0.6345E-01  0.0000E+00  0.0000E+00  0.0000E+00  0.0000E+00  0.0000E+00
      3.127  0.2618E-01  0.6397E-01  0.6397E-01  0.6397E-01  0.0000E+00  0.0000E+00  0.0000E+00  0.0000E+00  0.0000E+00
      3.141  0.2612E-01  0.6450E-01  0.6450E-01  0.6450E-01  0.0000E+00  0.0000E+00  0.0000E+00  0.0000E+00  0.0000E+00
      3.155  0.2607E-01  0.6505E-01  0.6505E-01  0.6505E-01  0.0000E+00  0.0000E+00  0.0000E+00  0.0000E+00  0.0000E+00
      3.169  0.2601E-01  0.6562E-01  0.6562E-01  0.6562E-01  0.0000E+00  0.0000E+00  0.0000E+00  0.0000E+00  0.0000E+00
      3.183  0.2596E-01  0.6621E-01  0.6621E-01  0.6621E-01  0.0000E+00  0.0000E+00  0.0000E+00  0.0000E+00  0.0000E+00
      3.197  0.2591E-01  0.6682E-01  0.6682E-01  0.6682E-01  0.0000E+00  0.0000E+00  0.0000E+00  0.0000E+00  0.0000E+00
      3.211  0.2585E-01  0.6744E-01  0.6744E-01  0.6744E-01  0.0000E+00  0.0000E+00  0.0000E+00  0.0000E+00  0.0000E+00
      3.225  0.2580E-01  0.6808E-01  0.6808E-01  0.6808E-01  0.0000E+00  0.0000E+00  0.0000E+00  0.0000E+00  0.0000E+00
      3.239  0.2575E-01  0.6874E-01  0.6874E-01  0.6874E-01  0.0000E+00  0.0000E+00  0.0000E+00  0.0000E+00  0.0000E+00
      3.253  0.2570E-01  0.6941E-01  0.6941E-01  0.6941E-01  0.0000E+00  0.0000E+00  0.0000E+00  0.0000E+00  0.0000E+00
      3.267  0.2565E-01  0.7011E-01  0.7011E-01  0.7011E-01  0.0000E+00  0.0000E+00  0.0000E+00  0.0000E+00  0.0000E+00
      3.281  0.2602E-01  0.8043E-01  0.8043E-01  0.8043E-01  0.0000E+00  0.0000E+00  0.0000E+00  0.0000E+00  0.0000E+00
      3.295  0.2613E-01  0.8459E-01  0.8459E-01  0.8459E-01  0.0000E+00  0.0000E+00  0.0000E+00  0.0000E+00  0.0000E+00
      3.309  0.2595E-01  0.8241E-01  0.8241E-01  0.8241E-01  0.0000E+00  0.0000E+00  0.0000E+00  0.0000E+00  0.0000E+00
      3.323  0.2574E-01  0.7948E-01  0.7948E-01  0.7948E-01  0.0000E+00  0.0000E+00  0.0000E+00  0.0000E+00  0.0000E+00
      3.337  0.2556E-01  0.7717E-01  0.7717E-01  0.7717E-01  0.0000E+00  0.0000E+00  0.0000E+00  0.0000E+00  0.0000E+00
      3.351  0.2541E-01  0.7549E-01  0.7549E-01  0.7549E-01  0.0000E+00  0.0000E+00  0.0000E+00  0.0000E+00  0.0000E+00
      3.365  0.2528E-01  0.7444E-01  0.7444E-01  0.7444E-01  0.0000E+00  0.0000E+00  0.0000E+00  0.0000E+00  0.0000E+00
      3.379  0.2518E-01  0.7401E-01  0.7401E-01  0.7401E-01  0.0000E+00  0.0000E+00  0.0000E+00  0.0000E+00  0.0000E+00
      3.393  0.2510E-01  0.7421E-01  0.7421E-01  0.7421E-01  0.0000E+00  0.0000E+00  0.0000E+00  0.0000E+00  0.0000E+00
      3.407  0.2504E-01  0.7474E-01  0.7474E-01  0.7474E-01  0.0000E+00  0.0000E+00  0.0000E+00  0.0000E+00  0.0000E+00
      3.421  0.2498E-01  0.7533E-01  0.7533E-01  0.7533E-01  0.0000E+00  0.0000E+00  0.0000E+00  0.0000E+00  0.0000E+00
      3.435  0.2491E-01  0.7600E-01  0.7600E-01  0.7600E-01  0.0000E+00  0.0000E+00  0.0000E+00  0.0000E+00  0.0000E+00
      3.449  0.2485E-01  0.7674E-01  0.7674E-01  0.7674E-01  0.0000E+00  0.0000E+00  0.0000E+00  0.0000E+00  0.0000E+00
      3.463  0.2478E-01  0.7755E-01  0.7755E-01  0.7755E-01  0.0000E+00  0.0000E+00  0.0000E+00  0.0000E+00  0.0000E+00
      3.477  0.2471E-01  0.7843E-01  0.7843E-01  0.7843E-01  0.0000E+00  0.0000E+00  0.0000E+00  0.0000E+00  0.0000E+00
      3.491  0.2465E-01  0.7939E-01  0.7939E-01  0.7939E-01  0.0000E+00  0.0000E+00  0.0000E+00  0.0000E+00  0.0000E+00
      3.505  0.2458E-01  0.8041E-01  0.8041E-01  0.8041E-01  0.0000E+00  0.0000E+00  0.0000E+00  0.0000E+00  0.0000E+00
      3.519  0.2451E-01  0.8150E-01  0.8150E-01  0.8150E-01  0.0000E+00  0.0000E+00  0.0000E+00  0.0000E+00  0.0000E+00
      3.533  0.2444E-01  0.8267E-01  0.8267E-01  0.8267E-01  0.0000E+00  0.0000E+00  0.0000E+00  0.0000E+00  0.0000E+00
      3.547  0.2437E-01  0.8390E-01  0.8390E-01  0.8390E-01  0.0000E+00  0.0000E+00  0.0000E+00  0.0000E+00  0.0000E+00
      3.561  0.2430E-01  0.8521E-01  0.8521E-01  0.8521E-01  0.0000E+00  0.0000E+00  0.0000E+00  0.0000E+00  0.0000E+00
      3.575  0.2423E-01  0.8659E-01  0.8659E-01  0.8659E-01  0.0000E+00  0.0000E+00  0.0000E+00  0.0000E+00  0.0000E+00
      3.589  0.2416E-01  0.8803E-01  0.8803E-01  0.8803E-01  0.0000E+00  0.0000E+00  0.0000E+00  0.0000E+00  0.0000E+00
      3.603  0.2408E-01  0.8955E-01  0.8955E-01  0.8955E-01  0.0000E+00  0.0000E+00  0.0000E+00  0.0000E+00  0.0000E+00
      3.616  0.2399E-01  0.9113E-01  0.9113E-01  0.9113E-01  0.0000E+00  0.0000E+00  0.0000E+00  0.0000E+00  0.0000E+00
      3.630  0.2389E-01  0.9075E-01  0.9075E-01  0.9075E-01  0.0000E+00  0.0000E+00  0.0000E+00  0.0000E+00  0.0000E+00
      3.644  0.2380E-01  0.8813E-01  0.8813E-01  0.8813E-01  0.0000E+00  0.0000E+00  0.0000E+00  0.0000E+00  0.0000E+00
      3.658  0.2370E-01  0.8585E-01  0.8585E-01  0.8585E-01  0.0000E+00  0.0000E+00  0.0000E+00  0.0000E+00  0.0000E+00
      3.672  0.2359E-01  0.8393E-01  0.8393E-01  0.8393E-01  0.0000E+00  0.0000E+00  0.0000E+00  0.0000E+00  0.0000E+00
      3.686  0.2348E-01  0.8234E-01  0.8234E-01  0.8234E-01  0.0000E+00  0.0000E+00  0.0000E+00  0.0000E+00  0.0000E+00
      3.700  0.2332E-01  0.8095E-01  0.8095E-01  0.8095E-01  0.0000E+00  0.0000E+00  0.0000E+00  0.0000E+00  0.0000E+00
      3.714  0.2307E-01  0.7958E-01  0.7958E-01  0.7958E-01  0.0000E+00  0.0000E+00  0.0000E+00  0.0000E+00  0.0000E+00
      3.728  0.2285E-01  0.7872E-01  0.7872E-01  0.7872E-01  0.0000E+00  0.0000E+00  0.0000E+00  0.0000E+00  0.0000E+00
      3.742  0.2266E-01  0.7837E-01  0.7837E-01  0.7837E-01  0.0000E+00  0.0000E+00  0.0000E+00  0.0000E+00  0.0000E+00
      3.756  0.2246E-01  0.7819E-01  0.7819E-01  0.7819E-01  0.0000E+00  0.0000E+00  0.0000E+00  0.0000E+00  0.0000E+00
      3.770  0.2224E-01  0.7800E-01  0.7800E-01  0.7800E-01  0.0000E+00  0.0000E+00  0.0000E+00  0.0000E+00  0.0000E+00
      3.784  0.2201E-01  0.7782E-01  0.7782E-01  0.7782E-01  0.0000E+00  0.0000E+00  0.0000E+00  0.0000E+00  0.0000E+00
      3.798  0.2177E-01  0.7765E-01  0.7765E-01  0.7765E-01  0.0000E+00  0.0000E+00  0.0000E+00  0.0000E+00  0.0000E+00
      3.812  0.2153E-01  0.7748E-01  0.7748E-01  0.7748E-01  0.0000E+00  0.0000E+00  0.0000E+00  0.0000E+00  0.0000E+00
      3.826  0.2129E-01  0.7732E-01  0.7732E-01  0.7732E-01  0.0000E+00  0.0000E+00  0.0000E+00  0.0000E+00  0.0000E+00
      3.840  0.2107E-01  0.7718E-01  0.7718E-01  0.7718E-01  0.0000E+00  0.0000E+00  0.0000E+00  0.0000E+00  0.0000E+00
      3.854  0.2093E-01  0.7708E-01  0.7708E-01  0.7708E-01  0.0000E+00  0.0000E+00  0.0000E+00  0.0000E+00  0.0000E+00
      3.868  0.2080E-01  0.7700E-01  0.7700E-01  0.7700E-01  0.0000E+00  0.0000E+00  0.0000E+00  0.0000E+00  0.0000E+00
      3.882  0.2067E-01  0.7693E-01  0.7693E-01  0.7693E-01  0.0000E+00  0.0000E+00  0.0000E+00  0.0000E+00  0.0000E+00
      3.896  0.2054E-01  0.7686E-01  0.7686E-01  0.7686E-01  0.0000E+00  0.0000E+00  0.0000E+00  0.0000E+00  0.0000E+00
      3.910  0.2042E-01  0.7679E-01  0.7679E-01  0.7679E-01  0.0000E+00  0.0000E+00  0.0000E+00  0.0000E+00  0.0000E+00
      3.924  0.2029E-01  0.7672E-01  0.7672E-01  0.7672E-01  0.0000E+00  0.0000E+00  0.0000E+00  0.0000E+00  0.0000E+00
      3.938  0.2017E-01  0.7666E-01  0.7666E-01  0.7666E-01  0.0000E+00  0.0000E+00  0.0000E+00  0.0000E+00  0.0000E+00
      3.952  0.2005E-01  0.7659E-01  0.7659E-01  0.7659E-01  0.0000E+00  0.0000E+00  0.0000E+00  0.0000E+00  0.0000E+00
      3.966  0.1993E-01  0.7654E-01  0.7654E-01  0.7654E-01  0.0000E+00  0.0000E+00  0.0000E+00  0.0000E+00  0.0000E+00
      3.980  0.1981E-01  0.7648E-01  0.7648E-01  0.7648E-01  0.0000E+00  0.0000E+00  0.0000E+00  0.0000E+00  0.0000E+00
      3.994  0.1969E-01  0.7643E-01  0.7643E-01  0.7643E-01  0.0000E+00  0.0000E+00  0.0000E+00  0.0000E+00  0.0000E+00
      4.008  0.1958E-01  0.7637E-01  0.7637E-01  0.7637E-01  0.0000E+00  0.0000E+00  0.0000E+00  0.0000E+00  0.0000E+00
      4.022  0.1946E-01  0.7633E-01  0.7633E-01  0.7633E-01  0.0000E+00  0.0000E+00  0.0000E+00  0.0000E+00  0.0000E+00
      4.036  0.1935E-01  0.7628E-01  0.7628E-01  0.7628E-01  0.0000E+00  0.0000E+00  0.0000E+00  0.0000E+00  0.0000E+00
      4.050  0.1923E-01  0.7624E-01  0.7624E-01  0.7624E-01  0.0000E+00  0.0000E+00  0.0000E+00  0.0000E+00  0.0000E+00
      4.064  0.1912E-01  0.7620E-01  0.7620E-01  0.7620E-01  0.0000E+00  0.0000E+00  0.0000E+00  0.0000E+00  0.0000E+00
      4.078  0.1901E-01  0.7616E-01  0.7616E-01  0.7616E-01  0.0000E+00  0.0000E+00  0.0000E+00  0.0000E+00  0.0000E+00
      4.092  0.1890E-01  0.7612E-01  0.7612E-01  0.7612E-01  0.0000E+00  0.0000E+00  0.0000E+00  0.0000E+00  0.0000E+00
      4.106  0.1878E-01  0.7609E-01  0.7609E-01  0.7609E-01  0.0000E+00  0.0000E+00  0.0000E+00  0.0000E+00  0.0000E+00
      4.120  0.1867E-01  0.7606E-01  0.7606E-01  0.7606E-01  0.0000E+00  0.0000E+00  0.0000E+00  0.0000E+00  0.0000E+00
      4.134  0.1856E-01  0.7603E-01  0.7603E-01  0.7603E-01  0.0000E+00  0.0000E+00  0.0000E+00  0.0000E+00  0.0000E+00
      4.148  0.1846E-01  0.7600E-01  0.7600E-01  0.7600E-01  0.0000E+00  0.0000E+00  0.0000E+00  0.0000E+00  0.0000E+00
      4.162  0.1835E-01  0.7598E-01  0.7598E-01  0.7598E-01  0.0000E+00  0.0000E+00  0.0000E+00  0.0000E+00  0.0000E+00
      4.176  0.1824E-01  0.7596E-01  0.7596E-01  0.7596E-01  0.0000E+00  0.0000E+00  0.0000E+00  0.0000E+00  0.0000E+00
      4.190  0.1813E-01  0.7594E-01  0.7594E-01  0.7594E-01  0.0000E+00  0.0000E+00  0.0000E+00  0.0000E+00  0.0000E+00
      4.204  0.1803E-01  0.7592E-01  0.7592E-01  0.7592E-01  0.0000E+00  0.0000E+00  0.0000E+00  0.0000E+00  0.0000E+00
      4.217  0.1792E-01  0.7591E-01  0.7591E-01  0.7591E-01  0.0000E+00  0.0000E+00  0.0000E+00  0.0000E+00  0.0000E+00
      4.231  0.1782E-01  0.7590E-01  0.7590E-01  0.7590E-01  0.0000E+00  0.0000E+00  0.0000E+00  0.0000E+00  0.0000E+00
      4.245  0.1771E-01  0.7589E-01  0.7589E-01  0.7589E-01  0.0000E+00  0.0000E+00  0.0000E+00  0.0000E+00  0.0000E+00
      4.259  0.1761E-01  0.7589E-01  0.7589E-01  0.7589E-01  0.0000E+00  0.0000E+00  0.0000E+00  0.0000E+00  0.0000E+00
      4.273  0.1751E-01  0.7588E-01  0.7588E-01  0.7588E-01  0.0000E+00  0.0000E+00  0.0000E+00  0.0000E+00  0.0000E+00
      4.287  0.1741E-01  0.7588E-01  0.7588E-01  0.7588E-01  0.0000E+00  0.0000E+00  0.0000E+00  0.0000E+00  0.0000E+00
      4.301  0.1731E-01  0.7589E-01  0.7589E-01  0.7589E-01  0.0000E+00  0.0000E+00  0.0000E+00  0.0000E+00  0.0000E+00
      4.315  0.1721E-01  0.7589E-01  0.7589E-01  0.7589E-01  0.0000E+00  0.0000E+00  0.0000E+00  0.0000E+00  0.0000E+00
      4.329  0.1711E-01  0.7606E-01  0.7606E-01  0.7606E-01  0.0000E+00  0.0000E+00  0.0000E+00  0.0000E+00  0.0000E+00
      4.343  0.1701E-01  0.7630E-01  0.7630E-01  0.7630E-01  0.0000E+00  0.0000E+00  0.0000E+00  0.0000E+00  0.0000E+00
      4.357  0.1693E-01  0.7656E-01  0.7656E-01  0.7656E-01  0.0000E+00  0.0000E+00  0.0000E+00  0.0000E+00  0.0000E+00
      4.371  0.1685E-01  0.7682E-01  0.7682E-01  0.7682E-01  0.0000E+00  0.0000E+00  0.0000E+00  0.0000E+00  0.0000E+00
      4.385  0.1677E-01  0.7706E-01  0.7706E-01  0.7706E-01  0.0000E+00  0.0000E+00  0.0000E+00  0.0000E+00  0.0000E+00
      4.399  0.1670E-01  0.7729E-01  0.7729E-01  0.7729E-01  0.0000E+00  0.0000E+00  0.0000E+00  0.0000E+00  0.0000E+00
      4.413  0.1662E-01  0.7751E-01  0.7751E-01  0.7751E-01  0.0000E+00  0.0000E+00  0.0000E+00  0.0000E+00  0.0000E+00
      4.427  0.1655E-01  0.7771E-01  0.7771E-01  0.7771E-01  0.0000E+00  0.0000E+00  0.0000E+00  0.0000E+00  0.0000E+00
      4.441  0.1648E-01  0.7791E-01  0.7791E-01  0.7791E-01  0.0000E+00  0.0000E+00  0.0000E+00  0.0000E+00  0.0000E+00
      4.455  0.1641E-01  0.7809E-01  0.7809E-01  0.7809E-01  0.0000E+00  0.0000E+00  0.0000E+00  0.0000E+00  0.0000E+00
      4.469  0.1634E-01  0.7826E-01  0.7826E-01  0.7826E-01  0.0000E+00  0.0000E+00  0.0000E+00  0.0000E+00  0.0000E+00
      4.483  0.1627E-01  0.7841E-01  0.7841E-01  0.7841E-01  0.0000E+00  0.0000E+00  0.0000E+00  0.0000E+00  0.0000E+00
      4.497  0.1621E-01  0.7856E-01  0.7856E-01  0.7856E-01  0.0000E+00  0.0000E+00  0.0000E+00  0.0000E+00  0.0000E+00
      4.511  0.1614E-01  0.7869E-01  0.7869E-01  0.7869E-01  0.0000E+00  0.0000E+00  0.0000E+00  0.0000E+00  0.0000E+00
      4.525  0.1608E-01  0.7882E-01  0.7882E-01  0.7882E-01  0.0000E+00  0.0000E+00  0.0000E+00  0.0000E+00  0.0000E+00
      4.539  0.1602E-01  0.7895E-01  0.7895E-01  0.7895E-01  0.0000E+00  0.0000E+00  0.0000E+00  0.0000E+00  0.0000E+00
      4.553  0.1596E-01  0.7908E-01  0.7908E-01  0.7908E-01  0.0000E+00  0.0000E+00  0.0000E+00  0.0000E+00  0.0000E+00
      4.567  0.1590E-01  0.7921E-01  0.7921E-01  0.7921E-01  0.0000E+00  0.0000E+00  0.0000E+00  0.0000E+00  0.0000E+00
      4.581  0.1583E-01  0.7932E-01  0.7932E-01  0.7932E-01  0.0000E+00  0.0000E+00  0.0000E+00  0.0000E+00  0.0000E+00
      4.595  0.1575E-01  0.7932E-01  0.7932E-01  0.7932E-01  0.0000E+00  0.0000E+00  0.0000E+00  0.0000E+00  0.0000E+00
      4.609  0.1566E-01  0.7932E-01  0.7932E-01  0.7932E-01  0.0000E+00  0.0000E+00  0.0000E+00  0.0000E+00  0.0000E+00
      4.623  0.1558E-01  0.7932E-01  0.7932E-01  0.7932E-01  0.0000E+00  0.0000E+00  0.0000E+00  0.0000E+00  0.0000E+00
      4.637  0.1550E-01  0.7931E-01  0.7931E-01  0.7931E-01  0.0000E+00  0.0000E+00  0.0000E+00  0.0000E+00  0.0000E+00
      4.651  0.1542E-01  0.7930E-01  0.7930E-01  0.7930E-01  0.0000E+00  0.0000E+00  0.0000E+00  0.0000E+00  0.0000E+00
      4.665  0.1534E-01  0.7928E-01  0.7928E-01  0.7928E-01  0.0000E+00  0.0000E+00  0.0000E+00  0.0000E+00  0.0000E+00
      4.679  0.1526E-01  0.7926E-01  0.7926E-01  0.7926E-01  0.0000E+00  0.0000E+00  0.0000E+00  0.0000E+00  0.0000E+00
      4.693  0.1519E-01  0.7924E-01  0.7924E-01  0.7924E-01  0.0000E+00  0.0000E+00  0.0000E+00  0.0000E+00  0.0000E+00
      4.707  0.1511E-01  0.7921E-01  0.7921E-01  0.7921E-01  0.0000E+00  0.0000E+00  0.0000E+00  0.0000E+00  0.0000E+00
      4.721  0.1504E-01  0.7918E-01  0.7918E-01  0.7918E-01  0.0000E+00  0.0000E+00  0.0000E+00  0.0000E+00  0.0000E+00
      4.735  0.1497E-01  0.7914E-01  0.7914E-01  0.7914E-01  0.0000E+00  0.0000E+00  0.0000E+00  0.0000E+00  0.0000E+00
      4.749  0.1489E-01  0.7910E-01  0.7910E-01  0.7910E-01  0.0000E+00  0.0000E+00  0.0000E+00  0.0000E+00  0.0000E+00
      4.763  0.1482E-01  0.7905E-01  0.7905E-01  0.7905E-01  0.0000E+00  0.0000E+00  0.0000E+00  0.0000E+00  0.0000E+00
      4.777  0.1475E-01  0.7900E-01  0.7900E-01  0.7900E-01  0.0000E+00  0.0000E+00  0.0000E+00  0.0000E+00  0.0000E+00
      4.791  0.1469E-01  0.7896E-01  0.7896E-01  0.7896E-01  0.0000E+00  0.0000E+00  0.0000E+00  0.0000E+00  0.0000E+00
      4.805  0.1462E-01  0.7890E-01  0.7890E-01  0.7890E-01  0.0000E+00  0.0000E+00  0.0000E+00  0.0000E+00  0.0000E+00
      4.818  0.1455E-01  0.7885E-01  0.7885E-01  0.7885E-01  0.0000E+00  0.0000E+00  0.0000E+00  0.0000E+00  0.0000E+00
      4.832  0.1449E-01  0.7879E-01  0.7879E-01  0.7879E-01  0.0000E+00  0.0000E+00  0.0000E+00  0.0000E+00  0.0000E+00
      4.846  0.1442E-01  0.7872E-01  0.7872E-01  0.7872E-01  0.0000E+00  0.0000E+00  0.0000E+00  0.0000E+00  0.0000E+00
      4.860  0.1436E-01  0.7865E-01  0.7865E-01  0.7865E-01  0.0000E+00  0.0000E+00  0.0000E+00  0.0000E+00  0.0000E+00
      4.874  0.1430E-01  0.7858E-01  0.7858E-01  0.7858E-01  0.0000E+00  0.0000E+00  0.0000E+00  0.0000E+00  0.0000E+00
      4.888  0.1423E-01  0.7850E-01  0.7850E-01  0.7850E-01  0.0000E+00  0.0000E+00  0.0000E+00  0.0000E+00  0.0000E+00
      4.902  0.1417E-01  0.7842E-01  0.7842E-01  0.7842E-01  0.0000E+00  0.0000E+00  0.0000E+00  0.0000E+00  0.0000E+00
      4.916  0.1412E-01  0.7833E-01  0.7833E-01  0.7833E-01  0.0000E+00  0.0000E+00  0.0000E+00  0.0000E+00  0.0000E+00
      4.930  0.1406E-01  0.7824E-01  0.7824E-01  0.7824E-01  0.0000E+00  0.0000E+00  0.0000E+00  0.0000E+00  0.0000E+00
      4.944  0.1400E-01  0.7816E-01  0.7816E-01  0.7816E-01  0.0000E+00  0.0000E+00  0.0000E+00  0.0000E+00  0.0000E+00
      4.958  0.1394E-01  0.7806E-01  0.7806E-01  0.7806E-01  0.0000E+00  0.0000E+00  0.0000E+00  0.0000E+00  0.0000E+00
      4.972  0.1389E-01  0.7797E-01  0.7797E-01  0.7797E-01  0.0000E+00  0.0000E+00  0.0000E+00  0.0000E+00  0.0000E+00
      4.986  0.1383E-01  0.7787E-01  0.7787E-01  0.7787E-01  0.0000E+00  0.0000E+00  0.0000E+00  0.0000E+00  0.0000E+00
      5.000  0.1378E-01  0.7777E-01  0.7777E-01  0.7777E-01  0.0000E+00  0.0000E+00  0.0000E+00  0.0000E+00  0.0000E+00
      5.014  0.1372E-01  0.7768E-01  0.7768E-01  0.7768E-01  0.0000E+00  0.0000E+00  0.0000E+00  0.0000E+00  0.0000E+00
      5.028  0.1367E-01  0.7758E-01  0.7758E-01  0.7758E-01  0.0000E+00  0.0000E+00  0.0000E+00  0.0000E+00  0.0000E+00
      5.042  0.1361E-01  0.7747E-01  0.7747E-01  0.7747E-01  0.0000E+00  0.0000E+00  0.0000E+00  0.0000E+00  0.0000E+00
      5.056  0.1356E-01  0.7737E-01  0.7737E-01  0.7737E-01  0.0000E+00  0.0000E+00  0.0000E+00  0.0000E+00  0.0000E+00
      5.070  0.1351E-01  0.7727E-01  0.7727E-01  0.7727E-01  0.0000E+00  0.0000E+00  0.0000E+00  0.0000E+00  0.0000E+00
      5.084  0.1345E-01  0.7716E-01  0.7716E-01  0.7716E-01  0.0000E+00  0.0000E+00  0.0000E+00  0.0000E+00  0.0000E+00
      5.098  0.1340E-01  0.7706E-01  0.7706E-01  0.7706E-01  0.0000E+00  0.0000E+00  0.0000E+00  0.0000E+00  0.0000E+00
      5.112  0.1335E-01  0.7695E-01  0.7695E-01  0.7695E-01  0.0000E+00  0.0000E+00  0.0000E+00  0.0000E+00  0.0000E+00
      5.126  0.1330E-01  0.7684E-01  0.7684E-01  0.7684E-01  0.0000E+00  0.0000E+00  0.0000E+00  0.0000E+00  0.0000E+00
      5.140  0.1325E-01  0.7673E-01  0.7673E-01  0.7673E-01  0.0000E+00  0.0000E+00  0.0000E+00  0.0000E+00  0.0000E+00
      5.154  0.1320E-01  0.7662E-01  0.7662E-01  0.7662E-01  0.0000E+00  0.0000E+00  0.0000E+00  0.0000E+00  0.0000E+00
      5.168  0.1315E-01  0.7650E-01  0.7650E-01  0.7650E-01  0.0000E+00  0.0000E+00  0.0000E+00  0.0000E+00  0.0000E+00
      5.182  0.1310E-01  0.7639E-01  0.7639E-01  0.7639E-01  0.0000E+00  0.0000E+00  0.0000E+00  0.0000E+00  0.0000E+00
      5.196  0.1305E-01  0.7627E-01  0.7627E-01  0.7627E-01  0.0000E+00  0.0000E+00  0.0000E+00  0.0000E+00  0.0000E+00
      5.210  0.1300E-01  0.7616E-01  0.7616E-01  0.7616E-01  0.0000E+00  0.0000E+00  0.0000E+00  0.0000E+00  0.0000E+00
      5.224  0.1295E-01  0.7604E-01  0.7604E-01  0.7604E-01  0.0000E+00  0.0000E+00  0.0000E+00  0.0000E+00  0.0000E+00
      5.238  0.1290E-01  0.7592E-01  0.7592E-01  0.7592E-01  0.0000E+00  0.0000E+00  0.0000E+00  0.0000E+00  0.0000E+00
      5.252  0.1285E-01  0.7580E-01  0.7580E-01  0.7580E-01  0.0000E+00  0.0000E+00  0.0000E+00  0.0000E+00  0.0000E+00
      5.266  0.1280E-01  0.7568E-01  0.7568E-01  0.7568E-01  0.0000E+00  0.0000E+00  0.0000E+00  0.0000E+00  0.0000E+00
      5.280  0.1276E-01  0.7556E-01  0.7556E-01  0.7556E-01  0.0000E+00  0.0000E+00  0.0000E+00  0.0000E+00  0.0000E+00
      5.294  0.1271E-01  0.7545E-01  0.7545E-01  0.7545E-01  0.0000E+00  0.0000E+00  0.0000E+00  0.0000E+00  0.0000E+00
      5.308  0.1266E-01  0.7536E-01  0.7536E-01  0.7536E-01  0.0000E+00  0.0000E+00  0.0000E+00  0.0000E+00  0.0000E+00
      5.322  0.1261E-01  0.7529E-01  0.7529E-01  0.7529E-01  0.0000E+00  0.0000E+00  0.0000E+00  0.0000E+00  0.0000E+00
      5.336  0.1257E-01  0.7524E-01  0.7524E-01  0.7524E-01  0.0000E+00  0.0000E+00  0.0000E+00  0.0000E+00  0.0000E+00
      5.350  0.1252E-01  0.7519E-01  0.7519E-01  0.7519E-01  0.0000E+00  0.0000E+00  0.0000E+00  0.0000E+00  0.0000E+00
      5.364  0.1247E-01  0.7515E-01  0.7515E-01  0.7515E-01  0.0000E+00  0.0000E+00  0.0000E+00  0.0000E+00  0.0000E+00
      5.378  0.1243E-01  0.7512E-01  0.7512E-01  0.7512E-01  0.0000E+00  0.0000E+00  0.0000E+00  0.0000E+00  0.0000E+00
      5.392  0.1238E-01  0.7510E-01  0.7510E-01  0.7510E-01  0.0000E+00  0.0000E+00  0.0000E+00  0.0000E+00  0.0000E+00
      5.406  0.1234E-01  0.7508E-01  0.7508E-01  0.7508E-01  0.0000E+00  0.0000E+00  0.0000E+00  0.0000E+00  0.0000E+00
      5.419  0.1229E-01  0.7507E-01  0.7507E-01  0.7507E-01  0.0000E+00  0.0000E+00  0.0000E+00  0.0000E+00  0.0000E+00
      5.433  0.1225E-01  0.7506E-01  0.7506E-01  0.7506E-01  0.0000E+00  0.0000E+00  0.0000E+00  0.0000E+00  0.0000E+00
      5.447  0.1220E-01  0.7506E-01  0.7506E-01  0.7506E-01  0.0000E+00  0.0000E+00  0.0000E+00  0.0000E+00  0.0000E+00
      5.461  0.1215E-01  0.7508E-01  0.7508E-01  0.7508E-01  0.0000E+00  0.0000E+00  0.0000E+00  0.0000E+00  0.0000E+00
      5.475  0.1211E-01  0.7512E-01  0.7512E-01  0.7512E-01  0.0000E+00  0.0000E+00  0.0000E+00  0.0000E+00  0.0000E+00
      5.489  0.1206E-01  0.7518E-01  0.7518E-01  0.7518E-01  0.0000E+00  0.0000E+00  0.0000E+00  0.0000E+00  0.0000E+00
      5.503  0.1202E-01  0.7526E-01  0.7526E-01  0.7526E-01  0.0000E+00  0.0000E+00  0.0000E+00  0.0000E+00  0.0000E+00
      5.517  0.1197E-01  0.7537E-01  0.7537E-01  0.7537E-01  0.0000E+00  0.0000E+00  0.0000E+00  0.0000E+00  0.0000E+00
      5.531  0.1193E-01  0.7550E-01  0.7550E-01  0.7550E-01  0.0000E+00  0.0000E+00  0.0000E+00  0.0000E+00  0.0000E+00
      5.545  0.1188E-01  0.7565E-01  0.7565E-01  0.7565E-01  0.0000E+00  0.0000E+00  0.0000E+00  0.0000E+00  0.0000E+00
      5.559  0.1184E-01  0.7583E-01  0.7583E-01  0.7583E-01  0.0000E+00  0.0000E+00  0.0000E+00  0.0000E+00  0.0000E+00
      5.573  0.1179E-01  0.7603E-01  0.7603E-01  0.7603E-01  0.0000E+00  0.0000E+00  0.0000E+00  0.0000E+00  0.0000E+00
      5.587  0.1175E-01  0.7625E-01  0.7625E-01  0.7625E-01  0.0000E+00  0.0000E+00  0.0000E+00  0.0000E+00  0.0000E+00
      5.601  0.1170E-01  0.7649E-01  0.7649E-01  0.7649E-01  0.0000E+00  0.0000E+00  0.0000E+00  0.0000E+00  0.0000E+00
      5.615  0.1166E-01  0.7676E-01  0.7676E-01  0.7676E-01  0.0000E+00  0.0000E+00  0.0000E+00  0.0000E+00  0.0000E+00
      5.629  0.1161E-01  0.7706E-01  0.7706E-01  0.7706E-01  0.0000E+00  0.0000E+00  0.0000E+00  0.0000E+00  0.0000E+00
      5.643  0.1157E-01  0.7736E-01  0.7736E-01  0.7736E-01  0.0000E+00  0.0000E+00  0.0000E+00  0.0000E+00  0.0000E+00
      5.657  0.1152E-01  0.7763E-01  0.7763E-01  0.7763E-01  0.0000E+00  0.0000E+00  0.0000E+00  0.0000E+00  0.0000E+00
      5.671  0.1148E-01  0.7763E-01  0.7763E-01  0.7763E-01  0.0000E+00  0.0000E+00  0.0000E+00  0.0000E+00  0.0000E+00
      5.685  0.1143E-01  0.7765E-01  0.7765E-01  0.7765E-01  0.0000E+00  0.0000E+00  0.0000E+00  0.0000E+00  0.0000E+00
      5.699  0.1138E-01  0.7769E-01  0.7769E-01  0.7769E-01  0.0000E+00  0.0000E+00  0.0000E+00  0.0000E+00  0.0000E+00
      5.713  0.1134E-01  0.7774E-01  0.7774E-01  0.7774E-01  0.0000E+00  0.0000E+00  0.0000E+00  0.0000E+00  0.0000E+00
      5.727  0.1129E-01  0.7781E-01  0.7781E-01  0.7781E-01  0.0000E+00  0.0000E+00  0.0000E+00  0.0000E+00  0.0000E+00
      5.741  0.1124E-01  0.7789E-01  0.7789E-01  0.7789E-01  0.0000E+00  0.0000E+00  0.0000E+00  0.0000E+00  0.0000E+00
      5.755  0.1119E-01  0.7800E-01  0.7800E-01  0.7800E-01  0.0000E+00  0.0000E+00  0.0000E+00  0.0000E+00  0.0000E+00
      5.769  0.1114E-01  0.7812E-01  0.7812E-01  0.7812E-01  0.0000E+00  0.0000E+00  0.0000E+00  0.0000E+00  0.0000E+00
      5.783  0.1109E-01  0.7825E-01  0.7825E-01  0.7825E-01  0.0000E+00  0.0000E+00  0.0000E+00  0.0000E+00  0.0000E+00
      5.797  0.1103E-01  0.7840E-01  0.7840E-01  0.7840E-01  0.0000E+00  0.0000E+00  0.0000E+00  0.0000E+00  0.0000E+00
      5.811  0.1098E-01  0.7855E-01  0.7855E-01  0.7855E-01  0.0000E+00  0.0000E+00  0.0000E+00  0.0000E+00  0.0000E+00
      5.825  0.1093E-01  0.7872E-01  0.7872E-01  0.7872E-01  0.0000E+00  0.0000E+00  0.0000E+00  0.0000E+00  0.0000E+00
      5.839  0.1087E-01  0.7889E-01  0.7889E-01  0.7889E-01  0.0000E+00  0.0000E+00  0.0000E+00  0.0000E+00  0.0000E+00
      5.853  0.1082E-01  0.7907E-01  0.7907E-01  0.7907E-01  0.0000E+00  0.0000E+00  0.0000E+00  0.0000E+00  0.0000E+00
      5.867  0.1077E-01  0.7926E-01  0.7926E-01  0.7926E-01  0.0000E+00  0.0000E+00  0.0000E+00  0.0000E+00  0.0000E+00
      5.881  0.1072E-01  0.7946E-01  0.7946E-01  0.7946E-01  0.0000E+00  0.0000E+00  0.0000E+00  0.0000E+00  0.0000E+00
      5.895  0.1066E-01  0.7966E-01  0.7966E-01  0.7966E-01  0.0000E+00  0.0000E+00  0.0000E+00  0.0000E+00  0.0000E+00
      5.909  0.1056E-01  0.7981E-01  0.7981E-01  0.7981E-01  0.0000E+00  0.0000E+00  0.0000E+00  0.0000E+00  0.0000E+00
      5.923  0.1046E-01  0.7996E-01  0.7996E-01  0.7996E-01  0.0000E+00  0.0000E+00  0.0000E+00  0.0000E+00  0.0000E+00
      5.937  0.1035E-01  0.8012E-01  0.8012E-01  0.8012E-01  0.0000E+00  0.0000E+00  0.0000E+00  0.0000E+00  0.0000E+00
      5.951  0.1025E-01  0.8029E-01  0.8029E-01  0.8029E-01  0.0000E+00  0.0000E+00  0.0000E+00  0.0000E+00  0.0000E+00
      5.965  0.1015E-01  0.8031E-01  0.8031E-01  0.8031E-01  0.0000E+00  0.0000E+00  0.0000E+00  0.0000E+00  0.0000E+00
      5.979  0.1004E-01  0.8021E-01  0.8021E-01  0.8021E-01  0.0000E+00  0.0000E+00  0.0000E+00  0.0000E+00  0.0000E+00
      5.993  0.9941E-02  0.8010E-01  0.8010E-01  0.8010E-01  0.0000E+00  0.0000E+00  0.0000E+00  0.0000E+00  0.0000E+00
      6.007  0.9841E-02  0.7998E-01  0.7998E-01  0.7998E-01  0.0000E+00  0.0000E+00  0.0000E+00  0.0000E+00  0.0000E+00
      6.020  0.9739E-02  0.7985E-01  0.7985E-01  0.7985E-01  0.0000E+00  0.0000E+00  0.0000E+00  0.0000E+00  0.0000E+00
      6.034  0.9635E-02  0.7972E-01  0.7972E-01  0.7972E-01  0.0000E+00  0.0000E+00  0.0000E+00  0.0000E+00  0.0000E+00
      6.048  0.9534E-02  0.7958E-01  0.7958E-01  0.7958E-01  0.0000E+00  0.0000E+00  0.0000E+00  0.0000E+00  0.0000E+00
      6.062  0.9434E-02  0.7944E-01  0.7944E-01  0.7944E-01  0.0000E+00  0.0000E+00  0.0000E+00  0.0000E+00  0.0000E+00
      6.076  0.9336E-02  0.7930E-01  0.7930E-01  0.7930E-01  0.0000E+00  0.0000E+00  0.0000E+00  0.0000E+00  0.0000E+00
      6.090  0.9239E-02  0.7915E-01  0.7915E-01  0.7915E-01  0.0000E+00  0.0000E+00  0.0000E+00  0.0000E+00  0.0000E+00
      6.104  0.9144E-02  0.7900E-01  0.7900E-01  0.7900E-01  0.0000E+00  0.0000E+00  0.0000E+00  0.0000E+00  0.0000E+00
      6.118  0.9051E-02  0.7884E-01  0.7884E-01  0.7884E-01  0.0000E+00  0.0000E+00  0.0000E+00  0.0000E+00  0.0000E+00
      6.132  0.8960E-02  0.7868E-01  0.7868E-01  0.7868E-01  0.0000E+00  0.0000E+00  0.0000E+00  0.0000E+00  0.0000E+00
      6.146  0.8871E-02  0.7852E-01  0.7852E-01  0.7852E-01  0.0000E+00  0.0000E+00  0.0000E+00  0.0000E+00  0.0000E+00
      6.160  0.8783E-02  0.7835E-01  0.7835E-01  0.7835E-01  0.0000E+00  0.0000E+00  0.0000E+00  0.0000E+00  0.0000E+00
      6.174  0.8697E-02  0.7818E-01  0.7818E-01  0.7818E-01  0.0000E+00  0.0000E+00  0.0000E+00  0.0000E+00  0.0000E+00
      6.188  0.8613E-02  0.7800E-01  0.7800E-01  0.7800E-01  0.0000E+00  0.0000E+00  0.0000E+00  0.0000E+00  0.0000E+00
      6.202  0.8530E-02  0.7782E-01  0.7782E-01  0.7782E-01  0.0000E+00  0.0000E+00  0.0000E+00  0.0000E+00  0.0000E+00
      6.216  0.8449E-02  0.7764E-01  0.7764E-01  0.7764E-01  0.0000E+00  0.0000E+00  0.0000E+00  0.0000E+00  0.0000E+00
      6.230  0.8370E-02  0.7745E-01  0.7745E-01  0.7745E-01  0.0000E+00  0.0000E+00  0.0000E+00  0.0000E+00  0.0000E+00
      6.244  0.8293E-02  0.7726E-01  0.7726E-01  0.7726E-01  0.0000E+00  0.0000E+00  0.0000E+00  0.0000E+00  0.0000E+00
      6.258  0.8217E-02  0.7706E-01  0.7706E-01  0.7706E-01  0.0000E+00  0.0000E+00  0.0000E+00  0.0000E+00  0.0000E+00
      6.272  0.8144E-02  0.7686E-01  0.7686E-01  0.7686E-01  0.0000E+00  0.0000E+00  0.0000E+00  0.0000E+00  0.0000E+00
      6.286  0.8068E-02  0.7662E-01  0.7662E-01  0.7662E-01  0.0000E+00  0.0000E+00  0.0000E+00  0.0000E+00  0.0000E+00
      6.300  0.7992E-02  0.7636E-01  0.7636E-01  0.7636E-01  0.0000E+00  0.0000E+00  0.0000E+00  0.0000E+00  0.0000E+00
      6.314  0.7918E-02  0.7610E-01  0.7610E-01  0.7610E-01  0.0000E+00  0.0000E+00  0.0000E+00  0.0000E+00  0.0000E+00
      6.328  0.7847E-02  0.7583E-01  0.7583E-01  0.7583E-01  0.0000E+00  0.0000E+00  0.0000E+00  0.0000E+00  0.0000E+00
      6.342  0.7777E-02  0.7555E-01  0.7555E-01  0.7555E-01  0.0000E+00  0.0000E+00  0.0000E+00  0.0000E+00  0.0000E+00
      6.356  0.7709E-02  0.7527E-01  0.7527E-01  0.7527E-01  0.0000E+00  0.0000E+00  0.0000E+00  0.0000E+00  0.0000E+00
      6.370  0.7644E-02  0.7498E-01  0.7498E-01  0.7498E-01  0.0000E+00  0.0000E+00  0.0000E+00  0.0000E+00  0.0000E+00
      6.384  0.7580E-02  0.7485E-01  0.7485E-01  0.7485E-01  0.0000E+00  0.0000E+00  0.0000E+00  0.0000E+00  0.0000E+00
      6.398  0.7518E-02  0.7485E-01  0.7485E-01  0.7485E-01  0.0000E+00  0.0000E+00  0.0000E+00  0.0000E+00  0.0000E+00
      6.412  0.7457E-02  0.7484E-01  0.7484E-01  0.7484E-01  0.0000E+00  0.0000E+00  0.0000E+00  0.0000E+00  0.0000E+00
      6.426  0.7398E-02  0.7482E-01  0.7482E-01  0.7482E-01  0.0000E+00  0.0000E+00  0.0000E+00  0.0000E+00  0.0000E+00
      6.440  0.7341E-02  0.7480E-01  0.7480E-01  0.7480E-01  0.0000E+00  0.0000E+00  0.0000E+00  0.0000E+00  0.0000E+00
      6.454  0.7286E-02  0.7476E-01  0.7476E-01  0.7476E-01  0.0000E+00  0.0000E+00  0.0000E+00  0.0000E+00  0.0000E+00
      6.468  0.7231E-02  0.7471E-01  0.7471E-01  0.7471E-01  0.0000E+00  0.0000E+00  0.0000E+00  0.0000E+00  0.0000E+00
      6.482  0.7177E-02  0.7465E-01  0.7465E-01  0.7465E-01  0.0000E+00  0.0000E+00  0.0000E+00  0.0000E+00  0.0000E+00
      6.496  0.7125E-02  0.7458E-01  0.7458E-01  0.7458E-01  0.0000E+00  0.0000E+00  0.0000E+00  0.0000E+00  0.0000E+00
      6.510  0.7073E-02  0.7450E-01  0.7450E-01  0.7450E-01  0.0000E+00  0.0000E+00  0.0000E+00  0.0000E+00  0.0000E+00
      6.524  0.7022E-02  0.7440E-01  0.7440E-01  0.7440E-01  0.0000E+00  0.0000E+00  0.0000E+00  0.0000E+00  0.0000E+00
      6.538  0.6972E-02  0.7430E-01  0.7430E-01  0.7430E-01  0.0000E+00  0.0000E+00  0.0000E+00  0.0000E+00  0.0000E+00
      6.552  0.6923E-02  0.7419E-01  0.7419E-01  0.7419E-01  0.0000E+00  0.0000E+00  0.0000E+00  0.0000E+00  0.0000E+00
      6.566  0.6875E-02  0.7406E-01  0.7406E-01  0.7406E-01  0.0000E+00  0.0000E+00  0.0000E+00  0.0000E+00  0.0000E+00
      6.580  0.6828E-02  0.7392E-01  0.7392E-01  0.7392E-01  0.0000E+00  0.0000E+00  0.0000E+00  0.0000E+00  0.0000E+00
      6.594  0.6782E-02  0.7377E-01  0.7377E-01  0.7377E-01  0.0000E+00  0.0000E+00  0.0000E+00  0.0000E+00  0.0000E+00
      6.608  0.6736E-02  0.7358E-01  0.7358E-01  0.7358E-01  0.0000E+00  0.0000E+00  0.0000E+00  0.0000E+00  0.0000E+00
      6.621  0.6690E-02  0.7335E-01  0.7335E-01  0.7335E-01  0.0000E+00  0.0000E+00  0.0000E+00  0.0000E+00  0.0000E+00
      6.635  0.6645E-02  0.7307E-01  0.7307E-01  0.7307E-01  0.0000E+00  0.0000E+00  0.0000E+00  0.0000E+00  0.0000E+00
      6.649  0.6600E-02  0.7276E-01  0.7276E-01  0.7276E-01  0.0000E+00  0.0000E+00  0.0000E+00  0.0000E+00  0.0000E+00
      6.663  0.6554E-02  0.7240E-01  0.7240E-01  0.7240E-01  0.0000E+00  0.0000E+00  0.0000E+00  0.0000E+00  0.0000E+00
      6.677  0.6509E-02  0.7199E-01  0.7199E-01  0.7199E-01  0.0000E+00  0.0000E+00  0.0000E+00  0.0000E+00  0.0000E+00
      6.691  0.6465E-02  0.7154E-01  0.7154E-01  0.7154E-01  0.0000E+00  0.0000E+00  0.0000E+00  0.0000E+00  0.0000E+00
      6.705  0.6420E-02  0.7104E-01  0.7104E-01  0.7104E-01  0.0000E+00  0.0000E+00  0.0000E+00  0.0000E+00  0.0000E+00
      6.719  0.6375E-02  0.7049E-01  0.7049E-01  0.7049E-01  0.0000E+00  0.0000E+00  0.0000E+00  0.0000E+00  0.0000E+00
      6.733  0.6331E-02  0.6989E-01  0.6989E-01  0.6989E-01  0.0000E+00  0.0000E+00  0.0000E+00  0.0000E+00  0.0000E+00
      6.747  0.6286E-02  0.6925E-01  0.6925E-01  0.6925E-01  0.0000E+00  0.0000E+00  0.0000E+00  0.0000E+00  0.0000E+00
      6.761  0.6240E-02  0.6857E-01  0.6857E-01  0.6857E-01  0.0000E+00  0.0000E+00  0.0000E+00  0.0000E+00  0.0000E+00
      6.775  0.6193E-02  0.6784E-01  0.6784E-01  0.6784E-01  0.0000E+00  0.0000E+00  0.0000E+00  0.0000E+00  0.0000E+00
      6.789  0.6146E-02  0.6707E-01  0.6707E-01  0.6707E-01  0.0000E+00  0.0000E+00  0.0000E+00  0.0000E+00  0.0000E+00
      6.803  0.6100E-02  0.6618E-01  0.6618E-01  0.6618E-01  0.0000E+00  0.0000E+00  0.0000E+00  0.0000E+00  0.0000E+00
      6.817  0.6054E-02  0.6514E-01  0.6514E-01  0.6514E-01  0.0000E+00  0.0000E+00  0.0000E+00  0.0000E+00  0.0000E+00
      6.831  0.6009E-02  0.6397E-01  0.6397E-01  0.6397E-01  0.0000E+00  0.0000E+00  0.0000E+00  0.0000E+00  0.0000E+00
      6.845  0.5965E-02  0.6264E-01  0.6264E-01  0.6264E-01  0.0000E+00  0.0000E+00  0.0000E+00  0.0000E+00  0.0000E+00
      6.859  0.5921E-02  0.6118E-01  0.6118E-01  0.6118E-01  0.0000E+00  0.0000E+00  0.0000E+00  0.0000E+00  0.0000E+00
      6.873  0.5880E-02  0.5966E-01  0.5966E-01  0.5966E-01  0.0000E+00  0.0000E+00  0.0000E+00  0.0000E+00  0.0000E+00
      6.887  0.5840E-02  0.5824E-01  0.5824E-01  0.5824E-01  0.0000E+00  0.0000E+00  0.0000E+00  0.0000E+00  0.0000E+00
      6.901  0.5801E-02  0.5691E-01  0.5691E-01  0.5691E-01  0.0000E+00  0.0000E+00  0.0000E+00  0.0000E+00  0.0000E+00
      6.915  0.5763E-02  0.5567E-01  0.5567E-01  0.5567E-01  0.0000E+00  0.0000E+00  0.0000E+00  0.0000E+00  0.0000E+00
      6.929  0.5726E-02  0.5454E-01  0.5454E-01  0.5454E-01  0.0000E+00  0.0000E+00  0.0000E+00  0.0000E+00  0.0000E+00
      6.943  0.5691E-02  0.5349E-01  0.5349E-01  0.5349E-01  0.0000E+00  0.0000E+00  0.0000E+00  0.0000E+00  0.0000E+00
      6.957  0.5656E-02  0.5254E-01  0.5254E-01  0.5254E-01  0.0000E+00  0.0000E+00  0.0000E+00  0.0000E+00  0.0000E+00
      6.971  0.5623E-02  0.5169E-01  0.5169E-01  0.5169E-01  0.0000E+00  0.0000E+00  0.0000E+00  0.0000E+00  0.0000E+00
      6.985  0.5591E-02  0.5093E-01  0.5093E-01  0.5093E-01  0.0000E+00  0.0000E+00  0.0000E+00  0.0000E+00  0.0000E+00
      6.999  0.5560E-02  0.5027E-01  0.5027E-01  0.5027E-01  0.0000E+00  0.0000E+00  0.0000E+00  0.0000E+00  0.0000E+00
      7.013  0.5530E-02  0.4970E-01  0.4970E-01  0.4970E-01  0.0000E+00  0.0000E+00  0.0000E+00  0.0000E+00  0.0000E+00
      7.027  0.5501E-02  0.4923E-01  0.4923E-01  0.4923E-01  0.0000E+00  0.0000E+00  0.0000E+00  0.0000E+00  0.0000E+00
      7.041  0.5474E-02  0.4884E-01  0.4884E-01  0.4884E-01  0.0000E+00  0.0000E+00  0.0000E+00  0.0000E+00  0.0000E+00
      7.055  0.5446E-02  0.4847E-01  0.4847E-01  0.4847E-01  0.0000E+00  0.0000E+00  0.0000E+00  0.0000E+00  0.0000E+00
      7.069  0.5417E-02  0.4810E-01  0.4810E-01  0.4810E-01  0.0000E+00  0.0000E+00  0.0000E+00  0.0000E+00  0.0000E+00
      7.083  0.5388E-02  0.4773E-01  0.4773E-01  0.4773E-01  0.0000E+00  0.0000E+00  0.0000E+00  0.0000E+00  0.0000E+00
      7.097  0.5358E-02  0.4736E-01  0.4736E-01  0.4736E-01  0.0000E+00  0.0000E+00  0.0000E+00  0.0000E+00  0.0000E+00
      7.111  0.5328E-02  0.4698E-01  0.4698E-01  0.4698E-01  0.0000E+00  0.0000E+00  0.0000E+00  0.0000E+00  0.0000E+00
      7.125  0.5298E-02  0.4661E-01  0.4661E-01  0.4661E-01  0.0000E+00  0.0000E+00  0.0000E+00  0.0000E+00  0.0000E+00
      7.139  0.5267E-02  0.4624E-01  0.4624E-01  0.4624E-01  0.0000E+00  0.0000E+00  0.0000E+00  0.0000E+00  0.0000E+00
      7.153  0.5235E-02  0.4587E-01  0.4587E-01  0.4587E-01  0.0000E+00  0.0000E+00  0.0000E+00  0.0000E+00  0.0000E+00
      7.167  0.5203E-02  0.4550E-01  0.4550E-01  0.4550E-01  0.0000E+00  0.0000E+00  0.0000E+00  0.0000E+00  0.0000E+00
      7.181  0.5171E-02  0.4513E-01  0.4513E-01  0.4513E-01  0.0000E+00  0.0000E+00  0.0000E+00  0.0000E+00  0.0000E+00
      7.195  0.5138E-02  0.4476E-01  0.4476E-01  0.4476E-01  0.0000E+00  0.0000E+00  0.0000E+00  0.0000E+00  0.0000E+00
      7.209  0.5104E-02  0.4439E-01  0.4439E-01  0.4439E-01  0.0000E+00  0.0000E+00  0.0000E+00  0.0000E+00  0.0000E+00
      7.222  0.5070E-02  0.4401E-01  0.4401E-01  0.4401E-01  0.0000E+00  0.0000E+00  0.0000E+00  0.0000E+00  0.0000E+00
      7.236  0.5036E-02  0.4364E-01  0.4364E-01  0.4364E-01  0.0000E+00  0.0000E+00  0.0000E+00  0.0000E+00  0.0000E+00
      7.250  0.5000E-02  0.4327E-01  0.4327E-01  0.4327E-01  0.0000E+00  0.0000E+00  0.0000E+00  0.0000E+00  0.0000E+00
      7.264  0.4965E-02  0.4290E-01  0.4290E-01  0.4290E-01  0.0000E+00  0.0000E+00  0.0000E+00  0.0000E+00  0.0000E+00
      7.278  0.4929E-02  0.4253E-01  0.4253E-01  0.4253E-01  0.0000E+00  0.0000E+00  0.0000E+00  0.0000E+00  0.0000E+00
      7.292  0.4892E-02  0.4216E-01  0.4216E-01  0.4216E-01  0.0000E+00  0.0000E+00  0.0000E+00  0.0000E+00  0.0000E+00
      7.306  0.4855E-02  0.4179E-01  0.4179E-01  0.4179E-01  0.0000E+00  0.0000E+00  0.0000E+00  0.0000E+00  0.0000E+00
      7.320  0.4818E-02  0.4142E-01  0.4142E-01  0.4142E-01  0.0000E+00  0.0000E+00  0.0000E+00  0.0000E+00  0.0000E+00
      7.334  0.4780E-02  0.4105E-01  0.4105E-01  0.4105E-01  0.0000E+00  0.0000E+00  0.0000E+00  0.0000E+00  0.0000E+00
      7.348  0.4741E-02  0.4070E-01  0.4070E-01  0.4070E-01  0.0000E+00  0.0000E+00  0.0000E+00  0.0000E+00  0.0000E+00
      7.362  0.4700E-02  0.4039E-01  0.4039E-01  0.4039E-01  0.0000E+00  0.0000E+00  0.0000E+00  0.0000E+00  0.0000E+00
      7.376  0.4659E-02  0.4010E-01  0.4010E-01  0.4010E-01  0.0000E+00  0.0000E+00  0.0000E+00  0.0000E+00  0.0000E+00
      7.390  0.4617E-02  0.3986E-01  0.3986E-01  0.3986E-01  0.0000E+00  0.0000E+00  0.0000E+00  0.0000E+00  0.0000E+00
      7.404  0.4573E-02  0.3964E-01  0.3964E-01  0.3964E-01  0.0000E+00  0.0000E+00  0.0000E+00  0.0000E+00  0.0000E+00
      7.418  0.4529E-02  0.3946E-01  0.3946E-01  0.3946E-01  0.0000E+00  0.0000E+00  0.0000E+00  0.0000E+00  0.0000E+00
      7.432  0.4483E-02  0.3931E-01  0.3931E-01  0.3931E-01  0.0000E+00  0.0000E+00  0.0000E+00  0.0000E+00  0.0000E+00
      7.446  0.4436E-02  0.3919E-01  0.3919E-01  0.3919E-01  0.0000E+00  0.0000E+00  0.0000E+00  0.0000E+00  0.0000E+00
      7.460  0.4383E-02  0.3911E-01  0.3911E-01  0.3911E-01  0.0000E+00  0.0000E+00  0.0000E+00  0.0000E+00  0.0000E+00
      7.474  0.4312E-02  0.3884E-01  0.3884E-01  0.3884E-01  0.0000E+00  0.0000E+00  0.0000E+00  0.0000E+00  0.0000E+00
      7.488  0.4222E-02  0.3841E-01  0.3841E-01  0.3841E-01  0.0000E+00  0.0000E+00  0.0000E+00  0.0000E+00  0.0000E+00
      7.502  0.4110E-02  0.3798E-01  0.3798E-01  0.3798E-01  0.0000E+00  0.0000E+00  0.0000E+00  0.0000E+00  0.0000E+00
      7.516  0.3978E-02  0.3756E-01  0.3756E-01  0.3756E-01  0.0000E+00  0.0000E+00  0.0000E+00  0.0000E+00  0.0000E+00
      7.530  0.3877E-02  0.3719E-01  0.3719E-01  0.3719E-01  0.0000E+00  0.0000E+00  0.0000E+00  0.0000E+00  0.0000E+00
      7.544  0.3825E-02  0.3689E-01  0.3689E-01  0.3689E-01  0.0000E+00  0.0000E+00  0.0000E+00  0.0000E+00  0.0000E+00
      7.558  0.3799E-02  0.3664E-01  0.3664E-01  0.3664E-01  0.0000E+00  0.0000E+00  0.0000E+00  0.0000E+00  0.0000E+00
      7.572  0.3772E-02  0.3638E-01  0.3638E-01  0.3638E-01  0.0000E+00  0.0000E+00  0.0000E+00  0.0000E+00  0.0000E+00
      7.586  0.3746E-02  0.3613E-01  0.3613E-01  0.3613E-01  0.0000E+00  0.0000E+00  0.0000E+00  0.0000E+00  0.0000E+00
      7.600  0.3720E-02  0.3587E-01  0.3587E-01  0.3587E-01  0.0000E+00  0.0000E+00  0.0000E+00  0.0000E+00  0.0000E+00
      7.614  0.3695E-02  0.3561E-01  0.3561E-01  0.3561E-01  0.0000E+00  0.0000E+00  0.0000E+00  0.0000E+00  0.0000E+00
      7.628  0.3669E-02  0.3534E-01  0.3534E-01  0.3534E-01  0.0000E+00  0.0000E+00  0.0000E+00  0.0000E+00  0.0000E+00
      7.642  0.3644E-02  0.3508E-01  0.3508E-01  0.3508E-01  0.0000E+00  0.0000E+00  0.0000E+00  0.0000E+00  0.0000E+00
      7.656  0.3618E-02  0.3481E-01  0.3481E-01  0.3481E-01  0.0000E+00  0.0000E+00  0.0000E+00  0.0000E+00  0.0000E+00
      7.670  0.3593E-02  0.3454E-01  0.3454E-01  0.3454E-01  0.0000E+00  0.0000E+00  0.0000E+00  0.0000E+00  0.0000E+00
      7.684  0.3568E-02  0.3428E-01  0.3428E-01  0.3428E-01  0.0000E+00  0.0000E+00  0.0000E+00  0.0000E+00  0.0000E+00
      7.698  0.3543E-02  0.3401E-01  0.3401E-01  0.3401E-01  0.0000E+00  0.0000E+00  0.0000E+00  0.0000E+00  0.0000E+00
      7.712  0.3518E-02  0.3374E-01  0.3374E-01  0.3374E-01  0.0000E+00  0.0000E+00  0.0000E+00  0.0000E+00  0.0000E+00
      7.726  0.3494E-02  0.3348E-01  0.3348E-01  0.3348E-01  0.0000E+00  0.0000E+00  0.0000E+00  0.0000E+00  0.0000E+00
      7.740  0.3469E-02  0.3321E-01  0.3321E-01  0.3321E-01  0.0000E+00  0.0000E+00  0.0000E+00  0.0000E+00  0.0000E+00
      7.754  0.3444E-02  0.3295E-01  0.3295E-01  0.3295E-01  0.0000E+00  0.0000E+00  0.0000E+00  0.0000E+00  0.0000E+00
      7.768  0.3420E-02  0.3269E-01  0.3269E-01  0.3269E-01  0.0000E+00  0.0000E+00  0.0000E+00  0.0000E+00  0.0000E+00
      7.782  0.3395E-02  0.3243E-01  0.3243E-01  0.3243E-01  0.0000E+00  0.0000E+00  0.0000E+00  0.0000E+00  0.0000E+00
      7.796  0.3370E-02  0.3217E-01  0.3217E-01  0.3217E-01  0.0000E+00  0.0000E+00  0.0000E+00  0.0000E+00  0.0000E+00
      7.810  0.3346E-02  0.3191E-01  0.3191E-01  0.3191E-01  0.0000E+00  0.0000E+00  0.0000E+00  0.0000E+00  0.0000E+00
      7.823  0.3321E-02  0.3166E-01  0.3166E-01  0.3166E-01  0.0000E+00  0.0000E+00  0.0000E+00  0.0000E+00  0.0000E+00
      7.837  0.3296E-02  0.3140E-01  0.3140E-01  0.3140E-01  0.0000E+00  0.0000E+00  0.0000E+00  0.0000E+00  0.0000E+00
      7.851  0.3271E-02  0.3114E-01  0.3114E-01  0.3114E-01  0.0000E+00  0.0000E+00  0.0000E+00  0.0000E+00  0.0000E+00
      7.865  0.3246E-02  0.3089E-01  0.3089E-01  0.3089E-01  0.0000E+00  0.0000E+00  0.0000E+00  0.0000E+00  0.0000E+00
      7.879  0.3221E-02  0.3063E-01  0.3063E-01  0.3063E-01  0.0000E+00  0.0000E+00  0.0000E+00  0.0000E+00  0.0000E+00
      7.893  0.3195E-02  0.3038E-01  0.3038E-01  0.3038E-01  0.0000E+00  0.0000E+00  0.0000E+00  0.0000E+00  0.0000E+00
      7.907  0.3170E-02  0.3012E-01  0.3012E-01  0.3012E-01  0.0000E+00  0.0000E+00  0.0000E+00  0.0000E+00  0.0000E+00
      7.921  0.3145E-02  0.2987E-01  0.2987E-01  0.2987E-01  0.0000E+00  0.0000E+00  0.0000E+00  0.0000E+00  0.0000E+00
      7.935  0.3119E-02  0.2962E-01  0.2962E-01  0.2962E-01  0.0000E+00  0.0000E+00  0.0000E+00  0.0000E+00  0.0000E+00
      7.949  0.3094E-02  0.2936E-01  0.2936E-01  0.2936E-01  0.0000E+00  0.0000E+00  0.0000E+00  0.0000E+00  0.0000E+00
      7.963  0.3068E-02  0.2911E-01  0.2911E-01  0.2911E-01  0.0000E+00  0.0000E+00  0.0000E+00  0.0000E+00  0.0000E+00
      7.977  0.3043E-02  0.2886E-01  0.2886E-01  0.2886E-01  0.0000E+00  0.0000E+00  0.0000E+00  0.0000E+00  0.0000E+00
      7.991  0.3001E-02  0.2859E-01  0.2859E-01  0.2859E-01  0.0000E+00  0.0000E+00  0.0000E+00  0.0000E+00  0.0000E+00
      8.005  0.2959E-02  0.2831E-01  0.2831E-01  0.2831E-01  0.0000E+00  0.0000E+00  0.0000E+00  0.0000E+00  0.0000E+00
      8.019  0.2917E-02  0.2803E-01  0.2803E-01  0.2803E-01  0.0000E+00  0.0000E+00  0.0000E+00  0.0000E+00  0.0000E+00
      8.033  0.2876E-02  0.2776E-01  0.2776E-01  0.2776E-01  0.0000E+00  0.0000E+00  0.0000E+00  0.0000E+00  0.0000E+00
      8.047  0.2836E-02  0.2748E-01  0.2748E-01  0.2748E-01  0.0000E+00  0.0000E+00  0.0000E+00  0.0000E+00  0.0000E+00
      8.061  0.2795E-02  0.2721E-01  0.2721E-01  0.2721E-01  0.0000E+00  0.0000E+00  0.0000E+00  0.0000E+00  0.0000E+00
      8.075  0.2756E-02  0.2694E-01  0.2694E-01  0.2694E-01  0.0000E+00  0.0000E+00  0.0000E+00  0.0000E+00  0.0000E+00
      8.089  0.2716E-02  0.2667E-01  0.2667E-01  0.2667E-01  0.0000E+00  0.0000E+00  0.0000E+00  0.0000E+00  0.0000E+00
      8.103  0.2677E-02  0.2639E-01  0.2639E-01  0.2639E-01  0.0000E+00  0.0000E+00  0.0000E+00  0.0000E+00  0.0000E+00
      8.117  0.2639E-02  0.2612E-01  0.2612E-01  0.2612E-01  0.0000E+00  0.0000E+00  0.0000E+00  0.0000E+00  0.0000E+00
      8.131  0.2601E-02  0.2585E-01  0.2585E-01  0.2585E-01  0.0000E+00  0.0000E+00  0.0000E+00  0.0000E+00  0.0000E+00
      8.145  0.2563E-02  0.2558E-01  0.2558E-01  0.2558E-01  0.0000E+00  0.0000E+00  0.0000E+00  0.0000E+00  0.0000E+00
      8.159  0.2526E-02  0.2531E-01  0.2531E-01  0.2531E-01  0.0000E+00  0.0000E+00  0.0000E+00  0.0000E+00  0.0000E+00
      8.173  0.2489E-02  0.2505E-01  0.2505E-01  0.2505E-01  0.0000E+00  0.0000E+00  0.0000E+00  0.0000E+00  0.0000E+00
      8.187  0.2453E-02  0.2478E-01  0.2478E-01  0.2478E-01  0.0000E+00  0.0000E+00  0.0000E+00  0.0000E+00  0.0000E+00
      8.201  0.2417E-02  0.2451E-01  0.2451E-01  0.2451E-01  0.0000E+00  0.0000E+00  0.0000E+00  0.0000E+00  0.0000E+00
      8.215  0.2381E-02  0.2424E-01  0.2424E-01  0.2424E-01  0.0000E+00  0.0000E+00  0.0000E+00  0.0000E+00  0.0000E+00
      8.229  0.2346E-02  0.2398E-01  0.2398E-01  0.2398E-01  0.0000E+00  0.0000E+00  0.0000E+00  0.0000E+00  0.0000E+00
      8.243  0.2312E-02  0.2371E-01  0.2371E-01  0.2371E-01  0.0000E+00  0.0000E+00  0.0000E+00  0.0000E+00  0.0000E+00
      8.257  0.2278E-02  0.2345E-01  0.2345E-01  0.2345E-01  0.0000E+00  0.0000E+00  0.0000E+00  0.0000E+00  0.0000E+00
      8.271  0.2244E-02  0.2319E-01  0.2319E-01  0.2319E-01  0.0000E+00  0.0000E+00  0.0000E+00  0.0000E+00  0.0000E+00
      8.285  0.2211E-02  0.2292E-01  0.2292E-01  0.2292E-01  0.0000E+00  0.0000E+00  0.0000E+00  0.0000E+00  0.0000E+00
      8.299  0.2178E-02  0.2266E-01  0.2266E-01  0.2266E-01  0.0000E+00  0.0000E+00  0.0000E+00  0.0000E+00  0.0000E+00
      8.313  0.2145E-02  0.2240E-01  0.2240E-01  0.2240E-01  0.0000E+00  0.0000E+00  0.0000E+00  0.0000E+00  0.0000E+00
      8.327  0.2086E-02  0.2225E-01  0.2225E-01  0.2225E-01  0.0000E+00  0.0000E+00  0.0000E+00  0.0000E+00  0.0000E+00
      8.341  0.1981E-02  0.2225E-01  0.2225E-01  0.2225E-01  0.0000E+00  0.0000E+00  0.0000E+00  0.0000E+00  0.0000E+00
      8.355  0.1887E-02  0.2221E-01  0.2221E-01  0.2221E-01  0.0000E+00  0.0000E+00  0.0000E+00  0.0000E+00  0.0000E+00
      8.369  0.1807E-02  0.2212E-01  0.2212E-01  0.2212E-01  0.0000E+00  0.0000E+00  0.0000E+00  0.0000E+00  0.0000E+00
      8.383  0.1742E-02  0.2197E-01  0.2197E-01  0.2197E-01  0.0000E+00  0.0000E+00  0.0000E+00  0.0000E+00  0.0000E+00
      8.397  0.1692E-02  0.2177E-01  0.2177E-01  0.2177E-01  0.0000E+00  0.0000E+00  0.0000E+00  0.0000E+00  0.0000E+00
      8.411  0.1656E-02  0.2152E-01  0.2152E-01  0.2152E-01  0.0000E+00  0.0000E+00  0.0000E+00  0.0000E+00  0.0000E+00
      8.424  0.1632E-02  0.2123E-01  0.2123E-01  0.2123E-01  0.0000E+00  0.0000E+00  0.0000E+00  0.0000E+00  0.0000E+00
      8.438  0.1610E-02  0.2094E-01  0.2094E-01  0.2094E-01  0.0000E+00  0.0000E+00  0.0000E+00  0.0000E+00  0.0000E+00
      8.452  0.1588E-02  0.2065E-01  0.2065E-01  0.2065E-01  0.0000E+00  0.0000E+00  0.0000E+00  0.0000E+00  0.0000E+00
      8.466  0.1567E-02  0.2036E-01  0.2036E-01  0.2036E-01  0.0000E+00  0.0000E+00  0.0000E+00  0.0000E+00  0.0000E+00
      8.480  0.1546E-02  0.2008E-01  0.2008E-01  0.2008E-01  0.0000E+00  0.0000E+00  0.0000E+00  0.0000E+00  0.0000E+00
      8.494  0.1525E-02  0.1980E-01  0.1980E-01  0.1980E-01  0.0000E+00  0.0000E+00  0.0000E+00  0.0000E+00  0.0000E+00
      8.508  0.1505E-02  0.1952E-01  0.1952E-01  0.1952E-01  0.0000E+00  0.0000E+00  0.0000E+00  0.0000E+00  0.0000E+00
      8.522  0.1485E-02  0.1925E-01  0.1925E-01  0.1925E-01  0.0000E+00  0.0000E+00  0.0000E+00  0.0000E+00  0.0000E+00
      8.536  0.1466E-02  0.1898E-01  0.1898E-01  0.1898E-01  0.0000E+00  0.0000E+00  0.0000E+00  0.0000E+00  0.0000E+00
      8.550  0.1446E-02  0.1871E-01  0.1871E-01  0.1871E-01  0.0000E+00  0.0000E+00  0.0000E+00  0.0000E+00  0.0000E+00
      8.564  0.1427E-02  0.1845E-01  0.1845E-01  0.1845E-01  0.0000E+00  0.0000E+00  0.0000E+00  0.0000E+00  0.0000E+00
      8.578  0.1409E-02  0.1819E-01  0.1819E-01  0.1819E-01  0.0000E+00  0.0000E+00  0.0000E+00  0.0000E+00  0.0000E+00
      8.592  0.1391E-02  0.1793E-01  0.1793E-01  0.1793E-01  0.0000E+00  0.0000E+00  0.0000E+00  0.0000E+00  0.0000E+00
      8.606  0.1373E-02  0.1768E-01  0.1768E-01  0.1768E-01  0.0000E+00  0.0000E+00  0.0000E+00  0.0000E+00  0.0000E+00
      8.620  0.1355E-02  0.1743E-01  0.1743E-01  0.1743E-01  0.0000E+00  0.0000E+00  0.0000E+00  0.0000E+00  0.0000E+00
      8.634  0.1338E-02  0.1719E-01  0.1719E-01  0.1719E-01  0.0000E+00  0.0000E+00  0.0000E+00  0.0000E+00  0.0000E+00
      8.648  0.1321E-02  0.1695E-01  0.1695E-01  0.1695E-01  0.0000E+00  0.0000E+00  0.0000E+00  0.0000E+00  0.0000E+00
      8.662  0.1304E-02  0.1671E-01  0.1671E-01  0.1671E-01  0.0000E+00  0.0000E+00  0.0000E+00  0.0000E+00  0.0000E+00
      8.676  0.1288E-02  0.1647E-01  0.1647E-01  0.1647E-01  0.0000E+00  0.0000E+00  0.0000E+00  0.0000E+00  0.0000E+00
      8.690  0.1272E-02  0.1624E-01  0.1624E-01  0.1624E-01  0.0000E+00  0.0000E+00  0.0000E+00  0.0000E+00  0.0000E+00
      8.704  0.1256E-02  0.1601E-01  0.1601E-01  0.1601E-01  0.0000E+00  0.0000E+00  0.0000E+00  0.0000E+00  0.0000E+00
      8.718  0.1241E-02  0.1579E-01  0.1579E-01  0.1579E-01  0.0000E+00  0.0000E+00  0.0000E+00  0.0000E+00  0.0000E+00
      8.732  0.1226E-02  0.1557E-01  0.1557E-01  0.1557E-01  0.0000E+00  0.0000E+00  0.0000E+00  0.0000E+00  0.0000E+00
      8.746  0.1212E-02  0.1535E-01  0.1535E-01  0.1535E-01  0.0000E+00  0.0000E+00  0.0000E+00  0.0000E+00  0.0000E+00
      8.760  0.1197E-02  0.1514E-01  0.1514E-01  0.1514E-01  0.0000E+00  0.0000E+00  0.0000E+00  0.0000E+00  0.0000E+00
      8.774  0.1183E-02  0.1493E-01  0.1493E-01  0.1493E-01  0.0000E+00  0.0000E+00  0.0000E+00  0.0000E+00  0.0000E+00
      8.788  0.1170E-02  0.1472E-01  0.1472E-01  0.1472E-01  0.0000E+00  0.0000E+00  0.0000E+00  0.0000E+00  0.0000E+00
      8.802  0.1156E-02  0.1453E-01  0.1453E-01  0.1453E-01  0.0000E+00  0.0000E+00  0.0000E+00  0.0000E+00  0.0000E+00
      8.816  0.1141E-02  0.1434E-01  0.1434E-01  0.1434E-01  0.0000E+00  0.0000E+00  0.0000E+00  0.0000E+00  0.0000E+00
      8.830  0.1127E-02  0.1416E-01  0.1416E-01  0.1416E-01  0.0000E+00  0.0000E+00  0.0000E+00  0.0000E+00  0.0000E+00
      8.844  0.1113E-02  0.1399E-01  0.1399E-01  0.1399E-01  0.0000E+00  0.0000E+00  0.0000E+00  0.0000E+00  0.0000E+00
      8.858  0.1098E-02  0.1383E-01  0.1383E-01  0.1383E-01  0.0000E+00  0.0000E+00  0.0000E+00  0.0000E+00  0.0000E+00
      8.872  0.1083E-02  0.1367E-01  0.1367E-01  0.1367E-01  0.0000E+00  0.0000E+00  0.0000E+00  0.0000E+00  0.0000E+00
      8.886  0.1069E-02  0.1353E-01  0.1353E-01  0.1353E-01  0.0000E+00  0.0000E+00  0.0000E+00  0.0000E+00  0.0000E+00
      8.900  0.1054E-02  0.1339E-01  0.1339E-01  0.1339E-01  0.0000E+00  0.0000E+00  0.0000E+00  0.0000E+00  0.0000E+00
      8.914  0.1038E-02  0.1326E-01  0.1326E-01  0.1326E-01  0.0000E+00  0.0000E+00  0.0000E+00  0.0000E+00  0.0000E+00
      8.928  0.1023E-02  0.1314E-01  0.1314E-01  0.1314E-01  0.0000E+00  0.0000E+00  0.0000E+00  0.0000E+00  0.0000E+00
      8.942  0.1008E-02  0.1303E-01  0.1303E-01  0.1303E-01  0.0000E+00  0.0000E+00  0.0000E+00  0.0000E+00  0.0000E+00
      8.956  0.9919E-03  0.1293E-01  0.1293E-01  0.1293E-01  0.0000E+00  0.0000E+00  0.0000E+00  0.0000E+00  0.0000E+00
      8.970  0.9761E-03  0.1284E-01  0.1284E-01  0.1284E-01  0.0000E+00  0.0000E+00  0.0000E+00  0.0000E+00  0.0000E+00
      8.984  0.9602E-03  0.1275E-01  0.1275E-01  0.1275E-01  0.0000E+00  0.0000E+00  0.0000E+00  0.0000E+00  0.0000E+00
      8.998  0.9441E-03  0.1268E-01  0.1268E-01  0.1268E-01  0.0000E+00  0.0000E+00  0.0000E+00  0.0000E+00  0.0000E+00
      9.012  0.9279E-03  0.1261E-01  0.1261E-01  0.1261E-01  0.0000E+00  0.0000E+00  0.0000E+00  0.0000E+00  0.0000E+00
      9.025  0.9115E-03  0.1255E-01  0.1255E-01  0.1255E-01  0.0000E+00  0.0000E+00  0.0000E+00  0.0000E+00  0.0000E+00
      9.039  0.8950E-03  0.1250E-01  0.1250E-01  0.1250E-01  0.0000E+00  0.0000E+00  0.0000E+00  0.0000E+00  0.0000E+00
      9.053  0.8783E-03  0.1246E-01  0.1246E-01  0.1246E-01  0.0000E+00  0.0000E+00  0.0000E+00  0.0000E+00  0.0000E+00
      9.067  0.8614E-03  0.1242E-01  0.1242E-01  0.1242E-01  0.0000E+00  0.0000E+00  0.0000E+00  0.0000E+00  0.0000E+00
      9.081  0.8444E-03  0.1240E-01  0.1240E-01  0.1240E-01  0.0000E+00  0.0000E+00  0.0000E+00  0.0000E+00  0.0000E+00
      9.095  0.8273E-03  0.1238E-01  0.1238E-01  0.1238E-01  0.0000E+00  0.0000E+00  0.0000E+00  0.0000E+00  0.0000E+00
      9.109  0.8100E-03  0.1237E-01  0.1237E-01  0.1237E-01  0.0000E+00  0.0000E+00  0.0000E+00  0.0000E+00  0.0000E+00
      9.123  0.7926E-03  0.1237E-01  0.1237E-01  0.1237E-01  0.0000E+00  0.0000E+00  0.0000E+00  0.0000E+00  0.0000E+00
      9.137  0.7750E-03  0.1238E-01  0.1238E-01  0.1238E-01  0.0000E+00  0.0000E+00  0.0000E+00  0.0000E+00  0.0000E+00
      9.151  0.7572E-03  0.1240E-01  0.1240E-01  0.1240E-01  0.0000E+00  0.0000E+00  0.0000E+00  0.0000E+00  0.0000E+00
      9.165  0.7393E-03  0.1242E-01  0.1242E-01  0.1242E-01  0.0000E+00  0.0000E+00  0.0000E+00  0.0000E+00  0.0000E+00
      9.179  0.7013E-03  0.1216E-01  0.1216E-01  0.1216E-01  0.0000E+00  0.0000E+00  0.0000E+00  0.0000E+00  0.0000E+00
      9.193  0.4930E-03  0.9359E-02  0.9359E-02  0.9359E-02  0.0000E+00  0.0000E+00  0.0000E+00  0.0000E+00  0.0000E+00
      9.207  0.2436E-03  0.5793E-02  0.5793E-02  0.5793E-02  0.0000E+00  0.0000E+00  0.0000E+00  0.0000E+00  0.0000E+00
      9.221  0.2284E-03  0.5429E-02  0.5429E-02  0.5429E-02  0.0000E+00  0.0000E+00  0.0000E+00  0.0000E+00  0.0000E+00
      9.235  0.2136E-03  0.5078E-02  0.5078E-02  0.5078E-02  0.0000E+00  0.0000E+00  0.0000E+00  0.0000E+00  0.0000E+00
      9.249  0.1993E-03  0.4738E-02  0.4738E-02  0.4738E-02  0.0000E+00  0.0000E+00  0.0000E+00  0.0000E+00  0.0000E+00
      9.263  0.1855E-03  0.4410E-02  0.4410E-02  0.4410E-02  0.0000E+00  0.0000E+00  0.0000E+00  0.0000E+00  0.0000E+00
      9.277  0.1722E-03  0.4094E-02  0.4094E-02  0.4094E-02  0.0000E+00  0.0000E+00  0.0000E+00  0.0000E+00  0.0000E+00
      9.291  0.1594E-03  0.3790E-02  0.3790E-02  0.3790E-02  0.0000E+00  0.0000E+00  0.0000E+00  0.0000E+00  0.0000E+00
      9.305  0.1471E-03  0.3497E-02  0.3497E-02  0.3497E-02  0.0000E+00  0.0000E+00  0.0000E+00  0.0000E+00  0.0000E+00
      9.319  0.1353E-03  0.3216E-02  0.3216E-02  0.3216E-02  0.0000E+00  0.0000E+00  0.0000E+00  0.0000E+00  0.0000E+00
      9.333  0.1240E-03  0.2947E-02  0.2947E-02  0.2947E-02  0.0000E+00  0.0000E+00  0.0000E+00  0.0000E+00  0.0000E+00
      9.347  0.1131E-03  0.2690E-02  0.2690E-02  0.2690E-02  0.0000E+00  0.0000E+00  0.0000E+00  0.0000E+00  0.0000E+00
      9.361  0.1028E-03  0.2444E-02  0.2444E-02  0.2444E-02  0.0000E+00  0.0000E+00  0.0000E+00  0.0000E+00  0.0000E+00
      9.375  0.9298E-04  0.2211E-02  0.2211E-02  0.2211E-02  0.0000E+00  0.0000E+00  0.0000E+00  0.0000E+00  0.0000E+00
      9.389  0.8364E-04  0.1988E-02  0.1988E-02  0.1988E-02  0.0000E+00  0.0000E+00  0.0000E+00  0.0000E+00  0.0000E+00
      9.403  0.7479E-04  0.1778E-02  0.1778E-02  0.1778E-02  0.0000E+00  0.0000E+00  0.0000E+00  0.0000E+00  0.0000E+00
      9.417  0.6644E-04  0.1579E-02  0.1579E-02  0.1579E-02  0.0000E+00  0.0000E+00  0.0000E+00  0.0000E+00  0.0000E+00
      9.431  0.5858E-04  0.1393E-02  0.1393E-02  0.1393E-02  0.0000E+00  0.0000E+00  0.0000E+00  0.0000E+00  0.0000E+00
      9.445  0.5121E-04  0.1218E-02  0.1218E-02  0.1218E-02  0.0000E+00  0.0000E+00  0.0000E+00  0.0000E+00  0.0000E+00
      9.459  0.4434E-04  0.1054E-02  0.1054E-02  0.1054E-02  0.0000E+00  0.0000E+00  0.0000E+00  0.0000E+00  0.0000E+00
      9.473  0.3797E-04  0.9027E-03  0.9027E-03  0.9027E-03  0.0000E+00  0.0000E+00  0.0000E+00  0.0000E+00  0.0000E+00
      9.487  0.3209E-04  0.7629E-03  0.7629E-03  0.7629E-03  0.0000E+00  0.0000E+00  0.0000E+00  0.0000E+00  0.0000E+00
      9.501  0.2670E-04  0.6348E-03  0.6348E-03  0.6348E-03  0.0000E+00  0.0000E+00  0.0000E+00  0.0000E+00  0.0000E+00
      9.515  0.2181E-04  0.5186E-03  0.5186E-03  0.5186E-03  0.0000E+00  0.0000E+00  0.0000E+00  0.0000E+00  0.0000E+00
      9.529  0.1741E-04  0.4140E-03  0.4140E-03  0.4140E-03  0.0000E+00  0.0000E+00  0.0000E+00  0.0000E+00  0.0000E+00
      9.543  0.1351E-04  0.3212E-03  0.3212E-03  0.3212E-03  0.0000E+00  0.0000E+00  0.0000E+00  0.0000E+00  0.0000E+00
      9.557  0.1010E-04  0.2402E-03  0.2402E-03  0.2402E-03  0.0000E+00  0.0000E+00  0.0000E+00  0.0000E+00  0.0000E+00
      9.571  0.7189E-05  0.1709E-03  0.1709E-03  0.1709E-03  0.0000E+00  0.0000E+00  0.0000E+00  0.0000E+00  0.0000E+00
      9.585  0.4770E-05  0.1134E-03  0.1134E-03  0.1134E-03  0.0000E+00  0.0000E+00  0.0000E+00  0.0000E+00  0.0000E+00
      9.599  0.2845E-05  0.6765E-04  0.6765E-04  0.6765E-04  0.0000E+00  0.0000E+00  0.0000E+00  0.0000E+00  0.0000E+00
      9.613  0.1415E-05  0.3365E-04  0.3365E-04  0.3365E-04  0.0000E+00  0.0000E+00  0.0000E+00  0.0000E+00  0.0000E+00
      9.626  0.4794E-06  0.1140E-04  0.1140E-04  0.1140E-04  0.0000E+00  0.0000E+00  0.0000E+00  0.0000E+00  0.0000E+00
      9.640  0.3809E-07  0.9063E-06  0.9063E-06  0.9063E-06  0.0000E+00  0.0000E+00  0.0000E+00  0.0000E+00  0.0000E+00
      9.654  0.0000E+00  0.0000E+00  0.0000E+00  0.0000E+00  0.0000E+00  0.0000E+00  0.0000E+00  0.0000E+00  0.0000E+00
      9.668  0.0000E+00  0.0000E+00  0.0000E+00  0.0000E+00  0.0000E+00  0.0000E+00  0.0000E+00  0.0000E+00  0.0000E+00
      9.682  0.0000E+00  0.0000E+00  0.0000E+00  0.0000E+00  0.0000E+00  0.0000E+00  0.0000E+00  0.0000E+00  0.0000E+00
      9.696  0.0000E+00  0.0000E+00  0.0000E+00  0.0000E+00  0.0000E+00  0.0000E+00  0.0000E+00  0.0000E+00  0.0000E+00
      9.710  0.0000E+00  0.0000E+00  0.0000E+00  0.0000E+00  0.0000E+00  0.0000E+00  0.0000E+00  0.0000E+00  0.0000E+00
      9.724  0.0000E+00  0.0000E+00  0.0000E+00  0.0000E+00  0.0000E+00  0.0000E+00  0.0000E+00  0.0000E+00  0.0000E+00
      9.738  0.0000E+00  0.0000E+00  0.0000E+00  0.0000E+00  0.0000E+00  0.0000E+00  0.0000E+00  0.0000E+00  0.0000E+00
      9.752  0.0000E+00  0.0000E+00  0.0000E+00  0.0000E+00  0.0000E+00  0.0000E+00  0.0000E+00  0.0000E+00  0.0000E+00
      9.766  0.0000E+00  0.0000E+00  0.0000E+00  0.0000E+00  0.0000E+00  0.0000E+00  0.0000E+00  0.0000E+00  0.0000E+00
      9.780  0.0000E+00  0.0000E+00  0.0000E+00  0.0000E+00  0.0000E+00  0.0000E+00  0.0000E+00  0.0000E+00  0.0000E+00
      9.794  0.0000E+00  0.0000E+00  0.0000E+00  0.0000E+00  0.0000E+00  0.0000E+00  0.0000E+00  0.0000E+00  0.0000E+00
      9.808  0.0000E+00  0.0000E+00  0.0000E+00  0.0000E+00  0.0000E+00  0.0000E+00  0.0000E+00  0.0000E+00  0.0000E+00
      9.822  0.0000E+00  0.0000E+00  0.0000E+00  0.0000E+00  0.0000E+00  0.0000E+00  0.0000E+00  0.0000E+00  0.0000E+00
      9.836  0.0000E+00  0.0000E+00  0.0000E+00  0.0000E+00  0.0000E+00  0.0000E+00  0.0000E+00  0.0000E+00  0.0000E+00
      9.850  0.0000E+00  0.0000E+00  0.0000E+00  0.0000E+00  0.0000E+00  0.0000E+00  0.0000E+00  0.0000E+00  0.0000E+00
      9.864  0.0000E+00  0.0000E+00  0.0000E+00  0.0000E+00  0.0000E+00  0.0000E+00  0.0000E+00  0.0000E+00  0.0000E+00
      9.878  0.0000E+00  0.0000E+00  0.0000E+00  0.0000E+00  0.0000E+00  0.0000E+00  0.0000E+00  0.0000E+00  0.0000E+00
      9.892  0.0000E+00  0.0000E+00  0.0000E+00  0.0000E+00  0.0000E+00  0.0000E+00  0.0000E+00  0.0000E+00  0.0000E+00
      9.906  0.0000E+00  0.0000E+00  0.0000E+00  0.0000E+00  0.0000E+00  0.0000E+00  0.0000E+00  0.0000E+00  0.0000E+00
      9.920  0.0000E+00  0.0000E+00  0.0000E+00  0.0000E+00  0.0000E+00  0.0000E+00  0.0000E+00  0.0000E+00  0.0000E+00
      9.934  0.0000E+00  0.0000E+00  0.0000E+00  0.0000E+00  0.0000E+00  0.0000E+00  0.0000E+00  0.0000E+00  0.0000E+00
      9.948  0.0000E+00  0.0000E+00  0.0000E+00  0.0000E+00  0.0000E+00  0.0000E+00  0.0000E+00  0.0000E+00  0.0000E+00
      9.962  0.0000E+00  0.0000E+00  0.0000E+00  0.0000E+00  0.0000E+00  0.0000E+00  0.0000E+00  0.0000E+00  0.0000E+00
      9.976  0.0000E+00  0.0000E+00  0.0000E+00  0.0000E+00  0.0000E+00  0.0000E+00  0.0000E+00  0.0000E+00  0.0000E+00
      9.990  0.0000E+00  0.0000E+00  0.0000E+00  0.0000E+00  0.0000E+00  0.0000E+00  0.0000E+00  0.0000E+00  0.0000E+00
     10.004  0.0000E+00  0.0000E+00  0.0000E+00  0.0000E+00  0.0000E+00  0.0000E+00  0.0000E+00  0.0000E+00  0.0000E+00
     10.018  0.0000E+00  0.0000E+00  0.0000E+00  0.0000E+00  0.0000E+00  0.0000E+00  0.0000E+00  0.0000E+00  0.0000E+00
     10.032  0.0000E+00  0.0000E+00  0.0000E+00  0.0000E+00  0.0000E+00  0.0000E+00  0.0000E+00  0.0000E+00  0.0000E+00
     10.046  0.0000E+00  0.0000E+00  0.0000E+00  0.0000E+00  0.0000E+00  0.0000E+00  0.0000E+00  0.0000E+00  0.0000E+00
     10.060  0.0000E+00  0.0000E+00  0.0000E+00  0.0000E+00  0.0000E+00  0.0000E+00  0.0000E+00  0.0000E+00  0.0000E+00
     10.074  0.0000E+00  0.0000E+00  0.0000E+00  0.0000E+00  0.0000E+00  0.0000E+00  0.0000E+00  0.0000E+00  0.0000E+00
     10.088  0.0000E+00  0.0000E+00  0.0000E+00  0.0000E+00  0.0000E+00  0.0000E+00  0.0000E+00  0.0000E+00  0.0000E+00
     10.102  0.0000E+00  0.0000E+00  0.0000E+00  0.0000E+00  0.0000E+00  0.0000E+00  0.0000E+00  0.0000E+00  0.0000E+00
     10.116  0.0000E+00  0.0000E+00  0.0000E+00  0.0000E+00  0.0000E+00  0.0000E+00  0.0000E+00  0.0000E+00  0.0000E+00
     10.130  0.0000E+00  0.0000E+00  0.0000E+00  0.0000E+00  0.0000E+00  0.0000E+00  0.0000E+00  0.0000E+00  0.0000E+00
     10.144  0.0000E+00  0.0000E+00  0.0000E+00  0.0000E+00  0.0000E+00  0.0000E+00  0.0000E+00  0.0000E+00  0.0000E+00
     10.158  0.0000E+00  0.0000E+00  0.0000E+00  0.0000E+00  0.0000E+00  0.0000E+00  0.0000E+00  0.0000E+00  0.0000E+00
     10.172  0.0000E+00  0.0000E+00  0.0000E+00  0.0000E+00  0.0000E+00  0.0000E+00  0.0000E+00  0.0000E+00  0.0000E+00
     10.186  0.0000E+00  0.0000E+00  0.0000E+00  0.0000E+00  0.0000E+00  0.0000E+00  0.0000E+00  0.0000E+00  0.0000E+00
     10.200  0.0000E+00  0.0000E+00  0.0000E+00  0.0000E+00  0.0000E+00  0.0000E+00  0.0000E+00  0.0000E+00  0.0000E+00
     10.214  0.0000E+00  0.0000E+00  0.0000E+00  0.0000E+00  0.0000E+00  0.0000E+00  0.0000E+00  0.0000E+00  0.0000E+00
     10.227  0.0000E+00  0.0000E+00  0.0000E+00  0.0000E+00  0.0000E+00  0.0000E+00  0.0000E+00  0.0000E+00  0.0000E+00
     10.241  0.0000E+00  0.0000E+00  0.0000E+00  0.0000E+00  0.0000E+00  0.0000E+00  0.0000E+00  0.0000E+00  0.0000E+00
     10.255  0.0000E+00  0.0000E+00  0.0000E+00  0.0000E+00  0.0000E+00  0.0000E+00  0.0000E+00  0.0000E+00  0.0000E+00
     10.269  0.0000E+00  0.0000E+00  0.0000E+00  0.0000E+00  0.0000E+00  0.0000E+00  0.0000E+00  0.0000E+00  0.0000E+00
     10.283  0.0000E+00  0.0000E+00  0.0000E+00  0.0000E+00  0.0000E+00  0.0000E+00  0.0000E+00  0.0000E+00  0.0000E+00
     10.297  0.0000E+00  0.0000E+00  0.0000E+00  0.0000E+00  0.0000E+00  0.0000E+00  0.0000E+00  0.0000E+00  0.0000E+00
     10.311  0.0000E+00  0.0000E+00  0.0000E+00  0.0000E+00  0.0000E+00  0.0000E+00  0.0000E+00  0.0000E+00  0.0000E+00
     10.325  0.0000E+00  0.0000E+00  0.0000E+00  0.0000E+00  0.0000E+00  0.0000E+00  0.0000E+00  0.0000E+00  0.0000E+00
     10.339  0.0000E+00  0.0000E+00  0.0000E+00  0.0000E+00  0.0000E+00  0.0000E+00  0.0000E+00  0.0000E+00  0.0000E+00
     10.353  0.0000E+00  0.0000E+00  0.0000E+00  0.0000E+00  0.0000E+00  0.0000E+00  0.0000E+00  0.0000E+00  0.0000E+00
     10.367  0.0000E+00  0.0000E+00  0.0000E+00  0.0000E+00  0.0000E+00  0.0000E+00  0.0000E+00  0.0000E+00  0.0000E+00
     10.381  0.0000E+00  0.0000E+00  0.0000E+00  0.0000E+00  0.0000E+00  0.0000E+00  0.0000E+00  0.0000E+00  0.0000E+00
     10.395  0.0000E+00  0.0000E+00  0.0000E+00  0.0000E+00  0.0000E+00  0.0000E+00  0.0000E+00  0.0000E+00  0.0000E+00
     10.409  0.0000E+00  0.0000E+00  0.0000E+00  0.0000E+00  0.0000E+00  0.0000E+00  0.0000E+00  0.0000E+00  0.0000E+00
     10.423  0.0000E+00  0.0000E+00  0.0000E+00  0.0000E+00  0.0000E+00  0.0000E+00  0.0000E+00  0.0000E+00  0.0000E+00
     10.437  0.0000E+00  0.0000E+00  0.0000E+00  0.0000E+00  0.0000E+00  0.0000E+00  0.0000E+00  0.0000E+00  0.0000E+00
     10.451  0.0000E+00  0.0000E+00  0.0000E+00  0.0000E+00  0.0000E+00  0.0000E+00  0.0000E+00  0.0000E+00  0.0000E+00
     10.465  0.0000E+00  0.0000E+00  0.0000E+00  0.0000E+00  0.0000E+00  0.0000E+00  0.0000E+00  0.0000E+00  0.0000E+00
     10.479  0.0000E+00  0.0000E+00  0.0000E+00  0.0000E+00  0.0000E+00  0.0000E+00  0.0000E+00  0.0000E+00  0.0000E+00
     10.493  0.0000E+00  0.0000E+00  0.0000E+00  0.0000E+00  0.0000E+00  0.0000E+00  0.0000E+00  0.0000E+00  0.0000E+00
     10.507  0.0000E+00  0.0000E+00  0.0000E+00  0.0000E+00  0.0000E+00  0.0000E+00  0.0000E+00  0.0000E+00  0.0000E+00
     10.521  0.0000E+00  0.0000E+00  0.0000E+00  0.0000E+00  0.0000E+00  0.0000E+00  0.0000E+00  0.0000E+00  0.0000E+00
     10.535  0.0000E+00  0.0000E+00  0.0000E+00  0.0000E+00  0.0000E+00  0.0000E+00  0.0000E+00  0.0000E+00  0.0000E+00
     10.549  0.0000E+00  0.0000E+00  0.0000E+00  0.0000E+00  0.0000E+00  0.0000E+00  0.0000E+00  0.0000E+00  0.0000E+00
     10.563  0.0000E+00  0.0000E+00  0.0000E+00  0.0000E+00  0.0000E+00  0.0000E+00  0.0000E+00  0.0000E+00  0.0000E+00
     10.577  0.0000E+00  0.0000E+00  0.0000E+00  0.0000E+00  0.0000E+00  0.0000E+00  0.0000E+00  0.0000E+00  0.0000E+00
     10.591  0.0000E+00  0.0000E+00  0.0000E+00  0.0000E+00  0.0000E+00  0.0000E+00  0.0000E+00  0.0000E+00  0.0000E+00
     10.605  0.0000E+00  0.0000E+00  0.0000E+00  0.0000E+00  0.0000E+00  0.0000E+00  0.0000E+00  0.0000E+00  0.0000E+00
     10.619  0.0000E+00  0.0000E+00  0.0000E+00  0.0000E+00  0.0000E+00  0.0000E+00  0.0000E+00  0.0000E+00  0.0000E+00
     10.633  0.0000E+00  0.0000E+00  0.0000E+00  0.0000E+00  0.0000E+00  0.0000E+00  0.0000E+00  0.0000E+00  0.0000E+00
     10.647  0.0000E+00  0.0000E+00  0.0000E+00  0.0000E+00  0.0000E+00  0.0000E+00  0.0000E+00  0.0000E+00  0.0000E+00
     10.661  0.0000E+00  0.0000E+00  0.0000E+00  0.0000E+00  0.0000E+00  0.0000E+00  0.0000E+00  0.0000E+00  0.0000E+00
     10.675  0.0000E+00  0.0000E+00  0.0000E+00  0.0000E+00  0.0000E+00  0.0000E+00  0.0000E+00  0.0000E+00  0.0000E+00
     10.689  0.0000E+00  0.0000E+00  0.0000E+00  0.0000E+00  0.0000E+00  0.0000E+00  0.0000E+00  0.0000E+00  0.0000E+00
     10.703  0.0000E+00  0.0000E+00  0.0000E+00  0.0000E+00  0.0000E+00  0.0000E+00  0.0000E+00  0.0000E+00  0.0000E+00
     10.717  0.0000E+00  0.0000E+00  0.0000E+00  0.0000E+00  0.0000E+00  0.0000E+00  0.0000E+00  0.0000E+00  0.0000E+00
     10.731  0.0000E+00  0.0000E+00  0.0000E+00  0.0000E+00  0.0000E+00  0.0000E+00  0.0000E+00  0.0000E+00  0.0000E+00
     10.745  0.0000E+00  0.0000E+00  0.0000E+00  0.0000E+00  0.0000E+00  0.0000E+00  0.0000E+00  0.0000E+00  0.0000E+00
     10.759  0.0000E+00  0.0000E+00  0.0000E+00  0.0000E+00  0.0000E+00  0.0000E+00  0.0000E+00  0.0000E+00  0.0000E+00
     10.773  0.0000E+00  0.0000E+00  0.0000E+00  0.0000E+00  0.0000E+00  0.0000E+00  0.0000E+00  0.0000E+00  0.0000E+00
     10.787  0.0000E+00  0.0000E+00  0.0000E+00  0.0000E+00  0.0000E+00  0.0000E+00  0.0000E+00  0.0000E+00  0.0000E+00
     10.801  0.0000E+00  0.0000E+00  0.0000E+00  0.0000E+00  0.0000E+00  0.0000E+00  0.0000E+00  0.0000E+00  0.0000E+00
     10.815  0.0000E+00  0.0000E+00  0.0000E+00  0.0000E+00  0.0000E+00  0.0000E+00  0.0000E+00  0.0000E+00  0.0000E+00
     10.829  0.0000E+00  0.0000E+00  0.0000E+00  0.0000E+00  0.0000E+00  0.0000E+00  0.0000E+00  0.0000E+00  0.0000E+00
     10.842  0.0000E+00  0.0000E+00  0.0000E+00  0.0000E+00  0.0000E+00  0.0000E+00  0.0000E+00  0.0000E+00  0.0000E+00
     10.856  0.0000E+00  0.0000E+00  0.0000E+00  0.0000E+00  0.0000E+00  0.0000E+00  0.0000E+00  0.0000E+00  0.0000E+00
     10.870  0.0000E+00  0.0000E+00  0.0000E+00  0.0000E+00  0.0000E+00  0.0000E+00  0.0000E+00  0.0000E+00  0.0000E+00
     10.884  0.0000E+00  0.0000E+00  0.0000E+00  0.0000E+00  0.0000E+00  0.0000E+00  0.0000E+00  0.0000E+00  0.0000E+00
     10.898  0.0000E+00  0.0000E+00  0.0000E+00  0.0000E+00  0.0000E+00  0.0000E+00  0.0000E+00  0.0000E+00  0.0000E+00
     10.912  0.0000E+00  0.0000E+00  0.0000E+00  0.0000E+00  0.0000E+00  0.0000E+00  0.0000E+00  0.0000E+00  0.0000E+00
     10.926  0.0000E+00  0.0000E+00  0.0000E+00  0.0000E+00  0.0000E+00  0.0000E+00  0.0000E+00  0.0000E+00  0.0000E+00
     10.940  0.0000E+00  0.0000E+00  0.0000E+00  0.0000E+00  0.0000E+00  0.0000E+00  0.0000E+00  0.0000E+00  0.0000E+00
     10.954  0.0000E+00  0.0000E+00  0.0000E+00  0.0000E+00  0.0000E+00  0.0000E+00  0.0000E+00  0.0000E+00  0.0000E+00
     10.968  0.0000E+00  0.0000E+00  0.0000E+00  0.0000E+00  0.0000E+00  0.0000E+00  0.0000E+00  0.0000E+00  0.0000E+00
     10.982  0.0000E+00  0.0000E+00  0.0000E+00  0.0000E+00  0.0000E+00  0.0000E+00  0.0000E+00  0.0000E+00  0.0000E+00
     10.996  0.0000E+00  0.0000E+00  0.0000E+00  0.0000E+00  0.0000E+00  0.0000E+00  0.0000E+00  0.0000E+00  0.0000E+00
     11.010  0.0000E+00  0.0000E+00  0.0000E+00  0.0000E+00  0.0000E+00  0.0000E+00  0.0000E+00  0.0000E+00  0.0000E+00
     11.024  0.0000E+00  0.0000E+00  0.0000E+00  0.0000E+00  0.0000E+00  0.0000E+00  0.0000E+00  0.0000E+00  0.0000E+00
     11.038  0.0000E+00  0.0000E+00  0.0000E+00  0.0000E+00  0.0000E+00  0.0000E+00  0.0000E+00  0.0000E+00  0.0000E+00
     11.052  0.0000E+00  0.0000E+00  0.0000E+00  0.0000E+00  0.0000E+00  0.0000E+00  0.0000E+00  0.0000E+00  0.0000E+00
     11.066  0.0000E+00  0.0000E+00  0.0000E+00  0.0000E+00  0.0000E+00  0.0000E+00  0.0000E+00  0.0000E+00  0.0000E+00
     11.080  0.0000E+00  0.0000E+00  0.0000E+00  0.0000E+00  0.0000E+00  0.0000E+00  0.0000E+00  0.0000E+00  0.0000E+00
     11.094  0.0000E+00  0.0000E+00  0.0000E+00  0.0000E+00  0.0000E+00  0.0000E+00  0.0000E+00  0.0000E+00  0.0000E+00
     11.108  0.0000E+00  0.0000E+00  0.0000E+00  0.0000E+00  0.0000E+00  0.0000E+00  0.0000E+00  0.0000E+00  0.0000E+00
     11.122  0.0000E+00  0.0000E+00  0.0000E+00  0.0000E+00  0.0000E+00  0.0000E+00  0.0000E+00  0.0000E+00  0.0000E+00
     11.136  0.0000E+00  0.0000E+00  0.0000E+00  0.0000E+00  0.0000E+00  0.0000E+00  0.0000E+00  0.0000E+00  0.0000E+00
     11.150  0.0000E+00  0.0000E+00  0.0000E+00  0.0000E+00  0.0000E+00  0.0000E+00  0.0000E+00  0.0000E+00  0.0000E+00
     11.164  0.0000E+00  0.0000E+00  0.0000E+00  0.0000E+00  0.0000E+00  0.0000E+00  0.0000E+00  0.0000E+00  0.0000E+00
     11.178  0.0000E+00  0.0000E+00  0.0000E+00  0.0000E+00  0.0000E+00  0.0000E+00  0.0000E+00  0.0000E+00  0.0000E+00
     11.192  0.0000E+00  0.0000E+00  0.0000E+00  0.0000E+00  0.0000E+00  0.0000E+00  0.0000E+00  0.0000E+00  0.0000E+00
     11.206  0.0000E+00  0.0000E+00  0.0000E+00  0.0000E+00  0.0000E+00  0.0000E+00  0.0000E+00  0.0000E+00  0.0000E+00
     11.220  0.0000E+00  0.0000E+00  0.0000E+00  0.0000E+00  0.0000E+00  0.0000E+00  0.0000E+00  0.0000E+00  0.0000E+00
     11.234  0.0000E+00  0.0000E+00  0.0000E+00  0.0000E+00  0.0000E+00  0.0000E+00  0.0000E+00  0.0000E+00  0.0000E+00
     11.248  0.0000E+00  0.0000E+00  0.0000E+00  0.0000E+00  0.0000E+00  0.0000E+00  0.0000E+00  0.0000E+00  0.0000E+00
     11.262  0.0000E+00  0.0000E+00  0.0000E+00  0.0000E+00  0.0000E+00  0.0000E+00  0.0000E+00  0.0000E+00  0.0000E+00
     11.276  0.0000E+00  0.0000E+00  0.0000E+00  0.0000E+00  0.0000E+00  0.0000E+00  0.0000E+00  0.0000E+00  0.0000E+00
     11.290  0.0000E+00  0.0000E+00  0.0000E+00  0.0000E+00  0.0000E+00  0.0000E+00  0.0000E+00  0.0000E+00  0.0000E+00
     11.304  0.0000E+00  0.0000E+00  0.0000E+00  0.0000E+00  0.0000E+00  0.0000E+00  0.0000E+00  0.0000E+00  0.0000E+00
     11.318  0.0000E+00  0.0000E+00  0.0000E+00  0.0000E+00  0.0000E+00  0.0000E+00  0.0000E+00  0.0000E+00  0.0000E+00
     11.332  0.0000E+00  0.0000E+00  0.0000E+00  0.0000E+00  0.0000E+00  0.0000E+00  0.0000E+00  0.0000E+00  0.0000E+00
     11.346  0.0000E+00  0.0000E+00  0.0000E+00  0.0000E+00  0.0000E+00  0.0000E+00  0.0000E+00  0.0000E+00  0.0000E+00
     11.360  0.0000E+00  0.0000E+00  0.0000E+00  0.0000E+00  0.0000E+00  0.0000E+00  0.0000E+00  0.0000E+00  0.0000E+00
     11.374  0.0000E+00  0.0000E+00  0.0000E+00  0.0000E+00  0.0000E+00  0.0000E+00  0.0000E+00  0.0000E+00  0.0000E+00
     11.388  0.0000E+00  0.0000E+00  0.0000E+00  0.0000E+00  0.0000E+00  0.0000E+00  0.0000E+00  0.0000E+00  0.0000E+00
     11.402  0.0000E+00  0.0000E+00  0.0000E+00  0.0000E+00  0.0000E+00  0.0000E+00  0.0000E+00  0.0000E+00  0.0000E+00
     11.416  0.0000E+00  0.0000E+00  0.0000E+00  0.0000E+00  0.0000E+00  0.0000E+00  0.0000E+00  0.0000E+00  0.0000E+00
     11.430  0.0000E+00  0.0000E+00  0.0000E+00  0.0000E+00  0.0000E+00  0.0000E+00  0.0000E+00  0.0000E+00  0.0000E+00
     11.443  0.0000E+00  0.0000E+00  0.0000E+00  0.0000E+00  0.0000E+00  0.0000E+00  0.0000E+00  0.0000E+00  0.0000E+00
     11.457  0.0000E+00  0.0000E+00  0.0000E+00  0.0000E+00  0.0000E+00  0.0000E+00  0.0000E+00  0.0000E+00  0.0000E+00
     11.471  0.0000E+00  0.0000E+00  0.0000E+00  0.0000E+00  0.0000E+00  0.0000E+00  0.0000E+00  0.0000E+00  0.0000E+00
     11.485  0.0000E+00  0.0000E+00  0.0000E+00  0.0000E+00  0.0000E+00  0.0000E+00  0.0000E+00  0.0000E+00  0.0000E+00
     11.499  0.0000E+00  0.0000E+00  0.0000E+00  0.0000E+00  0.0000E+00  0.0000E+00  0.0000E+00  0.0000E+00  0.0000E+00
     11.513  0.0000E+00  0.0000E+00  0.0000E+00  0.0000E+00  0.0000E+00  0.0000E+00  0.0000E+00  0.0000E+00  0.0000E+00
     11.527  0.0000E+00  0.0000E+00  0.0000E+00  0.0000E+00  0.0000E+00  0.0000E+00  0.0000E+00  0.0000E+00  0.0000E+00
     11.541  0.0000E+00  0.0000E+00  0.0000E+00  0.0000E+00  0.0000E+00  0.0000E+00  0.0000E+00  0.0000E+00  0.0000E+00
     11.555  0.0000E+00  0.0000E+00  0.0000E+00  0.0000E+00  0.0000E+00  0.0000E+00  0.0000E+00  0.0000E+00  0.0000E+00
     11.569  0.0000E+00  0.0000E+00  0.0000E+00  0.0000E+00  0.0000E+00  0.0000E+00  0.0000E+00  0.0000E+00  0.0000E+00
     11.583  0.0000E+00  0.0000E+00  0.0000E+00  0.0000E+00  0.0000E+00  0.0000E+00  0.0000E+00  0.0000E+00  0.0000E+00
     11.597  0.0000E+00  0.0000E+00  0.0000E+00  0.0000E+00  0.0000E+00  0.0000E+00  0.0000E+00  0.0000E+00  0.0000E+00
     11.611  0.0000E+00  0.0000E+00  0.0000E+00  0.0000E+00  0.0000E+00  0.0000E+00  0.0000E+00  0.0000E+00  0.0000E+00
     11.625  0.0000E+00  0.0000E+00  0.0000E+00  0.0000E+00  0.0000E+00  0.0000E+00  0.0000E+00  0.0000E+00  0.0000E+00
     11.639  0.0000E+00  0.0000E+00  0.0000E+00  0.0000E+00  0.0000E+00  0.0000E+00  0.0000E+00  0.0000E+00  0.0000E+00
     11.653  0.0000E+00  0.0000E+00  0.0000E+00  0.0000E+00  0.0000E+00  0.0000E+00  0.0000E+00  0.0000E+00  0.0000E+00
     11.667  0.0000E+00  0.0000E+00  0.0000E+00  0.0000E+00  0.0000E+00  0.0000E+00  0.0000E+00  0.0000E+00  0.0000E+00
     11.681  0.0000E+00  0.0000E+00  0.0000E+00  0.0000E+00  0.0000E+00  0.0000E+00  0.0000E+00  0.0000E+00  0.0000E+00
     11.695  0.0000E+00  0.0000E+00  0.0000E+00  0.0000E+00  0.0000E+00  0.0000E+00  0.0000E+00  0.0000E+00  0.0000E+00
     11.709  0.0000E+00  0.0000E+00  0.0000E+00  0.0000E+00  0.0000E+00  0.0000E+00  0.0000E+00  0.0000E+00  0.0000E+00
     11.723  0.0000E+00  0.0000E+00  0.0000E+00  0.0000E+00  0.0000E+00  0.0000E+00  0.0000E+00  0.0000E+00  0.0000E+00
     11.737  0.0000E+00  0.0000E+00  0.0000E+00  0.0000E+00  0.0000E+00  0.0000E+00  0.0000E+00  0.0000E+00  0.0000E+00
     11.751  0.0000E+00  0.0000E+00  0.0000E+00  0.0000E+00  0.0000E+00  0.0000E+00  0.0000E+00  0.0000E+00  0.0000E+00
     11.765  0.0000E+00  0.0000E+00  0.0000E+00  0.0000E+00  0.0000E+00  0.0000E+00  0.0000E+00  0.0000E+00  0.0000E+00
     11.779  0.0000E+00  0.0000E+00  0.0000E+00  0.0000E+00  0.0000E+00  0.0000E+00  0.0000E+00  0.0000E+00  0.0000E+00
     11.793  0.0000E+00  0.0000E+00  0.0000E+00  0.0000E+00  0.0000E+00  0.0000E+00  0.0000E+00  0.0000E+00  0.0000E+00
     11.807  0.0000E+00  0.0000E+00  0.0000E+00  0.0000E+00  0.0000E+00  0.0000E+00  0.0000E+00  0.0000E+00  0.0000E+00
     11.821  0.0000E+00  0.0000E+00  0.0000E+00  0.0000E+00  0.0000E+00  0.0000E+00  0.0000E+00  0.0000E+00  0.0000E+00
     11.835  0.0000E+00  0.0000E+00  0.0000E+00  0.0000E+00  0.0000E+00  0.0000E+00  0.0000E+00  0.0000E+00  0.0000E+00
     11.849  0.0000E+00  0.0000E+00  0.0000E+00  0.0000E+00  0.0000E+00  0.0000E+00  0.0000E+00  0.0000E+00  0.0000E+00
     11.863  0.0000E+00  0.0000E+00  0.0000E+00  0.0000E+00  0.0000E+00  0.0000E+00  0.0000E+00  0.0000E+00  0.0000E+00
     11.877  0.0000E+00  0.0000E+00  0.0000E+00  0.0000E+00  0.0000E+00  0.0000E+00  0.0000E+00  0.0000E+00  0.0000E+00
     11.891  0.0000E+00  0.0000E+00  0.0000E+00  0.0000E+00  0.0000E+00  0.0000E+00  0.0000E+00  0.0000E+00  0.0000E+00
     11.905  0.0000E+00  0.0000E+00  0.0000E+00  0.0000E+00  0.0000E+00  0.0000E+00  0.0000E+00  0.0000E+00  0.0000E+00
     11.919  0.0000E+00  0.0000E+00  0.0000E+00  0.0000E+00  0.0000E+00  0.0000E+00  0.0000E+00  0.0000E+00  0.0000E+00
     11.933  0.0000E+00  0.0000E+00  0.0000E+00  0.0000E+00  0.0000E+00  0.0000E+00  0.0000E+00  0.0000E+00  0.0000E+00
     11.947  0.0000E+00  0.0000E+00  0.0000E+00  0.0000E+00  0.0000E+00  0.0000E+00  0.0000E+00  0.0000E+00  0.0000E+00
     11.961  0.0000E+00  0.0000E+00  0.0000E+00  0.0000E+00  0.0000E+00  0.0000E+00  0.0000E+00  0.0000E+00  0.0000E+00
     11.975  0.0000E+00  0.0000E+00  0.0000E+00  0.0000E+00  0.0000E+00  0.0000E+00  0.0000E+00  0.0000E+00  0.0000E+00
     11.989  0.0000E+00  0.0000E+00  0.0000E+00  0.0000E+00  0.0000E+00  0.0000E+00  0.0000E+00  0.0000E+00  0.0000E+00
     12.003  0.0000E+00  0.0000E+00  0.0000E+00  0.0000E+00  0.0000E+00  0.0000E+00  0.0000E+00  0.0000E+00  0.0000E+00
     12.017  0.0000E+00  0.0000E+00  0.0000E+00  0.0000E+00  0.0000E+00  0.0000E+00  0.0000E+00  0.0000E+00  0.0000E+00
     12.031  0.0000E+00  0.0000E+00  0.0000E+00  0.0000E+00  0.0000E+00  0.0000E+00  0.0000E+00  0.0000E+00  0.0000E+00
     12.044  0.0000E+00  0.0000E+00  0.0000E+00  0.0000E+00  0.0000E+00  0.0000E+00  0.0000E+00  0.0000E+00  0.0000E+00
     12.058  0.0000E+00  0.0000E+00  0.0000E+00  0.0000E+00  0.0000E+00  0.0000E+00  0.0000E+00  0.0000E+00  0.0000E+00
     12.072  0.0000E+00  0.0000E+00  0.0000E+00  0.0000E+00  0.0000E+00  0.0000E+00  0.0000E+00  0.0000E+00  0.0000E+00
     12.086  0.0000E+00  0.0000E+00  0.0000E+00  0.0000E+00  0.0000E+00  0.0000E+00  0.0000E+00  0.0000E+00  0.0000E+00
     12.100  0.0000E+00  0.0000E+00  0.0000E+00  0.0000E+00  0.0000E+00  0.0000E+00  0.0000E+00  0.0000E+00  0.0000E+00
     12.114  0.0000E+00  0.0000E+00  0.0000E+00  0.0000E+00  0.0000E+00  0.0000E+00  0.0000E+00  0.0000E+00  0.0000E+00
     12.128  0.0000E+00  0.0000E+00  0.0000E+00  0.0000E+00  0.0000E+00  0.0000E+00  0.0000E+00  0.0000E+00  0.0000E+00
     12.142  0.0000E+00  0.0000E+00  0.0000E+00  0.0000E+00  0.0000E+00  0.0000E+00  0.0000E+00  0.0000E+00  0.0000E+00
     12.156  0.0000E+00  0.0000E+00  0.0000E+00  0.0000E+00  0.0000E+00  0.0000E+00  0.0000E+00  0.0000E+00  0.0000E+00
     12.170  0.0000E+00  0.0000E+00  0.0000E+00  0.0000E+00  0.0000E+00  0.0000E+00  0.0000E+00  0.0000E+00  0.0000E+00
     12.184  0.0000E+00  0.0000E+00  0.0000E+00  0.0000E+00  0.0000E+00  0.0000E+00  0.0000E+00  0.0000E+00  0.0000E+00
     12.198  0.0000E+00  0.0000E+00  0.0000E+00  0.0000E+00  0.0000E+00  0.0000E+00  0.0000E+00  0.0000E+00  0.0000E+00
     12.212  0.0000E+00  0.0000E+00  0.0000E+00  0.0000E+00  0.0000E+00  0.0000E+00  0.0000E+00  0.0000E+00  0.0000E+00
     12.226  0.0000E+00  0.0000E+00  0.0000E+00  0.0000E+00  0.0000E+00  0.0000E+00  0.0000E+00  0.0000E+00  0.0000E+00
     12.240  0.0000E+00  0.0000E+00  0.0000E+00  0.0000E+00  0.0000E+00  0.0000E+00  0.0000E+00  0.0000E+00  0.0000E+00
     12.254  0.0000E+00  0.0000E+00  0.0000E+00  0.0000E+00  0.0000E+00  0.0000E+00  0.0000E+00  0.0000E+00  0.0000E+00
     12.268  0.0000E+00  0.0000E+00  0.0000E+00  0.0000E+00  0.0000E+00  0.0000E+00  0.0000E+00  0.0000E+00  0.0000E+00
     12.282  0.0000E+00  0.0000E+00  0.0000E+00  0.0000E+00  0.0000E+00  0.0000E+00  0.0000E+00  0.0000E+00  0.0000E+00
     12.296  0.0000E+00  0.0000E+00  0.0000E+00  0.0000E+00  0.0000E+00  0.0000E+00  0.0000E+00  0.0000E+00  0.0000E+00
     12.310  0.0000E+00  0.0000E+00  0.0000E+00  0.0000E+00  0.0000E+00  0.0000E+00  0.0000E+00  0.0000E+00  0.0000E+00
     12.324  0.0000E+00  0.0000E+00  0.0000E+00  0.0000E+00  0.0000E+00  0.0000E+00  0.0000E+00  0.0000E+00  0.0000E+00
     12.338  0.0000E+00  0.0000E+00  0.0000E+00  0.0000E+00  0.0000E+00  0.0000E+00  0.0000E+00  0.0000E+00  0.0000E+00
     12.352  0.0000E+00  0.0000E+00  0.0000E+00  0.0000E+00  0.0000E+00  0.0000E+00  0.0000E+00  0.0000E+00  0.0000E+00
     12.366  0.0000E+00  0.0000E+00  0.0000E+00  0.0000E+00  0.0000E+00  0.0000E+00  0.0000E+00  0.0000E+00  0.0000E+00
     12.380  0.0000E+00  0.0000E+00  0.0000E+00  0.0000E+00  0.0000E+00  0.0000E+00  0.0000E+00  0.0000E+00  0.0000E+00
     12.394  0.0000E+00  0.0000E+00  0.0000E+00  0.0000E+00  0.0000E+00  0.0000E+00  0.0000E+00  0.0000E+00  0.0000E+00
     12.408  0.0000E+00  0.0000E+00  0.0000E+00  0.0000E+00  0.0000E+00  0.0000E+00  0.0000E+00  0.0000E+00  0.0000E+00
     12.422  0.0000E+00  0.0000E+00  0.0000E+00  0.0000E+00  0.0000E+00  0.0000E+00  0.0000E+00  0.0000E+00  0.0000E+00
     12.436  0.0000E+00  0.0000E+00  0.0000E+00  0.0000E+00  0.0000E+00  0.0000E+00  0.0000E+00  0.0000E+00  0.0000E+00
     12.450  0.0000E+00  0.0000E+00  0.0000E+00  0.0000E+00  0.0000E+00  0.0000E+00  0.0000E+00  0.0000E+00  0.0000E+00
     12.464  0.0000E+00  0.0000E+00  0.0000E+00  0.0000E+00  0.0000E+00  0.0000E+00  0.0000E+00  0.0000E+00  0.0000E+00
     12.478  0.0000E+00  0.0000E+00  0.0000E+00  0.0000E+00  0.0000E+00  0.0000E+00  0.0000E+00  0.0000E+00  0.0000E+00
     12.492  0.0000E+00  0.0000E+00  0.0000E+00  0.0000E+00  0.0000E+00  0.0000E+00  0.0000E+00  0.0000E+00  0.0000E+00
     12.506  0.0000E+00  0.0000E+00  0.0000E+00  0.0000E+00  0.0000E+00  0.0000E+00  0.0000E+00  0.0000E+00  0.0000E+00
     12.520  0.0000E+00  0.0000E+00  0.0000E+00  0.0000E+00  0.0000E+00  0.0000E+00  0.0000E+00  0.0000E+00  0.0000E+00
     12.534  0.0000E+00  0.0000E+00  0.0000E+00  0.0000E+00  0.0000E+00  0.0000E+00  0.0000E+00  0.0000E+00  0.0000E+00
     12.548  0.0000E+00  0.0000E+00  0.0000E+00  0.0000E+00  0.0000E+00  0.0000E+00  0.0000E+00  0.0000E+00  0.0000E+00
     12.562  0.0000E+00  0.0000E+00  0.0000E+00  0.0000E+00  0.0000E+00  0.0000E+00  0.0000E+00  0.0000E+00  0.0000E+00
     12.576  0.0000E+00  0.0000E+00  0.0000E+00  0.0000E+00  0.0000E+00  0.0000E+00  0.0000E+00  0.0000E+00  0.0000E+00
     12.590  0.0000E+00  0.0000E+00  0.0000E+00  0.0000E+00  0.0000E+00  0.0000E+00  0.0000E+00  0.0000E+00  0.0000E+00
     12.604  0.0000E+00  0.0000E+00  0.0000E+00  0.0000E+00  0.0000E+00  0.0000E+00  0.0000E+00  0.0000E+00  0.0000E+00
     12.618  0.0000E+00  0.0000E+00  0.0000E+00  0.0000E+00  0.0000E+00  0.0000E+00  0.0000E+00  0.0000E+00  0.0000E+00
     12.632  0.0000E+00  0.0000E+00  0.0000E+00  0.0000E+00  0.0000E+00  0.0000E+00  0.0000E+00  0.0000E+00  0.0000E+00
     12.645  0.0000E+00  0.0000E+00  0.0000E+00  0.0000E+00  0.0000E+00  0.0000E+00  0.0000E+00  0.0000E+00  0.0000E+00
     12.659  0.0000E+00  0.0000E+00  0.0000E+00  0.0000E+00  0.0000E+00  0.0000E+00  0.0000E+00  0.0000E+00  0.0000E+00
     12.673  0.0000E+00  0.0000E+00  0.0000E+00  0.0000E+00  0.0000E+00  0.0000E+00  0.0000E+00  0.0000E+00  0.0000E+00
     12.687  0.0000E+00  0.0000E+00  0.0000E+00  0.0000E+00  0.0000E+00  0.0000E+00  0.0000E+00  0.0000E+00  0.0000E+00
     12.701  0.0000E+00  0.0000E+00  0.0000E+00  0.0000E+00  0.0000E+00  0.0000E+00  0.0000E+00  0.0000E+00  0.0000E+00
     12.715  0.0000E+00  0.0000E+00  0.0000E+00  0.0000E+00  0.0000E+00  0.0000E+00  0.0000E+00  0.0000E+00  0.0000E+00
     12.729  0.0000E+00  0.0000E+00  0.0000E+00  0.0000E+00  0.0000E+00  0.0000E+00  0.0000E+00  0.0000E+00  0.0000E+00
     12.743  0.0000E+00  0.0000E+00  0.0000E+00  0.0000E+00  0.0000E+00  0.0000E+00  0.0000E+00  0.0000E+00  0.0000E+00
     12.757  0.0000E+00  0.0000E+00  0.0000E+00  0.0000E+00  0.0000E+00  0.0000E+00  0.0000E+00  0.0000E+00  0.0000E+00
     12.771  0.0000E+00  0.0000E+00  0.0000E+00  0.0000E+00  0.0000E+00  0.0000E+00  0.0000E+00  0.0000E+00  0.0000E+00
     12.785  0.0000E+00  0.0000E+00  0.0000E+00  0.0000E+00  0.0000E+00  0.0000E+00  0.0000E+00  0.0000E+00  0.0000E+00
     12.799  0.0000E+00  0.0000E+00  0.0000E+00  0.0000E+00  0.0000E+00  0.0000E+00  0.0000E+00  0.0000E+00  0.0000E+00
     12.813  0.0000E+00  0.0000E+00  0.0000E+00  0.0000E+00  0.0000E+00  0.0000E+00  0.0000E+00  0.0000E+00  0.0000E+00
     12.827  0.0000E+00  0.0000E+00  0.0000E+00  0.0000E+00  0.0000E+00  0.0000E+00  0.0000E+00  0.0000E+00  0.0000E+00
     12.841  0.0000E+00  0.0000E+00  0.0000E+00  0.0000E+00  0.0000E+00  0.0000E+00  0.0000E+00  0.0000E+00  0.0000E+00
     12.855  0.0000E+00  0.0000E+00  0.0000E+00  0.0000E+00  0.0000E+00  0.0000E+00  0.0000E+00  0.0000E+00  0.0000E+00
     12.869  0.0000E+00  0.0000E+00  0.0000E+00  0.0000E+00  0.0000E+00  0.0000E+00  0.0000E+00  0.0000E+00  0.0000E+00
     12.883  0.0000E+00  0.0000E+00  0.0000E+00  0.0000E+00  0.0000E+00  0.0000E+00  0.0000E+00  0.0000E+00  0.0000E+00
     12.897  0.0000E+00  0.0000E+00  0.0000E+00  0.0000E+00  0.0000E+00  0.0000E+00  0.0000E+00  0.0000E+00  0.0000E+00
     12.911  0.0000E+00  0.0000E+00  0.0000E+00  0.0000E+00  0.0000E+00  0.0000E+00  0.0000E+00  0.0000E+00  0.0000E+00
     12.925  0.0000E+00  0.0000E+00  0.0000E+00  0.0000E+00  0.0000E+00  0.0000E+00  0.0000E+00  0.0000E+00  0.0000E+00
     12.939  0.0000E+00  0.0000E+00  0.0000E+00  0.0000E+00  0.0000E+00  0.0000E+00  0.0000E+00  0.0000E+00  0.0000E+00
     12.953  0.0000E+00  0.0000E+00  0.0000E+00  0.0000E+00  0.0000E+00  0.0000E+00  0.0000E+00  0.0000E+00  0.0000E+00
     12.967  0.0000E+00  0.0000E+00  0.0000E+00  0.0000E+00  0.0000E+00  0.0000E+00  0.0000E+00  0.0000E+00  0.0000E+00
     12.981  0.0000E+00  0.0000E+00  0.0000E+00  0.0000E+00  0.0000E+00  0.0000E+00  0.0000E+00  0.0000E+00  0.0000E+00
     12.995  0.0000E+00  0.0000E+00  0.0000E+00  0.0000E+00  0.0000E+00  0.0000E+00  0.0000E+00  0.0000E+00  0.0000E+00
     13.009  0.0000E+00  0.0000E+00  0.0000E+00  0.0000E+00  0.0000E+00  0.0000E+00  0.0000E+00  0.0000E+00  0.0000E+00
     13.023  0.0000E+00  0.0000E+00  0.0000E+00  0.0000E+00  0.0000E+00  0.0000E+00  0.0000E+00  0.0000E+00  0.0000E+00
     13.037  0.0000E+00  0.0000E+00  0.0000E+00  0.0000E+00  0.0000E+00  0.0000E+00  0.0000E+00  0.0000E+00  0.0000E+00
     13.051  0.0000E+00  0.0000E+00  0.0000E+00  0.0000E+00  0.0000E+00  0.0000E+00  0.0000E+00  0.0000E+00  0.0000E+00
     13.065  0.0000E+00  0.0000E+00  0.0000E+00  0.0000E+00  0.0000E+00  0.0000E+00  0.0000E+00  0.0000E+00  0.0000E+00
     13.079  0.0000E+00  0.0000E+00  0.0000E+00  0.0000E+00  0.0000E+00  0.0000E+00  0.0000E+00  0.0000E+00  0.0000E+00
     13.093  0.0000E+00  0.0000E+00  0.0000E+00  0.0000E+00  0.0000E+00  0.0000E+00  0.0000E+00  0.0000E+00  0.0000E+00
     13.107  0.0000E+00  0.0000E+00  0.0000E+00  0.0000E+00  0.0000E+00  0.0000E+00  0.0000E+00  0.0000E+00  0.0000E+00
     13.121  0.0000E+00  0.0000E+00  0.0000E+00  0.0000E+00  0.0000E+00  0.0000E+00  0.0000E+00  0.0000E+00  0.0000E+00
     13.135  0.0000E+00  0.0000E+00  0.0000E+00  0.0000E+00  0.0000E+00  0.0000E+00  0.0000E+00  0.0000E+00  0.0000E+00
     13.149  0.0000E+00  0.0000E+00  0.0000E+00  0.0000E+00  0.0000E+00  0.0000E+00  0.0000E+00  0.0000E+00  0.0000E+00
     13.163  0.0000E+00  0.0000E+00  0.0000E+00  0.0000E+00  0.0000E+00  0.0000E+00  0.0000E+00  0.0000E+00  0.0000E+00
     13.177  0.0000E+00  0.0000E+00  0.0000E+00  0.0000E+00  0.0000E+00  0.0000E+00  0.0000E+00  0.0000E+00  0.0000E+00
     13.191  0.0000E+00  0.0000E+00  0.0000E+00  0.0000E+00  0.0000E+00  0.0000E+00  0.0000E+00  0.0000E+00  0.0000E+00
     13.205  0.0000E+00  0.0000E+00  0.0000E+00  0.0000E+00  0.0000E+00  0.0000E+00  0.0000E+00  0.0000E+00  0.0000E+00
     13.219  0.0000E+00  0.0000E+00  0.0000E+00  0.0000E+00  0.0000E+00  0.0000E+00  0.0000E+00  0.0000E+00  0.0000E+00
     13.233  0.0000E+00  0.0000E+00  0.0000E+00  0.0000E+00  0.0000E+00  0.0000E+00  0.0000E+00  0.0000E+00  0.0000E+00
     13.246  0.0000E+00  0.0000E+00  0.0000E+00  0.0000E+00  0.0000E+00  0.0000E+00  0.0000E+00  0.0000E+00  0.0000E+00
     13.260  0.0000E+00  0.0000E+00  0.0000E+00  0.0000E+00  0.0000E+00  0.0000E+00  0.0000E+00  0.0000E+00  0.0000E+00
     13.274  0.0000E+00  0.0000E+00  0.0000E+00  0.0000E+00  0.0000E+00  0.0000E+00  0.0000E+00  0.0000E+00  0.0000E+00
     13.288  0.0000E+00  0.0000E+00  0.0000E+00  0.0000E+00  0.0000E+00  0.0000E+00  0.0000E+00  0.0000E+00  0.0000E+00
     13.302  0.0000E+00  0.0000E+00  0.0000E+00  0.0000E+00  0.0000E+00  0.0000E+00  0.0000E+00  0.0000E+00  0.0000E+00
     13.316  0.0000E+00  0.0000E+00  0.0000E+00  0.0000E+00  0.0000E+00  0.0000E+00  0.0000E+00  0.0000E+00  0.0000E+00
     13.330  0.0000E+00  0.0000E+00  0.0000E+00  0.0000E+00  0.0000E+00  0.0000E+00  0.0000E+00  0.0000E+00  0.0000E+00
     13.344  0.0000E+00  0.0000E+00  0.0000E+00  0.0000E+00  0.0000E+00  0.0000E+00  0.0000E+00  0.0000E+00  0.0000E+00
     13.358  0.0000E+00  0.0000E+00  0.0000E+00  0.0000E+00  0.0000E+00  0.0000E+00  0.0000E+00  0.0000E+00  0.0000E+00
     13.372  0.0000E+00  0.0000E+00  0.0000E+00  0.0000E+00  0.0000E+00  0.0000E+00  0.0000E+00  0.0000E+00  0.0000E+00
     13.386  0.0000E+00  0.0000E+00  0.0000E+00  0.0000E+00  0.0000E+00  0.0000E+00  0.0000E+00  0.0000E+00  0.0000E+00
     13.400  0.0000E+00  0.0000E+00  0.0000E+00  0.0000E+00  0.0000E+00  0.0000E+00  0.0000E+00  0.0000E+00  0.0000E+00
     13.414  0.0000E+00  0.0000E+00  0.0000E+00  0.0000E+00  0.0000E+00  0.0000E+00  0.0000E+00  0.0000E+00  0.0000E+00
     13.428  0.0000E+00  0.0000E+00  0.0000E+00  0.0000E+00  0.0000E+00  0.0000E+00  0.0000E+00  0.0000E+00  0.0000E+00
     13.442  0.0000E+00  0.0000E+00  0.0000E+00  0.0000E+00  0.0000E+00  0.0000E+00  0.0000E+00  0.0000E+00  0.0000E+00
     13.456  0.0000E+00  0.0000E+00  0.0000E+00  0.0000E+00  0.0000E+00  0.0000E+00  0.0000E+00  0.0000E+00  0.0000E+00
     13.470  0.0000E+00  0.0000E+00  0.0000E+00  0.0000E+00  0.0000E+00  0.0000E+00  0.0000E+00  0.0000E+00  0.0000E+00
     13.484  0.0000E+00  0.0000E+00  0.0000E+00  0.0000E+00  0.0000E+00  0.0000E+00  0.0000E+00  0.0000E+00  0.0000E+00
     13.498  0.0000E+00  0.0000E+00  0.0000E+00  0.0000E+00  0.0000E+00  0.0000E+00  0.0000E+00  0.0000E+00  0.0000E+00
     13.512  0.0000E+00  0.0000E+00  0.0000E+00  0.0000E+00  0.0000E+00  0.0000E+00  0.0000E+00  0.0000E+00  0.0000E+00
     13.526  0.0000E+00  0.0000E+00  0.0000E+00  0.0000E+00  0.0000E+00  0.0000E+00  0.0000E+00  0.0000E+00  0.0000E+00
     13.540  0.0000E+00  0.0000E+00  0.0000E+00  0.0000E+00  0.0000E+00  0.0000E+00  0.0000E+00  0.0000E+00  0.0000E+00
     13.554  0.0000E+00  0.0000E+00  0.0000E+00  0.0000E+00  0.0000E+00  0.0000E+00  0.0000E+00  0.0000E+00  0.0000E+00
     13.568  0.0000E+00  0.0000E+00  0.0000E+00  0.0000E+00  0.0000E+00  0.0000E+00  0.0000E+00  0.0000E+00  0.0000E+00
     13.582  0.0000E+00  0.0000E+00  0.0000E+00  0.0000E+00  0.0000E+00  0.0000E+00  0.0000E+00  0.0000E+00  0.0000E+00
     13.596  0.0000E+00  0.0000E+00  0.0000E+00  0.0000E+00  0.0000E+00  0.0000E+00  0.0000E+00  0.0000E+00  0.0000E+00
     13.610  0.0000E+00  0.0000E+00  0.0000E+00  0.0000E+00  0.0000E+00  0.0000E+00  0.0000E+00  0.0000E+00  0.0000E+00
     13.624  0.0000E+00  0.0000E+00  0.0000E+00  0.0000E+00  0.0000E+00  0.0000E+00  0.0000E+00  0.0000E+00  0.0000E+00
     13.638  0.0000E+00  0.0000E+00  0.0000E+00  0.0000E+00  0.0000E+00  0.0000E+00  0.0000E+00  0.0000E+00  0.0000E+00
     13.652  0.0000E+00  0.0000E+00  0.0000E+00  0.0000E+00  0.0000E+00  0.0000E+00  0.0000E+00  0.0000E+00  0.0000E+00
     13.666  0.0000E+00  0.0000E+00  0.0000E+00  0.0000E+00  0.0000E+00  0.0000E+00  0.0000E+00  0.0000E+00  0.0000E+00
     13.680  0.0000E+00  0.0000E+00  0.0000E+00  0.0000E+00  0.0000E+00  0.0000E+00  0.0000E+00  0.0000E+00  0.0000E+00
     13.694  0.0000E+00  0.0000E+00  0.0000E+00  0.0000E+00  0.0000E+00  0.0000E+00  0.0000E+00  0.0000E+00  0.0000E+00
     13.708  0.0000E+00  0.0000E+00  0.0000E+00  0.0000E+00  0.0000E+00  0.0000E+00  0.0000E+00  0.0000E+00  0.0000E+00
     13.722  0.0000E+00  0.0000E+00  0.0000E+00  0.0000E+00  0.0000E+00  0.0000E+00  0.0000E+00  0.0000E+00  0.0000E+00
     13.736  0.0000E+00  0.0000E+00  0.0000E+00  0.0000E+00  0.0000E+00  0.0000E+00  0.0000E+00  0.0000E+00  0.0000E+00
     13.750  0.0000E+00  0.0000E+00  0.0000E+00  0.0000E+00  0.0000E+00  0.0000E+00  0.0000E+00  0.0000E+00  0.0000E+00
     13.764  0.0000E+00  0.0000E+00  0.0000E+00  0.0000E+00  0.0000E+00  0.0000E+00  0.0000E+00  0.0000E+00  0.0000E+00
     13.778  0.0000E+00  0.0000E+00  0.0000E+00  0.0000E+00  0.0000E+00  0.0000E+00  0.0000E+00  0.0000E+00  0.0000E+00
     13.792  0.0000E+00  0.0000E+00  0.0000E+00  0.0000E+00  0.0000E+00  0.0000E+00  0.0000E+00  0.0000E+00  0.0000E+00
     13.806  0.1182E-05  0.4212E-06  0.4212E-06  0.4212E-06  0.0000E+00  0.0000E+00  0.0000E+00  0.0000E+00  0.0000E+00
     13.820  0.3648E-04  0.1300E-04  0.1300E-04  0.1300E-04  0.0000E+00  0.0000E+00  0.0000E+00  0.0000E+00  0.0000E+00
     13.834  0.1208E-03  0.4306E-04  0.4306E-04  0.4306E-04  0.0000E+00  0.0000E+00  0.0000E+00  0.0000E+00  0.0000E+00
     13.847  0.2543E-03  0.9061E-04  0.9061E-04  0.9061E-04  0.0000E+00  0.0000E+00  0.0000E+00  0.0000E+00  0.0000E+00
     13.861  0.4367E-03  0.1556E-03  0.1556E-03  0.1556E-03  0.0000E+00  0.0000E+00  0.0000E+00  0.0000E+00  0.0000E+00
     13.875  0.6594E-03  0.2352E-03  0.2352E-03  0.2352E-03  0.0000E+00  0.0000E+00  0.0000E+00  0.0000E+00  0.0000E+00
     13.889  0.8920E-03  0.3189E-03  0.3189E-03  0.3189E-03  0.0000E+00  0.0000E+00  0.0000E+00  0.0000E+00  0.0000E+00
     13.903  0.1132E-02  0.4060E-03  0.4060E-03  0.4060E-03  0.0000E+00  0.0000E+00  0.0000E+00  0.0000E+00  0.0000E+00
     13.917  0.1379E-02  0.4966E-03  0.4966E-03  0.4966E-03  0.0000E+00  0.0000E+00  0.0000E+00  0.0000E+00  0.0000E+00
     13.931  0.1634E-02  0.5904E-03  0.5904E-03  0.5904E-03  0.0000E+00  0.0000E+00  0.0000E+00  0.0000E+00  0.0000E+00
     13.945  0.1896E-02  0.6877E-03  0.6877E-03  0.6877E-03  0.0000E+00  0.0000E+00  0.0000E+00  0.0000E+00  0.0000E+00
     13.959  0.2165E-02  0.7883E-03  0.7883E-03  0.7883E-03  0.0000E+00  0.0000E+00  0.0000E+00  0.0000E+00  0.0000E+00
     13.973  0.2442E-02  0.8923E-03  0.8923E-03  0.8923E-03  0.0000E+00  0.0000E+00  0.0000E+00  0.0000E+00  0.0000E+00
     13.987  0.2726E-02  0.9997E-03  0.9997E-03  0.9997E-03  0.0000E+00  0.0000E+00  0.0000E+00  0.0000E+00  0.0000E+00
     14.001  0.3018E-02  0.1110E-02  0.1110E-02  0.1110E-02  0.0000E+00  0.0000E+00  0.0000E+00  0.0000E+00  0.0000E+00
     14.015  0.3317E-02  0.1225E-02  0.1225E-02  0.1225E-02  0.0000E+00  0.0000E+00  0.0000E+00  0.0000E+00  0.0000E+00
     14.029  0.3623E-02  0.1342E-02  0.1342E-02  0.1342E-02  0.0000E+00  0.0000E+00  0.0000E+00  0.0000E+00  0.0000E+00
     14.043  0.3936E-02  0.1463E-02  0.1463E-02  0.1463E-02  0.0000E+00  0.0000E+00  0.0000E+00  0.0000E+00  0.0000E+00
     14.057  0.4257E-02  0.1587E-02  0.1587E-02  0.1587E-02  0.0000E+00  0.0000E+00  0.0000E+00  0.0000E+00  0.0000E+00
     14.071  0.4585E-02  0.1715E-02  0.1715E-02  0.1715E-02  0.0000E+00  0.0000E+00  0.0000E+00  0.0000E+00  0.0000E+00
     14.085  0.4921E-02  0.1846E-02  0.1846E-02  0.1846E-02  0.0000E+00  0.0000E+00  0.0000E+00  0.0000E+00  0.0000E+00
     14.099  0.5264E-02  0.1980E-02  0.1980E-02  0.1980E-02  0.0000E+00  0.0000E+00  0.0000E+00  0.0000E+00  0.0000E+00
     14.113  0.5614E-02  0.2118E-02  0.2118E-02  0.2118E-02  0.0000E+00  0.0000E+00  0.0000E+00  0.0000E+00  0.0000E+00
     14.127  0.5972E-02  0.2259E-02  0.2259E-02  0.2259E-02  0.0000E+00  0.0000E+00  0.0000E+00  0.0000E+00  0.0000E+00
     14.141  0.6337E-02  0.2404E-02  0.2404E-02  0.2404E-02  0.0000E+00  0.0000E+00  0.0000E+00  0.0000E+00  0.0000E+00
     14.155  0.6709E-02  0.2552E-02  0.2552E-02  0.2552E-02  0.0000E+00  0.0000E+00  0.0000E+00  0.0000E+00  0.0000E+00
     14.169  0.7089E-02  0.2703E-02  0.2703E-02  0.2703E-02  0.0000E+00  0.0000E+00  0.0000E+00  0.0000E+00  0.0000E+00
     14.183  0.7476E-02  0.2858E-02  0.2858E-02  0.2858E-02  0.0000E+00  0.0000E+00  0.0000E+00  0.0000E+00  0.0000E+00
     14.197  0.7871E-02  0.3016E-02  0.3016E-02  0.3016E-02  0.0000E+00  0.0000E+00  0.0000E+00  0.0000E+00  0.0000E+00
     14.211  0.8273E-02  0.3177E-02  0.3177E-02  0.3177E-02  0.0000E+00  0.0000E+00  0.0000E+00  0.0000E+00  0.0000E+00
     14.225  0.8682E-02  0.3342E-02  0.3342E-02  0.3342E-02  0.0000E+00  0.0000E+00  0.0000E+00  0.0000E+00  0.0000E+00
     14.239  0.9098E-02  0.3510E-02  0.3510E-02  0.3510E-02  0.0000E+00  0.0000E+00  0.0000E+00  0.0000E+00  0.0000E+00
     14.253  0.9522E-02  0.3681E-02  0.3681E-02  0.3681E-02  0.0000E+00  0.0000E+00  0.0000E+00  0.0000E+00  0.0000E+00
     14.267  0.9954E-02  0.3856E-02  0.3856E-02  0.3856E-02  0.0000E+00  0.0000E+00  0.0000E+00  0.0000E+00  0.0000E+00
     14.281  0.1039E-01  0.4035E-02  0.4035E-02  0.4035E-02  0.0000E+00  0.0000E+00  0.0000E+00  0.0000E+00  0.0000E+00
     14.295  0.1084E-01  0.4216E-02  0.4216E-02  0.4216E-02  0.0000E+00  0.0000E+00  0.0000E+00  0.0000E+00  0.0000E+00
     14.309  0.1129E-01  0.4401E-02  0.4401E-02  0.4401E-02  0.0000E+00  0.0000E+00  0.0000E+00  0.0000E+00  0.0000E+00
     14.323  0.1175E-01  0.4590E-02  0.4590E-02  0.4590E-02  0.0000E+00  0.0000E+00  0.0000E+00  0.0000E+00  0.0000E+00
     14.337  0.1222E-01  0.4781E-02  0.4781E-02  0.4781E-02  0.0000E+00  0.0000E+00  0.0000E+00  0.0000E+00  0.0000E+00
     14.351  0.1270E-01  0.4977E-02  0.4977E-02  0.4977E-02  0.0000E+00  0.0000E+00  0.0000E+00  0.0000E+00  0.0000E+00
     14.365  0.1318E-01  0.5175E-02  0.5175E-02  0.5175E-02  0.0000E+00  0.0000E+00  0.0000E+00  0.0000E+00  0.0000E+00
     14.379  0.1366E-01  0.5378E-02  0.5378E-02  0.5378E-02  0.0000E+00  0.0000E+00  0.0000E+00  0.0000E+00  0.0000E+00
     14.393  0.1415E-01  0.5584E-02  0.5584E-02  0.5584E-02  0.0000E+00  0.0000E+00  0.0000E+00  0.0000E+00  0.0000E+00
     14.407  0.1462E-01  0.5789E-02  0.5789E-02  0.5789E-02  0.0000E+00  0.0000E+00  0.0000E+00  0.0000E+00  0.0000E+00
     14.421  0.1504E-01  0.5992E-02  0.5992E-02  0.5992E-02  0.0000E+00  0.0000E+00  0.0000E+00  0.0000E+00  0.0000E+00
     14.435  0.1543E-01  0.6194E-02  0.6194E-02  0.6194E-02  0.0000E+00  0.0000E+00  0.0000E+00  0.0000E+00  0.0000E+00
     14.448  0.1576E-01  0.6390E-02  0.6390E-02  0.6390E-02  0.0000E+00  0.0000E+00  0.0000E+00  0.0000E+00  0.0000E+00
     14.462  0.1603E-01  0.6579E-02  0.6579E-02  0.6579E-02  0.0000E+00  0.0000E+00  0.0000E+00  0.0000E+00  0.0000E+00
     14.476  0.1626E-01  0.6761E-02  0.6761E-02  0.6761E-02  0.0000E+00  0.0000E+00  0.0000E+00  0.0000E+00  0.0000E+00
     14.490  0.1652E-01  0.6935E-02  0.6935E-02  0.6935E-02  0.0000E+00  0.0000E+00  0.0000E+00  0.0000E+00  0.0000E+00
     14.504  0.1677E-01  0.7111E-02  0.7111E-02  0.7111E-02  0.0000E+00  0.0000E+00  0.0000E+00  0.0000E+00  0.0000E+00
     14.518  0.1703E-01  0.7288E-02  0.7288E-02  0.7288E-02  0.0000E+00  0.0000E+00  0.0000E+00  0.0000E+00  0.0000E+00
     14.532  0.1728E-01  0.7466E-02  0.7466E-02  0.7466E-02  0.0000E+00  0.0000E+00  0.0000E+00  0.0000E+00  0.0000E+00
     14.546  0.1752E-01  0.7646E-02  0.7646E-02  0.7646E-02  0.0000E+00  0.0000E+00  0.0000E+00  0.0000E+00  0.0000E+00
     14.560  0.1777E-01  0.7827E-02  0.7827E-02  0.7827E-02  0.0000E+00  0.0000E+00  0.0000E+00  0.0000E+00  0.0000E+00
     14.574  0.1801E-01  0.8009E-02  0.8009E-02  0.8009E-02  0.0000E+00  0.0000E+00  0.0000E+00  0.0000E+00  0.0000E+00
     14.588  0.1825E-01  0.8192E-02  0.8192E-02  0.8192E-02  0.0000E+00  0.0000E+00  0.0000E+00  0.0000E+00  0.0000E+00
     14.602  0.1848E-01  0.8376E-02  0.8376E-02  0.8376E-02  0.0000E+00  0.0000E+00  0.0000E+00  0.0000E+00  0.0000E+00
     14.616  0.1871E-01  0.8562E-02  0.8562E-02  0.8562E-02  0.0000E+00  0.0000E+00  0.0000E+00  0.0000E+00  0.0000E+00
     14.630  0.1894E-01  0.8749E-02  0.8749E-02  0.8749E-02  0.0000E+00  0.0000E+00  0.0000E+00  0.0000E+00  0.0000E+00
     14.644  0.1917E-01  0.8937E-02  0.8937E-02  0.8937E-02  0.0000E+00  0.0000E+00  0.0000E+00  0.0000E+00  0.0000E+00
     14.658  0.1939E-01  0.9127E-02  0.9127E-02  0.9127E-02  0.0000E+00  0.0000E+00  0.0000E+00  0.0000E+00  0.0000E+00
     14.672  0.1961E-01  0.9317E-02  0.9317E-02  0.9317E-02  0.0000E+00  0.0000E+00  0.0000E+00  0.0000E+00  0.0000E+00
     14.686  0.1983E-01  0.9509E-02  0.9509E-02  0.9509E-02  0.0000E+00  0.0000E+00  0.0000E+00  0.0000E+00  0.0000E+00
     14.700  0.2004E-01  0.9702E-02  0.9702E-02  0.9702E-02  0.0000E+00  0.0000E+00  0.0000E+00  0.0000E+00  0.0000E+00
     14.714  0.2025E-01  0.9897E-02  0.9897E-02  0.9897E-02  0.0000E+00  0.0000E+00  0.0000E+00  0.0000E+00  0.0000E+00
     14.728  0.2046E-01  0.1009E-01  0.1009E-01  0.1009E-01  0.0000E+00  0.0000E+00  0.0000E+00  0.0000E+00  0.0000E+00
     14.742  0.2066E-01  0.1029E-01  0.1029E-01  0.1029E-01  0.0000E+00  0.0000E+00  0.0000E+00  0.0000E+00  0.0000E+00
     14.756  0.2086E-01  0.1049E-01  0.1049E-01  0.1049E-01  0.0000E+00  0.0000E+00  0.0000E+00  0.0000E+00  0.0000E+00
     14.770  0.2106E-01  0.1069E-01  0.1069E-01  0.1069E-01  0.0000E+00  0.0000E+00  0.0000E+00  0.0000E+00  0.0000E+00
     14.784  0.2126E-01  0.1089E-01  0.1089E-01  0.1089E-01  0.0000E+00  0.0000E+00  0.0000E+00  0.0000E+00  0.0000E+00
     14.798  0.2146E-01  0.1109E-01  0.1109E-01  0.1109E-01  0.0000E+00  0.0000E+00  0.0000E+00  0.0000E+00  0.0000E+00
     14.812  0.2166E-01  0.1129E-01  0.1129E-01  0.1129E-01  0.0000E+00  0.0000E+00  0.0000E+00  0.0000E+00  0.0000E+00
     14.826  0.2186E-01  0.1149E-01  0.1149E-01  0.1149E-01  0.0000E+00  0.0000E+00  0.0000E+00  0.0000E+00  0.0000E+00
     14.840  0.2206E-01  0.1169E-01  0.1169E-01  0.1169E-01  0.0000E+00  0.0000E+00  0.0000E+00  0.0000E+00  0.0000E+00
     14.854  0.2226E-01  0.1189E-01  0.1189E-01  0.1189E-01  0.0000E+00  0.0000E+00  0.0000E+00  0.0000E+00  0.0000E+00
     14.868  0.2246E-01  0.1209E-01  0.1209E-01  0.1209E-01  0.0000E+00  0.0000E+00  0.0000E+00  0.0000E+00  0.0000E+00
     14.882  0.2266E-01  0.1230E-01  0.1230E-01  0.1230E-01  0.0000E+00  0.0000E+00  0.0000E+00  0.0000E+00  0.0000E+00
     14.896  0.2286E-01  0.1250E-01  0.1250E-01  0.1250E-01  0.0000E+00  0.0000E+00  0.0000E+00  0.0000E+00  0.0000E+00
     14.910  0.2306E-01  0.1270E-01  0.1270E-01  0.1270E-01  0.0000E+00  0.0000E+00  0.0000E+00  0.0000E+00  0.0000E+00
     14.924  0.2325E-01  0.1291E-01  0.1291E-01  0.1291E-01  0.0000E+00  0.0000E+00  0.0000E+00  0.0000E+00  0.0000E+00
     14.938  0.2345E-01  0.1311E-01  0.1311E-01  0.1311E-01  0.0000E+00  0.0000E+00  0.0000E+00  0.0000E+00  0.0000E+00
     14.952  0.2365E-01  0.1332E-01  0.1332E-01  0.1332E-01  0.0000E+00  0.0000E+00  0.0000E+00  0.0000E+00  0.0000E+00
     14.966  0.2385E-01  0.1353E-01  0.1353E-01  0.1353E-01  0.0000E+00  0.0000E+00  0.0000E+00  0.0000E+00  0.0000E+00
     14.980  0.2404E-01  0.1375E-01  0.1375E-01  0.1375E-01  0.0000E+00  0.0000E+00  0.0000E+00  0.0000E+00  0.0000E+00
     14.994  0.2424E-01  0.1398E-01  0.1398E-01  0.1398E-01  0.0000E+00  0.0000E+00  0.0000E+00  0.0000E+00  0.0000E+00
     15.008  0.2443E-01  0.1422E-01  0.1422E-01  0.1422E-01  0.0000E+00  0.0000E+00  0.0000E+00  0.0000E+00  0.0000E+00
     15.022  0.2461E-01  0.1447E-01  0.1447E-01  0.1447E-01  0.0000E+00  0.0000E+00  0.0000E+00  0.0000E+00  0.0000E+00
     15.036  0.2480E-01  0.1473E-01  0.1473E-01  0.1473E-01  0.0000E+00  0.0000E+00  0.0000E+00  0.0000E+00  0.0000E+00
     15.049  0.2498E-01  0.1499E-01  0.1499E-01  0.1499E-01  0.0000E+00  0.0000E+00  0.0000E+00  0.0000E+00  0.0000E+00
     15.063  0.2516E-01  0.1526E-01  0.1526E-01  0.1526E-01  0.0000E+00  0.0000E+00  0.0000E+00  0.0000E+00  0.0000E+00
     15.077  0.2533E-01  0.1554E-01  0.1554E-01  0.1554E-01  0.0000E+00  0.0000E+00  0.0000E+00  0.0000E+00  0.0000E+00
     15.091  0.2550E-01  0.1583E-01  0.1583E-01  0.1583E-01  0.0000E+00  0.0000E+00  0.0000E+00  0.0000E+00  0.0000E+00
     15.105  0.2567E-01  0.1612E-01  0.1612E-01  0.1612E-01  0.0000E+00  0.0000E+00  0.0000E+00  0.0000E+00  0.0000E+00
     15.119  0.2583E-01  0.1643E-01  0.1643E-01  0.1643E-01  0.0000E+00  0.0000E+00  0.0000E+00  0.0000E+00  0.0000E+00
     15.133  0.2600E-01  0.1674E-01  0.1674E-01  0.1674E-01  0.0000E+00  0.0000E+00  0.0000E+00  0.0000E+00  0.0000E+00
     15.147  0.2615E-01  0.1706E-01  0.1706E-01  0.1706E-01  0.0000E+00  0.0000E+00  0.0000E+00  0.0000E+00  0.0000E+00
     15.161  0.2631E-01  0.1739E-01  0.1739E-01  0.1739E-01  0.0000E+00  0.0000E+00  0.0000E+00  0.0000E+00  0.0000E+00
     15.175  0.2646E-01  0.1773E-01  0.1773E-01  0.1773E-01  0.0000E+00  0.0000E+00  0.0000E+00  0.0000E+00  0.0000E+00
     15.189  0.2661E-01  0.1807E-01  0.1807E-01  0.1807E-01  0.0000E+00  0.0000E+00  0.0000E+00  0.0000E+00  0.0000E+00
     15.203  0.2676E-01  0.1843E-01  0.1843E-01  0.1843E-01  0.0000E+00  0.0000E+00  0.0000E+00  0.0000E+00  0.0000E+00
     15.217  0.2692E-01  0.1879E-01  0.1879E-01  0.1879E-01  0.0000E+00  0.0000E+00  0.0000E+00  0.0000E+00  0.0000E+00
     15.231  0.2708E-01  0.1917E-01  0.1917E-01  0.1917E-01  0.0000E+00  0.0000E+00  0.0000E+00  0.0000E+00  0.0000E+00
     15.245  0.2724E-01  0.1954E-01  0.1954E-01  0.1954E-01  0.0000E+00  0.0000E+00  0.0000E+00  0.0000E+00  0.0000E+00
     15.259  0.2740E-01  0.1992E-01  0.1992E-01  0.1992E-01  0.0000E+00  0.0000E+00  0.0000E+00  0.0000E+00  0.0000E+00
     15.273  0.2757E-01  0.2030E-01  0.2030E-01  0.2030E-01  0.0000E+00  0.0000E+00  0.0000E+00  0.0000E+00  0.0000E+00
     15.287  0.2774E-01  0.2068E-01  0.2068E-01  0.2068E-01  0.0000E+00  0.0000E+00  0.0000E+00  0.0000E+00  0.0000E+00
     15.301  0.2791E-01  0.2107E-01  0.2107E-01  0.2107E-01  0.0000E+00  0.0000E+00  0.0000E+00  0.0000E+00  0.0000E+00
     15.315  0.2808E-01  0.2145E-01  0.2145E-01  0.2145E-01  0.0000E+00  0.0000E+00  0.0000E+00  0.0000E+00  0.0000E+00
     15.329  0.2825E-01  0.2184E-01  0.2184E-01  0.2184E-01  0.0000E+00  0.0000E+00  0.0000E+00  0.0000E+00  0.0000E+00
     15.343  0.2841E-01  0.2223E-01  0.2223E-01  0.2223E-01  0.0000E+00  0.0000E+00  0.0000E+00  0.0000E+00  0.0000E+00
     15.357  0.2858E-01  0.2262E-01  0.2262E-01  0.2262E-01  0.0000E+00  0.0000E+00  0.0000E+00  0.0000E+00  0.0000E+00
     15.371  0.2875E-01  0.2302E-01  0.2302E-01  0.2302E-01  0.0000E+00  0.0000E+00  0.0000E+00  0.0000E+00  0.0000E+00
     15.385  0.2892E-01  0.2341E-01  0.2341E-01  0.2341E-01  0.0000E+00  0.0000E+00  0.0000E+00  0.0000E+00  0.0000E+00
     15.399  0.2909E-01  0.2380E-01  0.2380E-01  0.2380E-01  0.0000E+00  0.0000E+00  0.0000E+00  0.0000E+00  0.0000E+00
     15.413  0.2926E-01  0.2418E-01  0.2418E-01  0.2418E-01  0.0000E+00  0.0000E+00  0.0000E+00  0.0000E+00  0.0000E+00
     15.427  0.2943E-01  0.2455E-01  0.2455E-01  0.2455E-01  0.0000E+00  0.0000E+00  0.0000E+00  0.0000E+00  0.0000E+00
     15.441  0.2959E-01  0.2490E-01  0.2490E-01  0.2490E-01  0.0000E+00  0.0000E+00  0.0000E+00  0.0000E+00  0.0000E+00
     15.455  0.2976E-01  0.2525E-01  0.2525E-01  0.2525E-01  0.0000E+00  0.0000E+00  0.0000E+00  0.0000E+00  0.0000E+00
     15.469  0.2993E-01  0.2560E-01  0.2560E-01  0.2560E-01  0.0000E+00  0.0000E+00  0.0000E+00  0.0000E+00  0.0000E+00
     15.483  0.3009E-01  0.2593E-01  0.2593E-01  0.2593E-01  0.0000E+00  0.0000E+00  0.0000E+00  0.0000E+00  0.0000E+00
     15.497  0.3025E-01  0.2625E-01  0.2625E-01  0.2625E-01  0.0000E+00  0.0000E+00  0.0000E+00  0.0000E+00  0.0000E+00
     15.511  0.3042E-01  0.2657E-01  0.2657E-01  0.2657E-01  0.0000E+00  0.0000E+00  0.0000E+00  0.0000E+00  0.0000E+00
     15.525  0.3058E-01  0.2687E-01  0.2687E-01  0.2687E-01  0.0000E+00  0.0000E+00  0.0000E+00  0.0000E+00  0.0000E+00
     15.539  0.3074E-01  0.2717E-01  0.2717E-01  0.2717E-01  0.0000E+00  0.0000E+00  0.0000E+00  0.0000E+00  0.0000E+00
     15.553  0.3090E-01  0.2745E-01  0.2745E-01  0.2745E-01  0.0000E+00  0.0000E+00  0.0000E+00  0.0000E+00  0.0000E+00
     15.567  0.3106E-01  0.2773E-01  0.2773E-01  0.2773E-01  0.0000E+00  0.0000E+00  0.0000E+00  0.0000E+00  0.0000E+00
     15.581  0.3122E-01  0.2800E-01  0.2800E-01  0.2800E-01  0.0000E+00  0.0000E+00  0.0000E+00  0.0000E+00  0.0000E+00
     15.595  0.3138E-01  0.2826E-01  0.2826E-01  0.2826E-01  0.0000E+00  0.0000E+00  0.0000E+00  0.0000E+00  0.0000E+00
     15.609  0.3153E-01  0.2851E-01  0.2851E-01  0.2851E-01  0.0000E+00  0.0000E+00  0.0000E+00  0.0000E+00  0.0000E+00
     15.623  0.3169E-01  0.2876E-01  0.2876E-01  0.2876E-01  0.0000E+00  0.0000E+00  0.0000E+00  0.0000E+00  0.0000E+00
     15.637  0.3184E-01  0.2899E-01  0.2899E-01  0.2899E-01  0.0000E+00  0.0000E+00  0.0000E+00  0.0000E+00  0.0000E+00
     15.650  0.3200E-01  0.2921E-01  0.2921E-01  0.2921E-01  0.0000E+00  0.0000E+00  0.0000E+00  0.0000E+00  0.0000E+00
     15.664  0.3215E-01  0.2943E-01  0.2943E-01  0.2943E-01  0.0000E+00  0.0000E+00  0.0000E+00  0.0000E+00  0.0000E+00
     15.678  0.3230E-01  0.2963E-01  0.2963E-01  0.2963E-01  0.0000E+00  0.0000E+00  0.0000E+00  0.0000E+00  0.0000E+00
     15.692  0.3245E-01  0.2983E-01  0.2983E-01  0.2983E-01  0.0000E+00  0.0000E+00  0.0000E+00  0.0000E+00  0.0000E+00
     15.706  0.3260E-01  0.3002E-01  0.3002E-01  0.3002E-01  0.0000E+00  0.0000E+00  0.0000E+00  0.0000E+00  0.0000E+00
     15.720  0.3275E-01  0.3020E-01  0.3020E-01  0.3020E-01  0.0000E+00  0.0000E+00  0.0000E+00  0.0000E+00  0.0000E+00
     15.734  0.3290E-01  0.3037E-01  0.3037E-01  0.3037E-01  0.0000E+00  0.0000E+00  0.0000E+00  0.0000E+00  0.0000E+00
     15.748  0.3305E-01  0.3053E-01  0.3053E-01  0.3053E-01  0.0000E+00  0.0000E+00  0.0000E+00  0.0000E+00  0.0000E+00
     15.762  0.3320E-01  0.3068E-01  0.3068E-01  0.3068E-01  0.0000E+00  0.0000E+00  0.0000E+00  0.0000E+00  0.0000E+00
     15.776  0.3333E-01  0.3084E-01  0.3084E-01  0.3084E-01  0.0000E+00  0.0000E+00  0.0000E+00  0.0000E+00  0.0000E+00
     15.790  0.3347E-01  0.3099E-01  0.3099E-01  0.3099E-01  0.0000E+00  0.0000E+00  0.0000E+00  0.0000E+00  0.0000E+00
     15.804  0.3360E-01  0.3109E-01  0.3109E-01  0.3109E-01  0.0000E+00  0.0000E+00  0.0000E+00  0.0000E+00  0.0000E+00
     15.818  0.3371E-01  0.3085E-01  0.3085E-01  0.3085E-01  0.0000E+00  0.0000E+00  0.0000E+00  0.0000E+00  0.0000E+00
     15.832  0.3380E-01  0.3065E-01  0.3065E-01  0.3065E-01  0.0000E+00  0.0000E+00  0.0000E+00  0.0000E+00  0.0000E+00
     15.846  0.3388E-01  0.3049E-01  0.3049E-01  0.3049E-01  0.0000E+00  0.0000E+00  0.0000E+00  0.0000E+00  0.0000E+00
     15.860  0.3395E-01  0.3038E-01  0.3038E-01  0.3038E-01  0.0000E+00  0.0000E+00  0.0000E+00  0.0000E+00  0.0000E+00
     15.874  0.3402E-01  0.3031E-01  0.3031E-01  0.3031E-01  0.0000E+00  0.0000E+00  0.0000E+00  0.0000E+00  0.0000E+00
     15.888  0.3409E-01  0.3029E-01  0.3029E-01  0.3029E-01  0.0000E+00  0.0000E+00  0.0000E+00  0.0000E+00  0.0000E+00
     15.902  0.3415E-01  0.3031E-01  0.3031E-01  0.3031E-01  0.0000E+00  0.0000E+00  0.0000E+00  0.0000E+00  0.0000E+00
     15.916  0.3421E-01  0.3039E-01  0.3039E-01  0.3039E-01  0.0000E+00  0.0000E+00  0.0000E+00  0.0000E+00  0.0000E+00
     15.930  0.3428E-01  0.3051E-01  0.3051E-01  0.3051E-01  0.0000E+00  0.0000E+00  0.0000E+00  0.0000E+00  0.0000E+00
     15.944  0.3432E-01  0.3064E-01  0.3064E-01  0.3064E-01  0.0000E+00  0.0000E+00  0.0000E+00  0.0000E+00  0.0000E+00
     15.958  0.3436E-01  0.3079E-01  0.3079E-01  0.3079E-01  0.0000E+00  0.0000E+00  0.0000E+00  0.0000E+00  0.0000E+00
     15.972  0.3439E-01  0.3097E-01  0.3097E-01  0.3097E-01  0.0000E+00  0.0000E+00  0.0000E+00  0.0000E+00  0.0000E+00
     15.986  0.3442E-01  0.3115E-01  0.3115E-01  0.3115E-01  0.0000E+00  0.0000E+00  0.0000E+00  0.0000E+00  0.0000E+00
     16.000  0.3444E-01  0.3133E-01  0.3133E-01  0.3133E-01  0.0000E+00  0.0000E+00  0.0000E+00  0.0000E+00  0.0000E+00
     16.014  0.3446E-01  0.3152E-01  0.3152E-01  0.3152E-01  0.0000E+00  0.0000E+00  0.0000E+00  0.0000E+00  0.0000E+00
     16.028  0.3447E-01  0.3170E-01  0.3170E-01  0.3170E-01  0.0000E+00  0.0000E+00  0.0000E+00  0.0000E+00  0.0000E+00
     16.042  0.3448E-01  0.3188E-01  0.3188E-01  0.3188E-01  0.0000E+00  0.0000E+00  0.0000E+00  0.0000E+00  0.0000E+00
     16.056  0.3448E-01  0.3206E-01  0.3206E-01  0.3206E-01  0.0000E+00  0.0000E+00  0.0000E+00  0.0000E+00  0.0000E+00
     16.070  0.3448E-01  0.3224E-01  0.3224E-01  0.3224E-01  0.0000E+00  0.0000E+00  0.0000E+00  0.0000E+00  0.0000E+00
     16.084  0.3447E-01  0.3242E-01  0.3242E-01  0.3242E-01  0.0000E+00  0.0000E+00  0.0000E+00  0.0000E+00  0.0000E+00
     16.098  0.3446E-01  0.3260E-01  0.3260E-01  0.3260E-01  0.0000E+00  0.0000E+00  0.0000E+00  0.0000E+00  0.0000E+00
     16.112  0.3444E-01  0.3277E-01  0.3277E-01  0.3277E-01  0.0000E+00  0.0000E+00  0.0000E+00  0.0000E+00  0.0000E+00
     16.126  0.3442E-01  0.3295E-01  0.3295E-01  0.3295E-01  0.0000E+00  0.0000E+00  0.0000E+00  0.0000E+00  0.0000E+00
     16.140  0.3440E-01  0.3313E-01  0.3313E-01  0.3313E-01  0.0000E+00  0.0000E+00  0.0000E+00  0.0000E+00  0.0000E+00
     16.154  0.3436E-01  0.3331E-01  0.3331E-01  0.3331E-01  0.0000E+00  0.0000E+00  0.0000E+00  0.0000E+00  0.0000E+00
     16.168  0.3433E-01  0.3346E-01  0.3346E-01  0.3346E-01  0.0000E+00  0.0000E+00  0.0000E+00  0.0000E+00  0.0000E+00
     16.182  0.3429E-01  0.3362E-01  0.3362E-01  0.3362E-01  0.0000E+00  0.0000E+00  0.0000E+00  0.0000E+00  0.0000E+00
     16.196  0.3425E-01  0.3377E-01  0.3377E-01  0.3377E-01  0.0000E+00  0.0000E+00  0.0000E+00  0.0000E+00  0.0000E+00
     16.210  0.3421E-01  0.3393E-01  0.3393E-01  0.3393E-01  0.0000E+00  0.0000E+00  0.0000E+00  0.0000E+00  0.0000E+00
     16.224  0.3415E-01  0.3408E-01  0.3408E-01  0.3408E-01  0.0000E+00  0.0000E+00  0.0000E+00  0.0000E+00  0.0000E+00
     16.238  0.3415E-01  0.3425E-01  0.3425E-01  0.3425E-01  0.0000E+00  0.0000E+00  0.0000E+00  0.0000E+00  0.0000E+00
     16.251  0.3420E-01  0.3444E-01  0.3444E-01  0.3444E-01  0.0000E+00  0.0000E+00  0.0000E+00  0.0000E+00  0.0000E+00
     16.265  0.3425E-01  0.3462E-01  0.3462E-01  0.3462E-01  0.0000E+00  0.0000E+00  0.0000E+00  0.0000E+00  0.0000E+00
     16.279  0.3429E-01  0.3481E-01  0.3481E-01  0.3481E-01  0.0000E+00  0.0000E+00  0.0000E+00  0.0000E+00  0.0000E+00
     16.293  0.3434E-01  0.3499E-01  0.3499E-01  0.3499E-01  0.0000E+00  0.0000E+00  0.0000E+00  0.0000E+00  0.0000E+00
     16.307  0.3438E-01  0.3518E-01  0.3518E-01  0.3518E-01  0.0000E+00  0.0000E+00  0.0000E+00  0.0000E+00  0.0000E+00
     16.321  0.3442E-01  0.3537E-01  0.3537E-01  0.3537E-01  0.0000E+00  0.0000E+00  0.0000E+00  0.0000E+00  0.0000E+00
     16.335  0.3446E-01  0.3555E-01  0.3555E-01  0.3555E-01  0.0000E+00  0.0000E+00  0.0000E+00  0.0000E+00  0.0000E+00
     16.349  0.3450E-01  0.3574E-01  0.3574E-01  0.3574E-01  0.0000E+00  0.0000E+00  0.0000E+00  0.0000E+00  0.0000E+00
     16.363  0.3454E-01  0.3594E-01  0.3594E-01  0.3594E-01  0.0000E+00  0.0000E+00  0.0000E+00  0.0000E+00  0.0000E+00
     16.377  0.3458E-01  0.3613E-01  0.3613E-01  0.3613E-01  0.0000E+00  0.0000E+00  0.0000E+00  0.0000E+00  0.0000E+00
     16.391  0.3462E-01  0.3632E-01  0.3632E-01  0.3632E-01  0.0000E+00  0.0000E+00  0.0000E+00  0.0000E+00  0.0000E+00
     16.405  0.3466E-01  0.3652E-01  0.3652E-01  0.3652E-01  0.0000E+00  0.0000E+00  0.0000E+00  0.0000E+00  0.0000E+00
     16.419  0.3469E-01  0.3672E-01  0.3672E-01  0.3672E-01  0.0000E+00  0.0000E+00  0.0000E+00  0.0000E+00  0.0000E+00
     16.433  0.3472E-01  0.3692E-01  0.3692E-01  0.3692E-01  0.0000E+00  0.0000E+00  0.0000E+00  0.0000E+00  0.0000E+00
     16.447  0.3475E-01  0.3712E-01  0.3712E-01  0.3712E-01  0.0000E+00  0.0000E+00  0.0000E+00  0.0000E+00  0.0000E+00
     16.461  0.3479E-01  0.3733E-01  0.3733E-01  0.3733E-01  0.0000E+00  0.0000E+00  0.0000E+00  0.0000E+00  0.0000E+00
     16.475  0.3482E-01  0.3754E-01  0.3754E-01  0.3754E-01  0.0000E+00  0.0000E+00  0.0000E+00  0.0000E+00  0.0000E+00
     16.489  0.3486E-01  0.3776E-01  0.3776E-01  0.3776E-01  0.0000E+00  0.0000E+00  0.0000E+00  0.0000E+00  0.0000E+00
     16.503  0.3490E-01  0.3798E-01  0.3798E-01  0.3798E-01  0.0000E+00  0.0000E+00  0.0000E+00  0.0000E+00  0.0000E+00
     16.517  0.3495E-01  0.3821E-01  0.3821E-01  0.3821E-01  0.0000E+00  0.0000E+00  0.0000E+00  0.0000E+00  0.0000E+00
     16.531  0.3499E-01  0.3844E-01  0.3844E-01  0.3844E-01  0.0000E+00  0.0000E+00  0.0000E+00  0.0000E+00  0.0000E+00
     16.545  0.3503E-01  0.3868E-01  0.3868E-01  0.3868E-01  0.0000E+00  0.0000E+00  0.0000E+00  0.0000E+00  0.0000E+00
     16.559  0.3508E-01  0.3892E-01  0.3892E-01  0.3892E-01  0.0000E+00  0.0000E+00  0.0000E+00  0.0000E+00  0.0000E+00
     16.573  0.3512E-01  0.3917E-01  0.3917E-01  0.3917E-01  0.0000E+00  0.0000E+00  0.0000E+00  0.0000E+00  0.0000E+00
     16.587  0.3517E-01  0.3942E-01  0.3942E-01  0.3942E-01  0.0000E+00  0.0000E+00  0.0000E+00  0.0000E+00  0.0000E+00
     16.601  0.3521E-01  0.3967E-01  0.3967E-01  0.3967E-01  0.0000E+00  0.0000E+00  0.0000E+00  0.0000E+00  0.0000E+00
     16.615  0.3526E-01  0.3993E-01  0.3993E-01  0.3993E-01  0.0000E+00  0.0000E+00  0.0000E+00  0.0000E+00  0.0000E+00
     16.629  0.3531E-01  0.4019E-01  0.4019E-01  0.4019E-01  0.0000E+00  0.0000E+00  0.0000E+00  0.0000E+00  0.0000E+00
     16.643  0.3536E-01  0.4046E-01  0.4046E-01  0.4046E-01  0.0000E+00  0.0000E+00  0.0000E+00  0.0000E+00  0.0000E+00
     16.657  0.3541E-01  0.4074E-01  0.4074E-01  0.4074E-01  0.0000E+00  0.0000E+00  0.0000E+00  0.0000E+00  0.0000E+00
     16.671  0.3546E-01  0.4102E-01  0.4102E-01  0.4102E-01  0.0000E+00  0.0000E+00  0.0000E+00  0.0000E+00  0.0000E+00
     16.685  0.3552E-01  0.4131E-01  0.4131E-01  0.4131E-01  0.0000E+00  0.0000E+00  0.0000E+00  0.0000E+00  0.0000E+00
     16.699  0.3557E-01  0.4160E-01  0.4160E-01  0.4160E-01  0.0000E+00  0.0000E+00  0.0000E+00  0.0000E+00  0.0000E+00
     16.713  0.3563E-01  0.4189E-01  0.4189E-01  0.4189E-01  0.0000E+00  0.0000E+00  0.0000E+00  0.0000E+00  0.0000E+00
     16.727  0.3569E-01  0.4219E-01  0.4219E-01  0.4219E-01  0.0000E+00  0.0000E+00  0.0000E+00  0.0000E+00  0.0000E+00
     16.741  0.3574E-01  0.4250E-01  0.4250E-01  0.4250E-01  0.0000E+00  0.0000E+00  0.0000E+00  0.0000E+00  0.0000E+00
     16.755  0.3580E-01  0.4281E-01  0.4281E-01  0.4281E-01  0.0000E+00  0.0000E+00  0.0000E+00  0.0000E+00  0.0000E+00
     16.769  0.3587E-01  0.4313E-01  0.4313E-01  0.4313E-01  0.0000E+00  0.0000E+00  0.0000E+00  0.0000E+00  0.0000E+00
     16.783  0.3593E-01  0.4345E-01  0.4345E-01  0.4345E-01  0.0000E+00  0.0000E+00  0.0000E+00  0.0000E+00  0.0000E+00
     16.797  0.3599E-01  0.4378E-01  0.4378E-01  0.4378E-01  0.0000E+00  0.0000E+00  0.0000E+00  0.0000E+00  0.0000E+00
     16.811  0.3606E-01  0.4412E-01  0.4412E-01  0.4412E-01  0.0000E+00  0.0000E+00  0.0000E+00  0.0000E+00  0.0000E+00
     16.825  0.3612E-01  0.4445E-01  0.4445E-01  0.4445E-01  0.0000E+00  0.0000E+00  0.0000E+00  0.0000E+00  0.0000E+00
     16.839  0.3619E-01  0.4480E-01  0.4480E-01  0.4480E-01  0.0000E+00  0.0000E+00  0.0000E+00  0.0000E+00  0.0000E+00
     16.852  0.3626E-01  0.4515E-01  0.4515E-01  0.4515E-01  0.0000E+00  0.0000E+00  0.0000E+00  0.0000E+00  0.0000E+00
     16.866  0.3633E-01  0.4550E-01  0.4550E-01  0.4550E-01  0.0000E+00  0.0000E+00  0.0000E+00  0.0000E+00  0.0000E+00
     16.880  0.3641E-01  0.4586E-01  0.4586E-01  0.4586E-01  0.0000E+00  0.0000E+00  0.0000E+00  0.0000E+00  0.0000E+00
     16.894  0.3649E-01  0.4622E-01  0.4622E-01  0.4622E-01  0.0000E+00  0.0000E+00  0.0000E+00  0.0000E+00  0.0000E+00
     16.908  0.3658E-01  0.4660E-01  0.4660E-01  0.4660E-01  0.0000E+00  0.0000E+00  0.0000E+00  0.0000E+00  0.0000E+00
     16.922  0.3669E-01  0.4698E-01  0.4698E-01  0.4698E-01  0.0000E+00  0.0000E+00  0.0000E+00  0.0000E+00  0.0000E+00
     16.936  0.3680E-01  0.4737E-01  0.4737E-01  0.4737E-01  0.0000E+00  0.0000E+00  0.0000E+00  0.0000E+00  0.0000E+00
     16.950  0.3693E-01  0.4775E-01  0.4775E-01  0.4775E-01  0.0000E+00  0.0000E+00  0.0000E+00  0.0000E+00  0.0000E+00
     16.964  0.3708E-01  0.4812E-01  0.4812E-01  0.4812E-01  0.0000E+00  0.0000E+00  0.0000E+00  0.0000E+00  0.0000E+00
     16.978  0.3725E-01  0.4848E-01  0.4848E-01  0.4848E-01  0.0000E+00  0.0000E+00  0.0000E+00  0.0000E+00  0.0000E+00
     16.992  0.3743E-01  0.4885E-01  0.4885E-01  0.4885E-01  0.0000E+00  0.0000E+00  0.0000E+00  0.0000E+00  0.0000E+00
     17.006  0.3762E-01  0.4924E-01  0.4924E-01  0.4924E-01  0.0000E+00  0.0000E+00  0.0000E+00  0.0000E+00  0.0000E+00
     17.020  0.3781E-01  0.4964E-01  0.4964E-01  0.4964E-01  0.0000E+00  0.0000E+00  0.0000E+00  0.0000E+00  0.0000E+00
     17.034  0.3802E-01  0.5005E-01  0.5005E-01  0.5005E-01  0.0000E+00  0.0000E+00  0.0000E+00  0.0000E+00  0.0000E+00
     17.048  0.3824E-01  0.5047E-01  0.5047E-01  0.5047E-01  0.0000E+00  0.0000E+00  0.0000E+00  0.0000E+00  0.0000E+00
     17.062  0.3846E-01  0.5091E-01  0.5091E-01  0.5091E-01  0.0000E+00  0.0000E+00  0.0000E+00  0.0000E+00  0.0000E+00
     17.076  0.3877E-01  0.5144E-01  0.5144E-01  0.5144E-01  0.0000E+00  0.0000E+00  0.0000E+00  0.0000E+00  0.0000E+00
     17.090  0.3920E-01  0.5210E-01  0.5210E-01  0.5210E-01  0.0000E+00  0.0000E+00  0.0000E+00  0.0000E+00  0.0000E+00
     17.104  0.3962E-01  0.5276E-01  0.5276E-01  0.5276E-01  0.0000E+00  0.0000E+00  0.0000E+00  0.0000E+00  0.0000E+00
     17.118  0.4005E-01  0.5343E-01  0.5343E-01  0.5343E-01  0.0000E+00  0.0000E+00  0.0000E+00  0.0000E+00  0.0000E+00
     17.132  0.4047E-01  0.5410E-01  0.5410E-01  0.5410E-01  0.0000E+00  0.0000E+00  0.0000E+00  0.0000E+00  0.0000E+00
     17.146  0.4090E-01  0.5478E-01  0.5478E-01  0.5478E-01  0.0000E+00  0.0000E+00  0.0000E+00  0.0000E+00  0.0000E+00
     17.160  0.4133E-01  0.5548E-01  0.5548E-01  0.5548E-01  0.0000E+00  0.0000E+00  0.0000E+00  0.0000E+00  0.0000E+00
     17.174  0.4177E-01  0.5619E-01  0.5619E-01  0.5619E-01  0.0000E+00  0.0000E+00  0.0000E+00  0.0000E+00  0.0000E+00
     17.188  0.4221E-01  0.5691E-01  0.5691E-01  0.5691E-01  0.0000E+00  0.0000E+00  0.0000E+00  0.0000E+00  0.0000E+00
     17.202  0.4266E-01  0.5764E-01  0.5764E-01  0.5764E-01  0.0000E+00  0.0000E+00  0.0000E+00  0.0000E+00  0.0000E+00
     17.216  0.4310E-01  0.5838E-01  0.5838E-01  0.5838E-01  0.0000E+00  0.0000E+00  0.0000E+00  0.0000E+00  0.0000E+00
     17.230  0.4355E-01  0.5914E-01  0.5914E-01  0.5914E-01  0.0000E+00  0.0000E+00  0.0000E+00  0.0000E+00  0.0000E+00
     17.244  0.4401E-01  0.5991E-01  0.5991E-01  0.5991E-01  0.0000E+00  0.0000E+00  0.0000E+00  0.0000E+00  0.0000E+00
     17.258  0.4447E-01  0.6069E-01  0.6069E-01  0.6069E-01  0.0000E+00  0.0000E+00  0.0000E+00  0.0000E+00  0.0000E+00
     17.272  0.4493E-01  0.6148E-01  0.6148E-01  0.6148E-01  0.0000E+00  0.0000E+00  0.0000E+00  0.0000E+00  0.0000E+00
     17.286  0.4539E-01  0.6228E-01  0.6228E-01  0.6228E-01  0.0000E+00  0.0000E+00  0.0000E+00  0.0000E+00  0.0000E+00
     17.300  0.4587E-01  0.6311E-01  0.6311E-01  0.6311E-01  0.0000E+00  0.0000E+00  0.0000E+00  0.0000E+00  0.0000E+00
     17.314  0.4635E-01  0.6394E-01  0.6394E-01  0.6394E-01  0.0000E+00  0.0000E+00  0.0000E+00  0.0000E+00  0.0000E+00
     17.328  0.4685E-01  0.6480E-01  0.6480E-01  0.6480E-01  0.0000E+00  0.0000E+00  0.0000E+00  0.0000E+00  0.0000E+00
     17.342  0.4735E-01  0.6567E-01  0.6567E-01  0.6567E-01  0.0000E+00  0.0000E+00  0.0000E+00  0.0000E+00  0.0000E+00
     17.356  0.4786E-01  0.6656E-01  0.6656E-01  0.6656E-01  0.0000E+00  0.0000E+00  0.0000E+00  0.0000E+00  0.0000E+00
     17.370  0.4837E-01  0.6746E-01  0.6746E-01  0.6746E-01  0.0000E+00  0.0000E+00  0.0000E+00  0.0000E+00  0.0000E+00
     17.384  0.4889E-01  0.6837E-01  0.6837E-01  0.6837E-01  0.0000E+00  0.0000E+00  0.0000E+00  0.0000E+00  0.0000E+00
     17.398  0.4941E-01  0.6929E-01  0.6929E-01  0.6929E-01  0.0000E+00  0.0000E+00  0.0000E+00  0.0000E+00  0.0000E+00
     17.412  0.4994E-01  0.7023E-01  0.7023E-01  0.7023E-01  0.0000E+00  0.0000E+00  0.0000E+00  0.0000E+00  0.0000E+00
     17.426  0.5047E-01  0.7118E-01  0.7118E-01  0.7118E-01  0.0000E+00  0.0000E+00  0.0000E+00  0.0000E+00  0.0000E+00
     17.440  0.5100E-01  0.7213E-01  0.7213E-01  0.7213E-01  0.0000E+00  0.0000E+00  0.0000E+00  0.0000E+00  0.0000E+00
     17.453  0.5154E-01  0.7311E-01  0.7311E-01  0.7311E-01  0.0000E+00  0.0000E+00  0.0000E+00  0.0000E+00  0.0000E+00
     17.467  0.5208E-01  0.7409E-01  0.7409E-01  0.7409E-01  0.0000E+00  0.0000E+00  0.0000E+00  0.0000E+00  0.0000E+00
     17.481  0.5263E-01  0.7509E-01  0.7509E-01  0.7509E-01  0.0000E+00  0.0000E+00  0.0000E+00  0.0000E+00  0.0000E+00
     17.495  0.5318E-01  0.7609E-01  0.7609E-01  0.7609E-01  0.0000E+00  0.0000E+00  0.0000E+00  0.0000E+00  0.0000E+00
     17.509  0.5373E-01  0.7712E-01  0.7712E-01  0.7712E-01  0.0000E+00  0.0000E+00  0.0000E+00  0.0000E+00  0.0000E+00
     17.523  0.5449E-01  0.7852E-01  0.7852E-01  0.7852E-01  0.0000E+00  0.0000E+00  0.0000E+00  0.0000E+00  0.0000E+00
     17.537  0.5568E-01  0.8070E-01  0.8070E-01  0.8070E-01  0.0000E+00  0.0000E+00  0.0000E+00  0.0000E+00  0.0000E+00
     17.551  0.5681E-01  0.8280E-01  0.8280E-01  0.8280E-01  0.0000E+00  0.0000E+00  0.0000E+00  0.0000E+00  0.0000E+00
     17.565  0.5789E-01  0.8484E-01  0.8484E-01  0.8484E-01  0.0000E+00  0.0000E+00  0.0000E+00  0.0000E+00  0.0000E+00
     17.579  0.5891E-01  0.8679E-01  0.8679E-01  0.8679E-01  0.0000E+00  0.0000E+00  0.0000E+00  0.0000E+00  0.0000E+00
     17.593  0.5987E-01  0.8868E-01  0.8868E-01  0.8868E-01  0.0000E+00  0.0000E+00  0.0000E+00  0.0000E+00  0.0000E+00
     17.607  0.6071E-01  0.9053E-01  0.9053E-01  0.9053E-01  0.0000E+00  0.0000E+00  0.0000E+00  0.0000E+00  0.0000E+00
     17.621  0.6124E-01  0.9227E-01  0.9227E-01  0.9227E-01  0.0000E+00  0.0000E+00  0.0000E+00  0.0000E+00  0.0000E+00
     17.635  0.6147E-01  0.9367E-01  0.9367E-01  0.9367E-01  0.0000E+00  0.0000E+00  0.0000E+00  0.0000E+00  0.0000E+00
     17.649  0.6143E-01  0.9453E-01  0.9453E-01  0.9453E-01  0.0000E+00  0.0000E+00  0.0000E+00  0.0000E+00  0.0000E+00
     17.663  0.6110E-01  0.9485E-01  0.9485E-01  0.9485E-01  0.0000E+00  0.0000E+00  0.0000E+00  0.0000E+00  0.0000E+00
     17.677  0.6050E-01  0.9463E-01  0.9463E-01  0.9463E-01  0.0000E+00  0.0000E+00  0.0000E+00  0.0000E+00  0.0000E+00
     17.691  0.5961E-01  0.9388E-01  0.9388E-01  0.9388E-01  0.0000E+00  0.0000E+00  0.0000E+00  0.0000E+00  0.0000E+00
     17.705  0.5844E-01  0.9258E-01  0.9258E-01  0.9258E-01  0.0000E+00  0.0000E+00  0.0000E+00  0.0000E+00  0.0000E+00
     17.719  0.5702E-01  0.9082E-01  0.9082E-01  0.9082E-01  0.0000E+00  0.0000E+00  0.0000E+00  0.0000E+00  0.0000E+00
     17.733  0.5554E-01  0.8887E-01  0.8887E-01  0.8887E-01  0.0000E+00  0.0000E+00  0.0000E+00  0.0000E+00  0.0000E+00
     17.747  0.5402E-01  0.8678E-01  0.8678E-01  0.8678E-01  0.0000E+00  0.0000E+00  0.0000E+00  0.0000E+00  0.0000E+00
     17.761  0.5247E-01  0.8454E-01  0.8454E-01  0.8454E-01  0.0000E+00  0.0000E+00  0.0000E+00  0.0000E+00  0.0000E+00
     17.775  0.5087E-01  0.8213E-01  0.8213E-01  0.8213E-01  0.0000E+00  0.0000E+00  0.0000E+00  0.0000E+00  0.0000E+00
     17.789  0.4924E-01  0.7956E-01  0.7956E-01  0.7956E-01  0.0000E+00  0.0000E+00  0.0000E+00  0.0000E+00  0.0000E+00
     17.803  0.4757E-01  0.7683E-01  0.7683E-01  0.7683E-01  0.0000E+00  0.0000E+00  0.0000E+00  0.0000E+00  0.0000E+00
     17.817  0.4586E-01  0.7393E-01  0.7393E-01  0.7393E-01  0.0000E+00  0.0000E+00  0.0000E+00  0.0000E+00  0.0000E+00
     17.831  0.4417E-01  0.7098E-01  0.7098E-01  0.7098E-01  0.0000E+00  0.0000E+00  0.0000E+00  0.0000E+00  0.0000E+00
     17.845  0.4260E-01  0.6818E-01  0.6818E-01  0.6818E-01  0.0000E+00  0.0000E+00  0.0000E+00  0.0000E+00  0.0000E+00
     17.859  0.4116E-01  0.6555E-01  0.6555E-01  0.6555E-01  0.0000E+00  0.0000E+00  0.0000E+00  0.0000E+00  0.0000E+00
     17.873  0.3985E-01  0.6309E-01  0.6309E-01  0.6309E-01  0.0000E+00  0.0000E+00  0.0000E+00  0.0000E+00  0.0000E+00
     17.887  0.3867E-01  0.6080E-01  0.6080E-01  0.6080E-01  0.0000E+00  0.0000E+00  0.0000E+00  0.0000E+00  0.0000E+00
     17.901  0.3762E-01  0.5867E-01  0.5867E-01  0.5867E-01  0.0000E+00  0.0000E+00  0.0000E+00  0.0000E+00  0.0000E+00
     17.915  0.3670E-01  0.5671E-01  0.5671E-01  0.5671E-01  0.0000E+00  0.0000E+00  0.0000E+00  0.0000E+00  0.0000E+00
     17.929  0.3592E-01  0.5477E-01  0.5477E-01  0.5477E-01  0.0000E+00  0.0000E+00  0.0000E+00  0.0000E+00  0.0000E+00
     17.943  0.3529E-01  0.5283E-01  0.5283E-01  0.5283E-01  0.0000E+00  0.0000E+00  0.0000E+00  0.0000E+00  0.0000E+00
     17.957  0.3472E-01  0.5095E-01  0.5095E-01  0.5095E-01  0.0000E+00  0.0000E+00  0.0000E+00  0.0000E+00  0.0000E+00
     17.971  0.3418E-01  0.4919E-01  0.4919E-01  0.4919E-01  0.0000E+00  0.0000E+00  0.0000E+00  0.0000E+00  0.0000E+00
     17.985  0.3366E-01  0.4754E-01  0.4754E-01  0.4754E-01  0.0000E+00  0.0000E+00  0.0000E+00  0.0000E+00  0.0000E+00
     17.999  0.3318E-01  0.4600E-01  0.4600E-01  0.4600E-01  0.0000E+00  0.0000E+00  0.0000E+00  0.0000E+00  0.0000E+00
     18.013  0.3273E-01  0.4457E-01  0.4457E-01  0.4457E-01  0.0000E+00  0.0000E+00  0.0000E+00  0.0000E+00  0.0000E+00
     18.027  0.3231E-01  0.4325E-01  0.4325E-01  0.4325E-01  0.0000E+00  0.0000E+00  0.0000E+00  0.0000E+00  0.0000E+00
     18.041  0.3192E-01  0.4203E-01  0.4203E-01  0.4203E-01  0.0000E+00  0.0000E+00  0.0000E+00  0.0000E+00  0.0000E+00
     18.054  0.3162E-01  0.4111E-01  0.4111E-01  0.4111E-01  0.0000E+00  0.0000E+00  0.0000E+00  0.0000E+00  0.0000E+00
     18.068  0.3148E-01  0.4070E-01  0.4070E-01  0.4070E-01  0.0000E+00  0.0000E+00  0.0000E+00  0.0000E+00  0.0000E+00
     18.082  0.3150E-01  0.4082E-01  0.4082E-01  0.4082E-01  0.0000E+00  0.0000E+00  0.0000E+00  0.0000E+00  0.0000E+00
     18.096  0.3183E-01  0.4146E-01  0.4146E-01  0.4146E-01  0.0000E+00  0.0000E+00  0.0000E+00  0.0000E+00  0.0000E+00
     18.110  0.3240E-01  0.4237E-01  0.4237E-01  0.4237E-01  0.0000E+00  0.0000E+00  0.0000E+00  0.0000E+00  0.0000E+00
     18.124  0.3299E-01  0.4328E-01  0.4328E-01  0.4328E-01  0.0000E+00  0.0000E+00  0.0000E+00  0.0000E+00  0.0000E+00
     18.138  0.3362E-01  0.4419E-01  0.4419E-01  0.4419E-01  0.0000E+00  0.0000E+00  0.0000E+00  0.0000E+00  0.0000E+00
     18.152  0.3427E-01  0.4510E-01  0.4510E-01  0.4510E-01  0.0000E+00  0.0000E+00  0.0000E+00  0.0000E+00  0.0000E+00
     18.166  0.3495E-01  0.4601E-01  0.4601E-01  0.4601E-01  0.0000E+00  0.0000E+00  0.0000E+00  0.0000E+00  0.0000E+00
     18.180  0.3567E-01  0.4693E-01  0.4693E-01  0.4693E-01  0.0000E+00  0.0000E+00  0.0000E+00  0.0000E+00  0.0000E+00
     18.194  0.3636E-01  0.4780E-01  0.4780E-01  0.4780E-01  0.0000E+00  0.0000E+00  0.0000E+00  0.0000E+00  0.0000E+00
     18.208  0.3683E-01  0.4840E-01  0.4840E-01  0.4840E-01  0.0000E+00  0.0000E+00  0.0000E+00  0.0000E+00  0.0000E+00
     18.222  0.3705E-01  0.4871E-01  0.4871E-01  0.4871E-01  0.0000E+00  0.0000E+00  0.0000E+00  0.0000E+00  0.0000E+00
     18.236  0.3716E-01  0.4889E-01  0.4889E-01  0.4889E-01  0.0000E+00  0.0000E+00  0.0000E+00  0.0000E+00  0.0000E+00
     18.250  0.3729E-01  0.4908E-01  0.4908E-01  0.4908E-01  0.0000E+00  0.0000E+00  0.0000E+00  0.0000E+00  0.0000E+00
     18.264  0.3744E-01  0.4928E-01  0.4928E-01  0.4928E-01  0.0000E+00  0.0000E+00  0.0000E+00  0.0000E+00  0.0000E+00
     18.278  0.3761E-01  0.4948E-01  0.4948E-01  0.4948E-01  0.0000E+00  0.0000E+00  0.0000E+00  0.0000E+00  0.0000E+00
     18.292  0.3780E-01  0.4968E-01  0.4968E-01  0.4968E-01  0.0000E+00  0.0000E+00  0.0000E+00  0.0000E+00  0.0000E+00
     18.306  0.3801E-01  0.4990E-01  0.4990E-01  0.4990E-01  0.0000E+00  0.0000E+00  0.0000E+00  0.0000E+00  0.0000E+00
     18.320  0.3825E-01  0.5014E-01  0.5014E-01  0.5014E-01  0.0000E+00  0.0000E+00  0.0000E+00  0.0000E+00  0.0000E+00
     18.334  0.3852E-01  0.5038E-01  0.5038E-01  0.5038E-01  0.0000E+00  0.0000E+00  0.0000E+00  0.0000E+00  0.0000E+00
     18.348  0.3885E-01  0.5065E-01  0.5065E-01  0.5065E-01  0.0000E+00  0.0000E+00  0.0000E+00  0.0000E+00  0.0000E+00
     18.362  0.3925E-01  0.5093E-01  0.5093E-01  0.5093E-01  0.0000E+00  0.0000E+00  0.0000E+00  0.0000E+00  0.0000E+00
     18.376  0.3971E-01  0.5122E-01  0.5122E-01  0.5122E-01  0.0000E+00  0.0000E+00  0.0000E+00  0.0000E+00  0.0000E+00
     18.390  0.4023E-01  0.5153E-01  0.5153E-01  0.5153E-01  0.0000E+00  0.0000E+00  0.0000E+00  0.0000E+00  0.0000E+00
     18.404  0.4082E-01  0.5186E-01  0.5186E-01  0.5186E-01  0.0000E+00  0.0000E+00  0.0000E+00  0.0000E+00  0.0000E+00
     18.418  0.4147E-01  0.5221E-01  0.5221E-01  0.5221E-01  0.0000E+00  0.0000E+00  0.0000E+00  0.0000E+00  0.0000E+00
     18.432  0.4215E-01  0.5256E-01  0.5256E-01  0.5256E-01  0.0000E+00  0.0000E+00  0.0000E+00  0.0000E+00  0.0000E+00
     18.446  0.4283E-01  0.5293E-01  0.5293E-01  0.5293E-01  0.0000E+00  0.0000E+00  0.0000E+00  0.0000E+00  0.0000E+00
     18.460  0.4353E-01  0.5331E-01  0.5331E-01  0.5331E-01  0.0000E+00  0.0000E+00  0.0000E+00  0.0000E+00  0.0000E+00
     18.474  0.4423E-01  0.5371E-01  0.5371E-01  0.5371E-01  0.0000E+00  0.0000E+00  0.0000E+00  0.0000E+00  0.0000E+00
     18.488  0.4494E-01  0.5411E-01  0.5411E-01  0.5411E-01  0.0000E+00  0.0000E+00  0.0000E+00  0.0000E+00  0.0000E+00
     18.502  0.4567E-01  0.5454E-01  0.5454E-01  0.5454E-01  0.0000E+00  0.0000E+00  0.0000E+00  0.0000E+00  0.0000E+00
     18.516  0.4642E-01  0.5498E-01  0.5498E-01  0.5498E-01  0.0000E+00  0.0000E+00  0.0000E+00  0.0000E+00  0.0000E+00
     18.530  0.4719E-01  0.5545E-01  0.5545E-01  0.5545E-01  0.0000E+00  0.0000E+00  0.0000E+00  0.0000E+00  0.0000E+00
     18.544  0.4798E-01  0.5595E-01  0.5595E-01  0.5595E-01  0.0000E+00  0.0000E+00  0.0000E+00  0.0000E+00  0.0000E+00
     18.558  0.4879E-01  0.5647E-01  0.5647E-01  0.5647E-01  0.0000E+00  0.0000E+00  0.0000E+00  0.0000E+00  0.0000E+00
     18.572  0.4967E-01  0.5709E-01  0.5709E-01  0.5709E-01  0.0000E+00  0.0000E+00  0.0000E+00  0.0000E+00  0.0000E+00
     18.586  0.5061E-01  0.5782E-01  0.5782E-01  0.5782E-01  0.0000E+00  0.0000E+00  0.0000E+00  0.0000E+00  0.0000E+00
     18.600  0.5161E-01  0.5866E-01  0.5866E-01  0.5866E-01  0.0000E+00  0.0000E+00  0.0000E+00  0.0000E+00  0.0000E+00
     18.614  0.5267E-01  0.5962E-01  0.5962E-01  0.5962E-01  0.0000E+00  0.0000E+00  0.0000E+00  0.0000E+00  0.0000E+00
     18.628  0.5380E-01  0.6068E-01  0.6068E-01  0.6068E-01  0.0000E+00  0.0000E+00  0.0000E+00  0.0000E+00  0.0000E+00
     18.642  0.5499E-01  0.6185E-01  0.6185E-01  0.6185E-01  0.0000E+00  0.0000E+00  0.0000E+00  0.0000E+00  0.0000E+00
     18.655  0.5624E-01  0.6313E-01  0.6313E-01  0.6313E-01  0.0000E+00  0.0000E+00  0.0000E+00  0.0000E+00  0.0000E+00
     18.669  0.5755E-01  0.6453E-01  0.6453E-01  0.6453E-01  0.0000E+00  0.0000E+00  0.0000E+00  0.0000E+00  0.0000E+00
     18.683  0.5892E-01  0.6603E-01  0.6603E-01  0.6603E-01  0.0000E+00  0.0000E+00  0.0000E+00  0.0000E+00  0.0000E+00
     18.697  0.6036E-01  0.6765E-01  0.6765E-01  0.6765E-01  0.0000E+00  0.0000E+00  0.0000E+00  0.0000E+00  0.0000E+00
     18.711  0.6185E-01  0.6938E-01  0.6938E-01  0.6938E-01  0.0000E+00  0.0000E+00  0.0000E+00  0.0000E+00  0.0000E+00
     18.725  0.6341E-01  0.7121E-01  0.7121E-01  0.7121E-01  0.0000E+00  0.0000E+00  0.0000E+00  0.0000E+00  0.0000E+00
     18.739  0.6502E-01  0.7316E-01  0.7316E-01  0.7316E-01  0.0000E+00  0.0000E+00  0.0000E+00  0.0000E+00  0.0000E+00
     18.753  0.6670E-01  0.7522E-01  0.7522E-01  0.7522E-01  0.0000E+00  0.0000E+00  0.0000E+00  0.0000E+00  0.0000E+00
     18.767  0.6838E-01  0.7729E-01  0.7729E-01  0.7729E-01  0.0000E+00  0.0000E+00  0.0000E+00  0.0000E+00  0.0000E+00
     18.781  0.6993E-01  0.7908E-01  0.7908E-01  0.7908E-01  0.0000E+00  0.0000E+00  0.0000E+00  0.0000E+00  0.0000E+00
     18.795  0.7133E-01  0.8060E-01  0.8060E-01  0.8060E-01  0.0000E+00  0.0000E+00  0.0000E+00  0.0000E+00  0.0000E+00
     18.809  0.7258E-01  0.8182E-01  0.8182E-01  0.8182E-01  0.0000E+00  0.0000E+00  0.0000E+00  0.0000E+00  0.0000E+00
     18.823  0.7368E-01  0.8277E-01  0.8277E-01  0.8277E-01  0.0000E+00  0.0000E+00  0.0000E+00  0.0000E+00  0.0000E+00
     18.837  0.7464E-01  0.8342E-01  0.8342E-01  0.8342E-01  0.0000E+00  0.0000E+00  0.0000E+00  0.0000E+00  0.0000E+00
     18.851  0.7545E-01  0.8379E-01  0.8379E-01  0.8379E-01  0.0000E+00  0.0000E+00  0.0000E+00  0.0000E+00  0.0000E+00
     18.865  0.7624E-01  0.8409E-01  0.8409E-01  0.8409E-01  0.0000E+00  0.0000E+00  0.0000E+00  0.0000E+00  0.0000E+00
     18.879  0.7695E-01  0.8418E-01  0.8418E-01  0.8418E-01  0.0000E+00  0.0000E+00  0.0000E+00  0.0000E+00  0.0000E+00
     18.893  0.7747E-01  0.8393E-01  0.8393E-01  0.8393E-01  0.0000E+00  0.0000E+00  0.0000E+00  0.0000E+00  0.0000E+00
     18.907  0.7783E-01  0.8334E-01  0.8334E-01  0.8334E-01  0.0000E+00  0.0000E+00  0.0000E+00  0.0000E+00  0.0000E+00
     18.921  0.7804E-01  0.8243E-01  0.8243E-01  0.8243E-01  0.0000E+00  0.0000E+00  0.0000E+00  0.0000E+00  0.0000E+00
     18.935  0.7822E-01  0.8127E-01  0.8127E-01  0.8127E-01  0.0000E+00  0.0000E+00  0.0000E+00  0.0000E+00  0.0000E+00
     18.949  0.7838E-01  0.7987E-01  0.7987E-01  0.7987E-01  0.0000E+00  0.0000E+00  0.0000E+00  0.0000E+00  0.0000E+00
     18.963  0.7852E-01  0.7823E-01  0.7823E-01  0.7823E-01  0.0000E+00  0.0000E+00  0.0000E+00  0.0000E+00  0.0000E+00
     18.977  0.7882E-01  0.7701E-01  0.7701E-01  0.7701E-01  0.0000E+00  0.0000E+00  0.0000E+00  0.0000E+00  0.0000E+00
     18.991  0.7933E-01  0.7662E-01  0.7662E-01  0.7662E-01  0.0000E+00  0.0000E+00  0.0000E+00  0.0000E+00  0.0000E+00
     19.005  0.8218E-01  0.8070E-01  0.8070E-01  0.8070E-01  0.0000E+00  0.0000E+00  0.0000E+00  0.0000E+00  0.0000E+00
     19.019  0.8397E-01  0.8302E-01  0.8302E-01  0.8302E-01  0.0000E+00  0.0000E+00  0.0000E+00  0.0000E+00  0.0000E+00
     19.033  0.8451E-01  0.8318E-01  0.8318E-01  0.8318E-01  0.0000E+00  0.0000E+00  0.0000E+00  0.0000E+00  0.0000E+00
     19.047  0.8387E-01  0.8120E-01  0.8120E-01  0.8120E-01  0.0000E+00  0.0000E+00  0.0000E+00  0.0000E+00  0.0000E+00
     19.061  0.8206E-01  0.7708E-01  0.7708E-01  0.7708E-01  0.0000E+00  0.0000E+00  0.0000E+00  0.0000E+00  0.0000E+00
     19.075  0.7909E-01  0.7082E-01  0.7082E-01  0.7082E-01  0.0000E+00  0.0000E+00  0.0000E+00  0.0000E+00  0.0000E+00
     19.089  0.7896E-01  0.6985E-01  0.6985E-01  0.6985E-01  0.0000E+00  0.0000E+00  0.0000E+00  0.0000E+00  0.0000E+00
     19.103  0.7912E-01  0.6949E-01  0.6949E-01  0.6949E-01  0.0000E+00  0.0000E+00  0.0000E+00  0.0000E+00  0.0000E+00
     19.117  0.7928E-01  0.6915E-01  0.6915E-01  0.6915E-01  0.0000E+00  0.0000E+00  0.0000E+00  0.0000E+00  0.0000E+00
     19.131  0.7943E-01  0.6884E-01  0.6884E-01  0.6884E-01  0.0000E+00  0.0000E+00  0.0000E+00  0.0000E+00  0.0000E+00
     19.145  0.7958E-01  0.6856E-01  0.6856E-01  0.6856E-01  0.0000E+00  0.0000E+00  0.0000E+00  0.0000E+00  0.0000E+00
     19.159  0.7972E-01  0.6831E-01  0.6831E-01  0.6831E-01  0.0000E+00  0.0000E+00  0.0000E+00  0.0000E+00  0.0000E+00
     19.173  0.7985E-01  0.6808E-01  0.6808E-01  0.6808E-01  0.0000E+00  0.0000E+00  0.0000E+00  0.0000E+00  0.0000E+00
     19.187  0.7903E-01  0.6696E-01  0.6696E-01  0.6696E-01  0.0000E+00  0.0000E+00  0.0000E+00  0.0000E+00  0.0000E+00
     19.201  0.7812E-01  0.6588E-01  0.6588E-01  0.6588E-01  0.0000E+00  0.0000E+00  0.0000E+00  0.0000E+00  0.0000E+00
     19.215  0.7729E-01  0.6500E-01  0.6500E-01  0.6500E-01  0.0000E+00  0.0000E+00  0.0000E+00  0.0000E+00  0.0000E+00
     19.229  0.7652E-01  0.6426E-01  0.6426E-01  0.6426E-01  0.0000E+00  0.0000E+00  0.0000E+00  0.0000E+00  0.0000E+00
     19.243  0.7577E-01  0.6358E-01  0.6358E-01  0.6358E-01  0.0000E+00  0.0000E+00  0.0000E+00  0.0000E+00  0.0000E+00
     19.256  0.7494E-01  0.6295E-01  0.6295E-01  0.6295E-01  0.0000E+00  0.0000E+00  0.0000E+00  0.0000E+00  0.0000E+00
     19.270  0.7392E-01  0.6238E-01  0.6238E-01  0.6238E-01  0.0000E+00  0.0000E+00  0.0000E+00  0.0000E+00  0.0000E+00
     19.284  0.7271E-01  0.6187E-01  0.6187E-01  0.6187E-01  0.0000E+00  0.0000E+00  0.0000E+00  0.0000E+00  0.0000E+00
     19.298  0.7132E-01  0.6140E-01  0.6140E-01  0.6140E-01  0.0000E+00  0.0000E+00  0.0000E+00  0.0000E+00  0.0000E+00
     19.312  0.6970E-01  0.6099E-01  0.6099E-01  0.6099E-01  0.0000E+00  0.0000E+00  0.0000E+00  0.0000E+00  0.0000E+00
     19.326  0.6761E-01  0.6063E-01  0.6063E-01  0.6063E-01  0.0000E+00  0.0000E+00  0.0000E+00  0.0000E+00  0.0000E+00
     19.340  0.6496E-01  0.6031E-01  0.6031E-01  0.6031E-01  0.0000E+00  0.0000E+00  0.0000E+00  0.0000E+00  0.0000E+00
     19.354  0.6177E-01  0.6003E-01  0.6003E-01  0.6003E-01  0.0000E+00  0.0000E+00  0.0000E+00  0.0000E+00  0.0000E+00
     19.368  0.5946E-01  0.5986E-01  0.5986E-01  0.5986E-01  0.0000E+00  0.0000E+00  0.0000E+00  0.0000E+00  0.0000E+00
     19.382  0.5951E-01  0.5984E-01  0.5984E-01  0.5984E-01  0.0000E+00  0.0000E+00  0.0000E+00  0.0000E+00  0.0000E+00
     19.396  0.5961E-01  0.5989E-01  0.5989E-01  0.5989E-01  0.0000E+00  0.0000E+00  0.0000E+00  0.0000E+00  0.0000E+00
     19.410  0.5971E-01  0.5996E-01  0.5996E-01  0.5996E-01  0.0000E+00  0.0000E+00  0.0000E+00  0.0000E+00  0.0000E+00
     19.424  0.5983E-01  0.6005E-01  0.6005E-01  0.6005E-01  0.0000E+00  0.0000E+00  0.0000E+00  0.0000E+00  0.0000E+00
     19.438  0.5995E-01  0.6017E-01  0.6017E-01  0.6017E-01  0.0000E+00  0.0000E+00  0.0000E+00  0.0000E+00  0.0000E+00
     19.452  0.6008E-01  0.6031E-01  0.6031E-01  0.6031E-01  0.0000E+00  0.0000E+00  0.0000E+00  0.0000E+00  0.0000E+00
     19.466  0.6021E-01  0.6044E-01  0.6044E-01  0.6044E-01  0.0000E+00  0.0000E+00  0.0000E+00  0.0000E+00  0.0000E+00
     19.480  0.6033E-01  0.6058E-01  0.6058E-01  0.6058E-01  0.0000E+00  0.0000E+00  0.0000E+00  0.0000E+00  0.0000E+00
     19.494  0.6043E-01  0.6070E-01  0.6070E-01  0.6070E-01  0.0000E+00  0.0000E+00  0.0000E+00  0.0000E+00  0.0000E+00
     19.508  0.6052E-01  0.6082E-01  0.6082E-01  0.6082E-01  0.0000E+00  0.0000E+00  0.0000E+00  0.0000E+00  0.0000E+00
     19.522  0.6060E-01  0.6093E-01  0.6093E-01  0.6093E-01  0.0000E+00  0.0000E+00  0.0000E+00  0.0000E+00  0.0000E+00
     19.536  0.6067E-01  0.6103E-01  0.6103E-01  0.6103E-01  0.0000E+00  0.0000E+00  0.0000E+00  0.0000E+00  0.0000E+00
     19.550  0.6072E-01  0.6112E-01  0.6112E-01  0.6112E-01  0.0000E+00  0.0000E+00  0.0000E+00  0.0000E+00  0.0000E+00
     19.564  0.6075E-01  0.6120E-01  0.6120E-01  0.6120E-01  0.0000E+00  0.0000E+00  0.0000E+00  0.0000E+00  0.0000E+00
     19.578  0.6077E-01  0.6126E-01  0.6126E-01  0.6126E-01  0.0000E+00  0.0000E+00  0.0000E+00  0.0000E+00  0.0000E+00
     19.592  0.6078E-01  0.6132E-01  0.6132E-01  0.6132E-01  0.0000E+00  0.0000E+00  0.0000E+00  0.0000E+00  0.0000E+00
     19.606  0.6077E-01  0.6137E-01  0.6137E-01  0.6137E-01  0.0000E+00  0.0000E+00  0.0000E+00  0.0000E+00  0.0000E+00
     19.620  0.6075E-01  0.6141E-01  0.6141E-01  0.6141E-01  0.0000E+00  0.0000E+00  0.0000E+00  0.0000E+00  0.0000E+00
     19.634  0.6071E-01  0.6143E-01  0.6143E-01  0.6143E-01  0.0000E+00  0.0000E+00  0.0000E+00  0.0000E+00  0.0000E+00
     19.648  0.6066E-01  0.6145E-01  0.6145E-01  0.6145E-01  0.0000E+00  0.0000E+00  0.0000E+00  0.0000E+00  0.0000E+00
     19.662  0.6060E-01  0.6146E-01  0.6146E-01  0.6146E-01  0.0000E+00  0.0000E+00  0.0000E+00  0.0000E+00  0.0000E+00
     19.676  0.6052E-01  0.6146E-01  0.6146E-01  0.6146E-01  0.0000E+00  0.0000E+00  0.0000E+00  0.0000E+00  0.0000E+00
     19.690  0.6042E-01  0.6145E-01  0.6145E-01  0.6145E-01  0.0000E+00  0.0000E+00  0.0000E+00  0.0000E+00  0.0000E+00
     19.704  0.6031E-01  0.6142E-01  0.6142E-01  0.6142E-01  0.0000E+00  0.0000E+00  0.0000E+00  0.0000E+00  0.0000E+00
     19.718  0.6018E-01  0.6139E-01  0.6139E-01  0.6139E-01  0.0000E+00  0.0000E+00  0.0000E+00  0.0000E+00  0.0000E+00
     19.732  0.6003E-01  0.6134E-01  0.6134E-01  0.6134E-01  0.0000E+00  0.0000E+00  0.0000E+00  0.0000E+00  0.0000E+00
     19.746  0.5987E-01  0.6128E-01  0.6128E-01  0.6128E-01  0.0000E+00  0.0000E+00  0.0000E+00  0.0000E+00  0.0000E+00
     19.760  0.5969E-01  0.6121E-01  0.6121E-01  0.6121E-01  0.0000E+00  0.0000E+00  0.0000E+00  0.0000E+00  0.0000E+00
     19.774  0.5949E-01  0.6114E-01  0.6114E-01  0.6114E-01  0.0000E+00  0.0000E+00  0.0000E+00  0.0000E+00  0.0000E+00
     19.788  0.5928E-01  0.6105E-01  0.6105E-01  0.6105E-01  0.0000E+00  0.0000E+00  0.0000E+00  0.0000E+00  0.0000E+00
     19.802  0.5905E-01  0.6095E-01  0.6095E-01  0.6095E-01  0.0000E+00  0.0000E+00  0.0000E+00  0.0000E+00  0.0000E+00
     19.816  0.5881E-01  0.6083E-01  0.6083E-01  0.6083E-01  0.0000E+00  0.0000E+00  0.0000E+00  0.0000E+00  0.0000E+00
     19.830  0.5855E-01  0.6071E-01  0.6071E-01  0.6071E-01  0.0000E+00  0.0000E+00  0.0000E+00  0.0000E+00  0.0000E+00
     19.844  0.5827E-01  0.6058E-01  0.6058E-01  0.6058E-01  0.0000E+00  0.0000E+00  0.0000E+00  0.0000E+00  0.0000E+00
     19.857  0.5798E-01  0.6043E-01  0.6043E-01  0.6043E-01  0.0000E+00  0.0000E+00  0.0000E+00  0.0000E+00  0.0000E+00
     19.871  0.5767E-01  0.6028E-01  0.6028E-01  0.6028E-01  0.0000E+00  0.0000E+00  0.0000E+00  0.0000E+00  0.0000E+00
     19.885  0.5734E-01  0.6011E-01  0.6011E-01  0.6011E-01  0.0000E+00  0.0000E+00  0.0000E+00  0.0000E+00  0.0000E+00
     19.899  0.5700E-01  0.5994E-01  0.5994E-01  0.5994E-01  0.0000E+00  0.0000E+00  0.0000E+00  0.0000E+00  0.0000E+00
     19.913  0.5668E-01  0.5979E-01  0.5979E-01  0.5979E-01  0.0000E+00  0.0000E+00  0.0000E+00  0.0000E+00  0.0000E+00
     19.927  0.5635E-01  0.5956E-01  0.5956E-01  0.5956E-01  0.0000E+00  0.0000E+00  0.0000E+00  0.0000E+00  0.0000E+00
     19.941  0.5601E-01  0.5931E-01  0.5931E-01  0.5931E-01  0.0000E+00  0.0000E+00  0.0000E+00  0.0000E+00  0.0000E+00
     19.955  0.5566E-01  0.5906E-01  0.5906E-01  0.5906E-01  0.0000E+00  0.0000E+00  0.0000E+00  0.0000E+00  0.0000E+00
     19.969  0.5531E-01  0.5880E-01  0.5880E-01  0.5880E-01  0.0000E+00  0.0000E+00  0.0000E+00  0.0000E+00  0.0000E+00
     19.983  0.5496E-01  0.5854E-01  0.5854E-01  0.5854E-01  0.0000E+00  0.0000E+00  0.0000E+00  0.0000E+00  0.0000E+00
     19.997  0.5460E-01  0.5827E-01  0.5827E-01  0.5827E-01  0.0000E+00  0.0000E+00  0.0000E+00  0.0000E+00  0.0000E+00
     20.011  0.5423E-01  0.5800E-01  0.5800E-01  0.5800E-01  0.0000E+00  0.0000E+00  0.0000E+00  0.0000E+00  0.0000E+00
     20.025  0.5386E-01  0.5772E-01  0.5772E-01  0.5772E-01  0.0000E+00  0.0000E+00  0.0000E+00  0.0000E+00  0.0000E+00
     20.039  0.5349E-01  0.5744E-01  0.5744E-01  0.5744E-01  0.0000E+00  0.0000E+00  0.0000E+00  0.0000E+00  0.0000E+00
     20.053  0.5311E-01  0.5715E-01  0.5715E-01  0.5715E-01  0.0000E+00  0.0000E+00  0.0000E+00  0.0000E+00  0.0000E+00
     20.067  0.5272E-01  0.5686E-01  0.5686E-01  0.5686E-01  0.0000E+00  0.0000E+00  0.0000E+00  0.0000E+00  0.0000E+00
     20.081  0.5234E-01  0.5657E-01  0.5657E-01  0.5657E-01  0.0000E+00  0.0000E+00  0.0000E+00  0.0000E+00  0.0000E+00
     20.095  0.5194E-01  0.5627E-01  0.5627E-01  0.5627E-01  0.0000E+00  0.0000E+00  0.0000E+00  0.0000E+00  0.0000E+00
     20.109  0.5155E-01  0.5597E-01  0.5597E-01  0.5597E-01  0.0000E+00  0.0000E+00  0.0000E+00  0.0000E+00  0.0000E+00
     20.123  0.5115E-01  0.5566E-01  0.5566E-01  0.5566E-01  0.0000E+00  0.0000E+00  0.0000E+00  0.0000E+00  0.0000E+00
     20.137  0.5074E-01  0.5534E-01  0.5534E-01  0.5534E-01  0.0000E+00  0.0000E+00  0.0000E+00  0.0000E+00  0.0000E+00
     20.151  0.5033E-01  0.5503E-01  0.5503E-01  0.5503E-01  0.0000E+00  0.0000E+00  0.0000E+00  0.0000E+00  0.0000E+00
     20.165  0.4995E-01  0.5472E-01  0.5472E-01  0.5472E-01  0.0000E+00  0.0000E+00  0.0000E+00  0.0000E+00  0.0000E+00
     20.179  0.4956E-01  0.5440E-01  0.5440E-01  0.5440E-01  0.0000E+00  0.0000E+00  0.0000E+00  0.0000E+00  0.0000E+00
     20.193  0.4915E-01  0.5407E-01  0.5407E-01  0.5407E-01  0.0000E+00  0.0000E+00  0.0000E+00  0.0000E+00  0.0000E+00
     20.207  0.4873E-01  0.5372E-01  0.5372E-01  0.5372E-01  0.0000E+00  0.0000E+00  0.0000E+00  0.0000E+00  0.0000E+00
     20.221  0.4829E-01  0.5336E-01  0.5336E-01  0.5336E-01  0.0000E+00  0.0000E+00  0.0000E+00  0.0000E+00  0.0000E+00
     20.235  0.4784E-01  0.5299E-01  0.5299E-01  0.5299E-01  0.0000E+00  0.0000E+00  0.0000E+00  0.0000E+00  0.0000E+00
     20.249  0.4738E-01  0.5260E-01  0.5260E-01  0.5260E-01  0.0000E+00  0.0000E+00  0.0000E+00  0.0000E+00  0.0000E+00
     20.263  0.4691E-01  0.5220E-01  0.5220E-01  0.5220E-01  0.0000E+00  0.0000E+00  0.0000E+00  0.0000E+00  0.0000E+00
     20.277  0.4642E-01  0.5178E-01  0.5178E-01  0.5178E-01  0.0000E+00  0.0000E+00  0.0000E+00  0.0000E+00  0.0000E+00
     20.291  0.4592E-01  0.5135E-01  0.5135E-01  0.5135E-01  0.0000E+00  0.0000E+00  0.0000E+00  0.0000E+00  0.0000E+00
     20.305  0.4540E-01  0.5090E-01  0.5090E-01  0.5090E-01  0.0000E+00  0.0000E+00  0.0000E+00  0.0000E+00  0.0000E+00
     20.319  0.4488E-01  0.5044E-01  0.5044E-01  0.5044E-01  0.0000E+00  0.0000E+00  0.0000E+00  0.0000E+00  0.0000E+00
     20.333  0.4434E-01  0.4996E-01  0.4996E-01  0.4996E-01  0.0000E+00  0.0000E+00  0.0000E+00  0.0000E+00  0.0000E+00
     20.347  0.4378E-01  0.4947E-01  0.4947E-01  0.4947E-01  0.0000E+00  0.0000E+00  0.0000E+00  0.0000E+00  0.0000E+00
     20.361  0.4321E-01  0.4897E-01  0.4897E-01  0.4897E-01  0.0000E+00  0.0000E+00  0.0000E+00  0.0000E+00  0.0000E+00
     20.375  0.4263E-01  0.4845E-01  0.4845E-01  0.4845E-01  0.0000E+00  0.0000E+00  0.0000E+00  0.0000E+00  0.0000E+00
     20.389  0.4204E-01  0.4792E-01  0.4792E-01  0.4792E-01  0.0000E+00  0.0000E+00  0.0000E+00  0.0000E+00  0.0000E+00
     20.403  0.4161E-01  0.4746E-01  0.4746E-01  0.4746E-01  0.0000E+00  0.0000E+00  0.0000E+00  0.0000E+00  0.0000E+00
     20.417  0.4119E-01  0.4699E-01  0.4699E-01  0.4699E-01  0.0000E+00  0.0000E+00  0.0000E+00  0.0000E+00  0.0000E+00
     20.431  0.4075E-01  0.4651E-01  0.4651E-01  0.4651E-01  0.0000E+00  0.0000E+00  0.0000E+00  0.0000E+00  0.0000E+00
     20.445  0.4032E-01  0.4602E-01  0.4602E-01  0.4602E-01  0.0000E+00  0.0000E+00  0.0000E+00  0.0000E+00  0.0000E+00
     20.458  0.3987E-01  0.4552E-01  0.4552E-01  0.4552E-01  0.0000E+00  0.0000E+00  0.0000E+00  0.0000E+00  0.0000E+00
     20.472  0.3943E-01  0.4500E-01  0.4500E-01  0.4500E-01  0.0000E+00  0.0000E+00  0.0000E+00  0.0000E+00  0.0000E+00
     20.486  0.3898E-01  0.4448E-01  0.4448E-01  0.4448E-01  0.0000E+00  0.0000E+00  0.0000E+00  0.0000E+00  0.0000E+00
     20.500  0.3852E-01  0.4394E-01  0.4394E-01  0.4394E-01  0.0000E+00  0.0000E+00  0.0000E+00  0.0000E+00  0.0000E+00
     20.514  0.3805E-01  0.4338E-01  0.4338E-01  0.4338E-01  0.0000E+00  0.0000E+00  0.0000E+00  0.0000E+00  0.0000E+00
     20.528  0.3758E-01  0.4282E-01  0.4282E-01  0.4282E-01  0.0000E+00  0.0000E+00  0.0000E+00  0.0000E+00  0.0000E+00
     20.542  0.3711E-01  0.4224E-01  0.4224E-01  0.4224E-01  0.0000E+00  0.0000E+00  0.0000E+00  0.0000E+00  0.0000E+00
     20.556  0.3663E-01  0.4165E-01  0.4165E-01  0.4165E-01  0.0000E+00  0.0000E+00  0.0000E+00  0.0000E+00  0.0000E+00
     20.570  0.3614E-01  0.4105E-01  0.4105E-01  0.4105E-01  0.0000E+00  0.0000E+00  0.0000E+00  0.0000E+00  0.0000E+00
     20.584  0.3565E-01  0.4044E-01  0.4044E-01  0.4044E-01  0.0000E+00  0.0000E+00  0.0000E+00  0.0000E+00  0.0000E+00
     20.598  0.3515E-01  0.3981E-01  0.3981E-01  0.3981E-01  0.0000E+00  0.0000E+00  0.0000E+00  0.0000E+00  0.0000E+00
     20.612  0.3472E-01  0.3926E-01  0.3926E-01  0.3926E-01  0.0000E+00  0.0000E+00  0.0000E+00  0.0000E+00  0.0000E+00
     20.626  0.3452E-01  0.3901E-01  0.3901E-01  0.3901E-01  0.0000E+00  0.0000E+00  0.0000E+00  0.0000E+00  0.0000E+00
     20.640  0.3433E-01  0.3877E-01  0.3877E-01  0.3877E-01  0.0000E+00  0.0000E+00  0.0000E+00  0.0000E+00  0.0000E+00
     20.654  0.3414E-01  0.3853E-01  0.3853E-01  0.3853E-01  0.0000E+00  0.0000E+00  0.0000E+00  0.0000E+00  0.0000E+00
     20.668  0.3396E-01  0.3829E-01  0.3829E-01  0.3829E-01  0.0000E+00  0.0000E+00  0.0000E+00  0.0000E+00  0.0000E+00
     20.682  0.3379E-01  0.3806E-01  0.3806E-01  0.3806E-01  0.0000E+00  0.0000E+00  0.0000E+00  0.0000E+00  0.0000E+00
     20.696  0.3362E-01  0.3782E-01  0.3782E-01  0.3782E-01  0.0000E+00  0.0000E+00  0.0000E+00  0.0000E+00  0.0000E+00
     20.710  0.3346E-01  0.3759E-01  0.3759E-01  0.3759E-01  0.0000E+00  0.0000E+00  0.0000E+00  0.0000E+00  0.0000E+00
     20.724  0.3330E-01  0.3736E-01  0.3736E-01  0.3736E-01  0.0000E+00  0.0000E+00  0.0000E+00  0.0000E+00  0.0000E+00
     20.738  0.3316E-01  0.3714E-01  0.3714E-01  0.3714E-01  0.0000E+00  0.0000E+00  0.0000E+00  0.0000E+00  0.0000E+00
     20.752  0.3301E-01  0.3691E-01  0.3691E-01  0.3691E-01  0.0000E+00  0.0000E+00  0.0000E+00  0.0000E+00  0.0000E+00
     20.766  0.3288E-01  0.3669E-01  0.3669E-01  0.3669E-01  0.0000E+00  0.0000E+00  0.0000E+00  0.0000E+00  0.0000E+00
     20.780  0.3275E-01  0.3647E-01  0.3647E-01  0.3647E-01  0.0000E+00  0.0000E+00  0.0000E+00  0.0000E+00  0.0000E+00
     20.794  0.3262E-01  0.3625E-01  0.3625E-01  0.3625E-01  0.0000E+00  0.0000E+00  0.0000E+00  0.0000E+00  0.0000E+00
     20.808  0.3251E-01  0.3603E-01  0.3603E-01  0.3603E-01  0.0000E+00  0.0000E+00  0.0000E+00  0.0000E+00  0.0000E+00
     20.822  0.3240E-01  0.3583E-01  0.3583E-01  0.3583E-01  0.0000E+00  0.0000E+00  0.0000E+00  0.0000E+00  0.0000E+00
     20.836  0.3234E-01  0.3568E-01  0.3568E-01  0.3568E-01  0.0000E+00  0.0000E+00  0.0000E+00  0.0000E+00  0.0000E+00
     20.850  0.3231E-01  0.3560E-01  0.3560E-01  0.3560E-01  0.0000E+00  0.0000E+00  0.0000E+00  0.0000E+00  0.0000E+00
     20.864  0.3232E-01  0.3558E-01  0.3558E-01  0.3558E-01  0.0000E+00  0.0000E+00  0.0000E+00  0.0000E+00  0.0000E+00
     20.878  0.3236E-01  0.3561E-01  0.3561E-01  0.3561E-01  0.0000E+00  0.0000E+00  0.0000E+00  0.0000E+00  0.0000E+00
     20.892  0.3242E-01  0.3565E-01  0.3565E-01  0.3565E-01  0.0000E+00  0.0000E+00  0.0000E+00  0.0000E+00  0.0000E+00
     20.906  0.3249E-01  0.3570E-01  0.3570E-01  0.3570E-01  0.0000E+00  0.0000E+00  0.0000E+00  0.0000E+00  0.0000E+00
     20.920  0.3268E-01  0.3592E-01  0.3592E-01  0.3592E-01  0.0000E+00  0.0000E+00  0.0000E+00  0.0000E+00  0.0000E+00
     20.934  0.3292E-01  0.3619E-01  0.3619E-01  0.3619E-01  0.0000E+00  0.0000E+00  0.0000E+00  0.0000E+00  0.0000E+00
     20.948  0.3318E-01  0.3648E-01  0.3648E-01  0.3648E-01  0.0000E+00  0.0000E+00  0.0000E+00  0.0000E+00  0.0000E+00
     20.962  0.3346E-01  0.3679E-01  0.3679E-01  0.3679E-01  0.0000E+00  0.0000E+00  0.0000E+00  0.0000E+00  0.0000E+00
     20.976  0.3376E-01  0.3710E-01  0.3710E-01  0.3710E-01  0.0000E+00  0.0000E+00  0.0000E+00  0.0000E+00  0.0000E+00
     20.990  0.3408E-01  0.3743E-01  0.3743E-01  0.3743E-01  0.0000E+00  0.0000E+00  0.0000E+00  0.0000E+00  0.0000E+00
     21.004  0.3441E-01  0.3777E-01  0.3777E-01  0.3777E-01  0.0000E+00  0.0000E+00  0.0000E+00  0.0000E+00  0.0000E+00
     21.018  0.3477E-01  0.3813E-01  0.3813E-01  0.3813E-01  0.0000E+00  0.0000E+00  0.0000E+00  0.0000E+00  0.0000E+00
     21.032  0.3514E-01  0.3850E-01  0.3850E-01  0.3850E-01  0.0000E+00  0.0000E+00  0.0000E+00  0.0000E+00  0.0000E+00
     21.046  0.3553E-01  0.3888E-01  0.3888E-01  0.3888E-01  0.0000E+00  0.0000E+00  0.0000E+00  0.0000E+00  0.0000E+00
     21.060  0.3594E-01  0.3927E-01  0.3927E-01  0.3927E-01  0.0000E+00  0.0000E+00  0.0000E+00  0.0000E+00  0.0000E+00
     21.073  0.3637E-01  0.3968E-01  0.3968E-01  0.3968E-01  0.0000E+00  0.0000E+00  0.0000E+00  0.0000E+00  0.0000E+00
     21.087  0.3682E-01  0.4010E-01  0.4010E-01  0.4010E-01  0.0000E+00  0.0000E+00  0.0000E+00  0.0000E+00  0.0000E+00
     21.101  0.3728E-01  0.4054E-01  0.4054E-01  0.4054E-01  0.0000E+00  0.0000E+00  0.0000E+00  0.0000E+00  0.0000E+00
     21.115  0.3777E-01  0.4099E-01  0.4099E-01  0.4099E-01  0.0000E+00  0.0000E+00  0.0000E+00  0.0000E+00  0.0000E+00
     21.129  0.3827E-01  0.4145E-01  0.4145E-01  0.4145E-01  0.0000E+00  0.0000E+00  0.0000E+00  0.0000E+00  0.0000E+00
     21.143  0.3879E-01  0.4192E-01  0.4192E-01  0.4192E-01  0.0000E+00  0.0000E+00  0.0000E+00  0.0000E+00  0.0000E+00
     21.157  0.3933E-01  0.4240E-01  0.4240E-01  0.4240E-01  0.0000E+00  0.0000E+00  0.0000E+00  0.0000E+00  0.0000E+00
     21.171  0.3988E-01  0.4289E-01  0.4289E-01  0.4289E-01  0.0000E+00  0.0000E+00  0.0000E+00  0.0000E+00  0.0000E+00
     21.185  0.4044E-01  0.4340E-01  0.4340E-01  0.4340E-01  0.0000E+00  0.0000E+00  0.0000E+00  0.0000E+00  0.0000E+00
     21.199  0.4102E-01  0.4391E-01  0.4391E-01  0.4391E-01  0.0000E+00  0.0000E+00  0.0000E+00  0.0000E+00  0.0000E+00
     21.213  0.4161E-01  0.4443E-01  0.4443E-01  0.4443E-01  0.0000E+00  0.0000E+00  0.0000E+00  0.0000E+00  0.0000E+00
     21.227  0.4222E-01  0.4496E-01  0.4496E-01  0.4496E-01  0.0000E+00  0.0000E+00  0.0000E+00  0.0000E+00  0.0000E+00
     21.241  0.4285E-01  0.4550E-01  0.4550E-01  0.4550E-01  0.0000E+00  0.0000E+00  0.0000E+00  0.0000E+00  0.0000E+00
     21.255  0.4348E-01  0.4605E-01  0.4605E-01  0.4605E-01  0.0000E+00  0.0000E+00  0.0000E+00  0.0000E+00  0.0000E+00
     21.269  0.4414E-01  0.4661E-01  0.4661E-01  0.4661E-01  0.0000E+00  0.0000E+00  0.0000E+00  0.0000E+00  0.0000E+00
     21.283  0.4480E-01  0.4718E-01  0.4718E-01  0.4718E-01  0.0000E+00  0.0000E+00  0.0000E+00  0.0000E+00  0.0000E+00
     21.297  0.4549E-01  0.4776E-01  0.4776E-01  0.4776E-01  0.0000E+00  0.0000E+00  0.0000E+00  0.0000E+00  0.0000E+00
     21.311  0.4616E-01  0.4833E-01  0.4833E-01  0.4833E-01  0.0000E+00  0.0000E+00  0.0000E+00  0.0000E+00  0.0000E+00
     21.325  0.4683E-01  0.4892E-01  0.4892E-01  0.4892E-01  0.0000E+00  0.0000E+00  0.0000E+00  0.0000E+00  0.0000E+00
     21.339  0.4802E-01  0.4982E-01  0.4982E-01  0.4982E-01  0.0000E+00  0.0000E+00  0.0000E+00  0.0000E+00  0.0000E+00
     21.353  0.5117E-01  0.5191E-01  0.5191E-01  0.5191E-01  0.0000E+00  0.0000E+00  0.0000E+00  0.0000E+00  0.0000E+00
     21.367  0.5753E-01  0.5598E-01  0.5598E-01  0.5598E-01  0.0000E+00  0.0000E+00  0.0000E+00  0.0000E+00  0.0000E+00
     21.381  0.6556E-01  0.6071E-01  0.6071E-01  0.6071E-01  0.0000E+00  0.0000E+00  0.0000E+00  0.0000E+00  0.0000E+00
     21.395  0.6357E-01  0.5672E-01  0.5672E-01  0.5672E-01  0.0000E+00  0.0000E+00  0.0000E+00  0.0000E+00  0.0000E+00
     21.409  0.6228E-01  0.5553E-01  0.5553E-01  0.5553E-01  0.0000E+00  0.0000E+00  0.0000E+00  0.0000E+00  0.0000E+00
     21.423  0.6111E-01  0.5450E-01  0.5450E-01  0.5450E-01  0.0000E+00  0.0000E+00  0.0000E+00  0.0000E+00  0.0000E+00
     21.437  0.6006E-01  0.5357E-01  0.5357E-01  0.5357E-01  0.0000E+00  0.0000E+00  0.0000E+00  0.0000E+00  0.0000E+00
     21.451  0.5911E-01  0.5274E-01  0.5274E-01  0.5274E-01  0.0000E+00  0.0000E+00  0.0000E+00  0.0000E+00  0.0000E+00
     21.465  0.5827E-01  0.5202E-01  0.5202E-01  0.5202E-01  0.0000E+00  0.0000E+00  0.0000E+00  0.0000E+00  0.0000E+00
     21.479  0.5754E-01  0.5140E-01  0.5140E-01  0.5140E-01  0.0000E+00  0.0000E+00  0.0000E+00  0.0000E+00  0.0000E+00
     21.493  0.5692E-01  0.5089E-01  0.5089E-01  0.5089E-01  0.0000E+00  0.0000E+00  0.0000E+00  0.0000E+00  0.0000E+00
     21.507  0.5642E-01  0.5048E-01  0.5048E-01  0.5048E-01  0.0000E+00  0.0000E+00  0.0000E+00  0.0000E+00  0.0000E+00
     21.521  0.5606E-01  0.5017E-01  0.5017E-01  0.5017E-01  0.0000E+00  0.0000E+00  0.0000E+00  0.0000E+00  0.0000E+00
     21.535  0.5583E-01  0.4996E-01  0.4996E-01  0.4996E-01  0.0000E+00  0.0000E+00  0.0000E+00  0.0000E+00  0.0000E+00
     21.549  0.5575E-01  0.4986E-01  0.4986E-01  0.4986E-01  0.0000E+00  0.0000E+00  0.0000E+00  0.0000E+00  0.0000E+00
     21.563  0.5581E-01  0.4987E-01  0.4987E-01  0.4987E-01  0.0000E+00  0.0000E+00  0.0000E+00  0.0000E+00  0.0000E+00
     21.577  0.5601E-01  0.4997E-01  0.4997E-01  0.4997E-01  0.0000E+00  0.0000E+00  0.0000E+00  0.0000E+00  0.0000E+00
     21.591  0.5634E-01  0.5018E-01  0.5018E-01  0.5018E-01  0.0000E+00  0.0000E+00  0.0000E+00  0.0000E+00  0.0000E+00
     21.605  0.5662E-01  0.5036E-01  0.5036E-01  0.5036E-01  0.0000E+00  0.0000E+00  0.0000E+00  0.0000E+00  0.0000E+00
     21.619  0.5659E-01  0.5033E-01  0.5033E-01  0.5033E-01  0.0000E+00  0.0000E+00  0.0000E+00  0.0000E+00  0.0000E+00
     21.633  0.5645E-01  0.5023E-01  0.5023E-01  0.5023E-01  0.0000E+00  0.0000E+00  0.0000E+00  0.0000E+00  0.0000E+00
     21.647  0.5631E-01  0.5013E-01  0.5013E-01  0.5013E-01  0.0000E+00  0.0000E+00  0.0000E+00  0.0000E+00  0.0000E+00
     21.661  0.5618E-01  0.5004E-01  0.5004E-01  0.5004E-01  0.0000E+00  0.0000E+00  0.0000E+00  0.0000E+00  0.0000E+00
     21.674  0.5606E-01  0.4996E-01  0.4996E-01  0.4996E-01  0.0000E+00  0.0000E+00  0.0000E+00  0.0000E+00  0.0000E+00
     21.688  0.5595E-01  0.4988E-01  0.4988E-01  0.4988E-01  0.0000E+00  0.0000E+00  0.0000E+00  0.0000E+00  0.0000E+00
     21.702  0.5584E-01  0.4982E-01  0.4982E-01  0.4982E-01  0.0000E+00  0.0000E+00  0.0000E+00  0.0000E+00  0.0000E+00
     21.716  0.5574E-01  0.4976E-01  0.4976E-01  0.4976E-01  0.0000E+00  0.0000E+00  0.0000E+00  0.0000E+00  0.0000E+00
     21.730  0.5565E-01  0.4970E-01  0.4970E-01  0.4970E-01  0.0000E+00  0.0000E+00  0.0000E+00  0.0000E+00  0.0000E+00
     21.744  0.5556E-01  0.4965E-01  0.4965E-01  0.4965E-01  0.0000E+00  0.0000E+00  0.0000E+00  0.0000E+00  0.0000E+00
     21.758  0.5548E-01  0.4961E-01  0.4961E-01  0.4961E-01  0.0000E+00  0.0000E+00  0.0000E+00  0.0000E+00  0.0000E+00
     21.772  0.5541E-01  0.4958E-01  0.4958E-01  0.4958E-01  0.0000E+00  0.0000E+00  0.0000E+00  0.0000E+00  0.0000E+00
     21.786  0.5535E-01  0.4955E-01  0.4955E-01  0.4955E-01  0.0000E+00  0.0000E+00  0.0000E+00  0.0000E+00  0.0000E+00
     21.800  0.5529E-01  0.4954E-01  0.4954E-01  0.4954E-01  0.0000E+00  0.0000E+00  0.0000E+00  0.0000E+00  0.0000E+00
     21.814  0.5524E-01  0.4952E-01  0.4952E-01  0.4952E-01  0.0000E+00  0.0000E+00  0.0000E+00  0.0000E+00  0.0000E+00
     21.828  0.5519E-01  0.4952E-01  0.4952E-01  0.4952E-01  0.0000E+00  0.0000E+00  0.0000E+00  0.0000E+00  0.0000E+00
     21.842  0.5516E-01  0.4952E-01  0.4952E-01  0.4952E-01  0.0000E+00  0.0000E+00  0.0000E+00  0.0000E+00  0.0000E+00
     21.856  0.5513E-01  0.4953E-01  0.4953E-01  0.4953E-01  0.0000E+00  0.0000E+00  0.0000E+00  0.0000E+00  0.0000E+00
     21.870  0.5511E-01  0.4955E-01  0.4955E-01  0.4955E-01  0.0000E+00  0.0000E+00  0.0000E+00  0.0000E+00  0.0000E+00
     21.884  0.5509E-01  0.4957E-01  0.4957E-01  0.4957E-01  0.0000E+00  0.0000E+00  0.0000E+00  0.0000E+00  0.0000E+00
     21.898  0.5509E-01  0.4960E-01  0.4960E-01  0.4960E-01  0.0000E+00  0.0000E+00  0.0000E+00  0.0000E+00  0.0000E+00
     21.912  0.5508E-01  0.4963E-01  0.4963E-01  0.4963E-01  0.0000E+00  0.0000E+00  0.0000E+00  0.0000E+00  0.0000E+00
     21.926  0.5508E-01  0.4965E-01  0.4965E-01  0.4965E-01  0.0000E+00  0.0000E+00  0.0000E+00  0.0000E+00  0.0000E+00
     21.940  0.5508E-01  0.4967E-01  0.4967E-01  0.4967E-01  0.0000E+00  0.0000E+00  0.0000E+00  0.0000E+00  0.0000E+00
     21.954  0.5508E-01  0.4968E-01  0.4968E-01  0.4968E-01  0.0000E+00  0.0000E+00  0.0000E+00  0.0000E+00  0.0000E+00
     21.968  0.5509E-01  0.4968E-01  0.4968E-01  0.4968E-01  0.0000E+00  0.0000E+00  0.0000E+00  0.0000E+00  0.0000E+00
     21.982  0.5509E-01  0.4967E-01  0.4967E-01  0.4967E-01  0.0000E+00  0.0000E+00  0.0000E+00  0.0000E+00  0.0000E+00
     21.996  0.5509E-01  0.4966E-01  0.4966E-01  0.4966E-01  0.0000E+00  0.0000E+00  0.0000E+00  0.0000E+00  0.0000E+00
     22.010  0.5510E-01  0.4963E-01  0.4963E-01  0.4963E-01  0.0000E+00  0.0000E+00  0.0000E+00  0.0000E+00  0.0000E+00
     22.024  0.5511E-01  0.4960E-01  0.4960E-01  0.4960E-01  0.0000E+00  0.0000E+00  0.0000E+00  0.0000E+00  0.0000E+00
     22.038  0.5512E-01  0.4956E-01  0.4956E-01  0.4956E-01  0.0000E+00  0.0000E+00  0.0000E+00  0.0000E+00  0.0000E+00
     22.052  0.5513E-01  0.4952E-01  0.4952E-01  0.4952E-01  0.0000E+00  0.0000E+00  0.0000E+00  0.0000E+00  0.0000E+00
     22.066  0.5514E-01  0.4946E-01  0.4946E-01  0.4946E-01  0.0000E+00  0.0000E+00  0.0000E+00  0.0000E+00  0.0000E+00
     22.080  0.5515E-01  0.4940E-01  0.4940E-01  0.4940E-01  0.0000E+00  0.0000E+00  0.0000E+00  0.0000E+00  0.0000E+00
     22.094  0.5516E-01  0.4933E-01  0.4933E-01  0.4933E-01  0.0000E+00  0.0000E+00  0.0000E+00  0.0000E+00  0.0000E+00
     22.108  0.5518E-01  0.4925E-01  0.4925E-01  0.4925E-01  0.0000E+00  0.0000E+00  0.0000E+00  0.0000E+00  0.0000E+00
     22.122  0.5520E-01  0.4916E-01  0.4916E-01  0.4916E-01  0.0000E+00  0.0000E+00  0.0000E+00  0.0000E+00  0.0000E+00
     22.136  0.5521E-01  0.4907E-01  0.4907E-01  0.4907E-01  0.0000E+00  0.0000E+00  0.0000E+00  0.0000E+00  0.0000E+00
     22.150  0.5523E-01  0.4896E-01  0.4896E-01  0.4896E-01  0.0000E+00  0.0000E+00  0.0000E+00  0.0000E+00  0.0000E+00
     22.164  0.5525E-01  0.4885E-01  0.4885E-01  0.4885E-01  0.0000E+00  0.0000E+00  0.0000E+00  0.0000E+00  0.0000E+00
     22.178  0.5537E-01  0.4897E-01  0.4897E-01  0.4897E-01  0.0000E+00  0.0000E+00  0.0000E+00  0.0000E+00  0.0000E+00
     22.192  0.5553E-01  0.4917E-01  0.4917E-01  0.4917E-01  0.0000E+00  0.0000E+00  0.0000E+00  0.0000E+00  0.0000E+00
     22.206  0.5569E-01  0.4937E-01  0.4937E-01  0.4937E-01  0.0000E+00  0.0000E+00  0.0000E+00  0.0000E+00  0.0000E+00
     22.220  0.5602E-01  0.4965E-01  0.4965E-01  0.4965E-01  0.0000E+00  0.0000E+00  0.0000E+00  0.0000E+00  0.0000E+00
     22.234  0.5679E-01  0.5013E-01  0.5013E-01  0.5013E-01  0.0000E+00  0.0000E+00  0.0000E+00  0.0000E+00  0.0000E+00
     22.248  0.5800E-01  0.5081E-01  0.5081E-01  0.5081E-01  0.0000E+00  0.0000E+00  0.0000E+00  0.0000E+00  0.0000E+00
     22.262  0.5966E-01  0.5169E-01  0.5169E-01  0.5169E-01  0.0000E+00  0.0000E+00  0.0000E+00  0.0000E+00  0.0000E+00
     22.275  0.6176E-01  0.5278E-01  0.5278E-01  0.5278E-01  0.0000E+00  0.0000E+00  0.0000E+00  0.0000E+00  0.0000E+00
     22.289  0.6431E-01  0.5407E-01  0.5407E-01  0.5407E-01  0.0000E+00  0.0000E+00  0.0000E+00  0.0000E+00  0.0000E+00
     22.303  0.6505E-01  0.5449E-01  0.5449E-01  0.5449E-01  0.0000E+00  0.0000E+00  0.0000E+00  0.0000E+00  0.0000E+00
     22.317  0.6526E-01  0.5466E-01  0.5466E-01  0.5466E-01  0.0000E+00  0.0000E+00  0.0000E+00  0.0000E+00  0.0000E+00
     22.331  0.6548E-01  0.5483E-01  0.5483E-01  0.5483E-01  0.0000E+00  0.0000E+00  0.0000E+00  0.0000E+00  0.0000E+00
     22.345  0.6572E-01  0.5501E-01  0.5501E-01  0.5501E-01  0.0000E+00  0.0000E+00  0.0000E+00  0.0000E+00  0.0000E+00
     22.359  0.6596E-01  0.5520E-01  0.5520E-01  0.5520E-01  0.0000E+00  0.0000E+00  0.0000E+00  0.0000E+00  0.0000E+00
     22.373  0.6623E-01  0.5540E-01  0.5540E-01  0.5540E-01  0.0000E+00  0.0000E+00  0.0000E+00  0.0000E+00  0.0000E+00
     22.387  0.6650E-01  0.5560E-01  0.5560E-01  0.5560E-01  0.0000E+00  0.0000E+00  0.0000E+00  0.0000E+00  0.0000E+00
     22.401  0.6679E-01  0.5581E-01  0.5581E-01  0.5581E-01  0.0000E+00  0.0000E+00  0.0000E+00  0.0000E+00  0.0000E+00
     22.415  0.6709E-01  0.5603E-01  0.5603E-01  0.5603E-01  0.0000E+00  0.0000E+00  0.0000E+00  0.0000E+00  0.0000E+00
     22.429  0.6741E-01  0.5625E-01  0.5625E-01  0.5625E-01  0.0000E+00  0.0000E+00  0.0000E+00  0.0000E+00  0.0000E+00
     22.443  0.6774E-01  0.5648E-01  0.5648E-01  0.5648E-01  0.0000E+00  0.0000E+00  0.0000E+00  0.0000E+00  0.0000E+00
     22.457  0.6808E-01  0.5671E-01  0.5671E-01  0.5671E-01  0.0000E+00  0.0000E+00  0.0000E+00  0.0000E+00  0.0000E+00
     22.471  0.6844E-01  0.5696E-01  0.5696E-01  0.5696E-01  0.0000E+00  0.0000E+00  0.0000E+00  0.0000E+00  0.0000E+00
     22.485  0.6881E-01  0.5721E-01  0.5721E-01  0.5721E-01  0.0000E+00  0.0000E+00  0.0000E+00  0.0000E+00  0.0000E+00
     22.499  0.6920E-01  0.5746E-01  0.5746E-01  0.5746E-01  0.0000E+00  0.0000E+00  0.0000E+00  0.0000E+00  0.0000E+00
     22.513  0.6960E-01  0.5773E-01  0.5773E-01  0.5773E-01  0.0000E+00  0.0000E+00  0.0000E+00  0.0000E+00  0.0000E+00
     22.527  0.7351E-01  0.6112E-01  0.6112E-01  0.6112E-01  0.0000E+00  0.0000E+00  0.0000E+00  0.0000E+00  0.0000E+00
     22.541  0.7900E-01  0.6636E-01  0.6636E-01  0.6636E-01  0.0000E+00  0.0000E+00  0.0000E+00  0.0000E+00  0.0000E+00
     22.555  0.8519E-01  0.7255E-01  0.7255E-01  0.7255E-01  0.0000E+00  0.0000E+00  0.0000E+00  0.0000E+00  0.0000E+00
     22.569  0.8971E-01  0.7737E-01  0.7737E-01  0.7737E-01  0.0000E+00  0.0000E+00  0.0000E+00  0.0000E+00  0.0000E+00
     22.583  0.9244E-01  0.8068E-01  0.8068E-01  0.8068E-01  0.0000E+00  0.0000E+00  0.0000E+00  0.0000E+00  0.0000E+00
     22.597  0.9317E-01  0.8219E-01  0.8219E-01  0.8219E-01  0.0000E+00  0.0000E+00  0.0000E+00  0.0000E+00  0.0000E+00
     22.611  0.9253E-01  0.8213E-01  0.8213E-01  0.8213E-01  0.0000E+00  0.0000E+00  0.0000E+00  0.0000E+00  0.0000E+00
     22.625  0.9188E-01  0.8205E-01  0.8205E-01  0.8205E-01  0.0000E+00  0.0000E+00  0.0000E+00  0.0000E+00  0.0000E+00
     22.639  0.9122E-01  0.8192E-01  0.8192E-01  0.8192E-01  0.0000E+00  0.0000E+00  0.0000E+00  0.0000E+00  0.0000E+00
     22.653  0.9055E-01  0.8176E-01  0.8176E-01  0.8176E-01  0.0000E+00  0.0000E+00  0.0000E+00  0.0000E+00  0.0000E+00
     22.667  0.8987E-01  0.8157E-01  0.8157E-01  0.8157E-01  0.0000E+00  0.0000E+00  0.0000E+00  0.0000E+00  0.0000E+00
     22.681  0.8918E-01  0.8133E-01  0.8133E-01  0.8133E-01  0.0000E+00  0.0000E+00  0.0000E+00  0.0000E+00  0.0000E+00
     22.695  0.8848E-01  0.8107E-01  0.8107E-01  0.8107E-01  0.0000E+00  0.0000E+00  0.0000E+00  0.0000E+00  0.0000E+00
     22.709  0.8777E-01  0.8078E-01  0.8078E-01  0.8078E-01  0.0000E+00  0.0000E+00  0.0000E+00  0.0000E+00  0.0000E+00
     22.723  0.8705E-01  0.8046E-01  0.8046E-01  0.8046E-01  0.0000E+00  0.0000E+00  0.0000E+00  0.0000E+00  0.0000E+00
     22.737  0.8632E-01  0.8009E-01  0.8009E-01  0.8009E-01  0.0000E+00  0.0000E+00  0.0000E+00  0.0000E+00  0.0000E+00
     22.751  0.8558E-01  0.7969E-01  0.7969E-01  0.7969E-01  0.0000E+00  0.0000E+00  0.0000E+00  0.0000E+00  0.0000E+00
     22.765  0.8482E-01  0.7925E-01  0.7925E-01  0.7925E-01  0.0000E+00  0.0000E+00  0.0000E+00  0.0000E+00  0.0000E+00
     22.779  0.8405E-01  0.7877E-01  0.7877E-01  0.7877E-01  0.0000E+00  0.0000E+00  0.0000E+00  0.0000E+00  0.0000E+00
     22.793  0.8327E-01  0.7826E-01  0.7826E-01  0.7826E-01  0.0000E+00  0.0000E+00  0.0000E+00  0.0000E+00  0.0000E+00
     22.807  0.8247E-01  0.7770E-01  0.7770E-01  0.7770E-01  0.0000E+00  0.0000E+00  0.0000E+00  0.0000E+00  0.0000E+00
     22.821  0.8223E-01  0.7753E-01  0.7753E-01  0.7753E-01  0.0000E+00  0.0000E+00  0.0000E+00  0.0000E+00  0.0000E+00
     22.835  0.8238E-01  0.7768E-01  0.7768E-01  0.7768E-01  0.0000E+00  0.0000E+00  0.0000E+00  0.0000E+00  0.0000E+00
     22.849  0.8252E-01  0.7776E-01  0.7776E-01  0.7776E-01  0.0000E+00  0.0000E+00  0.0000E+00  0.0000E+00  0.0000E+00
     22.863  0.8297E-01  0.7777E-01  0.7777E-01  0.7777E-01  0.0000E+00  0.0000E+00  0.0000E+00  0.0000E+00  0.0000E+00
     22.876  0.8386E-01  0.7773E-01  0.7773E-01  0.7773E-01  0.0000E+00  0.0000E+00  0.0000E+00  0.0000E+00  0.0000E+00
     22.890  0.8518E-01  0.7763E-01  0.7763E-01  0.7763E-01  0.0000E+00  0.0000E+00  0.0000E+00  0.0000E+00  0.0000E+00
     22.904  0.8693E-01  0.7747E-01  0.7747E-01  0.7747E-01  0.0000E+00  0.0000E+00  0.0000E+00  0.0000E+00  0.0000E+00
     22.918  0.8990E-01  0.7733E-01  0.7733E-01  0.7733E-01  0.0000E+00  0.0000E+00  0.0000E+00  0.0000E+00  0.0000E+00
     22.932  0.1000E+00  0.7772E-01  0.7772E-01  0.7772E-01  0.0000E+00  0.0000E+00  0.0000E+00  0.0000E+00  0.0000E+00
     22.946  0.1097E+00  0.7793E-01  0.7793E-01  0.7793E-01  0.0000E+00  0.0000E+00  0.0000E+00  0.0000E+00  0.0000E+00
     22.960  0.1190E+00  0.7797E-01  0.7797E-01  0.7797E-01  0.0000E+00  0.0000E+00  0.0000E+00  0.0000E+00  0.0000E+00
     22.974  0.1277E+00  0.7785E-01  0.7785E-01  0.7785E-01  0.0000E+00  0.0000E+00  0.0000E+00  0.0000E+00  0.0000E+00
     22.988  0.1346E+00  0.7759E-01  0.7759E-01  0.7759E-01  0.0000E+00  0.0000E+00  0.0000E+00  0.0000E+00  0.0000E+00
     23.002  0.1398E+00  0.7720E-01  0.7720E-01  0.7720E-01  0.0000E+00  0.0000E+00  0.0000E+00  0.0000E+00  0.0000E+00
     23.016  0.1432E+00  0.7667E-01  0.7667E-01  0.7667E-01  0.0000E+00  0.0000E+00  0.0000E+00  0.0000E+00  0.0000E+00
     23.030  0.1448E+00  0.7601E-01  0.7601E-01  0.7601E-01  0.0000E+00  0.0000E+00  0.0000E+00  0.0000E+00  0.0000E+00
     23.044  0.1446E+00  0.7519E-01  0.7519E-01  0.7519E-01  0.0000E+00  0.0000E+00  0.0000E+00  0.0000E+00  0.0000E+00
     23.058  0.1425E+00  0.7405E-01  0.7405E-01  0.7405E-01  0.0000E+00  0.0000E+00  0.0000E+00  0.0000E+00  0.0000E+00
     23.072  0.1387E+00  0.7294E-01  0.7294E-01  0.7294E-01  0.0000E+00  0.0000E+00  0.0000E+00  0.0000E+00  0.0000E+00
     23.086  0.1339E+00  0.7267E-01  0.7267E-01  0.7267E-01  0.0000E+00  0.0000E+00  0.0000E+00  0.0000E+00  0.0000E+00
     23.100  0.1269E+00  0.7215E-01  0.7215E-01  0.7215E-01  0.0000E+00  0.0000E+00  0.0000E+00  0.0000E+00  0.0000E+00
     23.114  0.1202E+00  0.7165E-01  0.7165E-01  0.7165E-01  0.0000E+00  0.0000E+00  0.0000E+00  0.0000E+00  0.0000E+00
     23.128  0.1141E+00  0.7120E-01  0.7120E-01  0.7120E-01  0.0000E+00  0.0000E+00  0.0000E+00  0.0000E+00  0.0000E+00
     23.142  0.1085E+00  0.7081E-01  0.7081E-01  0.7081E-01  0.0000E+00  0.0000E+00  0.0000E+00  0.0000E+00  0.0000E+00
     23.156  0.1034E+00  0.7047E-01  0.7047E-01  0.7047E-01  0.0000E+00  0.0000E+00  0.0000E+00  0.0000E+00  0.0000E+00
     23.170  0.9883E-01  0.7018E-01  0.7018E-01  0.7018E-01  0.0000E+00  0.0000E+00  0.0000E+00  0.0000E+00  0.0000E+00
     23.184  0.9479E-01  0.6994E-01  0.6994E-01  0.6994E-01  0.0000E+00  0.0000E+00  0.0000E+00  0.0000E+00  0.0000E+00
     23.198  0.9126E-01  0.6975E-01  0.6975E-01  0.6975E-01  0.0000E+00  0.0000E+00  0.0000E+00  0.0000E+00  0.0000E+00
     23.212  0.8825E-01  0.6961E-01  0.6961E-01  0.6961E-01  0.0000E+00  0.0000E+00  0.0000E+00  0.0000E+00  0.0000E+00
     23.226  0.8575E-01  0.6951E-01  0.6951E-01  0.6951E-01  0.0000E+00  0.0000E+00  0.0000E+00  0.0000E+00  0.0000E+00
     23.240  0.8375E-01  0.6947E-01  0.6947E-01  0.6947E-01  0.0000E+00  0.0000E+00  0.0000E+00  0.0000E+00  0.0000E+00
     23.254  0.8226E-01  0.6946E-01  0.6946E-01  0.6946E-01  0.0000E+00  0.0000E+00  0.0000E+00  0.0000E+00  0.0000E+00
     23.268  0.8126E-01  0.6950E-01  0.6950E-01  0.6950E-01  0.0000E+00  0.0000E+00  0.0000E+00  0.0000E+00  0.0000E+00
     23.282  0.8069E-01  0.6958E-01  0.6958E-01  0.6958E-01  0.0000E+00  0.0000E+00  0.0000E+00  0.0000E+00  0.0000E+00
     23.296  0.8012E-01  0.6966E-01  0.6966E-01  0.6966E-01  0.0000E+00  0.0000E+00  0.0000E+00  0.0000E+00  0.0000E+00
     23.310  0.7949E-01  0.6975E-01  0.6975E-01  0.6975E-01  0.0000E+00  0.0000E+00  0.0000E+00  0.0000E+00  0.0000E+00
     23.324  0.7880E-01  0.6985E-01  0.6985E-01  0.6985E-01  0.0000E+00  0.0000E+00  0.0000E+00  0.0000E+00  0.0000E+00
     23.338  0.7805E-01  0.6995E-01  0.6995E-01  0.6995E-01  0.0000E+00  0.0000E+00  0.0000E+00  0.0000E+00  0.0000E+00
     23.352  0.7723E-01  0.7006E-01  0.7006E-01  0.7006E-01  0.0000E+00  0.0000E+00  0.0000E+00  0.0000E+00  0.0000E+00
     23.366  0.7636E-01  0.7017E-01  0.7017E-01  0.7017E-01  0.0000E+00  0.0000E+00  0.0000E+00  0.0000E+00  0.0000E+00
     23.380  0.7542E-01  0.7029E-01  0.7029E-01  0.7029E-01  0.0000E+00  0.0000E+00  0.0000E+00  0.0000E+00  0.0000E+00
     23.394  0.7442E-01  0.7041E-01  0.7041E-01  0.7041E-01  0.0000E+00  0.0000E+00  0.0000E+00  0.0000E+00  0.0000E+00
     23.408  0.7336E-01  0.7054E-01  0.7054E-01  0.7054E-01  0.0000E+00  0.0000E+00  0.0000E+00  0.0000E+00  0.0000E+00
     23.422  0.7224E-01  0.7067E-01  0.7067E-01  0.7067E-01  0.0000E+00  0.0000E+00  0.0000E+00  0.0000E+00  0.0000E+00
     23.436  0.7105E-01  0.7081E-01  0.7081E-01  0.7081E-01  0.0000E+00  0.0000E+00  0.0000E+00  0.0000E+00  0.0000E+00
     23.450  0.6981E-01  0.7096E-01  0.7096E-01  0.7096E-01  0.0000E+00  0.0000E+00  0.0000E+00  0.0000E+00  0.0000E+00
     23.464  0.6850E-01  0.7111E-01  0.7111E-01  0.7111E-01  0.0000E+00  0.0000E+00  0.0000E+00  0.0000E+00  0.0000E+00
     23.477  0.6713E-01  0.7126E-01  0.7126E-01  0.7126E-01  0.0000E+00  0.0000E+00  0.0000E+00  0.0000E+00  0.0000E+00
     23.491  0.6570E-01  0.7142E-01  0.7142E-01  0.7142E-01  0.0000E+00  0.0000E+00  0.0000E+00  0.0000E+00  0.0000E+00
     23.505  0.6425E-01  0.7164E-01  0.7164E-01  0.7164E-01  0.0000E+00  0.0000E+00  0.0000E+00  0.0000E+00  0.0000E+00
     23.519  0.6274E-01  0.7188E-01  0.7188E-01  0.7188E-01  0.0000E+00  0.0000E+00  0.0000E+00  0.0000E+00  0.0000E+00
     23.533  0.6118E-01  0.7214E-01  0.7214E-01  0.7214E-01  0.0000E+00  0.0000E+00  0.0000E+00  0.0000E+00  0.0000E+00
     23.547  0.5955E-01  0.7241E-01  0.7241E-01  0.7241E-01  0.0000E+00  0.0000E+00  0.0000E+00  0.0000E+00  0.0000E+00
     23.561  0.5786E-01  0.7271E-01  0.7271E-01  0.7271E-01  0.0000E+00  0.0000E+00  0.0000E+00  0.0000E+00  0.0000E+00
     23.575  0.5635E-01  0.7307E-01  0.7307E-01  0.7307E-01  0.0000E+00  0.0000E+00  0.0000E+00  0.0000E+00  0.0000E+00
     23.589  0.5528E-01  0.7355E-01  0.7355E-01  0.7355E-01  0.0000E+00  0.0000E+00  0.0000E+00  0.0000E+00  0.0000E+00
     23.603  0.5430E-01  0.7408E-01  0.7408E-01  0.7408E-01  0.0000E+00  0.0000E+00  0.0000E+00  0.0000E+00  0.0000E+00
     23.617  0.5343E-01  0.7465E-01  0.7465E-01  0.7465E-01  0.0000E+00  0.0000E+00  0.0000E+00  0.0000E+00  0.0000E+00
     23.631  0.5265E-01  0.7526E-01  0.7526E-01  0.7526E-01  0.0000E+00  0.0000E+00  0.0000E+00  0.0000E+00  0.0000E+00
     23.645  0.5197E-01  0.7591E-01  0.7591E-01  0.7591E-01  0.0000E+00  0.0000E+00  0.0000E+00  0.0000E+00  0.0000E+00
     23.659  0.5135E-01  0.7665E-01  0.7665E-01  0.7665E-01  0.0000E+00  0.0000E+00  0.0000E+00  0.0000E+00  0.0000E+00
     23.673  0.5079E-01  0.7753E-01  0.7753E-01  0.7753E-01  0.0000E+00  0.0000E+00  0.0000E+00  0.0000E+00  0.0000E+00
     23.687  0.5033E-01  0.7844E-01  0.7844E-01  0.7844E-01  0.0000E+00  0.0000E+00  0.0000E+00  0.0000E+00  0.0000E+00
     23.701  0.4997E-01  0.7935E-01  0.7935E-01  0.7935E-01  0.0000E+00  0.0000E+00  0.0000E+00  0.0000E+00  0.0000E+00
     23.715  0.4970E-01  0.8026E-01  0.8026E-01  0.8026E-01  0.0000E+00  0.0000E+00  0.0000E+00  0.0000E+00  0.0000E+00
     23.729  0.4959E-01  0.8129E-01  0.8129E-01  0.8129E-01  0.0000E+00  0.0000E+00  0.0000E+00  0.0000E+00  0.0000E+00
     23.743  0.4965E-01  0.8250E-01  0.8250E-01  0.8250E-01  0.0000E+00  0.0000E+00  0.0000E+00  0.0000E+00  0.0000E+00
     23.757  0.4989E-01  0.8390E-01  0.8390E-01  0.8390E-01  0.0000E+00  0.0000E+00  0.0000E+00  0.0000E+00  0.0000E+00
     23.771  0.5030E-01  0.8547E-01  0.8547E-01  0.8547E-01  0.0000E+00  0.0000E+00  0.0000E+00  0.0000E+00  0.0000E+00
     23.785  0.5079E-01  0.8716E-01  0.8716E-01  0.8716E-01  0.0000E+00  0.0000E+00  0.0000E+00  0.0000E+00  0.0000E+00
     23.799  0.5126E-01  0.8876E-01  0.8876E-01  0.8876E-01  0.0000E+00  0.0000E+00  0.0000E+00  0.0000E+00  0.0000E+00
     23.813  0.5170E-01  0.9024E-01  0.9024E-01  0.9024E-01  0.0000E+00  0.0000E+00  0.0000E+00  0.0000E+00  0.0000E+00
     23.827  0.5210E-01  0.9160E-01  0.9160E-01  0.9160E-01  0.0000E+00  0.0000E+00  0.0000E+00  0.0000E+00  0.0000E+00
     23.841  0.5247E-01  0.9284E-01  0.9284E-01  0.9284E-01  0.0000E+00  0.0000E+00  0.0000E+00  0.0000E+00  0.0000E+00
     23.855  0.5280E-01  0.9396E-01  0.9396E-01  0.9396E-01  0.0000E+00  0.0000E+00  0.0000E+00  0.0000E+00  0.0000E+00
     23.869  0.5332E-01  0.9525E-01  0.9525E-01  0.9525E-01  0.0000E+00  0.0000E+00  0.0000E+00  0.0000E+00  0.0000E+00
     23.883  0.5421E-01  0.9691E-01  0.9691E-01  0.9691E-01  0.0000E+00  0.0000E+00  0.0000E+00  0.0000E+00  0.0000E+00
     23.897  0.5546E-01  0.9893E-01  0.9893E-01  0.9893E-01  0.0000E+00  0.0000E+00  0.0000E+00  0.0000E+00  0.0000E+00
     23.911  0.5709E-01  0.1013E+00  0.1013E+00  0.1013E+00  0.0000E+00  0.0000E+00  0.0000E+00  0.0000E+00  0.0000E+00
     23.925  0.5908E-01  0.1041E+00  0.1041E+00  0.1041E+00  0.0000E+00  0.0000E+00  0.0000E+00  0.0000E+00  0.0000E+00
     23.939  0.6143E-01  0.1072E+00  0.1072E+00  0.1072E+00  0.0000E+00  0.0000E+00  0.0000E+00  0.0000E+00  0.0000E+00
     23.953  0.6396E-01  0.1107E+00  0.1107E+00  0.1107E+00  0.0000E+00  0.0000E+00  0.0000E+00  0.0000E+00  0.0000E+00
     23.967  0.6650E-01  0.1141E+00  0.1141E+00  0.1141E+00  0.0000E+00  0.0000E+00  0.0000E+00  0.0000E+00  0.0000E+00
     23.981  0.6906E-01  0.1174E+00  0.1174E+00  0.1174E+00  0.0000E+00  0.0000E+00  0.0000E+00  0.0000E+00  0.0000E+00
     23.995  0.7164E-01  0.1207E+00  0.1207E+00  0.1207E+00  0.0000E+00  0.0000E+00  0.0000E+00  0.0000E+00  0.0000E+00
     24.009  0.7424E-01  0.1240E+00  0.1240E+00  0.1240E+00  0.0000E+00  0.0000E+00  0.0000E+00  0.0000E+00  0.0000E+00
     24.023  0.7640E-01  0.1267E+00  0.1267E+00  0.1267E+00  0.0000E+00  0.0000E+00  0.0000E+00  0.0000E+00  0.0000E+00
     24.037  0.7846E-01  0.1293E+00  0.1293E+00  0.1293E+00  0.0000E+00  0.0000E+00  0.0000E+00  0.0000E+00  0.0000E+00
     24.051  0.8092E-01  0.1322E+00  0.1322E+00  0.1322E+00  0.0000E+00  0.0000E+00  0.0000E+00  0.0000E+00  0.0000E+00
     24.065  0.8378E-01  0.1354E+00  0.1354E+00  0.1354E+00  0.0000E+00  0.0000E+00  0.0000E+00  0.0000E+00  0.0000E+00
     24.078  0.8470E-01  0.1364E+00  0.1364E+00  0.1364E+00  0.0000E+00  0.0000E+00  0.0000E+00  0.0000E+00  0.0000E+00
     24.092  0.8001E-01  0.1314E+00  0.1314E+00  0.1314E+00  0.0000E+00  0.0000E+00  0.0000E+00  0.0000E+00  0.0000E+00
     24.106  0.7153E-01  0.1226E+00  0.1226E+00  0.1226E+00  0.0000E+00  0.0000E+00  0.0000E+00  0.0000E+00  0.0000E+00
     24.120  0.6667E-01  0.1180E+00  0.1180E+00  0.1180E+00  0.0000E+00  0.0000E+00  0.0000E+00  0.0000E+00  0.0000E+00
     24.134  0.6218E-01  0.1138E+00  0.1138E+00  0.1138E+00  0.0000E+00  0.0000E+00  0.0000E+00  0.0000E+00  0.0000E+00
     24.148  0.5807E-01  0.1099E+00  0.1099E+00  0.1099E+00  0.0000E+00  0.0000E+00  0.0000E+00  0.0000E+00  0.0000E+00
     24.162  0.5470E-01  0.1066E+00  0.1066E+00  0.1066E+00  0.0000E+00  0.0000E+00  0.0000E+00  0.0000E+00  0.0000E+00
     24.176  0.5344E-01  0.1049E+00  0.1049E+00  0.1049E+00  0.0000E+00  0.0000E+00  0.0000E+00  0.0000E+00  0.0000E+00
     24.190  0.5220E-01  0.1032E+00  0.1032E+00  0.1032E+00  0.0000E+00  0.0000E+00  0.0000E+00  0.0000E+00  0.0000E+00
     24.204  0.5098E-01  0.1016E+00  0.1016E+00  0.1016E+00  0.0000E+00  0.0000E+00  0.0000E+00  0.0000E+00  0.0000E+00
     24.218  0.4978E-01  0.9997E-01  0.9997E-01  0.9997E-01  0.0000E+00  0.0000E+00  0.0000E+00  0.0000E+00  0.0000E+00
     24.232  0.4859E-01  0.9837E-01  0.9837E-01  0.9837E-01  0.0000E+00  0.0000E+00  0.0000E+00  0.0000E+00  0.0000E+00
     24.246  0.4742E-01  0.9680E-01  0.9680E-01  0.9680E-01  0.0000E+00  0.0000E+00  0.0000E+00  0.0000E+00  0.0000E+00
     24.260  0.4627E-01  0.9524E-01  0.9524E-01  0.9524E-01  0.0000E+00  0.0000E+00  0.0000E+00  0.0000E+00  0.0000E+00
     24.274  0.4514E-01  0.9371E-01  0.9371E-01  0.9371E-01  0.0000E+00  0.0000E+00  0.0000E+00  0.0000E+00  0.0000E+00
     24.288  0.4402E-01  0.9219E-01  0.9219E-01  0.9219E-01  0.0000E+00  0.0000E+00  0.0000E+00  0.0000E+00  0.0000E+00
     24.302  0.4293E-01  0.9070E-01  0.9070E-01  0.9070E-01  0.0000E+00  0.0000E+00  0.0000E+00  0.0000E+00  0.0000E+00
     24.316  0.4185E-01  0.8923E-01  0.8923E-01  0.8923E-01  0.0000E+00  0.0000E+00  0.0000E+00  0.0000E+00  0.0000E+00
     24.330  0.4079E-01  0.8777E-01  0.8777E-01  0.8777E-01  0.0000E+00  0.0000E+00  0.0000E+00  0.0000E+00  0.0000E+00
     24.344  0.3975E-01  0.8634E-01  0.8634E-01  0.8634E-01  0.0000E+00  0.0000E+00  0.0000E+00  0.0000E+00  0.0000E+00
     24.358  0.3874E-01  0.8492E-01  0.8492E-01  0.8492E-01  0.0000E+00  0.0000E+00  0.0000E+00  0.0000E+00  0.0000E+00
     24.372  0.3774E-01  0.8352E-01  0.8352E-01  0.8352E-01  0.0000E+00  0.0000E+00  0.0000E+00  0.0000E+00  0.0000E+00
     24.386  0.3676E-01  0.8214E-01  0.8214E-01  0.8214E-01  0.0000E+00  0.0000E+00  0.0000E+00  0.0000E+00  0.0000E+00
     24.400  0.3580E-01  0.8078E-01  0.8078E-01  0.8078E-01  0.0000E+00  0.0000E+00  0.0000E+00  0.0000E+00  0.0000E+00
     24.414  0.3487E-01  0.7943E-01  0.7943E-01  0.7943E-01  0.0000E+00  0.0000E+00  0.0000E+00  0.0000E+00  0.0000E+00
     24.428  0.3395E-01  0.7810E-01  0.7810E-01  0.7810E-01  0.0000E+00  0.0000E+00  0.0000E+00  0.0000E+00  0.0000E+00
     24.442  0.3306E-01  0.7679E-01  0.7679E-01  0.7679E-01  0.0000E+00  0.0000E+00  0.0000E+00  0.0000E+00  0.0000E+00
     24.456  0.3218E-01  0.7550E-01  0.7550E-01  0.7550E-01  0.0000E+00  0.0000E+00  0.0000E+00  0.0000E+00  0.0000E+00
     24.470  0.3132E-01  0.7423E-01  0.7423E-01  0.7423E-01  0.0000E+00  0.0000E+00  0.0000E+00  0.0000E+00  0.0000E+00
     24.484  0.3049E-01  0.7297E-01  0.7297E-01  0.7297E-01  0.0000E+00  0.0000E+00  0.0000E+00  0.0000E+00  0.0000E+00
     24.498  0.2967E-01  0.7173E-01  0.7173E-01  0.7173E-01  0.0000E+00  0.0000E+00  0.0000E+00  0.0000E+00  0.0000E+00
     24.512  0.2888E-01  0.7052E-01  0.7052E-01  0.7052E-01  0.0000E+00  0.0000E+00  0.0000E+00  0.0000E+00  0.0000E+00
     24.526  0.2811E-01  0.6931E-01  0.6931E-01  0.6931E-01  0.0000E+00  0.0000E+00  0.0000E+00  0.0000E+00  0.0000E+00
     24.540  0.2735E-01  0.6813E-01  0.6813E-01  0.6813E-01  0.0000E+00  0.0000E+00  0.0000E+00  0.0000E+00  0.0000E+00
     24.554  0.2662E-01  0.6697E-01  0.6697E-01  0.6697E-01  0.0000E+00  0.0000E+00  0.0000E+00  0.0000E+00  0.0000E+00
     24.568  0.2591E-01  0.6582E-01  0.6582E-01  0.6582E-01  0.0000E+00  0.0000E+00  0.0000E+00  0.0000E+00  0.0000E+00
     24.582  0.2521E-01  0.6469E-01  0.6469E-01  0.6469E-01  0.0000E+00  0.0000E+00  0.0000E+00  0.0000E+00  0.0000E+00
     24.596  0.2454E-01  0.6358E-01  0.6358E-01  0.6358E-01  0.0000E+00  0.0000E+00  0.0000E+00  0.0000E+00  0.0000E+00
     24.610  0.2389E-01  0.6249E-01  0.6249E-01  0.6249E-01  0.0000E+00  0.0000E+00  0.0000E+00  0.0000E+00  0.0000E+00
     24.624  0.2325E-01  0.6143E-01  0.6143E-01  0.6143E-01  0.0000E+00  0.0000E+00  0.0000E+00  0.0000E+00  0.0000E+00
     24.638  0.2264E-01  0.6039E-01  0.6039E-01  0.6039E-01  0.0000E+00  0.0000E+00  0.0000E+00  0.0000E+00  0.0000E+00
     24.652  0.2204E-01  0.5939E-01  0.5939E-01  0.5939E-01  0.0000E+00  0.0000E+00  0.0000E+00  0.0000E+00  0.0000E+00
     24.666  0.2146E-01  0.5840E-01  0.5840E-01  0.5840E-01  0.0000E+00  0.0000E+00  0.0000E+00  0.0000E+00  0.0000E+00
     24.679  0.2090E-01  0.5744E-01  0.5744E-01  0.5744E-01  0.0000E+00  0.0000E+00  0.0000E+00  0.0000E+00  0.0000E+00
     24.693  0.2035E-01  0.5649E-01  0.5649E-01  0.5649E-01  0.0000E+00  0.0000E+00  0.0000E+00  0.0000E+00  0.0000E+00
     24.707  0.1982E-01  0.5557E-01  0.5557E-01  0.5557E-01  0.0000E+00  0.0000E+00  0.0000E+00  0.0000E+00  0.0000E+00
     24.721  0.1930E-01  0.5466E-01  0.5466E-01  0.5466E-01  0.0000E+00  0.0000E+00  0.0000E+00  0.0000E+00  0.0000E+00
     24.735  0.1880E-01  0.5377E-01  0.5377E-01  0.5377E-01  0.0000E+00  0.0000E+00  0.0000E+00  0.0000E+00  0.0000E+00
     24.749  0.1831E-01  0.5291E-01  0.5291E-01  0.5291E-01  0.0000E+00  0.0000E+00  0.0000E+00  0.0000E+00  0.0000E+00
     24.763  0.1783E-01  0.5206E-01  0.5206E-01  0.5206E-01  0.0000E+00  0.0000E+00  0.0000E+00  0.0000E+00  0.0000E+00
     24.777  0.1737E-01  0.5123E-01  0.5123E-01  0.5123E-01  0.0000E+00  0.0000E+00  0.0000E+00  0.0000E+00  0.0000E+00
     24.791  0.1693E-01  0.5042E-01  0.5042E-01  0.5042E-01  0.0000E+00  0.0000E+00  0.0000E+00  0.0000E+00  0.0000E+00
     24.805  0.1650E-01  0.4963E-01  0.4963E-01  0.4963E-01  0.0000E+00  0.0000E+00  0.0000E+00  0.0000E+00  0.0000E+00
     24.819  0.1613E-01  0.4909E-01  0.4909E-01  0.4909E-01  0.0000E+00  0.0000E+00  0.0000E+00  0.0000E+00  0.0000E+00
     24.833  0.1586E-01  0.4898E-01  0.4898E-01  0.4898E-01  0.0000E+00  0.0000E+00  0.0000E+00  0.0000E+00  0.0000E+00
     24.847  0.1569E-01  0.4930E-01  0.4930E-01  0.4930E-01  0.0000E+00  0.0000E+00  0.0000E+00  0.0000E+00  0.0000E+00
     24.861  0.1559E-01  0.4991E-01  0.4991E-01  0.4991E-01  0.0000E+00  0.0000E+00  0.0000E+00  0.0000E+00  0.0000E+00
     24.875  0.1548E-01  0.5050E-01  0.5050E-01  0.5050E-01  0.0000E+00  0.0000E+00  0.0000E+00  0.0000E+00  0.0000E+00
     24.889  0.1537E-01  0.5105E-01  0.5105E-01  0.5105E-01  0.0000E+00  0.0000E+00  0.0000E+00  0.0000E+00  0.0000E+00
     24.903  0.1524E-01  0.5157E-01  0.5157E-01  0.5157E-01  0.0000E+00  0.0000E+00  0.0000E+00  0.0000E+00  0.0000E+00
     24.917  0.1511E-01  0.5205E-01  0.5205E-01  0.5205E-01  0.0000E+00  0.0000E+00  0.0000E+00  0.0000E+00  0.0000E+00
     24.931  0.1497E-01  0.5250E-01  0.5250E-01  0.5250E-01  0.0000E+00  0.0000E+00  0.0000E+00  0.0000E+00  0.0000E+00
     24.945  0.1482E-01  0.5291E-01  0.5291E-01  0.5291E-01  0.0000E+00  0.0000E+00  0.0000E+00  0.0000E+00  0.0000E+00
     24.959  0.1466E-01  0.5329E-01  0.5329E-01  0.5329E-01  0.0000E+00  0.0000E+00  0.0000E+00  0.0000E+00  0.0000E+00
     24.973  0.1450E-01  0.5364E-01  0.5364E-01  0.5364E-01  0.0000E+00  0.0000E+00  0.0000E+00  0.0000E+00  0.0000E+00
     24.987  0.1432E-01  0.5395E-01  0.5395E-01  0.5395E-01  0.0000E+00  0.0000E+00  0.0000E+00  0.0000E+00  0.0000E+00
     25.001  0.1414E-01  0.5422E-01  0.5422E-01  0.5422E-01  0.0000E+00  0.0000E+00  0.0000E+00  0.0000E+00  0.0000E+00
     25.015  0.1395E-01  0.5446E-01  0.5446E-01  0.5446E-01  0.0000E+00  0.0000E+00  0.0000E+00  0.0000E+00  0.0000E+00
     25.029  0.1375E-01  0.5467E-01  0.5467E-01  0.5467E-01  0.0000E+00  0.0000E+00  0.0000E+00  0.0000E+00  0.0000E+00
     25.043  0.1354E-01  0.5484E-01  0.5484E-01  0.5484E-01  0.0000E+00  0.0000E+00  0.0000E+00  0.0000E+00  0.0000E+00
     25.057  0.1332E-01  0.5498E-01  0.5498E-01  0.5498E-01  0.0000E+00  0.0000E+00  0.0000E+00  0.0000E+00  0.0000E+00
     25.071  0.1297E-01  0.5490E-01  0.5490E-01  0.5490E-01  0.0000E+00  0.0000E+00  0.0000E+00  0.0000E+00  0.0000E+00
     25.085  0.1225E-01  0.5449E-01  0.5449E-01  0.5449E-01  0.0000E+00  0.0000E+00  0.0000E+00  0.0000E+00  0.0000E+00
     25.099  0.1173E-01  0.5486E-01  0.5486E-01  0.5486E-01  0.0000E+00  0.0000E+00  0.0000E+00  0.0000E+00  0.0000E+00
     25.113  0.1141E-01  0.5601E-01  0.5601E-01  0.5601E-01  0.0000E+00  0.0000E+00  0.0000E+00  0.0000E+00  0.0000E+00
     25.127  0.1129E-01  0.5793E-01  0.5793E-01  0.5793E-01  0.0000E+00  0.0000E+00  0.0000E+00  0.0000E+00  0.0000E+00
     25.141  0.1128E-01  0.5980E-01  0.5980E-01  0.5980E-01  0.0000E+00  0.0000E+00  0.0000E+00  0.0000E+00  0.0000E+00
     25.155  0.1051E-01  0.5489E-01  0.5489E-01  0.5489E-01  0.0000E+00  0.0000E+00  0.0000E+00  0.0000E+00  0.0000E+00
     25.169  0.9767E-02  0.5000E-01  0.5000E-01  0.5000E-01  0.0000E+00  0.0000E+00  0.0000E+00  0.0000E+00  0.0000E+00
     25.183  0.9095E-02  0.4564E-01  0.4564E-01  0.4564E-01  0.0000E+00  0.0000E+00  0.0000E+00  0.0000E+00  0.0000E+00
     25.197  0.8495E-02  0.4179E-01  0.4179E-01  0.4179E-01  0.0000E+00  0.0000E+00  0.0000E+00  0.0000E+00  0.0000E+00
     25.211  0.7962E-02  0.3846E-01  0.3846E-01  0.3846E-01  0.0000E+00  0.0000E+00  0.0000E+00  0.0000E+00  0.0000E+00
     25.225  0.7494E-02  0.3562E-01  0.3562E-01  0.3562E-01  0.0000E+00  0.0000E+00  0.0000E+00  0.0000E+00  0.0000E+00
     25.239  0.7092E-02  0.3329E-01  0.3329E-01  0.3329E-01  0.0000E+00  0.0000E+00  0.0000E+00  0.0000E+00  0.0000E+00
     25.253  0.6755E-02  0.3146E-01  0.3146E-01  0.3146E-01  0.0000E+00  0.0000E+00  0.0000E+00  0.0000E+00  0.0000E+00
     25.267  0.6482E-02  0.3012E-01  0.3012E-01  0.3012E-01  0.0000E+00  0.0000E+00  0.0000E+00  0.0000E+00  0.0000E+00
     25.280  0.6273E-02  0.2927E-01  0.2927E-01  0.2927E-01  0.0000E+00  0.0000E+00  0.0000E+00  0.0000E+00  0.0000E+00
     25.294  0.6127E-02  0.2890E-01  0.2890E-01  0.2890E-01  0.0000E+00  0.0000E+00  0.0000E+00  0.0000E+00  0.0000E+00
     25.308  0.6027E-02  0.2888E-01  0.2888E-01  0.2888E-01  0.0000E+00  0.0000E+00  0.0000E+00  0.0000E+00  0.0000E+00
     25.322  0.5930E-02  0.2887E-01  0.2887E-01  0.2887E-01  0.0000E+00  0.0000E+00  0.0000E+00  0.0000E+00  0.0000E+00
     25.336  0.5832E-02  0.2886E-01  0.2886E-01  0.2886E-01  0.0000E+00  0.0000E+00  0.0000E+00  0.0000E+00  0.0000E+00
     25.350  0.5735E-02  0.2883E-01  0.2883E-01  0.2883E-01  0.0000E+00  0.0000E+00  0.0000E+00  0.0000E+00  0.0000E+00
     25.364  0.5637E-02  0.2881E-01  0.2881E-01  0.2881E-01  0.0000E+00  0.0000E+00  0.0000E+00  0.0000E+00  0.0000E+00
     25.378  0.5538E-02  0.2877E-01  0.2877E-01  0.2877E-01  0.0000E+00  0.0000E+00  0.0000E+00  0.0000E+00  0.0000E+00
     25.392  0.5440E-02  0.2873E-01  0.2873E-01  0.2873E-01  0.0000E+00  0.0000E+00  0.0000E+00  0.0000E+00  0.0000E+00
     25.406  0.5342E-02  0.2868E-01  0.2868E-01  0.2868E-01  0.0000E+00  0.0000E+00  0.0000E+00  0.0000E+00  0.0000E+00
     25.420  0.5243E-02  0.2862E-01  0.2862E-01  0.2862E-01  0.0000E+00  0.0000E+00  0.0000E+00  0.0000E+00  0.0000E+00
     25.434  0.5145E-02  0.2856E-01  0.2856E-01  0.2856E-01  0.0000E+00  0.0000E+00  0.0000E+00  0.0000E+00  0.0000E+00
     25.448  0.5046E-02  0.2849E-01  0.2849E-01  0.2849E-01  0.0000E+00  0.0000E+00  0.0000E+00  0.0000E+00  0.0000E+00
     25.462  0.4947E-02  0.2842E-01  0.2842E-01  0.2842E-01  0.0000E+00  0.0000E+00  0.0000E+00  0.0000E+00  0.0000E+00
     25.476  0.4847E-02  0.2833E-01  0.2833E-01  0.2833E-01  0.0000E+00  0.0000E+00  0.0000E+00  0.0000E+00  0.0000E+00
     25.490  0.4748E-02  0.2824E-01  0.2824E-01  0.2824E-01  0.0000E+00  0.0000E+00  0.0000E+00  0.0000E+00  0.0000E+00
     25.504  0.4649E-02  0.2815E-01  0.2815E-01  0.2815E-01  0.0000E+00  0.0000E+00  0.0000E+00  0.0000E+00  0.0000E+00
     25.518  0.4549E-02  0.2805E-01  0.2805E-01  0.2805E-01  0.0000E+00  0.0000E+00  0.0000E+00  0.0000E+00  0.0000E+00
     25.532  0.4449E-02  0.2794E-01  0.2794E-01  0.2794E-01  0.0000E+00  0.0000E+00  0.0000E+00  0.0000E+00  0.0000E+00
     25.546  0.4349E-02  0.2782E-01  0.2782E-01  0.2782E-01  0.0000E+00  0.0000E+00  0.0000E+00  0.0000E+00  0.0000E+00
     25.560  0.4250E-02  0.2771E-01  0.2771E-01  0.2771E-01  0.0000E+00  0.0000E+00  0.0000E+00  0.0000E+00  0.0000E+00
     25.574  0.4162E-02  0.2767E-01  0.2767E-01  0.2767E-01  0.0000E+00  0.0000E+00  0.0000E+00  0.0000E+00  0.0000E+00
     25.588  0.4088E-02  0.2773E-01  0.2773E-01  0.2773E-01  0.0000E+00  0.0000E+00  0.0000E+00  0.0000E+00  0.0000E+00
     25.602  0.4026E-02  0.2787E-01  0.2787E-01  0.2787E-01  0.0000E+00  0.0000E+00  0.0000E+00  0.0000E+00  0.0000E+00
     25.616  0.3957E-02  0.2964E-01  0.2964E-01  0.2964E-01  0.0000E+00  0.0000E+00  0.0000E+00  0.0000E+00  0.0000E+00
     25.630  0.3875E-02  0.3097E-01  0.3097E-01  0.3097E-01  0.0000E+00  0.0000E+00  0.0000E+00  0.0000E+00  0.0000E+00
     25.644  0.3783E-02  0.3042E-01  0.3042E-01  0.3042E-01  0.0000E+00  0.0000E+00  0.0000E+00  0.0000E+00  0.0000E+00
     25.658  0.3670E-02  0.2978E-01  0.2978E-01  0.2978E-01  0.0000E+00  0.0000E+00  0.0000E+00  0.0000E+00  0.0000E+00
     25.672  0.3536E-02  0.2905E-01  0.2905E-01  0.2905E-01  0.0000E+00  0.0000E+00  0.0000E+00  0.0000E+00  0.0000E+00
     25.686  0.3381E-02  0.2822E-01  0.2822E-01  0.2822E-01  0.0000E+00  0.0000E+00  0.0000E+00  0.0000E+00  0.0000E+00
     25.700  0.3206E-02  0.2731E-01  0.2731E-01  0.2731E-01  0.0000E+00  0.0000E+00  0.0000E+00  0.0000E+00  0.0000E+00
     25.714  0.3011E-02  0.2631E-01  0.2631E-01  0.2631E-01  0.0000E+00  0.0000E+00  0.0000E+00  0.0000E+00  0.0000E+00
     25.728  0.2795E-02  0.2522E-01  0.2522E-01  0.2522E-01  0.0000E+00  0.0000E+00  0.0000E+00  0.0000E+00  0.0000E+00
     25.742  0.2558E-02  0.2404E-01  0.2404E-01  0.2404E-01  0.0000E+00  0.0000E+00  0.0000E+00  0.0000E+00  0.0000E+00
     25.756  0.2301E-02  0.2277E-01  0.2277E-01  0.2277E-01  0.0000E+00  0.0000E+00  0.0000E+00  0.0000E+00  0.0000E+00
     25.770  0.2023E-02  0.2140E-01  0.2140E-01  0.2140E-01  0.0000E+00  0.0000E+00  0.0000E+00  0.0000E+00  0.0000E+00
     25.784  0.1724E-02  0.1995E-01  0.1995E-01  0.1995E-01  0.0000E+00  0.0000E+00  0.0000E+00  0.0000E+00  0.0000E+00
     25.798  0.1405E-02  0.1840E-01  0.1840E-01  0.1840E-01  0.0000E+00  0.0000E+00  0.0000E+00  0.0000E+00  0.0000E+00
     25.812  0.1196E-02  0.1713E-01  0.1713E-01  0.1713E-01  0.0000E+00  0.0000E+00  0.0000E+00  0.0000E+00  0.0000E+00
     25.826  0.1136E-02  0.1628E-01  0.1628E-01  0.1628E-01  0.0000E+00  0.0000E+00  0.0000E+00  0.0000E+00  0.0000E+00
     25.840  0.1078E-02  0.1545E-01  0.1545E-01  0.1545E-01  0.0000E+00  0.0000E+00  0.0000E+00  0.0000E+00  0.0000E+00
     25.854  0.1022E-02  0.1464E-01  0.1464E-01  0.1464E-01  0.0000E+00  0.0000E+00  0.0000E+00  0.0000E+00  0.0000E+00
     25.868  0.9666E-03  0.1385E-01  0.1385E-01  0.1385E-01  0.0000E+00  0.0000E+00  0.0000E+00  0.0000E+00  0.0000E+00
     25.881  0.9131E-03  0.1308E-01  0.1308E-01  0.1308E-01  0.0000E+00  0.0000E+00  0.0000E+00  0.0000E+00  0.0000E+00
     25.895  0.8611E-03  0.1234E-01  0.1234E-01  0.1234E-01  0.0000E+00  0.0000E+00  0.0000E+00  0.0000E+00  0.0000E+00
     25.909  0.8107E-03  0.1161E-01  0.1161E-01  0.1161E-01  0.0000E+00  0.0000E+00  0.0000E+00  0.0000E+00  0.0000E+00
     25.923  0.7617E-03  0.1091E-01  0.1091E-01  0.1091E-01  0.0000E+00  0.0000E+00  0.0000E+00  0.0000E+00  0.0000E+00
     25.937  0.7143E-03  0.1023E-01  0.1023E-01  0.1023E-01  0.0000E+00  0.0000E+00  0.0000E+00  0.0000E+00  0.0000E+00
     25.951  0.6685E-03  0.9577E-02  0.9577E-02  0.9577E-02  0.0000E+00  0.0000E+00  0.0000E+00  0.0000E+00  0.0000E+00
     25.965  0.6241E-03  0.8942E-02  0.8942E-02  0.8942E-02  0.0000E+00  0.0000E+00  0.0000E+00  0.0000E+00  0.0000E+00
     25.979  0.5813E-03  0.8328E-02  0.8328E-02  0.8328E-02  0.0000E+00  0.0000E+00  0.0000E+00  0.0000E+00  0.0000E+00
     25.993  0.5400E-03  0.7736E-02  0.7736E-02  0.7736E-02  0.0000E+00  0.0000E+00  0.0000E+00  0.0000E+00  0.0000E+00
     26.007  0.5002E-03  0.7166E-02  0.7166E-02  0.7166E-02  0.0000E+00  0.0000E+00  0.0000E+00  0.0000E+00  0.0000E+00
     26.021  0.4619E-03  0.6618E-02  0.6618E-02  0.6618E-02  0.0000E+00  0.0000E+00  0.0000E+00  0.0000E+00  0.0000E+00
     26.035  0.4252E-03  0.6092E-02  0.6092E-02  0.6092E-02  0.0000E+00  0.0000E+00  0.0000E+00  0.0000E+00  0.0000E+00
     26.049  0.3900E-03  0.5587E-02  0.5587E-02  0.5587E-02  0.0000E+00  0.0000E+00  0.0000E+00  0.0000E+00  0.0000E+00
     26.063  0.3563E-03  0.5104E-02  0.5104E-02  0.5104E-02  0.0000E+00  0.0000E+00  0.0000E+00  0.0000E+00  0.0000E+00
     26.077  0.3241E-03  0.4643E-02  0.4643E-02  0.4643E-02  0.0000E+00  0.0000E+00  0.0000E+00  0.0000E+00  0.0000E+00
     26.091  0.2935E-03  0.4204E-02  0.4204E-02  0.4204E-02  0.0000E+00  0.0000E+00  0.0000E+00  0.0000E+00  0.0000E+00
     26.105  0.2643E-03  0.3787E-02  0.3787E-02  0.3787E-02  0.0000E+00  0.0000E+00  0.0000E+00  0.0000E+00  0.0000E+00
     26.119  0.2367E-03  0.3391E-02  0.3391E-02  0.3391E-02  0.0000E+00  0.0000E+00  0.0000E+00  0.0000E+00  0.0000E+00
     26.133  0.2106E-03  0.3017E-02  0.3017E-02  0.3017E-02  0.0000E+00  0.0000E+00  0.0000E+00  0.0000E+00  0.0000E+00
     26.147  0.1861E-03  0.2666E-02  0.2666E-02  0.2666E-02  0.0000E+00  0.0000E+00  0.0000E+00  0.0000E+00  0.0000E+00
     26.161  0.1630E-03  0.2335E-02  0.2335E-02  0.2335E-02  0.0000E+00  0.0000E+00  0.0000E+00  0.0000E+00  0.0000E+00
     26.175  0.1415E-03  0.2027E-02  0.2027E-02  0.2027E-02  0.0000E+00  0.0000E+00  0.0000E+00  0.0000E+00  0.0000E+00
     26.189  0.1215E-03  0.1741E-02  0.1741E-02  0.1741E-02  0.0000E+00  0.0000E+00  0.0000E+00  0.0000E+00  0.0000E+00
     26.203  0.1030E-03  0.1476E-02  0.1476E-02  0.1476E-02  0.0000E+00  0.0000E+00  0.0000E+00  0.0000E+00  0.0000E+00
     26.217  0.8609E-04  0.1233E-02  0.1233E-02  0.1233E-02  0.0000E+00  0.0000E+00  0.0000E+00  0.0000E+00  0.0000E+00
     26.231  0.7066E-04  0.1012E-02  0.1012E-02  0.1012E-02  0.0000E+00  0.0000E+00  0.0000E+00  0.0000E+00  0.0000E+00
     26.245  0.5676E-04  0.8129E-03  0.8129E-03  0.8129E-03  0.0000E+00  0.0000E+00  0.0000E+00  0.0000E+00  0.0000E+00
     26.259  0.4437E-04  0.6355E-03  0.6355E-03  0.6355E-03  0.0000E+00  0.0000E+00  0.0000E+00  0.0000E+00  0.0000E+00
     26.273  0.3351E-04  0.4799E-03  0.4799E-03  0.4799E-03  0.0000E+00  0.0000E+00  0.0000E+00  0.0000E+00  0.0000E+00
     26.287  0.2417E-04  0.3461E-03  0.3461E-03  0.3461E-03  0.0000E+00  0.0000E+00  0.0000E+00  0.0000E+00  0.0000E+00
     26.301  0.1635E-04  0.2341E-03  0.2341E-03  0.2341E-03  0.0000E+00  0.0000E+00  0.0000E+00  0.0000E+00  0.0000E+00
     26.315  0.1006E-04  0.1440E-03  0.1440E-03  0.1440E-03  0.0000E+00  0.0000E+00  0.0000E+00  0.0000E+00  0.0000E+00
     26.329  0.5285E-05  0.7561E-04  0.7561E-04  0.7561E-04  0.0000E+00  0.0000E+00  0.0000E+00  0.0000E+00  0.0000E+00
     26.343  0.2035E-05  0.2908E-04  0.2908E-04  0.2908E-04  0.0000E+00  0.0000E+00  0.0000E+00  0.0000E+00  0.0000E+00
     26.357  0.3070E-06  0.4369E-05  0.4369E-05  0.4369E-05  0.0000E+00  0.0000E+00  0.0000E+00  0.0000E+00  0.0000E+00
     26.371  0.0000E+00  0.0000E+00  0.0000E+00  0.0000E+00  0.0000E+00  0.0000E+00  0.0000E+00  0.0000E+00  0.0000E+00
     26.385  0.0000E+00  0.0000E+00  0.0000E+00  0.0000E+00  0.0000E+00  0.0000E+00  0.0000E+00  0.0000E+00  0.0000E+00
     26.399  0.0000E+00  0.0000E+00  0.0000E+00  0.0000E+00  0.0000E+00  0.0000E+00  0.0000E+00  0.0000E+00  0.0000E+00
     26.413  0.0000E+00  0.0000E+00  0.0000E+00  0.0000E+00  0.0000E+00  0.0000E+00  0.0000E+00  0.0000E+00  0.0000E+00
     26.427  0.0000E+00  0.0000E+00  0.0000E+00  0.0000E+00  0.0000E+00  0.0000E+00  0.0000E+00  0.0000E+00  0.0000E+00
     26.441  0.0000E+00  0.0000E+00  0.0000E+00  0.0000E+00  0.0000E+00  0.0000E+00  0.0000E+00  0.0000E+00  0.0000E+00
     26.455  0.0000E+00  0.0000E+00  0.0000E+00  0.0000E+00  0.0000E+00  0.0000E+00  0.0000E+00  0.0000E+00  0.0000E+00
     26.469  0.0000E+00  0.0000E+00  0.0000E+00  0.0000E+00  0.0000E+00  0.0000E+00  0.0000E+00  0.0000E+00  0.0000E+00
     26.482  0.0000E+00  0.0000E+00  0.0000E+00  0.0000E+00  0.0000E+00  0.0000E+00  0.0000E+00  0.0000E+00  0.0000E+00
     26.496  0.0000E+00  0.0000E+00  0.0000E+00  0.0000E+00  0.0000E+00  0.0000E+00  0.0000E+00  0.0000E+00  0.0000E+00
     26.510  0.0000E+00  0.0000E+00  0.0000E+00  0.0000E+00  0.0000E+00  0.0000E+00  0.0000E+00  0.0000E+00  0.0000E+00
     26.524  0.0000E+00  0.0000E+00  0.0000E+00  0.0000E+00  0.0000E+00  0.0000E+00  0.0000E+00  0.0000E+00  0.0000E+00
     26.538  0.0000E+00  0.0000E+00  0.0000E+00  0.0000E+00  0.0000E+00  0.0000E+00  0.0000E+00  0.0000E+00  0.0000E+00
     26.552  0.0000E+00  0.0000E+00  0.0000E+00  0.0000E+00  0.0000E+00  0.0000E+00  0.0000E+00  0.0000E+00  0.0000E+00
     26.566  0.0000E+00  0.0000E+00  0.0000E+00  0.0000E+00  0.0000E+00  0.0000E+00  0.0000E+00  0.0000E+00  0.0000E+00
     26.580  0.0000E+00  0.0000E+00  0.0000E+00  0.0000E+00  0.0000E+00  0.0000E+00  0.0000E+00  0.0000E+00  0.0000E+00
     26.594  0.0000E+00  0.0000E+00  0.0000E+00  0.0000E+00  0.0000E+00  0.0000E+00  0.0000E+00  0.0000E+00  0.0000E+00
     26.608  0.0000E+00  0.0000E+00  0.0000E+00  0.0000E+00  0.0000E+00  0.0000E+00  0.0000E+00  0.0000E+00  0.0000E+00
     26.622  0.0000E+00  0.0000E+00  0.0000E+00  0.0000E+00  0.0000E+00  0.0000E+00  0.0000E+00  0.0000E+00  0.0000E+00
     26.636  0.0000E+00  0.0000E+00  0.0000E+00  0.0000E+00  0.0000E+00  0.0000E+00  0.0000E+00  0.0000E+00  0.0000E+00
     26.650  0.0000E+00  0.0000E+00  0.0000E+00  0.0000E+00  0.0000E+00  0.0000E+00  0.0000E+00  0.0000E+00  0.0000E+00
     26.664  0.0000E+00  0.0000E+00  0.0000E+00  0.0000E+00  0.0000E+00  0.0000E+00  0.0000E+00  0.0000E+00  0.0000E+00
     26.678  0.0000E+00  0.0000E+00  0.0000E+00  0.0000E+00  0.0000E+00  0.0000E+00  0.0000E+00  0.0000E+00  0.0000E+00
     26.692  0.0000E+00  0.0000E+00  0.0000E+00  0.0000E+00  0.0000E+00  0.0000E+00  0.0000E+00  0.0000E+00  0.0000E+00
     26.706  0.0000E+00  0.0000E+00  0.0000E+00  0.0000E+00  0.0000E+00  0.0000E+00  0.0000E+00  0.0000E+00  0.0000E+00
     26.720  0.0000E+00  0.0000E+00  0.0000E+00  0.0000E+00  0.0000E+00  0.0000E+00  0.0000E+00  0.0000E+00  0.0000E+00
     26.734  0.0000E+00  0.0000E+00  0.0000E+00  0.0000E+00  0.0000E+00  0.0000E+00  0.0000E+00  0.0000E+00  0.0000E+00
     26.748  0.0000E+00  0.0000E+00  0.0000E+00  0.0000E+00  0.0000E+00  0.0000E+00  0.0000E+00  0.0000E+00  0.0000E+00
     26.762  0.0000E+00  0.0000E+00  0.0000E+00  0.0000E+00  0.0000E+00  0.0000E+00  0.0000E+00  0.0000E+00  0.0000E+00
     26.776  0.0000E+00  0.0000E+00  0.0000E+00  0.0000E+00  0.0000E+00  0.0000E+00  0.0000E+00  0.0000E+00  0.0000E+00
     26.790  0.0000E+00  0.0000E+00  0.0000E+00  0.0000E+00  0.0000E+00  0.0000E+00  0.0000E+00  0.0000E+00  0.0000E+00
     26.804  0.0000E+00  0.0000E+00  0.0000E+00  0.0000E+00  0.0000E+00  0.0000E+00  0.0000E+00  0.0000E+00  0.0000E+00
     26.818  0.0000E+00  0.0000E+00  0.0000E+00  0.0000E+00  0.0000E+00  0.0000E+00  0.0000E+00  0.0000E+00  0.0000E+00
     26.832  0.0000E+00  0.0000E+00  0.0000E+00  0.0000E+00  0.0000E+00  0.0000E+00  0.0000E+00  0.0000E+00  0.0000E+00
     26.846  0.0000E+00  0.0000E+00  0.0000E+00  0.0000E+00  0.0000E+00  0.0000E+00  0.0000E+00  0.0000E+00  0.0000E+00
     26.860  0.0000E+00  0.0000E+00  0.0000E+00  0.0000E+00  0.0000E+00  0.0000E+00  0.0000E+00  0.0000E+00  0.0000E+00
     26.874  0.0000E+00  0.0000E+00  0.0000E+00  0.0000E+00  0.0000E+00  0.0000E+00  0.0000E+00  0.0000E+00  0.0000E+00
     26.888  0.0000E+00  0.0000E+00  0.0000E+00  0.0000E+00  0.0000E+00  0.0000E+00  0.0000E+00  0.0000E+00  0.0000E+00
     26.902  0.0000E+00  0.0000E+00  0.0000E+00  0.0000E+00  0.0000E+00  0.0000E+00  0.0000E+00  0.0000E+00  0.0000E+00
     26.916  0.0000E+00  0.0000E+00  0.0000E+00  0.0000E+00  0.0000E+00  0.0000E+00  0.0000E+00  0.0000E+00  0.0000E+00
     26.930  0.0000E+00  0.0000E+00  0.0000E+00  0.0000E+00  0.0000E+00  0.0000E+00  0.0000E+00  0.0000E+00  0.0000E+00
     26.944  0.0000E+00  0.0000E+00  0.0000E+00  0.0000E+00  0.0000E+00  0.0000E+00  0.0000E+00  0.0000E+00  0.0000E+00
     26.958  0.0000E+00  0.0000E+00  0.0000E+00  0.0000E+00  0.0000E+00  0.0000E+00  0.0000E+00  0.0000E+00  0.0000E+00
     26.972  0.0000E+00  0.0000E+00  0.0000E+00  0.0000E+00  0.0000E+00  0.0000E+00  0.0000E+00  0.0000E+00  0.0000E+00
     26.986  0.0000E+00  0.0000E+00  0.0000E+00  0.0000E+00  0.0000E+00  0.0000E+00  0.0000E+00  0.0000E+00  0.0000E+00
     27.000  0.0000E+00  0.0000E+00  0.0000E+00  0.0000E+00  0.0000E+00  0.0000E+00  0.0000E+00  0.0000E+00  0.0000E+00
     27.014  0.0000E+00  0.0000E+00  0.0000E+00  0.0000E+00  0.0000E+00  0.0000E+00  0.0000E+00  0.0000E+00  0.0000E+00
     27.028  0.0000E+00  0.0000E+00  0.0000E+00  0.0000E+00  0.0000E+00  0.0000E+00  0.0000E+00  0.0000E+00  0.0000E+00
     27.042  0.0000E+00  0.0000E+00  0.0000E+00  0.0000E+00  0.0000E+00  0.0000E+00  0.0000E+00  0.0000E+00  0.0000E+00
     27.056  0.0000E+00  0.0000E+00  0.0000E+00  0.0000E+00  0.0000E+00  0.0000E+00  0.0000E+00  0.0000E+00  0.0000E+00
     27.070  0.0000E+00  0.0000E+00  0.0000E+00  0.0000E+00  0.0000E+00  0.0000E+00  0.0000E+00  0.0000E+00  0.0000E+00
     27.083  0.0000E+00  0.0000E+00  0.0000E+00  0.0000E+00  0.0000E+00  0.0000E+00  0.0000E+00  0.0000E+00  0.0000E+00
     27.097  0.0000E+00  0.0000E+00  0.0000E+00  0.0000E+00  0.0000E+00  0.0000E+00  0.0000E+00  0.0000E+00  0.0000E+00
     27.111  0.0000E+00  0.0000E+00  0.0000E+00  0.0000E+00  0.0000E+00  0.0000E+00  0.0000E+00  0.0000E+00  0.0000E+00
     27.125  0.0000E+00  0.0000E+00  0.0000E+00  0.0000E+00  0.0000E+00  0.0000E+00  0.0000E+00  0.0000E+00  0.0000E+00
     27.139  0.0000E+00  0.0000E+00  0.0000E+00  0.0000E+00  0.0000E+00  0.0000E+00  0.0000E+00  0.0000E+00  0.0000E+00
     27.153  0.0000E+00  0.0000E+00  0.0000E+00  0.0000E+00  0.0000E+00  0.0000E+00  0.0000E+00  0.0000E+00  0.0000E+00
     27.167  0.0000E+00  0.0000E+00  0.0000E+00  0.0000E+00  0.0000E+00  0.0000E+00  0.0000E+00  0.0000E+00  0.0000E+00
     27.181  0.0000E+00  0.0000E+00  0.0000E+00  0.0000E+00  0.0000E+00  0.0000E+00  0.0000E+00  0.0000E+00  0.0000E+00
     27.195  0.0000E+00  0.0000E+00  0.0000E+00  0.0000E+00  0.0000E+00  0.0000E+00  0.0000E+00  0.0000E+00  0.0000E+00
     27.209  0.0000E+00  0.0000E+00  0.0000E+00  0.0000E+00  0.0000E+00  0.0000E+00  0.0000E+00  0.0000E+00  0.0000E+00
     27.223  0.0000E+00  0.0000E+00  0.0000E+00  0.0000E+00  0.0000E+00  0.0000E+00  0.0000E+00  0.0000E+00  0.0000E+00
     27.237  0.0000E+00  0.0000E+00  0.0000E+00  0.0000E+00  0.0000E+00  0.0000E+00  0.0000E+00  0.0000E+00  0.0000E+00
     27.251  0.0000E+00  0.0000E+00  0.0000E+00  0.0000E+00  0.0000E+00  0.0000E+00  0.0000E+00  0.0000E+00  0.0000E+00
     27.265  0.0000E+00  0.0000E+00  0.0000E+00  0.0000E+00  0.0000E+00  0.0000E+00  0.0000E+00  0.0000E+00  0.0000E+00
     27.279  0.0000E+00  0.0000E+00  0.0000E+00  0.0000E+00  0.0000E+00  0.0000E+00  0.0000E+00  0.0000E+00  0.0000E+00
     27.293  0.0000E+00  0.0000E+00  0.0000E+00  0.0000E+00  0.0000E+00  0.0000E+00  0.0000E+00  0.0000E+00  0.0000E+00
     27.307  0.0000E+00  0.0000E+00  0.0000E+00  0.0000E+00  0.0000E+00  0.0000E+00  0.0000E+00  0.0000E+00  0.0000E+00
     27.321  0.0000E+00  0.0000E+00  0.0000E+00  0.0000E+00  0.0000E+00  0.0000E+00  0.0000E+00  0.0000E+00  0.0000E+00
     27.335  0.0000E+00  0.0000E+00  0.0000E+00  0.0000E+00  0.0000E+00  0.0000E+00  0.0000E+00  0.0000E+00  0.0000E+00
     27.349  0.0000E+00  0.0000E+00  0.0000E+00  0.0000E+00  0.0000E+00  0.0000E+00  0.0000E+00  0.0000E+00  0.0000E+00
     27.363  0.0000E+00  0.0000E+00  0.0000E+00  0.0000E+00  0.0000E+00  0.0000E+00  0.0000E+00  0.0000E+00  0.0000E+00
     27.377  0.0000E+00  0.0000E+00  0.0000E+00  0.0000E+00  0.0000E+00  0.0000E+00  0.0000E+00  0.0000E+00  0.0000E+00
     27.391  0.0000E+00  0.0000E+00  0.0000E+00  0.0000E+00  0.0000E+00  0.0000E+00  0.0000E+00  0.0000E+00  0.0000E+00
     27.405  0.0000E+00  0.0000E+00  0.0000E+00  0.0000E+00  0.0000E+00  0.0000E+00  0.0000E+00  0.0000E+00  0.0000E+00
     27.419  0.0000E+00  0.0000E+00  0.0000E+00  0.0000E+00  0.0000E+00  0.0000E+00  0.0000E+00  0.0000E+00  0.0000E+00
     27.433  0.0000E+00  0.0000E+00  0.0000E+00  0.0000E+00  0.0000E+00  0.0000E+00  0.0000E+00  0.0000E+00  0.0000E+00
     27.447  0.0000E+00  0.0000E+00  0.0000E+00  0.0000E+00  0.0000E+00  0.0000E+00  0.0000E+00  0.0000E+00  0.0000E+00
     27.461  0.0000E+00  0.0000E+00  0.0000E+00  0.0000E+00  0.0000E+00  0.0000E+00  0.0000E+00  0.0000E+00  0.0000E+00
     27.475  0.0000E+00  0.0000E+00  0.0000E+00  0.0000E+00  0.0000E+00  0.0000E+00  0.0000E+00  0.0000E+00  0.0000E+00
     27.489  0.0000E+00  0.0000E+00  0.0000E+00  0.0000E+00  0.0000E+00  0.0000E+00  0.0000E+00  0.0000E+00  0.0000E+00
     27.503  0.0000E+00  0.0000E+00  0.0000E+00  0.0000E+00  0.0000E+00  0.0000E+00  0.0000E+00  0.0000E+00  0.0000E+00
     27.517  0.0000E+00  0.0000E+00  0.0000E+00  0.0000E+00  0.0000E+00  0.0000E+00  0.0000E+00  0.0000E+00  0.0000E+00
     27.531  0.0000E+00  0.0000E+00  0.0000E+00  0.0000E+00  0.0000E+00  0.0000E+00  0.0000E+00  0.0000E+00  0.0000E+00
     27.545  0.0000E+00  0.0000E+00  0.0000E+00  0.0000E+00  0.0000E+00  0.0000E+00  0.0000E+00  0.0000E+00  0.0000E+00
     27.559  0.0000E+00  0.0000E+00  0.0000E+00  0.0000E+00  0.0000E+00  0.0000E+00  0.0000E+00  0.0000E+00  0.0000E+00
     27.573  0.0000E+00  0.0000E+00  0.0000E+00  0.0000E+00  0.0000E+00  0.0000E+00  0.0000E+00  0.0000E+00  0.0000E+00
     27.587  0.0000E+00  0.0000E+00  0.0000E+00  0.0000E+00  0.0000E+00  0.0000E+00  0.0000E+00  0.0000E+00  0.0000E+00
     27.601  0.0000E+00  0.0000E+00  0.0000E+00  0.0000E+00  0.0000E+00  0.0000E+00  0.0000E+00  0.0000E+00  0.0000E+00
     27.615  0.0000E+00  0.0000E+00  0.0000E+00  0.0000E+00  0.0000E+00  0.0000E+00  0.0000E+00  0.0000E+00  0.0000E+00
     27.629  0.0000E+00  0.0000E+00  0.0000E+00  0.0000E+00  0.0000E+00  0.0000E+00  0.0000E+00  0.0000E+00  0.0000E+00
     27.643  0.0000E+00  0.0000E+00  0.0000E+00  0.0000E+00  0.0000E+00  0.0000E+00  0.0000E+00  0.0000E+00  0.0000E+00
     27.657  0.0000E+00  0.0000E+00  0.0000E+00  0.0000E+00  0.0000E+00  0.0000E+00  0.0000E+00  0.0000E+00  0.0000E+00
     27.671  0.0000E+00  0.0000E+00  0.0000E+00  0.0000E+00  0.0000E+00  0.0000E+00  0.0000E+00  0.0000E+00  0.0000E+00
     27.684  0.0000E+00  0.0000E+00  0.0000E+00  0.0000E+00  0.0000E+00  0.0000E+00  0.0000E+00  0.0000E+00  0.0000E+00
     27.698  0.0000E+00  0.0000E+00  0.0000E+00  0.0000E+00  0.0000E+00  0.0000E+00  0.0000E+00  0.0000E+00  0.0000E+00
     27.712  0.0000E+00  0.0000E+00  0.0000E+00  0.0000E+00  0.0000E+00  0.0000E+00  0.0000E+00  0.0000E+00  0.0000E+00
     27.726  0.0000E+00  0.0000E+00  0.0000E+00  0.0000E+00  0.0000E+00  0.0000E+00  0.0000E+00  0.0000E+00  0.0000E+00
     27.740  0.0000E+00  0.0000E+00  0.0000E+00  0.0000E+00  0.0000E+00  0.0000E+00  0.0000E+00  0.0000E+00  0.0000E+00
     27.754  0.0000E+00  0.0000E+00  0.0000E+00  0.0000E+00  0.0000E+00  0.0000E+00  0.0000E+00  0.0000E+00  0.0000E+00
     27.768  0.0000E+00  0.0000E+00  0.0000E+00  0.0000E+00  0.0000E+00  0.0000E+00  0.0000E+00  0.0000E+00  0.0000E+00
     27.782  0.0000E+00  0.0000E+00  0.0000E+00  0.0000E+00  0.0000E+00  0.0000E+00  0.0000E+00  0.0000E+00  0.0000E+00
     27.796  0.0000E+00  0.0000E+00  0.0000E+00  0.0000E+00  0.0000E+00  0.0000E+00  0.0000E+00  0.0000E+00  0.0000E+00
     27.810  0.0000E+00  0.0000E+00  0.0000E+00  0.0000E+00  0.0000E+00  0.0000E+00  0.0000E+00  0.0000E+00  0.0000E+00
     27.824  0.0000E+00  0.0000E+00  0.0000E+00  0.0000E+00  0.0000E+00  0.0000E+00  0.0000E+00  0.0000E+00  0.0000E+00
     27.838  0.0000E+00  0.0000E+00  0.0000E+00  0.0000E+00  0.0000E+00  0.0000E+00  0.0000E+00  0.0000E+00  0.0000E+00
     27.852  0.0000E+00  0.0000E+00  0.0000E+00  0.0000E+00  0.0000E+00  0.0000E+00  0.0000E+00  0.0000E+00  0.0000E+00
     27.866  0.0000E+00  0.0000E+00  0.0000E+00  0.0000E+00  0.0000E+00  0.0000E+00  0.0000E+00  0.0000E+00  0.0000E+00
     27.880  0.0000E+00  0.0000E+00  0.0000E+00  0.0000E+00  0.0000E+00  0.0000E+00  0.0000E+00  0.0000E+00  0.0000E+00
     27.894  0.0000E+00  0.0000E+00  0.0000E+00  0.0000E+00  0.0000E+00  0.0000E+00  0.0000E+00  0.0000E+00  0.0000E+00
     27.908  0.0000E+00  0.0000E+00  0.0000E+00  0.0000E+00  0.0000E+00  0.0000E+00  0.0000E+00  0.0000E+00  0.0000E+00
     27.922  0.0000E+00  0.0000E+00  0.0000E+00  0.0000E+00  0.0000E+00  0.0000E+00  0.0000E+00  0.0000E+00  0.0000E+00
     27.936  0.0000E+00  0.0000E+00  0.0000E+00  0.0000E+00  0.0000E+00  0.0000E+00  0.0000E+00  0.0000E+00  0.0000E+00
     27.950  0.0000E+00  0.0000E+00  0.0000E+00  0.0000E+00  0.0000E+00  0.0000E+00  0.0000E+00  0.0000E+00  0.0000E+00
     27.964  0.0000E+00  0.0000E+00  0.0000E+00  0.0000E+00  0.0000E+00  0.0000E+00  0.0000E+00  0.0000E+00  0.0000E+00
     27.978  0.0000E+00  0.0000E+00  0.0000E+00  0.0000E+00  0.0000E+00  0.0000E+00  0.0000E+00  0.0000E+00  0.0000E+00
     27.992  0.0000E+00  0.0000E+00  0.0000E+00  0.0000E+00  0.0000E+00  0.0000E+00  0.0000E+00  0.0000E+00  0.0000E+00
     28.006  0.0000E+00  0.0000E+00  0.0000E+00  0.0000E+00  0.0000E+00  0.0000E+00  0.0000E+00  0.0000E+00  0.0000E+00
     28.020  0.0000E+00  0.0000E+00  0.0000E+00  0.0000E+00  0.0000E+00  0.0000E+00  0.0000E+00  0.0000E+00  0.0000E+00
     28.034  0.0000E+00  0.0000E+00  0.0000E+00  0.0000E+00  0.0000E+00  0.0000E+00  0.0000E+00  0.0000E+00  0.0000E+00
     28.048  0.0000E+00  0.0000E+00  0.0000E+00  0.0000E+00  0.0000E+00  0.0000E+00  0.0000E+00  0.0000E+00  0.0000E+00
     28.062  0.0000E+00  0.0000E+00  0.0000E+00  0.0000E+00  0.0000E+00  0.0000E+00  0.0000E+00  0.0000E+00  0.0000E+00
     28.076  0.0000E+00  0.0000E+00  0.0000E+00  0.0000E+00  0.0000E+00  0.0000E+00  0.0000E+00  0.0000E+00  0.0000E+00
     28.090  0.0000E+00  0.0000E+00  0.0000E+00  0.0000E+00  0.0000E+00  0.0000E+00  0.0000E+00  0.0000E+00  0.0000E+00
     28.104  0.0000E+00  0.0000E+00  0.0000E+00  0.0000E+00  0.0000E+00  0.0000E+00  0.0000E+00  0.0000E+00  0.0000E+00
     28.118  0.0000E+00  0.0000E+00  0.0000E+00  0.0000E+00  0.0000E+00  0.0000E+00  0.0000E+00  0.0000E+00  0.0000E+00
     28.132  0.0000E+00  0.0000E+00  0.0000E+00  0.0000E+00  0.0000E+00  0.0000E+00  0.0000E+00  0.0000E+00  0.0000E+00
     28.146  0.0000E+00  0.0000E+00  0.0000E+00  0.0000E+00  0.0000E+00  0.0000E+00  0.0000E+00  0.0000E+00  0.0000E+00
     28.160  0.0000E+00  0.0000E+00  0.0000E+00  0.0000E+00  0.0000E+00  0.0000E+00  0.0000E+00  0.0000E+00  0.0000E+00
     28.174  0.0000E+00  0.0000E+00  0.0000E+00  0.0000E+00  0.0000E+00  0.0000E+00  0.0000E+00  0.0000E+00  0.0000E+00
     28.188  0.0000E+00  0.0000E+00  0.0000E+00  0.0000E+00  0.0000E+00  0.0000E+00  0.0000E+00  0.0000E+00  0.0000E+00
     28.202  0.0000E+00  0.0000E+00  0.0000E+00  0.0000E+00  0.0000E+00  0.0000E+00  0.0000E+00  0.0000E+00  0.0000E+00
     28.216  0.0000E+00  0.0000E+00  0.0000E+00  0.0000E+00  0.0000E+00  0.0000E+00  0.0000E+00  0.0000E+00  0.0000E+00
     28.230  0.0000E+00  0.0000E+00  0.0000E+00  0.0000E+00  0.0000E+00  0.0000E+00  0.0000E+00  0.0000E+00  0.0000E+00
     28.244  0.0000E+00  0.0000E+00  0.0000E+00  0.0000E+00  0.0000E+00  0.0000E+00  0.0000E+00  0.0000E+00  0.0000E+00
     28.258  0.0000E+00  0.0000E+00  0.0000E+00  0.0000E+00  0.0000E+00  0.0000E+00  0.0000E+00  0.0000E+00  0.0000E+00
     28.272  0.0000E+00  0.0000E+00  0.0000E+00  0.0000E+00  0.0000E+00  0.0000E+00  0.0000E+00  0.0000E+00  0.0000E+00
     28.27151701    -13.65881187 3001      9.65445099      1.00000000
    -13.659  0.0000E+00  0.0000E+00  0.0000E+00  0.0000E+00  0.0000E+00  0.0000E+00  0.0000E+00  0.0000E+00  0.0000E+00
    -13.645  0.0000E+00  0.0000E+00  0.0000E+00  0.0000E+00  0.0000E+00  0.0000E+00  0.0000E+00  0.0000E+00  0.0000E+00
    -13.631  0.0000E+00  0.0000E+00  0.0000E+00  0.0000E+00  0.0000E+00  0.0000E+00  0.0000E+00  0.0000E+00  0.0000E+00
    -13.617  0.0000E+00  0.0000E+00  0.0000E+00  0.0000E+00  0.0000E+00  0.0000E+00  0.0000E+00  0.0000E+00  0.0000E+00
    -13.603  0.0000E+00  0.0000E+00  0.0000E+00  0.0000E+00  0.0000E+00  0.0000E+00  0.0000E+00  0.0000E+00  0.0000E+00
    -13.589  0.0000E+00  0.0000E+00  0.0000E+00  0.0000E+00  0.0000E+00  0.0000E+00  0.0000E+00  0.0000E+00  0.0000E+00
    -13.575  0.0000E+00  0.0000E+00  0.0000E+00  0.0000E+00  0.0000E+00  0.0000E+00  0.0000E+00  0.0000E+00  0.0000E+00
    -13.561  0.0000E+00  0.0000E+00  0.0000E+00  0.0000E+00  0.0000E+00  0.0000E+00  0.0000E+00  0.0000E+00  0.0000E+00
    -13.547  0.0000E+00  0.0000E+00  0.0000E+00  0.0000E+00  0.0000E+00  0.0000E+00  0.0000E+00  0.0000E+00  0.0000E+00
    -13.533  0.0000E+00  0.0000E+00  0.0000E+00  0.0000E+00  0.0000E+00  0.0000E+00  0.0000E+00  0.0000E+00  0.0000E+00
    -13.519  0.0000E+00  0.0000E+00  0.0000E+00  0.0000E+00  0.0000E+00  0.0000E+00  0.0000E+00  0.0000E+00  0.0000E+00
    -13.505  0.0000E+00  0.0000E+00  0.0000E+00  0.0000E+00  0.0000E+00  0.0000E+00  0.0000E+00  0.0000E+00  0.0000E+00
    -13.491  0.0000E+00  0.0000E+00  0.0000E+00  0.0000E+00  0.0000E+00  0.0000E+00  0.0000E+00  0.0000E+00  0.0000E+00
    -13.477  0.0000E+00  0.0000E+00  0.0000E+00  0.0000E+00  0.0000E+00  0.0000E+00  0.0000E+00  0.0000E+00  0.0000E+00
    -13.463  0.0000E+00  0.0000E+00  0.0000E+00  0.0000E+00  0.0000E+00  0.0000E+00  0.0000E+00  0.0000E+00  0.0000E+00
    -13.449  0.0000E+00  0.0000E+00  0.0000E+00  0.0000E+00  0.0000E+00  0.0000E+00  0.0000E+00  0.0000E+00  0.0000E+00
    -13.435  0.0000E+00  0.0000E+00  0.0000E+00  0.0000E+00  0.0000E+00  0.0000E+00  0.0000E+00  0.0000E+00  0.0000E+00
    -13.421  0.0000E+00  0.0000E+00  0.0000E+00  0.0000E+00  0.0000E+00  0.0000E+00  0.0000E+00  0.0000E+00  0.0000E+00
    -13.407  0.0000E+00  0.0000E+00  0.0000E+00  0.0000E+00  0.0000E+00  0.0000E+00  0.0000E+00  0.0000E+00  0.0000E+00
    -13.393  0.0000E+00  0.0000E+00  0.0000E+00  0.0000E+00  0.0000E+00  0.0000E+00  0.0000E+00  0.0000E+00  0.0000E+00
    -13.379  0.0000E+00  0.0000E+00  0.0000E+00  0.0000E+00  0.0000E+00  0.0000E+00  0.0000E+00  0.0000E+00  0.0000E+00
    -13.365  0.0000E+00  0.0000E+00  0.0000E+00  0.0000E+00  0.0000E+00  0.0000E+00  0.0000E+00  0.0000E+00  0.0000E+00
    -13.351  0.0000E+00  0.0000E+00  0.0000E+00  0.0000E+00  0.0000E+00  0.0000E+00  0.0000E+00  0.0000E+00  0.0000E+00
    -13.337  0.0000E+00  0.0000E+00  0.0000E+00  0.0000E+00  0.0000E+00  0.0000E+00  0.0000E+00  0.0000E+00  0.0000E+00
    -13.323  0.0000E+00  0.0000E+00  0.0000E+00  0.0000E+00  0.0000E+00  0.0000E+00  0.0000E+00  0.0000E+00  0.0000E+00
    -13.309  0.0000E+00  0.0000E+00  0.0000E+00  0.0000E+00  0.0000E+00  0.0000E+00  0.0000E+00  0.0000E+00  0.0000E+00
    -13.295  0.0000E+00  0.0000E+00  0.0000E+00  0.0000E+00  0.0000E+00  0.0000E+00  0.0000E+00  0.0000E+00  0.0000E+00
    -13.281  0.0000E+00  0.0000E+00  0.0000E+00  0.0000E+00  0.0000E+00  0.0000E+00  0.0000E+00  0.0000E+00  0.0000E+00
    -13.267  0.0000E+00  0.0000E+00  0.0000E+00  0.0000E+00  0.0000E+00  0.0000E+00  0.0000E+00  0.0000E+00  0.0000E+00
    -13.253  0.0000E+00  0.0000E+00  0.0000E+00  0.0000E+00  0.0000E+00  0.0000E+00  0.0000E+00  0.0000E+00  0.0000E+00
    -13.240  0.0000E+00  0.0000E+00  0.0000E+00  0.0000E+00  0.0000E+00  0.0000E+00  0.0000E+00  0.0000E+00  0.0000E+00
    -13.226  0.0000E+00  0.0000E+00  0.0000E+00  0.0000E+00  0.0000E+00  0.0000E+00  0.0000E+00  0.0000E+00  0.0000E+00
    -13.212  0.0000E+00  0.0000E+00  0.0000E+00  0.0000E+00  0.0000E+00  0.0000E+00  0.0000E+00  0.0000E+00  0.0000E+00
    -13.198  0.0000E+00  0.0000E+00  0.0000E+00  0.0000E+00  0.0000E+00  0.0000E+00  0.0000E+00  0.0000E+00  0.0000E+00
    -13.184  0.0000E+00  0.0000E+00  0.0000E+00  0.0000E+00  0.0000E+00  0.0000E+00  0.0000E+00  0.0000E+00  0.0000E+00
    -13.170  0.0000E+00  0.0000E+00  0.0000E+00  0.0000E+00  0.0000E+00  0.0000E+00  0.0000E+00  0.0000E+00  0.0000E+00
    -13.156  0.0000E+00  0.0000E+00  0.0000E+00  0.0000E+00  0.0000E+00  0.0000E+00  0.0000E+00  0.0000E+00  0.0000E+00
    -13.142  0.0000E+00  0.0000E+00  0.0000E+00  0.0000E+00  0.0000E+00  0.0000E+00  0.0000E+00  0.0000E+00  0.0000E+00
    -13.128  0.0000E+00  0.0000E+00  0.0000E+00  0.0000E+00  0.0000E+00  0.0000E+00  0.0000E+00  0.0000E+00  0.0000E+00
    -13.114  0.0000E+00  0.0000E+00  0.0000E+00  0.0000E+00  0.0000E+00  0.0000E+00  0.0000E+00  0.0000E+00  0.0000E+00
    -13.100  0.0000E+00  0.0000E+00  0.0000E+00  0.0000E+00  0.0000E+00  0.0000E+00  0.0000E+00  0.0000E+00  0.0000E+00
    -13.086  0.0000E+00  0.0000E+00  0.0000E+00  0.0000E+00  0.0000E+00  0.0000E+00  0.0000E+00  0.0000E+00  0.0000E+00
    -13.072  0.0000E+00  0.0000E+00  0.0000E+00  0.0000E+00  0.0000E+00  0.0000E+00  0.0000E+00  0.0000E+00  0.0000E+00
    -13.058  0.0000E+00  0.0000E+00  0.0000E+00  0.0000E+00  0.0000E+00  0.0000E+00  0.0000E+00  0.0000E+00  0.0000E+00
    -13.044  0.0000E+00  0.0000E+00  0.0000E+00  0.0000E+00  0.0000E+00  0.0000E+00  0.0000E+00  0.0000E+00  0.0000E+00
    -13.030  0.0000E+00  0.0000E+00  0.0000E+00  0.0000E+00  0.0000E+00  0.0000E+00  0.0000E+00  0.0000E+00  0.0000E+00
    -13.016  0.0000E+00  0.0000E+00  0.0000E+00  0.0000E+00  0.0000E+00  0.0000E+00  0.0000E+00  0.0000E+00  0.0000E+00
    -13.002  0.0000E+00  0.0000E+00  0.0000E+00  0.0000E+00  0.0000E+00  0.0000E+00  0.0000E+00  0.0000E+00  0.0000E+00
    -12.988  0.0000E+00  0.0000E+00  0.0000E+00  0.0000E+00  0.0000E+00  0.0000E+00  0.0000E+00  0.0000E+00  0.0000E+00
    -12.974  0.0000E+00  0.0000E+00  0.0000E+00  0.0000E+00  0.0000E+00  0.0000E+00  0.0000E+00  0.0000E+00  0.0000E+00
    -12.960  0.0000E+00  0.0000E+00  0.0000E+00  0.0000E+00  0.0000E+00  0.0000E+00  0.0000E+00  0.0000E+00  0.0000E+00
    -12.946  0.0000E+00  0.0000E+00  0.0000E+00  0.0000E+00  0.0000E+00  0.0000E+00  0.0000E+00  0.0000E+00  0.0000E+00
    -12.932  0.0000E+00  0.0000E+00  0.0000E+00  0.0000E+00  0.0000E+00  0.0000E+00  0.0000E+00  0.0000E+00  0.0000E+00
    -12.918  0.0000E+00  0.0000E+00  0.0000E+00  0.0000E+00  0.0000E+00  0.0000E+00  0.0000E+00  0.0000E+00  0.0000E+00
    -12.904  0.0000E+00  0.0000E+00  0.0000E+00  0.0000E+00  0.0000E+00  0.0000E+00  0.0000E+00  0.0000E+00  0.0000E+00
    -12.890  0.0000E+00  0.0000E+00  0.0000E+00  0.0000E+00  0.0000E+00  0.0000E+00  0.0000E+00  0.0000E+00  0.0000E+00
    -12.876  0.0000E+00  0.0000E+00  0.0000E+00  0.0000E+00  0.0000E+00  0.0000E+00  0.0000E+00  0.0000E+00  0.0000E+00
    -12.862  0.0000E+00  0.0000E+00  0.0000E+00  0.0000E+00  0.0000E+00  0.0000E+00  0.0000E+00  0.0000E+00  0.0000E+00
    -12.848  0.0000E+00  0.0000E+00  0.0000E+00  0.0000E+00  0.0000E+00  0.0000E+00  0.0000E+00  0.0000E+00  0.0000E+00
    -12.834  0.0000E+00  0.0000E+00  0.0000E+00  0.0000E+00  0.0000E+00  0.0000E+00  0.0000E+00  0.0000E+00  0.0000E+00
    -12.820  0.0000E+00  0.0000E+00  0.0000E+00  0.0000E+00  0.0000E+00  0.0000E+00  0.0000E+00  0.0000E+00  0.0000E+00
    -12.806  0.0000E+00  0.0000E+00  0.0000E+00  0.0000E+00  0.0000E+00  0.0000E+00  0.0000E+00  0.0000E+00  0.0000E+00
    -12.792  0.0000E+00  0.0000E+00  0.0000E+00  0.0000E+00  0.0000E+00  0.0000E+00  0.0000E+00  0.0000E+00  0.0000E+00
    -12.778  0.0000E+00  0.0000E+00  0.0000E+00  0.0000E+00  0.0000E+00  0.0000E+00  0.0000E+00  0.0000E+00  0.0000E+00
    -12.764  0.0000E+00  0.0000E+00  0.0000E+00  0.0000E+00  0.0000E+00  0.0000E+00  0.0000E+00  0.0000E+00  0.0000E+00
    -12.750  0.0000E+00  0.0000E+00  0.0000E+00  0.0000E+00  0.0000E+00  0.0000E+00  0.0000E+00  0.0000E+00  0.0000E+00
    -12.736  0.0000E+00  0.0000E+00  0.0000E+00  0.0000E+00  0.0000E+00  0.0000E+00  0.0000E+00  0.0000E+00  0.0000E+00
    -12.722  0.0000E+00  0.0000E+00  0.0000E+00  0.0000E+00  0.0000E+00  0.0000E+00  0.0000E+00  0.0000E+00  0.0000E+00
    -12.708  0.0000E+00  0.0000E+00  0.0000E+00  0.0000E+00  0.0000E+00  0.0000E+00  0.0000E+00  0.0000E+00  0.0000E+00
    -12.694  0.0000E+00  0.0000E+00  0.0000E+00  0.0000E+00  0.0000E+00  0.0000E+00  0.0000E+00  0.0000E+00  0.0000E+00
    -12.680  0.0000E+00  0.0000E+00  0.0000E+00  0.0000E+00  0.0000E+00  0.0000E+00  0.0000E+00  0.0000E+00  0.0000E+00
    -12.666  0.0000E+00  0.0000E+00  0.0000E+00  0.0000E+00  0.0000E+00  0.0000E+00  0.0000E+00  0.0000E+00  0.0000E+00
    -12.652  0.0000E+00  0.0000E+00  0.0000E+00  0.0000E+00  0.0000E+00  0.0000E+00  0.0000E+00  0.0000E+00  0.0000E+00
    -12.639  0.0000E+00  0.0000E+00  0.0000E+00  0.0000E+00  0.0000E+00  0.0000E+00  0.0000E+00  0.0000E+00  0.0000E+00
    -12.625  0.0000E+00  0.0000E+00  0.0000E+00  0.0000E+00  0.0000E+00  0.0000E+00  0.0000E+00  0.0000E+00  0.0000E+00
    -12.611  0.0000E+00  0.0000E+00  0.0000E+00  0.0000E+00  0.0000E+00  0.0000E+00  0.0000E+00  0.0000E+00  0.0000E+00
    -12.597  0.0000E+00  0.0000E+00  0.0000E+00  0.0000E+00  0.0000E+00  0.0000E+00  0.0000E+00  0.0000E+00  0.0000E+00
    -12.583  0.0000E+00  0.0000E+00  0.0000E+00  0.0000E+00  0.0000E+00  0.0000E+00  0.0000E+00  0.0000E+00  0.0000E+00
    -12.569  0.0000E+00  0.0000E+00  0.0000E+00  0.0000E+00  0.0000E+00  0.0000E+00  0.0000E+00  0.0000E+00  0.0000E+00
    -12.555  0.0000E+00  0.0000E+00  0.0000E+00  0.0000E+00  0.0000E+00  0.0000E+00  0.0000E+00  0.0000E+00  0.0000E+00
    -12.541  0.0000E+00  0.0000E+00  0.0000E+00  0.0000E+00  0.0000E+00  0.0000E+00  0.0000E+00  0.0000E+00  0.0000E+00
    -12.527  0.0000E+00  0.0000E+00  0.0000E+00  0.0000E+00  0.0000E+00  0.0000E+00  0.0000E+00  0.0000E+00  0.0000E+00
    -12.513  0.0000E+00  0.0000E+00  0.0000E+00  0.0000E+00  0.0000E+00  0.0000E+00  0.0000E+00  0.0000E+00  0.0000E+00
    -12.499  0.0000E+00  0.0000E+00  0.0000E+00  0.0000E+00  0.0000E+00  0.0000E+00  0.0000E+00  0.0000E+00  0.0000E+00
    -12.485  0.0000E+00  0.0000E+00  0.0000E+00  0.0000E+00  0.0000E+00  0.0000E+00  0.0000E+00  0.0000E+00  0.0000E+00
    -12.471  0.0000E+00  0.0000E+00  0.0000E+00  0.0000E+00  0.0000E+00  0.0000E+00  0.0000E+00  0.0000E+00  0.0000E+00
    -12.457  0.0000E+00  0.0000E+00  0.0000E+00  0.0000E+00  0.0000E+00  0.0000E+00  0.0000E+00  0.0000E+00  0.0000E+00
    -12.443  0.0000E+00  0.0000E+00  0.0000E+00  0.0000E+00  0.0000E+00  0.0000E+00  0.0000E+00  0.0000E+00  0.0000E+00
    -12.429  0.0000E+00  0.0000E+00  0.0000E+00  0.0000E+00  0.0000E+00  0.0000E+00  0.0000E+00  0.0000E+00  0.0000E+00
    -12.415  0.0000E+00  0.0000E+00  0.0000E+00  0.0000E+00  0.0000E+00  0.0000E+00  0.0000E+00  0.0000E+00  0.0000E+00
    -12.401  0.0000E+00  0.0000E+00  0.0000E+00  0.0000E+00  0.0000E+00  0.0000E+00  0.0000E+00  0.0000E+00  0.0000E+00
    -12.387  0.0000E+00  0.0000E+00  0.0000E+00  0.0000E+00  0.0000E+00  0.0000E+00  0.0000E+00  0.0000E+00  0.0000E+00
    -12.373  0.0000E+00  0.0000E+00  0.0000E+00  0.0000E+00  0.0000E+00  0.0000E+00  0.0000E+00  0.0000E+00  0.0000E+00
    -12.359  0.0000E+00  0.0000E+00  0.0000E+00  0.0000E+00  0.0000E+00  0.0000E+00  0.0000E+00  0.0000E+00  0.0000E+00
    -12.345  0.0000E+00  0.0000E+00  0.0000E+00  0.0000E+00  0.0000E+00  0.0000E+00  0.0000E+00  0.0000E+00  0.0000E+00
    -12.331  0.0000E+00  0.0000E+00  0.0000E+00  0.0000E+00  0.0000E+00  0.0000E+00  0.0000E+00  0.0000E+00  0.0000E+00
    -12.317  0.0000E+00  0.0000E+00  0.0000E+00  0.0000E+00  0.0000E+00  0.0000E+00  0.0000E+00  0.0000E+00  0.0000E+00
    -12.303  0.0000E+00  0.0000E+00  0.0000E+00  0.0000E+00  0.0000E+00  0.0000E+00  0.0000E+00  0.0000E+00  0.0000E+00
    -12.289  0.0000E+00  0.0000E+00  0.0000E+00  0.0000E+00  0.0000E+00  0.0000E+00  0.0000E+00  0.0000E+00  0.0000E+00
    -12.275  0.0000E+00  0.0000E+00  0.0000E+00  0.0000E+00  0.0000E+00  0.0000E+00  0.0000E+00  0.0000E+00  0.0000E+00
    -12.261  0.0000E+00  0.0000E+00  0.0000E+00  0.0000E+00  0.0000E+00  0.0000E+00  0.0000E+00  0.0000E+00  0.0000E+00
    -12.247  0.0000E+00  0.0000E+00  0.0000E+00  0.0000E+00  0.0000E+00  0.0000E+00  0.0000E+00  0.0000E+00  0.0000E+00
    -12.233  0.0000E+00  0.0000E+00  0.0000E+00  0.0000E+00  0.0000E+00  0.0000E+00  0.0000E+00  0.0000E+00  0.0000E+00
    -12.219  0.0000E+00  0.0000E+00  0.0000E+00  0.0000E+00  0.0000E+00  0.0000E+00  0.0000E+00  0.0000E+00  0.0000E+00
    -12.205  0.0000E+00  0.0000E+00  0.0000E+00  0.0000E+00  0.0000E+00  0.0000E+00  0.0000E+00  0.0000E+00  0.0000E+00
    -12.191  0.0000E+00  0.0000E+00  0.0000E+00  0.0000E+00  0.0000E+00  0.0000E+00  0.0000E+00  0.0000E+00  0.0000E+00
    -12.177  0.0000E+00  0.0000E+00  0.0000E+00  0.0000E+00  0.0000E+00  0.0000E+00  0.0000E+00  0.0000E+00  0.0000E+00
    -12.163  0.0000E+00  0.0000E+00  0.0000E+00  0.0000E+00  0.0000E+00  0.0000E+00  0.0000E+00  0.0000E+00  0.0000E+00
    -12.149  0.0000E+00  0.0000E+00  0.0000E+00  0.0000E+00  0.0000E+00  0.0000E+00  0.0000E+00  0.0000E+00  0.0000E+00
    -12.135  0.0000E+00  0.0000E+00  0.0000E+00  0.0000E+00  0.0000E+00  0.0000E+00  0.0000E+00  0.0000E+00  0.0000E+00
    -12.121  0.0000E+00  0.0000E+00  0.0000E+00  0.0000E+00  0.0000E+00  0.0000E+00  0.0000E+00  0.0000E+00  0.0000E+00
    -12.107  0.0000E+00  0.0000E+00  0.0000E+00  0.0000E+00  0.0000E+00  0.0000E+00  0.0000E+00  0.0000E+00  0.0000E+00
    -12.093  0.0000E+00  0.0000E+00  0.0000E+00  0.0000E+00  0.0000E+00  0.0000E+00  0.0000E+00  0.0000E+00  0.0000E+00
    -12.079  0.0000E+00  0.0000E+00  0.0000E+00  0.0000E+00  0.0000E+00  0.0000E+00  0.0000E+00  0.0000E+00  0.0000E+00
    -12.065  0.0000E+00  0.0000E+00  0.0000E+00  0.0000E+00  0.0000E+00  0.0000E+00  0.0000E+00  0.0000E+00  0.0000E+00
    -12.051  0.0000E+00  0.0000E+00  0.0000E+00  0.0000E+00  0.0000E+00  0.0000E+00  0.0000E+00  0.0000E+00  0.0000E+00
    -12.038  0.0000E+00  0.0000E+00  0.0000E+00  0.0000E+00  0.0000E+00  0.0000E+00  0.0000E+00  0.0000E+00  0.0000E+00
    -12.024  0.0000E+00  0.0000E+00  0.0000E+00  0.0000E+00  0.0000E+00  0.0000E+00  0.0000E+00  0.0000E+00  0.0000E+00
    -12.010  0.0000E+00  0.0000E+00  0.0000E+00  0.0000E+00  0.0000E+00  0.0000E+00  0.0000E+00  0.0000E+00  0.0000E+00
    -11.996  0.0000E+00  0.0000E+00  0.0000E+00  0.0000E+00  0.0000E+00  0.0000E+00  0.0000E+00  0.0000E+00  0.0000E+00
    -11.982  0.0000E+00  0.0000E+00  0.0000E+00  0.0000E+00  0.0000E+00  0.0000E+00  0.0000E+00  0.0000E+00  0.0000E+00
    -11.968  0.0000E+00  0.0000E+00  0.0000E+00  0.0000E+00  0.0000E+00  0.0000E+00  0.0000E+00  0.0000E+00  0.0000E+00
    -11.954  0.0000E+00  0.0000E+00  0.0000E+00  0.0000E+00  0.0000E+00  0.0000E+00  0.0000E+00  0.0000E+00  0.0000E+00
    -11.940  0.0000E+00  0.0000E+00  0.0000E+00  0.0000E+00  0.0000E+00  0.0000E+00  0.0000E+00  0.0000E+00  0.0000E+00
    -11.926  0.0000E+00  0.0000E+00  0.0000E+00  0.0000E+00  0.0000E+00  0.0000E+00  0.0000E+00  0.0000E+00  0.0000E+00
    -11.912  0.0000E+00  0.0000E+00  0.0000E+00  0.0000E+00  0.0000E+00  0.0000E+00  0.0000E+00  0.0000E+00  0.0000E+00
    -11.898  0.0000E+00  0.0000E+00  0.0000E+00  0.0000E+00  0.0000E+00  0.0000E+00  0.0000E+00  0.0000E+00  0.0000E+00
    -11.884  0.0000E+00  0.0000E+00  0.0000E+00  0.0000E+00  0.0000E+00  0.0000E+00  0.0000E+00  0.0000E+00  0.0000E+00
    -11.870  0.0000E+00  0.0000E+00  0.0000E+00  0.0000E+00  0.0000E+00  0.0000E+00  0.0000E+00  0.0000E+00  0.0000E+00
    -11.856  0.0000E+00  0.0000E+00  0.0000E+00  0.0000E+00  0.0000E+00  0.0000E+00  0.0000E+00  0.0000E+00  0.0000E+00
    -11.842  0.0000E+00  0.0000E+00  0.0000E+00  0.0000E+00  0.0000E+00  0.0000E+00  0.0000E+00  0.0000E+00  0.0000E+00
    -11.828  0.0000E+00  0.0000E+00  0.0000E+00  0.0000E+00  0.0000E+00  0.0000E+00  0.0000E+00  0.0000E+00  0.0000E+00
    -11.814  0.0000E+00  0.0000E+00  0.0000E+00  0.0000E+00  0.0000E+00  0.0000E+00  0.0000E+00  0.0000E+00  0.0000E+00
    -11.800  0.0000E+00  0.0000E+00  0.0000E+00  0.0000E+00  0.0000E+00  0.0000E+00  0.0000E+00  0.0000E+00  0.0000E+00
    -11.786  0.0000E+00  0.0000E+00  0.0000E+00  0.0000E+00  0.0000E+00  0.0000E+00  0.0000E+00  0.0000E+00  0.0000E+00
    -11.772  0.0000E+00  0.0000E+00  0.0000E+00  0.0000E+00  0.0000E+00  0.0000E+00  0.0000E+00  0.0000E+00  0.0000E+00
    -11.758  0.0000E+00  0.0000E+00  0.0000E+00  0.0000E+00  0.0000E+00  0.0000E+00  0.0000E+00  0.0000E+00  0.0000E+00
    -11.744  0.1863E-04  0.6938E-07  0.6938E-07  0.6938E-07  0.0000E+00  0.0000E+00  0.0000E+00  0.0000E+00  0.0000E+00
    -11.730  0.1232E-03  0.4588E-06  0.4588E-06  0.4588E-06  0.0000E+00  0.0000E+00  0.0000E+00  0.0000E+00  0.0000E+00
    -11.716  0.3197E-03  0.1191E-05  0.1191E-05  0.1191E-05  0.0000E+00  0.0000E+00  0.0000E+00  0.0000E+00  0.0000E+00
    -11.702  0.6082E-03  0.2265E-05  0.2265E-05  0.2265E-05  0.0000E+00  0.0000E+00  0.0000E+00  0.0000E+00  0.0000E+00
    -11.688  0.9888E-03  0.3683E-05  0.3683E-05  0.3683E-05  0.0000E+00  0.0000E+00  0.0000E+00  0.0000E+00  0.0000E+00
    -11.674  0.1461E-02  0.5443E-05  0.5443E-05  0.5443E-05  0.0000E+00  0.0000E+00  0.0000E+00  0.0000E+00  0.0000E+00
    -11.660  0.2026E-02  0.7545E-05  0.7545E-05  0.7545E-05  0.0000E+00  0.0000E+00  0.0000E+00  0.0000E+00  0.0000E+00
    -11.646  0.2682E-02  0.9991E-05  0.9991E-05  0.9991E-05  0.0000E+00  0.0000E+00  0.0000E+00  0.0000E+00  0.0000E+00
    -11.632  0.3431E-02  0.1278E-04  0.1278E-04  0.1278E-04  0.0000E+00  0.0000E+00  0.0000E+00  0.0000E+00  0.0000E+00
    -11.618  0.4271E-02  0.1591E-04  0.1591E-04  0.1591E-04  0.0000E+00  0.0000E+00  0.0000E+00  0.0000E+00  0.0000E+00
    -11.604  0.5204E-02  0.1938E-04  0.1938E-04  0.1938E-04  0.0000E+00  0.0000E+00  0.0000E+00  0.0000E+00  0.0000E+00
    -11.590  0.6228E-02  0.2320E-04  0.2320E-04  0.2320E-04  0.0000E+00  0.0000E+00  0.0000E+00  0.0000E+00  0.0000E+00
    -11.576  0.7345E-02  0.2736E-04  0.2736E-04  0.2736E-04  0.0000E+00  0.0000E+00  0.0000E+00  0.0000E+00  0.0000E+00
    -11.562  0.8553E-02  0.3186E-04  0.3186E-04  0.3186E-04  0.0000E+00  0.0000E+00  0.0000E+00  0.0000E+00  0.0000E+00
    -11.548  0.9854E-02  0.3670E-04  0.3670E-04  0.3670E-04  0.0000E+00  0.0000E+00  0.0000E+00  0.0000E+00  0.0000E+00
    -11.534  0.1125E-01  0.4189E-04  0.4189E-04  0.4189E-04  0.0000E+00  0.0000E+00  0.0000E+00  0.0000E+00  0.0000E+00
    -11.520  0.1273E-01  0.4742E-04  0.4742E-04  0.4742E-04  0.0000E+00  0.0000E+00  0.0000E+00  0.0000E+00  0.0000E+00
    -11.506  0.1431E-01  0.5329E-04  0.5329E-04  0.5329E-04  0.0000E+00  0.0000E+00  0.0000E+00  0.0000E+00  0.0000E+00
    -11.492  0.1598E-01  0.5950E-04  0.5950E-04  0.5950E-04  0.0000E+00  0.0000E+00  0.0000E+00  0.0000E+00  0.0000E+00
    -11.478  0.1774E-01  0.6606E-04  0.6606E-04  0.6606E-04  0.0000E+00  0.0000E+00  0.0000E+00  0.0000E+00  0.0000E+00
    -11.464  0.1697E-01  0.7458E-04  0.7458E-04  0.7458E-04  0.0000E+00  0.0000E+00  0.0000E+00  0.0000E+00  0.0000E+00
    -11.450  0.1618E-01  0.8287E-04  0.8287E-04  0.8287E-04  0.0000E+00  0.0000E+00  0.0000E+00  0.0000E+00  0.0000E+00
    -11.437  0.1560E-01  0.9076E-04  0.9076E-04  0.9076E-04  0.0000E+00  0.0000E+00  0.0000E+00  0.0000E+00  0.0000E+00
    -11.423  0.1525E-01  0.9824E-04  0.9824E-04  0.9824E-04  0.0000E+00  0.0000E+00  0.0000E+00  0.0000E+00  0.0000E+00
    -11.409  0.1511E-01  0.1053E-03  0.1053E-03  0.1053E-03  0.0000E+00  0.0000E+00  0.0000E+00  0.0000E+00  0.0000E+00
    -11.395  0.1519E-01  0.1120E-03  0.1120E-03  0.1120E-03  0.0000E+00  0.0000E+00  0.0000E+00  0.0000E+00  0.0000E+00
    -11.381  0.1548E-01  0.1183E-03  0.1183E-03  0.1183E-03  0.0000E+00  0.0000E+00  0.0000E+00  0.0000E+00  0.0000E+00
    -11.367  0.1581E-01  0.1245E-03  0.1245E-03  0.1245E-03  0.0000E+00  0.0000E+00  0.0000E+00  0.0000E+00  0.0000E+00
    -11.353  0.1615E-01  0.1308E-03  0.1308E-03  0.1308E-03  0.0000E+00  0.0000E+00  0.0000E+00  0.0000E+00  0.0000E+00
    -11.339  0.1649E-01  0.1372E-03  0.1372E-03  0.1372E-03  0.0000E+00  0.0000E+00  0.0000E+00  0.0000E+00  0.0000E+00
    -11.325  0.1684E-01  0.1437E-03  0.1437E-03  0.1437E-03  0.0000E+00  0.0000E+00  0.0000E+00  0.0000E+00  0.0000E+00
    -11.311  0.1719E-01  0.1502E-03  0.1502E-03  0.1502E-03  0.0000E+00  0.0000E+00  0.0000E+00  0.0000E+00  0.0000E+00
    -11.297  0.1754E-01  0.1568E-03  0.1568E-03  0.1568E-03  0.0000E+00  0.0000E+00  0.0000E+00  0.0000E+00  0.0000E+00
    -11.283  0.1789E-01  0.1635E-03  0.1635E-03  0.1635E-03  0.0000E+00  0.0000E+00  0.0000E+00  0.0000E+00  0.0000E+00
    -11.269  0.1825E-01  0.1702E-03  0.1702E-03  0.1702E-03  0.0000E+00  0.0000E+00  0.0000E+00  0.0000E+00  0.0000E+00
    -11.255  0.1861E-01  0.1770E-03  0.1770E-03  0.1770E-03  0.0000E+00  0.0000E+00  0.0000E+00  0.0000E+00  0.0000E+00
    -11.241  0.1897E-01  0.1839E-03  0.1839E-03  0.1839E-03  0.0000E+00  0.0000E+00  0.0000E+00  0.0000E+00  0.0000E+00
    -11.227  0.1934E-01  0.1908E-03  0.1908E-03  0.1908E-03  0.0000E+00  0.0000E+00  0.0000E+00  0.0000E+00  0.0000E+00
    -11.213  0.1971E-01  0.1979E-03  0.1979E-03  0.1979E-03  0.0000E+00  0.0000E+00  0.0000E+00  0.0000E+00  0.0000E+00
    -11.199  0.2008E-01  0.2049E-03  0.2049E-03  0.2049E-03  0.0000E+00  0.0000E+00  0.0000E+00  0.0000E+00  0.0000E+00
    -11.185  0.2045E-01  0.2121E-03  0.2121E-03  0.2121E-03  0.0000E+00  0.0000E+00  0.0000E+00  0.0000E+00  0.0000E+00
    -11.171  0.2083E-01  0.2193E-03  0.2193E-03  0.2193E-03  0.0000E+00  0.0000E+00  0.0000E+00  0.0000E+00  0.0000E+00
    -11.157  0.2121E-01  0.2266E-03  0.2266E-03  0.2266E-03  0.0000E+00  0.0000E+00  0.0000E+00  0.0000E+00  0.0000E+00
    -11.143  0.2159E-01  0.2340E-03  0.2340E-03  0.2340E-03  0.0000E+00  0.0000E+00  0.0000E+00  0.0000E+00  0.0000E+00
    -11.129  0.2198E-01  0.2414E-03  0.2414E-03  0.2414E-03  0.0000E+00  0.0000E+00  0.0000E+00  0.0000E+00  0.0000E+00
    -11.115  0.2237E-01  0.2489E-03  0.2489E-03  0.2489E-03  0.0000E+00  0.0000E+00  0.0000E+00  0.0000E+00  0.0000E+00
    -11.101  0.2276E-01  0.2564E-03  0.2564E-03  0.2564E-03  0.0000E+00  0.0000E+00  0.0000E+00  0.0000E+00  0.0000E+00
    -11.087  0.2316E-01  0.2641E-03  0.2641E-03  0.2641E-03  0.0000E+00  0.0000E+00  0.0000E+00  0.0000E+00  0.0000E+00
    -11.073  0.2356E-01  0.2718E-03  0.2718E-03  0.2718E-03  0.0000E+00  0.0000E+00  0.0000E+00  0.0000E+00  0.0000E+00
    -11.059  0.2396E-01  0.2795E-03  0.2795E-03  0.2795E-03  0.0000E+00  0.0000E+00  0.0000E+00  0.0000E+00  0.0000E+00
    -11.045  0.2437E-01  0.2874E-03  0.2874E-03  0.2874E-03  0.0000E+00  0.0000E+00  0.0000E+00  0.0000E+00  0.0000E+00
    -11.031  0.2477E-01  0.2953E-03  0.2953E-03  0.2953E-03  0.0000E+00  0.0000E+00  0.0000E+00  0.0000E+00  0.0000E+00
    -11.017  0.2519E-01  0.3033E-03  0.3033E-03  0.3033E-03  0.0000E+00  0.0000E+00  0.0000E+00  0.0000E+00  0.0000E+00
    -11.003  0.2558E-01  0.3115E-03  0.3115E-03  0.3115E-03  0.0000E+00  0.0000E+00  0.0000E+00  0.0000E+00  0.0000E+00
    -10.989  0.2596E-01  0.3199E-03  0.3199E-03  0.3199E-03  0.0000E+00  0.0000E+00  0.0000E+00  0.0000E+00  0.0000E+00
    -10.975  0.2631E-01  0.3287E-03  0.3287E-03  0.3287E-03  0.0000E+00  0.0000E+00  0.0000E+00  0.0000E+00  0.0000E+00
    -10.961  0.2664E-01  0.3377E-03  0.3377E-03  0.3377E-03  0.0000E+00  0.0000E+00  0.0000E+00  0.0000E+00  0.0000E+00
    -10.947  0.2695E-01  0.3469E-03  0.3469E-03  0.3469E-03  0.0000E+00  0.0000E+00  0.0000E+00  0.0000E+00  0.0000E+00
    -10.933  0.2723E-01  0.3565E-03  0.3565E-03  0.3565E-03  0.0000E+00  0.0000E+00  0.0000E+00  0.0000E+00  0.0000E+00
    -10.919  0.2749E-01  0.3663E-03  0.3663E-03  0.3663E-03  0.0000E+00  0.0000E+00  0.0000E+00  0.0000E+00  0.0000E+00
    -10.905  0.2773E-01  0.3764E-03  0.3764E-03  0.3764E-03  0.0000E+00  0.0000E+00  0.0000E+00  0.0000E+00  0.0000E+00
    -10.891  0.2795E-01  0.3868E-03  0.3868E-03  0.3868E-03  0.0000E+00  0.0000E+00  0.0000E+00  0.0000E+00  0.0000E+00
    -10.877  0.2815E-01  0.3974E-03  0.3974E-03  0.3974E-03  0.0000E+00  0.0000E+00  0.0000E+00  0.0000E+00  0.0000E+00
    -10.863  0.2832E-01  0.4083E-03  0.4083E-03  0.4083E-03  0.0000E+00  0.0000E+00  0.0000E+00  0.0000E+00  0.0000E+00
    -10.849  0.2847E-01  0.4195E-03  0.4195E-03  0.4195E-03  0.0000E+00  0.0000E+00  0.0000E+00  0.0000E+00  0.0000E+00
    -10.836  0.2860E-01  0.4310E-03  0.4310E-03  0.4310E-03  0.0000E+00  0.0000E+00  0.0000E+00  0.0000E+00  0.0000E+00
    -10.822  0.2870E-01  0.4427E-03  0.4427E-03  0.4427E-03  0.0000E+00  0.0000E+00  0.0000E+00  0.0000E+00  0.0000E+00
    -10.808  0.2878E-01  0.4547E-03  0.4547E-03  0.4547E-03  0.0000E+00  0.0000E+00  0.0000E+00  0.0000E+00  0.0000E+00
    -10.794  0.2884E-01  0.4670E-03  0.4670E-03  0.4670E-03  0.0000E+00  0.0000E+00  0.0000E+00  0.0000E+00  0.0000E+00
    -10.780  0.2888E-01  0.4796E-03  0.4796E-03  0.4796E-03  0.0000E+00  0.0000E+00  0.0000E+00  0.0000E+00  0.0000E+00
    -10.766  0.2890E-01  0.4924E-03  0.4924E-03  0.4924E-03  0.0000E+00  0.0000E+00  0.0000E+00  0.0000E+00  0.0000E+00
    -10.752  0.2889E-01  0.5055E-03  0.5055E-03  0.5055E-03  0.0000E+00  0.0000E+00  0.0000E+00  0.0000E+00  0.0000E+00
    -10.738  0.2892E-01  0.5182E-03  0.5182E-03  0.5182E-03  0.0000E+00  0.0000E+00  0.0000E+00  0.0000E+00  0.0000E+00
    -10.724  0.2901E-01  0.5301E-03  0.5301E-03  0.5301E-03  0.0000E+00  0.0000E+00  0.0000E+00  0.0000E+00  0.0000E+00
    -10.710  0.2912E-01  0.5418E-03  0.5418E-03  0.5418E-03  0.0000E+00  0.0000E+00  0.0000E+00  0.0000E+00  0.0000E+00
    -10.696  0.2925E-01  0.5532E-03  0.5532E-03  0.5532E-03  0.0000E+00  0.0000E+00  0.0000E+00  0.0000E+00  0.0000E+00
    -10.682  0.2941E-01  0.5643E-03  0.5643E-03  0.5643E-03  0.0000E+00  0.0000E+00  0.0000E+00  0.0000E+00  0.0000E+00
    -10.668  0.2958E-01  0.5752E-03  0.5752E-03  0.5752E-03  0.0000E+00  0.0000E+00  0.0000E+00  0.0000E+00  0.0000E+00
    -10.654  0.2978E-01  0.5858E-03  0.5858E-03  0.5858E-03  0.0000E+00  0.0000E+00  0.0000E+00  0.0000E+00  0.0000E+00
    -10.640  0.2999E-01  0.5964E-03  0.5964E-03  0.5964E-03  0.0000E+00  0.0000E+00  0.0000E+00  0.0000E+00  0.0000E+00
    -10.626  0.3020E-01  0.6070E-03  0.6070E-03  0.6070E-03  0.0000E+00  0.0000E+00  0.0000E+00  0.0000E+00  0.0000E+00
    -10.612  0.3041E-01  0.6176E-03  0.6176E-03  0.6176E-03  0.0000E+00  0.0000E+00  0.0000E+00  0.0000E+00  0.0000E+00
    -10.598  0.3062E-01  0.6283E-03  0.6283E-03  0.6283E-03  0.0000E+00  0.0000E+00  0.0000E+00  0.0000E+00  0.0000E+00
    -10.584  0.3083E-01  0.6390E-03  0.6390E-03  0.6390E-03  0.0000E+00  0.0000E+00  0.0000E+00  0.0000E+00  0.0000E+00
    -10.570  0.3104E-01  0.6497E-03  0.6497E-03  0.6497E-03  0.0000E+00  0.0000E+00  0.0000E+00  0.0000E+00  0.0000E+00
    -10.556  0.3125E-01  0.6605E-03  0.6605E-03  0.6605E-03  0.0000E+00  0.0000E+00  0.0000E+00  0.0000E+00  0.0000E+00
    -10.542  0.3146E-01  0.6713E-03  0.6713E-03  0.6713E-03  0.0000E+00  0.0000E+00  0.0000E+00  0.0000E+00  0.0000E+00
    -10.528  0.3167E-01  0.6822E-03  0.6822E-03  0.6822E-03  0.0000E+00  0.0000E+00  0.0000E+00  0.0000E+00  0.0000E+00
    -10.514  0.3188E-01  0.6930E-03  0.6930E-03  0.6930E-03  0.0000E+00  0.0000E+00  0.0000E+00  0.0000E+00  0.0000E+00
    -10.500  0.3210E-01  0.7040E-03  0.7040E-03  0.7040E-03  0.0000E+00  0.0000E+00  0.0000E+00  0.0000E+00  0.0000E+00
    -10.486  0.3231E-01  0.7150E-03  0.7150E-03  0.7150E-03  0.0000E+00  0.0000E+00  0.0000E+00  0.0000E+00  0.0000E+00
    -10.472  0.3252E-01  0.7260E-03  0.7260E-03  0.7260E-03  0.0000E+00  0.0000E+00  0.0000E+00  0.0000E+00  0.0000E+00
    -10.458  0.3274E-01  0.7370E-03  0.7370E-03  0.7370E-03  0.0000E+00  0.0000E+00  0.0000E+00  0.0000E+00  0.0000E+00
    -10.444  0.3295E-01  0.7481E-03  0.7481E-03  0.7481E-03  0.0000E+00  0.0000E+00  0.0000E+00  0.0000E+00  0.0000E+00
    -10.430  0.3317E-01  0.7592E-03  0.7592E-03  0.7592E-03  0.0000E+00  0.0000E+00  0.0000E+00  0.0000E+00  0.0000E+00
    -10.416  0.3338E-01  0.7704E-03  0.7704E-03  0.7704E-03  0.0000E+00  0.0000E+00  0.0000E+00  0.0000E+00  0.0000E+00
    -10.402  0.3360E-01  0.7816E-03  0.7816E-03  0.7816E-03  0.0000E+00  0.0000E+00  0.0000E+00  0.0000E+00  0.0000E+00
    -10.388  0.3382E-01  0.7929E-03  0.7929E-03  0.7929E-03  0.0000E+00  0.0000E+00  0.0000E+00  0.0000E+00  0.0000E+00
    -10.374  0.3404E-01  0.8042E-03  0.8042E-03  0.8042E-03  0.0000E+00  0.0000E+00  0.0000E+00  0.0000E+00  0.0000E+00
    -10.360  0.3425E-01  0.8155E-03  0.8155E-03  0.8155E-03  0.0000E+00  0.0000E+00  0.0000E+00  0.0000E+00  0.0000E+00
    -10.346  0.3447E-01  0.8269E-03  0.8269E-03  0.8269E-03  0.0000E+00  0.0000E+00  0.0000E+00  0.0000E+00  0.0000E+00
    -10.332  0.3469E-01  0.8383E-03  0.8383E-03  0.8383E-03  0.0000E+00  0.0000E+00  0.0000E+00  0.0000E+00  0.0000E+00
    -10.318  0.3491E-01  0.8497E-03  0.8497E-03  0.8497E-03  0.0000E+00  0.0000E+00  0.0000E+00  0.0000E+00  0.0000E+00
    -10.304  0.3513E-01  0.8612E-03  0.8612E-03  0.8612E-03  0.0000E+00  0.0000E+00  0.0000E+00  0.0000E+00  0.0000E+00
    -10.290  0.3535E-01  0.8727E-03  0.8727E-03  0.8727E-03  0.0000E+00  0.0000E+00  0.0000E+00  0.0000E+00  0.0000E+00
    -10.276  0.3557E-01  0.8843E-03  0.8843E-03  0.8843E-03  0.0000E+00  0.0000E+00  0.0000E+00  0.0000E+00  0.0000E+00
    -10.262  0.3580E-01  0.8959E-03  0.8959E-03  0.8959E-03  0.0000E+00  0.0000E+00  0.0000E+00  0.0000E+00  0.0000E+00
    -10.248  0.3602E-01  0.9075E-03  0.9075E-03  0.9075E-03  0.0000E+00  0.0000E+00  0.0000E+00  0.0000E+00  0.0000E+00
    -10.235  0.3624E-01  0.9192E-03  0.9192E-03  0.9192E-03  0.0000E+00  0.0000E+00  0.0000E+00  0.0000E+00  0.0000E+00
    -10.221  0.3647E-01  0.9309E-03  0.9309E-03  0.9309E-03  0.0000E+00  0.0000E+00  0.0000E+00  0.0000E+00  0.0000E+00
    -10.207  0.3669E-01  0.9426E-03  0.9426E-03  0.9426E-03  0.0000E+00  0.0000E+00  0.0000E+00  0.0000E+00  0.0000E+00
    -10.193  0.3692E-01  0.9544E-03  0.9544E-03  0.9544E-03  0.0000E+00  0.0000E+00  0.0000E+00  0.0000E+00  0.0000E+00
    -10.179  0.3714E-01  0.9662E-03  0.9662E-03  0.9662E-03  0.0000E+00  0.0000E+00  0.0000E+00  0.0000E+00  0.0000E+00
    -10.165  0.3737E-01  0.9781E-03  0.9781E-03  0.9781E-03  0.0000E+00  0.0000E+00  0.0000E+00  0.0000E+00  0.0000E+00
    -10.151  0.3760E-01  0.9899E-03  0.9899E-03  0.9899E-03  0.0000E+00  0.0000E+00  0.0000E+00  0.0000E+00  0.0000E+00
    -10.137  0.3783E-01  0.1002E-02  0.1002E-02  0.1002E-02  0.0000E+00  0.0000E+00  0.0000E+00  0.0000E+00  0.0000E+00
    -10.123  0.3806E-01  0.1014E-02  0.1014E-02  0.1014E-02  0.0000E+00  0.0000E+00  0.0000E+00  0.0000E+00  0.0000E+00
    -10.109  0.3829E-01  0.1026E-02  0.1026E-02  0.1026E-02  0.0000E+00  0.0000E+00  0.0000E+00  0.0000E+00  0.0000E+00
    -10.095  0.3852E-01  0.1038E-02  0.1038E-02  0.1038E-02  0.0000E+00  0.0000E+00  0.0000E+00  0.0000E+00  0.0000E+00
    -10.081  0.3875E-01  0.1050E-02  0.1050E-02  0.1050E-02  0.0000E+00  0.0000E+00  0.0000E+00  0.0000E+00  0.0000E+00
    -10.067  0.3898E-01  0.1062E-02  0.1062E-02  0.1062E-02  0.0000E+00  0.0000E+00  0.0000E+00  0.0000E+00  0.0000E+00
    -10.053  0.3921E-01  0.1074E-02  0.1074E-02  0.1074E-02  0.0000E+00  0.0000E+00  0.0000E+00  0.0000E+00  0.0000E+00
    -10.039  0.3945E-01  0.1086E-02  0.1086E-02  0.1086E-02  0.0000E+00  0.0000E+00  0.0000E+00  0.0000E+00  0.0000E+00
    -10.025  0.3968E-01  0.1099E-02  0.1099E-02  0.1099E-02  0.0000E+00  0.0000E+00  0.0000E+00  0.0000E+00  0.0000E+00
    -10.011  0.3970E-01  0.1116E-02  0.1116E-02  0.1116E-02  0.0000E+00  0.0000E+00  0.0000E+00  0.0000E+00  0.0000E+00
     -9.997  0.3968E-01  0.1135E-02  0.1135E-02  0.1135E-02  0.0000E+00  0.0000E+00  0.0000E+00  0.0000E+00  0.0000E+00
     -9.983  0.3968E-01  0.1153E-02  0.1153E-02  0.1153E-02  0.0000E+00  0.0000E+00  0.0000E+00  0.0000E+00  0.0000E+00
     -9.969  0.3971E-01  0.1170E-02  0.1170E-02  0.1170E-02  0.0000E+00  0.0000E+00  0.0000E+00  0.0000E+00  0.0000E+00
     -9.955  0.3978E-01  0.1186E-02  0.1186E-02  0.1186E-02  0.0000E+00  0.0000E+00  0.0000E+00  0.0000E+00  0.0000E+00
     -9.941  0.3987E-01  0.1202E-02  0.1202E-02  0.1202E-02  0.0000E+00  0.0000E+00  0.0000E+00  0.0000E+00  0.0000E+00
     -9.927  0.3999E-01  0.1217E-02  0.1217E-02  0.1217E-02  0.0000E+00  0.0000E+00  0.0000E+00  0.0000E+00  0.0000E+00
     -9.913  0.4012E-01  0.1232E-02  0.1232E-02  0.1232E-02  0.0000E+00  0.0000E+00  0.0000E+00  0.0000E+00  0.0000E+00
     -9.899  0.4025E-01  0.1246E-02  0.1246E-02  0.1246E-02  0.0000E+00  0.0000E+00  0.0000E+00  0.0000E+00  0.0000E+00
     -9.885  0.4038E-01  0.1261E-02  0.1261E-02  0.1261E-02  0.0000E+00  0.0000E+00  0.0000E+00  0.0000E+00  0.0000E+00
     -9.871  0.4051E-01  0.1276E-02  0.1276E-02  0.1276E-02  0.0000E+00  0.0000E+00  0.0000E+00  0.0000E+00  0.0000E+00
     -9.857  0.4064E-01  0.1291E-02  0.1291E-02  0.1291E-02  0.0000E+00  0.0000E+00  0.0000E+00  0.0000E+00  0.0000E+00
     -9.843  0.4077E-01  0.1306E-02  0.1306E-02  0.1306E-02  0.0000E+00  0.0000E+00  0.0000E+00  0.0000E+00  0.0000E+00
     -9.829  0.4089E-01  0.1321E-02  0.1321E-02  0.1321E-02  0.0000E+00  0.0000E+00  0.0000E+00  0.0000E+00  0.0000E+00
     -9.815  0.4102E-01  0.1336E-02  0.1336E-02  0.1336E-02  0.0000E+00  0.0000E+00  0.0000E+00  0.0000E+00  0.0000E+00
     -9.801  0.4114E-01  0.1351E-02  0.1351E-02  0.1351E-02  0.0000E+00  0.0000E+00  0.0000E+00  0.0000E+00  0.0000E+00
     -9.787  0.4127E-01  0.1367E-02  0.1367E-02  0.1367E-02  0.0000E+00  0.0000E+00  0.0000E+00  0.0000E+00  0.0000E+00
     -9.773  0.4139E-01  0.1382E-02  0.1382E-02  0.1382E-02  0.0000E+00  0.0000E+00  0.0000E+00  0.0000E+00  0.0000E+00
     -9.759  0.4152E-01  0.1397E-02  0.1397E-02  0.1397E-02  0.0000E+00  0.0000E+00  0.0000E+00  0.0000E+00  0.0000E+00
     -9.745  0.4164E-01  0.1412E-02  0.1412E-02  0.1412E-02  0.0000E+00  0.0000E+00  0.0000E+00  0.0000E+00  0.0000E+00
     -9.731  0.4176E-01  0.1428E-02  0.1428E-02  0.1428E-02  0.0000E+00  0.0000E+00  0.0000E+00  0.0000E+00  0.0000E+00
     -9.717  0.4189E-01  0.1443E-02  0.1443E-02  0.1443E-02  0.0000E+00  0.0000E+00  0.0000E+00  0.0000E+00  0.0000E+00
     -9.703  0.4201E-01  0.1458E-02  0.1458E-02  0.1458E-02  0.0000E+00  0.0000E+00  0.0000E+00  0.0000E+00  0.0000E+00
     -9.689  0.4213E-01  0.1474E-02  0.1474E-02  0.1474E-02  0.0000E+00  0.0000E+00  0.0000E+00  0.0000E+00  0.0000E+00
     -9.675  0.4225E-01  0.1490E-02  0.1490E-02  0.1490E-02  0.0000E+00  0.0000E+00  0.0000E+00  0.0000E+00  0.0000E+00
     -9.661  0.4237E-01  0.1505E-02  0.1505E-02  0.1505E-02  0.0000E+00  0.0000E+00  0.0000E+00  0.0000E+00  0.0000E+00
     -9.647  0.4249E-01  0.1521E-02  0.1521E-02  0.1521E-02  0.0000E+00  0.0000E+00  0.0000E+00  0.0000E+00  0.0000E+00
     -9.634  0.4260E-01  0.1536E-02  0.1536E-02  0.1536E-02  0.0000E+00  0.0000E+00  0.0000E+00  0.0000E+00  0.0000E+00
     -9.620  0.4272E-01  0.1552E-02  0.1552E-02  0.1552E-02  0.0000E+00  0.0000E+00  0.0000E+00  0.0000E+00  0.0000E+00
     -9.606  0.4284E-01  0.1568E-02  0.1568E-02  0.1568E-02  0.0000E+00  0.0000E+00  0.0000E+00  0.0000E+00  0.0000E+00
     -9.592  0.4296E-01  0.1584E-02  0.1584E-02  0.1584E-02  0.0000E+00  0.0000E+00  0.0000E+00  0.0000E+00  0.0000E+00
     -9.578  0.4307E-01  0.1600E-02  0.1600E-02  0.1600E-02  0.0000E+00  0.0000E+00  0.0000E+00  0.0000E+00  0.0000E+00
     -9.564  0.4319E-01  0.1615E-02  0.1615E-02  0.1615E-02  0.0000E+00  0.0000E+00  0.0000E+00  0.0000E+00  0.0000E+00
     -9.550  0.4331E-01  0.1631E-02  0.1631E-02  0.1631E-02  0.0000E+00  0.0000E+00  0.0000E+00  0.0000E+00  0.0000E+00
     -9.536  0.4342E-01  0.1647E-02  0.1647E-02  0.1647E-02  0.0000E+00  0.0000E+00  0.0000E+00  0.0000E+00  0.0000E+00
     -9.522  0.4355E-01  0.1663E-02  0.1663E-02  0.1663E-02  0.0000E+00  0.0000E+00  0.0000E+00  0.0000E+00  0.0000E+00
     -9.508  0.4367E-01  0.1679E-02  0.1679E-02  0.1679E-02  0.0000E+00  0.0000E+00  0.0000E+00  0.0000E+00  0.0000E+00
     -9.494  0.4379E-01  0.1694E-02  0.1694E-02  0.1694E-02  0.0000E+00  0.0000E+00  0.0000E+00  0.0000E+00  0.0000E+00
     -9.480  0.4392E-01  0.1710E-02  0.1710E-02  0.1710E-02  0.0000E+00  0.0000E+00  0.0000E+00  0.0000E+00  0.0000E+00
     -9.466  0.4405E-01  0.1726E-02  0.1726E-02  0.1726E-02  0.0000E+00  0.0000E+00  0.0000E+00  0.0000E+00  0.0000E+00
     -9.452  0.4418E-01  0.1741E-02  0.1741E-02  0.1741E-02  0.0000E+00  0.0000E+00  0.0000E+00  0.0000E+00  0.0000E+00
     -9.438  0.4431E-01  0.1757E-02  0.1757E-02  0.1757E-02  0.0000E+00  0.0000E+00  0.0000E+00  0.0000E+00  0.0000E+00
     -9.424  0.4444E-01  0.1773E-02  0.1773E-02  0.1773E-02  0.0000E+00  0.0000E+00  0.0000E+00  0.0000E+00  0.0000E+00
     -9.410  0.4458E-01  0.1788E-02  0.1788E-02  0.1788E-02  0.0000E+00  0.0000E+00  0.0000E+00  0.0000E+00  0.0000E+00
     -9.396  0.4471E-01  0.1804E-02  0.1804E-02  0.1804E-02  0.0000E+00  0.0000E+00  0.0000E+00  0.0000E+00  0.0000E+00
     -9.382  0.4485E-01  0.1819E-02  0.1819E-02  0.1819E-02  0.0000E+00  0.0000E+00  0.0000E+00  0.0000E+00  0.0000E+00
     -9.368  0.4499E-01  0.1835E-02  0.1835E-02  0.1835E-02  0.0000E+00  0.0000E+00  0.0000E+00  0.0000E+00  0.0000E+00
     -9.354  0.4513E-01  0.1850E-02  0.1850E-02  0.1850E-02  0.0000E+00  0.0000E+00  0.0000E+00  0.0000E+00  0.0000E+00
     -9.340  0.4528E-01  0.1865E-02  0.1865E-02  0.1865E-02  0.0000E+00  0.0000E+00  0.0000E+00  0.0000E+00  0.0000E+00
     -9.326  0.4542E-01  0.1881E-02  0.1881E-02  0.1881E-02  0.0000E+00  0.0000E+00  0.0000E+00  0.0000E+00  0.0000E+00
     -9.312  0.4557E-01  0.1896E-02  0.1896E-02  0.1896E-02  0.0000E+00  0.0000E+00  0.0000E+00  0.0000E+00  0.0000E+00
     -9.298  0.4572E-01  0.1911E-02  0.1911E-02  0.1911E-02  0.0000E+00  0.0000E+00  0.0000E+00  0.0000E+00  0.0000E+00
     -9.284  0.4588E-01  0.1926E-02  0.1926E-02  0.1926E-02  0.0000E+00  0.0000E+00  0.0000E+00  0.0000E+00  0.0000E+00
     -9.270  0.4604E-01  0.1941E-02  0.1941E-02  0.1941E-02  0.0000E+00  0.0000E+00  0.0000E+00  0.0000E+00  0.0000E+00
     -9.256  0.4620E-01  0.1956E-02  0.1956E-02  0.1956E-02  0.0000E+00  0.0000E+00  0.0000E+00  0.0000E+00  0.0000E+00
     -9.242  0.4636E-01  0.1971E-02  0.1971E-02  0.1971E-02  0.0000E+00  0.0000E+00  0.0000E+00  0.0000E+00  0.0000E+00
     -9.228  0.4652E-01  0.1986E-02  0.1986E-02  0.1986E-02  0.0000E+00  0.0000E+00  0.0000E+00  0.0000E+00  0.0000E+00
     -9.214  0.4668E-01  0.2001E-02  0.2001E-02  0.2001E-02  0.0000E+00  0.0000E+00  0.0000E+00  0.0000E+00  0.0000E+00
     -9.200  0.4684E-01  0.2017E-02  0.2017E-02  0.2017E-02  0.0000E+00  0.0000E+00  0.0000E+00  0.0000E+00  0.0000E+00
     -9.186  0.4700E-01  0.2032E-02  0.2032E-02  0.2032E-02  0.0000E+00  0.0000E+00  0.0000E+00  0.0000E+00  0.0000E+00
     -9.172  0.4716E-01  0.2047E-02  0.2047E-02  0.2047E-02  0.0000E+00  0.0000E+00  0.0000E+00  0.0000E+00  0.0000E+00
     -9.158  0.4732E-01  0.2062E-02  0.2062E-02  0.2062E-02  0.0000E+00  0.0000E+00  0.0000E+00  0.0000E+00  0.0000E+00
     -9.144  0.4748E-01  0.2077E-02  0.2077E-02  0.2077E-02  0.0000E+00  0.0000E+00  0.0000E+00  0.0000E+00  0.0000E+00
     -9.130  0.4764E-01  0.2093E-02  0.2093E-02  0.2093E-02  0.0000E+00  0.0000E+00  0.0000E+00  0.0000E+00  0.0000E+00
     -9.116  0.4780E-01  0.2108E-02  0.2108E-02  0.2108E-02  0.0000E+00  0.0000E+00  0.0000E+00  0.0000E+00  0.0000E+00
     -9.102  0.4796E-01  0.2123E-02  0.2123E-02  0.2123E-02  0.0000E+00  0.0000E+00  0.0000E+00  0.0000E+00  0.0000E+00
     -9.088  0.4812E-01  0.2139E-02  0.2139E-02  0.2139E-02  0.0000E+00  0.0000E+00  0.0000E+00  0.0000E+00  0.0000E+00
     -9.074  0.4828E-01  0.2154E-02  0.2154E-02  0.2154E-02  0.0000E+00  0.0000E+00  0.0000E+00  0.0000E+00  0.0000E+00
     -9.060  0.4845E-01  0.2169E-02  0.2169E-02  0.2169E-02  0.0000E+00  0.0000E+00  0.0000E+00  0.0000E+00  0.0000E+00
     -9.046  0.4861E-01  0.2185E-02  0.2185E-02  0.2185E-02  0.0000E+00  0.0000E+00  0.0000E+00  0.0000E+00  0.0000E+00
     -9.032  0.4877E-01  0.2200E-02  0.2200E-02  0.2200E-02  0.0000E+00  0.0000E+00  0.0000E+00  0.0000E+00  0.0000E+00
     -9.019  0.4893E-01  0.2216E-02  0.2216E-02  0.2216E-02  0.0000E+00  0.0000E+00  0.0000E+00  0.0000E+00  0.0000E+00
     -9.005  0.4910E-01  0.2231E-02  0.2231E-02  0.2231E-02  0.0000E+00  0.0000E+00  0.0000E+00  0.0000E+00  0.0000E+00
     -8.991  0.4926E-01  0.2247E-02  0.2247E-02  0.2247E-02  0.0000E+00  0.0000E+00  0.0000E+00  0.0000E+00  0.0000E+00
     -8.977  0.4942E-01  0.2262E-02  0.2262E-02  0.2262E-02  0.0000E+00  0.0000E+00  0.0000E+00  0.0000E+00  0.0000E+00
     -8.963  0.4959E-01  0.2278E-02  0.2278E-02  0.2278E-02  0.0000E+00  0.0000E+00  0.0000E+00  0.0000E+00  0.0000E+00
     -8.949  0.4975E-01  0.2294E-02  0.2294E-02  0.2294E-02  0.0000E+00  0.0000E+00  0.0000E+00  0.0000E+00  0.0000E+00
     -8.935  0.4991E-01  0.2309E-02  0.2309E-02  0.2309E-02  0.0000E+00  0.0000E+00  0.0000E+00  0.0000E+00  0.0000E+00
     -8.921  0.5008E-01  0.2325E-02  0.2325E-02  0.2325E-02  0.0000E+00  0.0000E+00  0.0000E+00  0.0000E+00  0.0000E+00
     -8.907  0.5024E-01  0.2341E-02  0.2341E-02  0.2341E-02  0.0000E+00  0.0000E+00  0.0000E+00  0.0000E+00  0.0000E+00
     -8.893  0.5041E-01  0.2356E-02  0.2356E-02  0.2356E-02  0.0000E+00  0.0000E+00  0.0000E+00  0.0000E+00  0.0000E+00
     -8.879  0.5057E-01  0.2372E-02  0.2372E-02  0.2372E-02  0.0000E+00  0.0000E+00  0.0000E+00  0.0000E+00  0.0000E+00
     -8.865  0.5074E-01  0.2388E-02  0.2388E-02  0.2388E-02  0.0000E+00  0.0000E+00  0.0000E+00  0.0000E+00  0.0000E+00
     -8.851  0.5090E-01  0.2404E-02  0.2404E-02  0.2404E-02  0.0000E+00  0.0000E+00  0.0000E+00  0.0000E+00  0.0000E+00
     -8.837  0.5106E-01  0.2420E-02  0.2420E-02  0.2420E-02  0.0000E+00  0.0000E+00  0.0000E+00  0.0000E+00  0.0000E+00
     -8.823  0.5121E-01  0.2437E-02  0.2437E-02  0.2437E-02  0.0000E+00  0.0000E+00  0.0000E+00  0.0000E+00  0.0000E+00
     -8.809  0.5136E-01  0.2454E-02  0.2454E-02  0.2454E-02  0.0000E+00  0.0000E+00  0.0000E+00  0.0000E+00  0.0000E+00
     -8.795  0.5149E-01  0.2471E-02  0.2471E-02  0.2471E-02  0.0000E+00  0.0000E+00  0.0000E+00  0.0000E+00  0.0000E+00
     -8.781  0.5163E-01  0.2489E-02  0.2489E-02  0.2489E-02  0.0000E+00  0.0000E+00  0.0000E+00  0.0000E+00  0.0000E+00
     -8.767  0.5176E-01  0.2507E-02  0.2507E-02  0.2507E-02  0.0000E+00  0.0000E+00  0.0000E+00  0.0000E+00  0.0000E+00
     -8.753  0.5188E-01  0.2525E-02  0.2525E-02  0.2525E-02  0.0000E+00  0.0000E+00  0.0000E+00  0.0000E+00  0.0000E+00
     -8.739  0.5199E-01  0.2544E-02  0.2544E-02  0.2544E-02  0.0000E+00  0.0000E+00  0.0000E+00  0.0000E+00  0.0000E+00
     -8.725  0.5210E-01  0.2563E-02  0.2563E-02  0.2563E-02  0.0000E+00  0.0000E+00  0.0000E+00  0.0000E+00  0.0000E+00
     -8.711  0.5220E-01  0.2583E-02  0.2583E-02  0.2583E-02  0.0000E+00  0.0000E+00  0.0000E+00  0.0000E+00  0.0000E+00
     -8.697  0.5230E-01  0.2603E-02  0.2603E-02  0.2603E-02  0.0000E+00  0.0000E+00  0.0000E+00  0.0000E+00  0.0000E+00
     -8.683  0.5239E-01  0.2623E-02  0.2623E-02  0.2623E-02  0.0000E+00  0.0000E+00  0.0000E+00  0.0000E+00  0.0000E+00
     -8.669  0.5248E-01  0.2643E-02  0.2643E-02  0.2643E-02  0.0000E+00  0.0000E+00  0.0000E+00  0.0000E+00  0.0000E+00
     -8.655  0.5256E-01  0.2664E-02  0.2664E-02  0.2664E-02  0.0000E+00  0.0000E+00  0.0000E+00  0.0000E+00  0.0000E+00
     -8.641  0.5263E-01  0.2686E-02  0.2686E-02  0.2686E-02  0.0000E+00  0.0000E+00  0.0000E+00  0.0000E+00  0.0000E+00
     -8.627  0.5270E-01  0.2707E-02  0.2707E-02  0.2707E-02  0.0000E+00  0.0000E+00  0.0000E+00  0.0000E+00  0.0000E+00
     -8.613  0.5276E-01  0.2729E-02  0.2729E-02  0.2729E-02  0.0000E+00  0.0000E+00  0.0000E+00  0.0000E+00  0.0000E+00
     -8.599  0.5281E-01  0.2751E-02  0.2751E-02  0.2751E-02  0.0000E+00  0.0000E+00  0.0000E+00  0.0000E+00  0.0000E+00
     -8.585  0.5288E-01  0.2773E-02  0.2773E-02  0.2773E-02  0.0000E+00  0.0000E+00  0.0000E+00  0.0000E+00  0.0000E+00
     -8.571  0.5296E-01  0.2794E-02  0.2794E-02  0.2794E-02  0.0000E+00  0.0000E+00  0.0000E+00  0.0000E+00  0.0000E+00
     -8.557  0.5305E-01  0.2815E-02  0.2815E-02  0.2815E-02  0.0000E+00  0.0000E+00  0.0000E+00  0.0000E+00  0.0000E+00
     -8.543  0.5314E-01  0.2835E-02  0.2835E-02  0.2835E-02  0.0000E+00  0.0000E+00  0.0000E+00  0.0000E+00  0.0000E+00
     -8.529  0.5325E-01  0.2855E-02  0.2855E-02  0.2855E-02  0.0000E+00  0.0000E+00  0.0000E+00  0.0000E+00  0.0000E+00
     -8.515  0.5336E-01  0.2874E-02  0.2874E-02  0.2874E-02  0.0000E+00  0.0000E+00  0.0000E+00  0.0000E+00  0.0000E+00
     -8.501  0.5348E-01  0.2893E-02  0.2893E-02  0.2893E-02  0.0000E+00  0.0000E+00  0.0000E+00  0.0000E+00  0.0000E+00
     -8.487  0.5360E-01  0.2912E-02  0.2912E-02  0.2912E-02  0.0000E+00  0.0000E+00  0.0000E+00  0.0000E+00  0.0000E+00
     -8.473  0.5371E-01  0.2931E-02  0.2931E-02  0.2931E-02  0.0000E+00  0.0000E+00  0.0000E+00  0.0000E+00  0.0000E+00
     -8.459  0.5383E-01  0.2951E-02  0.2951E-02  0.2951E-02  0.0000E+00  0.0000E+00  0.0000E+00  0.0000E+00  0.0000E+00
     -8.445  0.5395E-01  0.2970E-02  0.2970E-02  0.2970E-02  0.0000E+00  0.0000E+00  0.0000E+00  0.0000E+00  0.0000E+00
     -8.431  0.5407E-01  0.2989E-02  0.2989E-02  0.2989E-02  0.0000E+00  0.0000E+00  0.0000E+00  0.0000E+00  0.0000E+00
     -8.418  0.5419E-01  0.3008E-02  0.3008E-02  0.3008E-02  0.0000E+00  0.0000E+00  0.0000E+00  0.0000E+00  0.0000E+00
     -8.404  0.5431E-01  0.3027E-02  0.3027E-02  0.3027E-02  0.0000E+00  0.0000E+00  0.0000E+00  0.0000E+00  0.0000E+00
     -8.390  0.5443E-01  0.3047E-02  0.3047E-02  0.3047E-02  0.0000E+00  0.0000E+00  0.0000E+00  0.0000E+00  0.0000E+00
     -8.376  0.5455E-01  0.3066E-02  0.3066E-02  0.3066E-02  0.0000E+00  0.0000E+00  0.0000E+00  0.0000E+00  0.0000E+00
     -8.362  0.5468E-01  0.3085E-02  0.3085E-02  0.3085E-02  0.0000E+00  0.0000E+00  0.0000E+00  0.0000E+00  0.0000E+00
     -8.348  0.5480E-01  0.3104E-02  0.3104E-02  0.3104E-02  0.0000E+00  0.0000E+00  0.0000E+00  0.0000E+00  0.0000E+00
     -8.334  0.5492E-01  0.3124E-02  0.3124E-02  0.3124E-02  0.0000E+00  0.0000E+00  0.0000E+00  0.0000E+00  0.0000E+00
     -8.320  0.5504E-01  0.3143E-02  0.3143E-02  0.3143E-02  0.0000E+00  0.0000E+00  0.0000E+00  0.0000E+00  0.0000E+00
     -8.306  0.5517E-01  0.3162E-02  0.3162E-02  0.3162E-02  0.0000E+00  0.0000E+00  0.0000E+00  0.0000E+00  0.0000E+00
     -8.292  0.5529E-01  0.3182E-02  0.3182E-02  0.3182E-02  0.0000E+00  0.0000E+00  0.0000E+00  0.0000E+00  0.0000E+00
     -8.278  0.5541E-01  0.3201E-02  0.3201E-02  0.3201E-02  0.0000E+00  0.0000E+00  0.0000E+00  0.0000E+00  0.0000E+00
     -8.264  0.5554E-01  0.3220E-02  0.3220E-02  0.3220E-02  0.0000E+00  0.0000E+00  0.0000E+00  0.0000E+00  0.0000E+00
     -8.250  0.5566E-01  0.3240E-02  0.3240E-02  0.3240E-02  0.0000E+00  0.0000E+00  0.0000E+00  0.0000E+00  0.0000E+00
     -8.236  0.5579E-01  0.3259E-02  0.3259E-02  0.3259E-02  0.0000E+00  0.0000E+00  0.0000E+00  0.0000E+00  0.0000E+00
     -8.222  0.5591E-01  0.3279E-02  0.3279E-02  0.3279E-02  0.0000E+00  0.0000E+00  0.0000E+00  0.0000E+00  0.0000E+00
     -8.208  0.5604E-01  0.3298E-02  0.3298E-02  0.3298E-02  0.0000E+00  0.0000E+00  0.0000E+00  0.0000E+00  0.0000E+00
     -8.194  0.5616E-01  0.3317E-02  0.3317E-02  0.3317E-02  0.0000E+00  0.0000E+00  0.0000E+00  0.0000E+00  0.0000E+00
     -8.180  0.5629E-01  0.3337E-02  0.3337E-02  0.3337E-02  0.0000E+00  0.0000E+00  0.0000E+00  0.0000E+00  0.0000E+00
     -8.166  0.5642E-01  0.3356E-02  0.3356E-02  0.3356E-02  0.0000E+00  0.0000E+00  0.0000E+00  0.0000E+00  0.0000E+00
     -8.152  0.5655E-01  0.3376E-02  0.3376E-02  0.3376E-02  0.0000E+00  0.0000E+00  0.0000E+00  0.0000E+00  0.0000E+00
     -8.138  0.5667E-01  0.3395E-02  0.3395E-02  0.3395E-02  0.0000E+00  0.0000E+00  0.0000E+00  0.0000E+00  0.0000E+00
     -8.124  0.5680E-01  0.3415E-02  0.3415E-02  0.3415E-02  0.0000E+00  0.0000E+00  0.0000E+00  0.0000E+00  0.0000E+00
     -8.110  0.5693E-01  0.3434E-02  0.3434E-02  0.3434E-02  0.0000E+00  0.0000E+00  0.0000E+00  0.0000E+00  0.0000E+00
     -8.096  0.5706E-01  0.3454E-02  0.3454E-02  0.3454E-02  0.0000E+00  0.0000E+00  0.0000E+00  0.0000E+00  0.0000E+00
     -8.082  0.5719E-01  0.3474E-02  0.3474E-02  0.3474E-02  0.0000E+00  0.0000E+00  0.0000E+00  0.0000E+00  0.0000E+00
     -8.068  0.5732E-01  0.3493E-02  0.3493E-02  0.3493E-02  0.0000E+00  0.0000E+00  0.0000E+00  0.0000E+00  0.0000E+00
     -8.054  0.5745E-01  0.3513E-02  0.3513E-02  0.3513E-02  0.0000E+00  0.0000E+00  0.0000E+00  0.0000E+00  0.0000E+00
     -8.040  0.5758E-01  0.3532E-02  0.3532E-02  0.3532E-02  0.0000E+00  0.0000E+00  0.0000E+00  0.0000E+00  0.0000E+00
     -8.026  0.5771E-01  0.3552E-02  0.3552E-02  0.3552E-02  0.0000E+00  0.0000E+00  0.0000E+00  0.0000E+00  0.0000E+00
     -8.012  0.5784E-01  0.3572E-02  0.3572E-02  0.3572E-02  0.0000E+00  0.0000E+00  0.0000E+00  0.0000E+00  0.0000E+00
     -7.998  0.5797E-01  0.3591E-02  0.3591E-02  0.3591E-02  0.0000E+00  0.0000E+00  0.0000E+00  0.0000E+00  0.0000E+00
     -7.984  0.5810E-01  0.3611E-02  0.3611E-02  0.3611E-02  0.0000E+00  0.0000E+00  0.0000E+00  0.0000E+00  0.0000E+00
     -7.970  0.5823E-01  0.3631E-02  0.3631E-02  0.3631E-02  0.0000E+00  0.0000E+00  0.0000E+00  0.0000E+00  0.0000E+00
     -7.956  0.5836E-01  0.3650E-02  0.3650E-02  0.3650E-02  0.0000E+00  0.0000E+00  0.0000E+00  0.0000E+00  0.0000E+00
     -7.942  0.5850E-01  0.3670E-02  0.3670E-02  0.3670E-02  0.0000E+00  0.0000E+00  0.0000E+00  0.0000E+00  0.0000E+00
     -7.928  0.5863E-01  0.3690E-02  0.3690E-02  0.3690E-02  0.0000E+00  0.0000E+00  0.0000E+00  0.0000E+00  0.0000E+00
     -7.914  0.5876E-01  0.3710E-02  0.3710E-02  0.3710E-02  0.0000E+00  0.0000E+00  0.0000E+00  0.0000E+00  0.0000E+00
     -7.900  0.5890E-01  0.3729E-02  0.3729E-02  0.3729E-02  0.0000E+00  0.0000E+00  0.0000E+00  0.0000E+00  0.0000E+00
     -7.886  0.5903E-01  0.3749E-02  0.3749E-02  0.3749E-02  0.0000E+00  0.0000E+00  0.0000E+00  0.0000E+00  0.0000E+00
     -7.872  0.5917E-01  0.3769E-02  0.3769E-02  0.3769E-02  0.0000E+00  0.0000E+00  0.0000E+00  0.0000E+00  0.0000E+00
     -7.858  0.5931E-01  0.3788E-02  0.3788E-02  0.3788E-02  0.0000E+00  0.0000E+00  0.0000E+00  0.0000E+00  0.0000E+00
     -7.844  0.5946E-01  0.3808E-02  0.3808E-02  0.3808E-02  0.0000E+00  0.0000E+00  0.0000E+00  0.0000E+00  0.0000E+00
     -7.830  0.5960E-01  0.3827E-02  0.3827E-02  0.3827E-02  0.0000E+00  0.0000E+00  0.0000E+00  0.0000E+00  0.0000E+00
     -7.817  0.5975E-01  0.3846E-02  0.3846E-02  0.3846E-02  0.0000E+00  0.0000E+00  0.0000E+00  0.0000E+00  0.0000E+00
     -7.803  0.5990E-01  0.3865E-02  0.3865E-02  0.3865E-02  0.0000E+00  0.0000E+00  0.0000E+00  0.0000E+00  0.0000E+00
     -7.789  0.6006E-01  0.3885E-02  0.3885E-02  0.3885E-02  0.0000E+00  0.0000E+00  0.0000E+00  0.0000E+00  0.0000E+00
     -7.775  0.6021E-01  0.3904E-02  0.3904E-02  0.3904E-02  0.0000E+00  0.0000E+00  0.0000E+00  0.0000E+00  0.0000E+00
     -7.761  0.6036E-01  0.3923E-02  0.3923E-02  0.3923E-02  0.0000E+00  0.0000E+00  0.0000E+00  0.0000E+00  0.0000E+00
     -7.747  0.6052E-01  0.3942E-02  0.3942E-02  0.3942E-02  0.0000E+00  0.0000E+00  0.0000E+00  0.0000E+00  0.0000E+00
     -7.733  0.6068E-01  0.3962E-02  0.3962E-02  0.3962E-02  0.0000E+00  0.0000E+00  0.0000E+00  0.0000E+00  0.0000E+00
     -7.719  0.6083E-01  0.3981E-02  0.3981E-02  0.3981E-02  0.0000E+00  0.0000E+00  0.0000E+00  0.0000E+00  0.0000E+00
     -7.705  0.6099E-01  0.4000E-02  0.4000E-02  0.4000E-02  0.0000E+00  0.0000E+00  0.0000E+00  0.0000E+00  0.0000E+00
     -7.691  0.6115E-01  0.4019E-02  0.4019E-02  0.4019E-02  0.0000E+00  0.0000E+00  0.0000E+00  0.0000E+00  0.0000E+00
     -7.677  0.6131E-01  0.4039E-02  0.4039E-02  0.4039E-02  0.0000E+00  0.0000E+00  0.0000E+00  0.0000E+00  0.0000E+00
     -7.663  0.6147E-01  0.4058E-02  0.4058E-02  0.4058E-02  0.0000E+00  0.0000E+00  0.0000E+00  0.0000E+00  0.0000E+00
     -7.649  0.6163E-01  0.4077E-02  0.4077E-02  0.4077E-02  0.0000E+00  0.0000E+00  0.0000E+00  0.0000E+00  0.0000E+00
     -7.635  0.6179E-01  0.4097E-02  0.4097E-02  0.4097E-02  0.0000E+00  0.0000E+00  0.0000E+00  0.0000E+00  0.0000E+00
     -7.621  0.6195E-01  0.4116E-02  0.4116E-02  0.4116E-02  0.0000E+00  0.0000E+00  0.0000E+00  0.0000E+00  0.0000E+00
     -7.607  0.6212E-01  0.4135E-02  0.4135E-02  0.4135E-02  0.0000E+00  0.0000E+00  0.0000E+00  0.0000E+00  0.0000E+00
     -7.593  0.6228E-01  0.4155E-02  0.4155E-02  0.4155E-02  0.0000E+00  0.0000E+00  0.0000E+00  0.0000E+00  0.0000E+00
     -7.579  0.6244E-01  0.4174E-02  0.4174E-02  0.4174E-02  0.0000E+00  0.0000E+00  0.0000E+00  0.0000E+00  0.0000E+00
     -7.565  0.6261E-01  0.4194E-02  0.4194E-02  0.4194E-02  0.0000E+00  0.0000E+00  0.0000E+00  0.0000E+00  0.0000E+00
     -7.551  0.6278E-01  0.4213E-02  0.4213E-02  0.4213E-02  0.0000E+00  0.0000E+00  0.0000E+00  0.0000E+00  0.0000E+00
     -7.537  0.6295E-01  0.4232E-02  0.4232E-02  0.4232E-02  0.0000E+00  0.0000E+00  0.0000E+00  0.0000E+00  0.0000E+00
     -7.523  0.6311E-01  0.4252E-02  0.4252E-02  0.4252E-02  0.0000E+00  0.0000E+00  0.0000E+00  0.0000E+00  0.0000E+00
     -7.509  0.6328E-01  0.4271E-02  0.4271E-02  0.4271E-02  0.0000E+00  0.0000E+00  0.0000E+00  0.0000E+00  0.0000E+00
     -7.495  0.6345E-01  0.4291E-02  0.4291E-02  0.4291E-02  0.0000E+00  0.0000E+00  0.0000E+00  0.0000E+00  0.0000E+00
     -7.481  0.6362E-01  0.4310E-02  0.4310E-02  0.4310E-02  0.0000E+00  0.0000E+00  0.0000E+00  0.0000E+00  0.0000E+00
     -7.467  0.6380E-01  0.4330E-02  0.4330E-02  0.4330E-02  0.0000E+00  0.0000E+00  0.0000E+00  0.0000E+00  0.0000E+00
     -7.453  0.6397E-01  0.4349E-02  0.4349E-02  0.4349E-02  0.0000E+00  0.0000E+00  0.0000E+00  0.0000E+00  0.0000E+00
     -7.439  0.6414E-01  0.4369E-02  0.4369E-02  0.4369E-02  0.0000E+00  0.0000E+00  0.0000E+00  0.0000E+00  0.0000E+00
     -7.425  0.6432E-01  0.4389E-02  0.4389E-02  0.4389E-02  0.0000E+00  0.0000E+00  0.0000E+00  0.0000E+00  0.0000E+00
     -7.411  0.6449E-01  0.4408E-02  0.4408E-02  0.4408E-02  0.0000E+00  0.0000E+00  0.0000E+00  0.0000E+00  0.0000E+00
     -7.397  0.6467E-01  0.4428E-02  0.4428E-02  0.4428E-02  0.0000E+00  0.0000E+00  0.0000E+00  0.0000E+00  0.0000E+00
     -7.383  0.6485E-01  0.4448E-02  0.4448E-02  0.4448E-02  0.0000E+00  0.0000E+00  0.0000E+00  0.0000E+00  0.0000E+00
     -7.369  0.6502E-01  0.4467E-02  0.4467E-02  0.4467E-02  0.0000E+00  0.0000E+00  0.0000E+00  0.0000E+00  0.0000E+00
     -7.355  0.6520E-01  0.4487E-02  0.4487E-02  0.4487E-02  0.0000E+00  0.0000E+00  0.0000E+00  0.0000E+00  0.0000E+00
     -7.341  0.6538E-01  0.4507E-02  0.4507E-02  0.4507E-02  0.0000E+00  0.0000E+00  0.0000E+00  0.0000E+00  0.0000E+00
     -7.327  0.6556E-01  0.4527E-02  0.4527E-02  0.4527E-02  0.0000E+00  0.0000E+00  0.0000E+00  0.0000E+00  0.0000E+00
     -7.313  0.6575E-01  0.4547E-02  0.4547E-02  0.4547E-02  0.0000E+00  0.0000E+00  0.0000E+00  0.0000E+00  0.0000E+00
     -7.299  0.6593E-01  0.4567E-02  0.4567E-02  0.4567E-02  0.0000E+00  0.0000E+00  0.0000E+00  0.0000E+00  0.0000E+00
     -7.285  0.6611E-01  0.4587E-02  0.4587E-02  0.4587E-02  0.0000E+00  0.0000E+00  0.0000E+00  0.0000E+00  0.0000E+00
     -7.271  0.6630E-01  0.4607E-02  0.4607E-02  0.4607E-02  0.0000E+00  0.0000E+00  0.0000E+00  0.0000E+00  0.0000E+00
     -7.257  0.6648E-01  0.4627E-02  0.4627E-02  0.4627E-02  0.0000E+00  0.0000E+00  0.0000E+00  0.0000E+00  0.0000E+00
     -7.243  0.6667E-01  0.4647E-02  0.4647E-02  0.4647E-02  0.0000E+00  0.0000E+00  0.0000E+00  0.0000E+00  0.0000E+00
     -7.229  0.6686E-01  0.4667E-02  0.4667E-02  0.4667E-02  0.0000E+00  0.0000E+00  0.0000E+00  0.0000E+00  0.0000E+00
     -7.216  0.6702E-01  0.4693E-02  0.4693E-02  0.4693E-02  0.0000E+00  0.0000E+00  0.0000E+00  0.0000E+00  0.0000E+00
     -7.202  0.6717E-01  0.4722E-02  0.4722E-02  0.4722E-02  0.0000E+00  0.0000E+00  0.0000E+00  0.0000E+00  0.0000E+00
     -7.188  0.6733E-01  0.4750E-02  0.4750E-02  0.4750E-02  0.0000E+00  0.0000E+00  0.0000E+00  0.0000E+00  0.0000E+00
     -7.174  0.6749E-01  0.4777E-02  0.4777E-02  0.4777E-02  0.0000E+00  0.0000E+00  0.0000E+00  0.0000E+00  0.0000E+00
     -7.160  0.6767E-01  0.4803E-02  0.4803E-02  0.4803E-02  0.0000E+00  0.0000E+00  0.0000E+00  0.0000E+00  0.0000E+00
     -7.146  0.6785E-01  0.4829E-02  0.4829E-02  0.4829E-02  0.0000E+00  0.0000E+00  0.0000E+00  0.0000E+00  0.0000E+00
     -7.132  0.6804E-01  0.4855E-02  0.4855E-02  0.4855E-02  0.0000E+00  0.0000E+00  0.0000E+00  0.0000E+00  0.0000E+00
     -7.118  0.6823E-01  0.4880E-02  0.4880E-02  0.4880E-02  0.0000E+00  0.0000E+00  0.0000E+00  0.0000E+00  0.0000E+00
     -7.104  0.6842E-01  0.4905E-02  0.4905E-02  0.4905E-02  0.0000E+00  0.0000E+00  0.0000E+00  0.0000E+00  0.0000E+00
     -7.090  0.6862E-01  0.4930E-02  0.4930E-02  0.4930E-02  0.0000E+00  0.0000E+00  0.0000E+00  0.0000E+00  0.0000E+00
     -7.076  0.6882E-01  0.4955E-02  0.4955E-02  0.4955E-02  0.0000E+00  0.0000E+00  0.0000E+00  0.0000E+00  0.0000E+00
     -7.062  0.6902E-01  0.4981E-02  0.4981E-02  0.4981E-02  0.0000E+00  0.0000E+00  0.0000E+00  0.0000E+00  0.0000E+00
     -7.048  0.6922E-01  0.5006E-02  0.5006E-02  0.5006E-02  0.0000E+00  0.0000E+00  0.0000E+00  0.0000E+00  0.0000E+00
     -7.034  0.6942E-01  0.5032E-02  0.5032E-02  0.5032E-02  0.0000E+00  0.0000E+00  0.0000E+00  0.0000E+00  0.0000E+00
     -7.020  0.6962E-01  0.5058E-02  0.5058E-02  0.5058E-02  0.0000E+00  0.0000E+00  0.0000E+00  0.0000E+00  0.0000E+00
     -7.006  0.6983E-01  0.5084E-02  0.5084E-02  0.5084E-02  0.0000E+00  0.0000E+00  0.0000E+00  0.0000E+00  0.0000E+00
     -6.992  0.7004E-01  0.5110E-02  0.5110E-02  0.5110E-02  0.0000E+00  0.0000E+00  0.0000E+00  0.0000E+00  0.0000E+00
     -6.978  0.7025E-01  0.5136E-02  0.5136E-02  0.5136E-02  0.0000E+00  0.0000E+00  0.0000E+00  0.0000E+00  0.0000E+00
     -6.964  0.7046E-01  0.5162E-02  0.5162E-02  0.5162E-02  0.0000E+00  0.0000E+00  0.0000E+00  0.0000E+00  0.0000E+00
     -6.950  0.7067E-01  0.5188E-02  0.5188E-02  0.5188E-02  0.0000E+00  0.0000E+00  0.0000E+00  0.0000E+00  0.0000E+00
     -6.936  0.7089E-01  0.5215E-02  0.5215E-02  0.5215E-02  0.0000E+00  0.0000E+00  0.0000E+00  0.0000E+00  0.0000E+00
     -6.922  0.7110E-01  0.5241E-02  0.5241E-02  0.5241E-02  0.0000E+00  0.0000E+00  0.0000E+00  0.0000E+00  0.0000E+00
     -6.908  0.7132E-01  0.5268E-02  0.5268E-02  0.5268E-02  0.0000E+00  0.0000E+00  0.0000E+00  0.0000E+00  0.0000E+00
     -6.894  0.7154E-01  0.5294E-02  0.5294E-02  0.5294E-02  0.0000E+00  0.0000E+00  0.0000E+00  0.0000E+00  0.0000E+00
     -6.880  0.7176E-01  0.5321E-02  0.5321E-02  0.5321E-02  0.0000E+00  0.0000E+00  0.0000E+00  0.0000E+00  0.0000E+00
     -6.866  0.7199E-01  0.5348E-02  0.5348E-02  0.5348E-02  0.0000E+00  0.0000E+00  0.0000E+00  0.0000E+00  0.0000E+00
     -6.852  0.7221E-01  0.5375E-02  0.5375E-02  0.5375E-02  0.0000E+00  0.0000E+00  0.0000E+00  0.0000E+00  0.0000E+00
     -6.838  0.7244E-01  0.5402E-02  0.5402E-02  0.5402E-02  0.0000E+00  0.0000E+00  0.0000E+00  0.0000E+00  0.0000E+00
     -6.824  0.7267E-01  0.5429E-02  0.5429E-02  0.5429E-02  0.0000E+00  0.0000E+00  0.0000E+00  0.0000E+00  0.0000E+00
     -6.810  0.7290E-01  0.5457E-02  0.5457E-02  0.5457E-02  0.0000E+00  0.0000E+00  0.0000E+00  0.0000E+00  0.0000E+00
     -6.796  0.7314E-01  0.5484E-02  0.5484E-02  0.5484E-02  0.0000E+00  0.0000E+00  0.0000E+00  0.0000E+00  0.0000E+00
     -6.782  0.7340E-01  0.5513E-02  0.5513E-02  0.5513E-02  0.0000E+00  0.0000E+00  0.0000E+00  0.0000E+00  0.0000E+00
     -6.768  0.7366E-01  0.5541E-02  0.5541E-02  0.5541E-02  0.0000E+00  0.0000E+00  0.0000E+00  0.0000E+00  0.0000E+00
     -6.754  0.7394E-01  0.5570E-02  0.5570E-02  0.5570E-02  0.0000E+00  0.0000E+00  0.0000E+00  0.0000E+00  0.0000E+00
     -6.740  0.7423E-01  0.5600E-02  0.5600E-02  0.5600E-02  0.0000E+00  0.0000E+00  0.0000E+00  0.0000E+00  0.0000E+00
     -6.726  0.7452E-01  0.5630E-02  0.5630E-02  0.5630E-02  0.0000E+00  0.0000E+00  0.0000E+00  0.0000E+00  0.0000E+00
     -6.712  0.7483E-01  0.5660E-02  0.5660E-02  0.5660E-02  0.0000E+00  0.0000E+00  0.0000E+00  0.0000E+00  0.0000E+00
     -6.698  0.7515E-01  0.5690E-02  0.5690E-02  0.5690E-02  0.0000E+00  0.0000E+00  0.0000E+00  0.0000E+00  0.0000E+00
     -6.684  0.7549E-01  0.5722E-02  0.5722E-02  0.5722E-02  0.0000E+00  0.0000E+00  0.0000E+00  0.0000E+00  0.0000E+00
     -6.670  0.7583E-01  0.5753E-02  0.5753E-02  0.5753E-02  0.0000E+00  0.0000E+00  0.0000E+00  0.0000E+00  0.0000E+00
     -6.656  0.7618E-01  0.5785E-02  0.5785E-02  0.5785E-02  0.0000E+00  0.0000E+00  0.0000E+00  0.0000E+00  0.0000E+00
     -6.642  0.7655E-01  0.5817E-02  0.5817E-02  0.5817E-02  0.0000E+00  0.0000E+00  0.0000E+00  0.0000E+00  0.0000E+00
     -6.628  0.7692E-01  0.5850E-02  0.5850E-02  0.5850E-02  0.0000E+00  0.0000E+00  0.0000E+00  0.0000E+00  0.0000E+00
     -6.615  0.7732E-01  0.5884E-02  0.5884E-02  0.5884E-02  0.0000E+00  0.0000E+00  0.0000E+00  0.0000E+00  0.0000E+00
     -6.601  0.7775E-01  0.5919E-02  0.5919E-02  0.5919E-02  0.0000E+00  0.0000E+00  0.0000E+00  0.0000E+00  0.0000E+00
     -6.587  0.7821E-01  0.5956E-02  0.5956E-02  0.5956E-02  0.0000E+00  0.0000E+00  0.0000E+00  0.0000E+00  0.0000E+00
     -6.573  0.7869E-01  0.5994E-02  0.5994E-02  0.5994E-02  0.0000E+00  0.0000E+00  0.0000E+00  0.0000E+00  0.0000E+00
     -6.559  0.7920E-01  0.6034E-02  0.6034E-02  0.6034E-02  0.0000E+00  0.0000E+00  0.0000E+00  0.0000E+00  0.0000E+00
     -6.545  0.7973E-01  0.6075E-02  0.6075E-02  0.6075E-02  0.0000E+00  0.0000E+00  0.0000E+00  0.0000E+00  0.0000E+00
     -6.531  0.8030E-01  0.6117E-02  0.6117E-02  0.6117E-02  0.0000E+00  0.0000E+00  0.0000E+00  0.0000E+00  0.0000E+00
     -6.517  0.8089E-01  0.6161E-02  0.6161E-02  0.6161E-02  0.0000E+00  0.0000E+00  0.0000E+00  0.0000E+00  0.0000E+00
     -6.503  0.8151E-01  0.6205E-02  0.6205E-02  0.6205E-02  0.0000E+00  0.0000E+00  0.0000E+00  0.0000E+00  0.0000E+00
     -6.489  0.8215E-01  0.6251E-02  0.6251E-02  0.6251E-02  0.0000E+00  0.0000E+00  0.0000E+00  0.0000E+00  0.0000E+00
     -6.475  0.8282E-01  0.6299E-02  0.6299E-02  0.6299E-02  0.0000E+00  0.0000E+00  0.0000E+00  0.0000E+00  0.0000E+00
     -6.461  0.8352E-01  0.6348E-02  0.6348E-02  0.6348E-02  0.0000E+00  0.0000E+00  0.0000E+00  0.0000E+00  0.0000E+00
     -6.447  0.8424E-01  0.6398E-02  0.6398E-02  0.6398E-02  0.0000E+00  0.0000E+00  0.0000E+00  0.0000E+00  0.0000E+00
     -6.433  0.8499E-01  0.6450E-02  0.6450E-02  0.6450E-02  0.0000E+00  0.0000E+00  0.0000E+00  0.0000E+00  0.0000E+00
     -6.419  0.8576E-01  0.6503E-02  0.6503E-02  0.6503E-02  0.0000E+00  0.0000E+00  0.0000E+00  0.0000E+00  0.0000E+00
     -6.405  0.8656E-01  0.6557E-02  0.6557E-02  0.6557E-02  0.0000E+00  0.0000E+00  0.0000E+00  0.0000E+00  0.0000E+00
     -6.391  0.8738E-01  0.6613E-02  0.6613E-02  0.6613E-02  0.0000E+00  0.0000E+00  0.0000E+00  0.0000E+00  0.0000E+00
     -6.377  0.8824E-01  0.6670E-02  0.6670E-02  0.6670E-02  0.0000E+00  0.0000E+00  0.0000E+00  0.0000E+00  0.0000E+00
     -6.363  0.8911E-01  0.6729E-02  0.6729E-02  0.6729E-02  0.0000E+00  0.0000E+00  0.0000E+00  0.0000E+00  0.0000E+00
     -6.349  0.9002E-01  0.6789E-02  0.6789E-02  0.6789E-02  0.0000E+00  0.0000E+00  0.0000E+00  0.0000E+00  0.0000E+00
     -6.335  0.9095E-01  0.6850E-02  0.6850E-02  0.6850E-02  0.0000E+00  0.0000E+00  0.0000E+00  0.0000E+00  0.0000E+00
     -6.321  0.9190E-01  0.6913E-02  0.6913E-02  0.6913E-02  0.0000E+00  0.0000E+00  0.0000E+00  0.0000E+00  0.0000E+00
     -6.307  0.9288E-01  0.6977E-02  0.6977E-02  0.6977E-02  0.0000E+00  0.0000E+00  0.0000E+00  0.0000E+00  0.0000E+00
     -6.293  0.9389E-01  0.7042E-02  0.7042E-02  0.7042E-02  0.0000E+00  0.0000E+00  0.0000E+00  0.0000E+00  0.0000E+00
     -6.279  0.9492E-01  0.7109E-02  0.7109E-02  0.7109E-02  0.0000E+00  0.0000E+00  0.0000E+00  0.0000E+00  0.0000E+00
     -6.265  0.9598E-01  0.7177E-02  0.7177E-02  0.7177E-02  0.0000E+00  0.0000E+00  0.0000E+00  0.0000E+00  0.0000E+00
     -6.251  0.9707E-01  0.7247E-02  0.7247E-02  0.7247E-02  0.0000E+00  0.0000E+00  0.0000E+00  0.0000E+00  0.0000E+00
     -6.237  0.9818E-01  0.7318E-02  0.7318E-02  0.7318E-02  0.0000E+00  0.0000E+00  0.0000E+00  0.0000E+00  0.0000E+00
     -6.223  0.9932E-01  0.7390E-02  0.7390E-02  0.7390E-02  0.0000E+00  0.0000E+00  0.0000E+00  0.0000E+00  0.0000E+00
     -6.209  0.1005E+00  0.7464E-02  0.7464E-02  0.7464E-02  0.0000E+00  0.0000E+00  0.0000E+00  0.0000E+00  0.0000E+00
     -6.195  0.1017E+00  0.7539E-02  0.7539E-02  0.7539E-02  0.0000E+00  0.0000E+00  0.0000E+00  0.0000E+00  0.0000E+00
     -6.181  0.1029E+00  0.7616E-02  0.7616E-02  0.7616E-02  0.0000E+00  0.0000E+00  0.0000E+00  0.0000E+00  0.0000E+00
     -6.167  0.1041E+00  0.7694E-02  0.7694E-02  0.7694E-02  0.0000E+00  0.0000E+00  0.0000E+00  0.0000E+00  0.0000E+00
     -6.153  0.1054E+00  0.7773E-02  0.7773E-02  0.7773E-02  0.0000E+00  0.0000E+00  0.0000E+00  0.0000E+00  0.0000E+00
     -6.139  0.1067E+00  0.7854E-02  0.7854E-02  0.7854E-02  0.0000E+00  0.0000E+00  0.0000E+00  0.0000E+00  0.0000E+00
     -6.125  0.1080E+00  0.7936E-02  0.7936E-02  0.7936E-02  0.0000E+00  0.0000E+00  0.0000E+00  0.0000E+00  0.0000E+00
     -6.111  0.1093E+00  0.8019E-02  0.8019E-02  0.8019E-02  0.0000E+00  0.0000E+00  0.0000E+00  0.0000E+00  0.0000E+00
     -6.097  0.1107E+00  0.8104E-02  0.8104E-02  0.8104E-02  0.0000E+00  0.0000E+00  0.0000E+00  0.0000E+00  0.0000E+00
     -6.083  0.1121E+00  0.8190E-02  0.8190E-02  0.8190E-02  0.0000E+00  0.0000E+00  0.0000E+00  0.0000E+00  0.0000E+00
     -6.069  0.1135E+00  0.8278E-02  0.8278E-02  0.8278E-02  0.0000E+00  0.0000E+00  0.0000E+00  0.0000E+00  0.0000E+00
     -6.055  0.1101E+00  0.8118E-02  0.8118E-02  0.8118E-02  0.0000E+00  0.0000E+00  0.0000E+00  0.0000E+00  0.0000E+00
     -6.041  0.1008E+00  0.7656E-02  0.7656E-02  0.7656E-02  0.0000E+00  0.0000E+00  0.0000E+00  0.0000E+00  0.0000E+00
     -6.027  0.9497E-01  0.7371E-02  0.7371E-02  0.7371E-02  0.0000E+00  0.0000E+00  0.0000E+00  0.0000E+00  0.0000E+00
     -6.014  0.9258E-01  0.7263E-02  0.7263E-02  0.7263E-02  0.0000E+00  0.0000E+00  0.0000E+00  0.0000E+00  0.0000E+00
     -6.000  0.9259E-01  0.7277E-02  0.7277E-02  0.7277E-02  0.0000E+00  0.0000E+00  0.0000E+00  0.0000E+00  0.0000E+00
     -5.986  0.9271E-01  0.7298E-02  0.7298E-02  0.7298E-02  0.0000E+00  0.0000E+00  0.0000E+00  0.0000E+00  0.0000E+00
     -5.972  0.9289E-01  0.7321E-02  0.7321E-02  0.7321E-02  0.0000E+00  0.0000E+00  0.0000E+00  0.0000E+00  0.0000E+00
     -5.958  0.9311E-01  0.7348E-02  0.7348E-02  0.7348E-02  0.0000E+00  0.0000E+00  0.0000E+00  0.0000E+00  0.0000E+00
     -5.944  0.9335E-01  0.7376E-02  0.7376E-02  0.7376E-02  0.0000E+00  0.0000E+00  0.0000E+00  0.0000E+00  0.0000E+00
     -5.930  0.9357E-01  0.7403E-02  0.7403E-02  0.7403E-02  0.0000E+00  0.0000E+00  0.0000E+00  0.0000E+00  0.0000E+00
     -5.916  0.9377E-01  0.7429E-02  0.7429E-02  0.7429E-02  0.0000E+00  0.0000E+00  0.0000E+00  0.0000E+00  0.0000E+00
     -5.902  0.9394E-01  0.7452E-02  0.7452E-02  0.7452E-02  0.0000E+00  0.0000E+00  0.0000E+00  0.0000E+00  0.0000E+00
     -5.888  0.9408E-01  0.7474E-02  0.7474E-02  0.7474E-02  0.0000E+00  0.0000E+00  0.0000E+00  0.0000E+00  0.0000E+00
     -5.874  0.9419E-01  0.7495E-02  0.7495E-02  0.7495E-02  0.0000E+00  0.0000E+00  0.0000E+00  0.0000E+00  0.0000E+00
     -5.860  0.9428E-01  0.7514E-02  0.7514E-02  0.7514E-02  0.0000E+00  0.0000E+00  0.0000E+00  0.0000E+00  0.0000E+00
     -5.846  0.9434E-01  0.7531E-02  0.7531E-02  0.7531E-02  0.0000E+00  0.0000E+00  0.0000E+00  0.0000E+00  0.0000E+00
     -5.832  0.9437E-01  0.7547E-02  0.7547E-02  0.7547E-02  0.0000E+00  0.0000E+00  0.0000E+00  0.0000E+00  0.0000E+00
     -5.818  0.9438E-01  0.7561E-02  0.7561E-02  0.7561E-02  0.0000E+00  0.0000E+00  0.0000E+00  0.0000E+00  0.0000E+00
     -5.804  0.9436E-01  0.7574E-02  0.7574E-02  0.7574E-02  0.0000E+00  0.0000E+00  0.0000E+00  0.0000E+00  0.0000E+00
     -5.790  0.9431E-01  0.7585E-02  0.7585E-02  0.7585E-02  0.0000E+00  0.0000E+00  0.0000E+00  0.0000E+00  0.0000E+00
     -5.776  0.9423E-01  0.7594E-02  0.7594E-02  0.7594E-02  0.0000E+00  0.0000E+00  0.0000E+00  0.0000E+00  0.0000E+00
     -5.762  0.9413E-01  0.7602E-02  0.7602E-02  0.7602E-02  0.0000E+00  0.0000E+00  0.0000E+00  0.0000E+00  0.0000E+00
     -5.748  0.9401E-01  0.7608E-02  0.7608E-02  0.7608E-02  0.0000E+00  0.0000E+00  0.0000E+00  0.0000E+00  0.0000E+00
     -5.734  0.9385E-01  0.7613E-02  0.7613E-02  0.7613E-02  0.0000E+00  0.0000E+00  0.0000E+00  0.0000E+00  0.0000E+00
     -5.720  0.9367E-01  0.7616E-02  0.7616E-02  0.7616E-02  0.0000E+00  0.0000E+00  0.0000E+00  0.0000E+00  0.0000E+00
     -5.706  0.9346E-01  0.7617E-02  0.7617E-02  0.7617E-02  0.0000E+00  0.0000E+00  0.0000E+00  0.0000E+00  0.0000E+00
     -5.692  0.9323E-01  0.7617E-02  0.7617E-02  0.7617E-02  0.0000E+00  0.0000E+00  0.0000E+00  0.0000E+00  0.0000E+00
     -5.678  0.9297E-01  0.7615E-02  0.7615E-02  0.7615E-02  0.0000E+00  0.0000E+00  0.0000E+00  0.0000E+00  0.0000E+00
     -5.664  0.9268E-01  0.7612E-02  0.7612E-02  0.7612E-02  0.0000E+00  0.0000E+00  0.0000E+00  0.0000E+00  0.0000E+00
     -5.650  0.9236E-01  0.7607E-02  0.7607E-02  0.7607E-02  0.0000E+00  0.0000E+00  0.0000E+00  0.0000E+00  0.0000E+00
     -5.636  0.9202E-01  0.7600E-02  0.7600E-02  0.7600E-02  0.0000E+00  0.0000E+00  0.0000E+00  0.0000E+00  0.0000E+00
     -5.622  0.9165E-01  0.7592E-02  0.7592E-02  0.7592E-02  0.0000E+00  0.0000E+00  0.0000E+00  0.0000E+00  0.0000E+00
     -5.608  0.9125E-01  0.7582E-02  0.7582E-02  0.7582E-02  0.0000E+00  0.0000E+00  0.0000E+00  0.0000E+00  0.0000E+00
     -5.594  0.9083E-01  0.7571E-02  0.7571E-02  0.7571E-02  0.0000E+00  0.0000E+00  0.0000E+00  0.0000E+00  0.0000E+00
     -5.580  0.9038E-01  0.7558E-02  0.7558E-02  0.7558E-02  0.0000E+00  0.0000E+00  0.0000E+00  0.0000E+00  0.0000E+00
     -5.566  0.8990E-01  0.7543E-02  0.7543E-02  0.7543E-02  0.0000E+00  0.0000E+00  0.0000E+00  0.0000E+00  0.0000E+00
     -5.552  0.8940E-01  0.7527E-02  0.7527E-02  0.7527E-02  0.0000E+00  0.0000E+00  0.0000E+00  0.0000E+00  0.0000E+00
     -5.538  0.8887E-01  0.7509E-02  0.7509E-02  0.7509E-02  0.0000E+00  0.0000E+00  0.0000E+00  0.0000E+00  0.0000E+00
     -5.524  0.8832E-01  0.7491E-02  0.7491E-02  0.7491E-02  0.0000E+00  0.0000E+00  0.0000E+00  0.0000E+00  0.0000E+00
     -5.510  0.8778E-01  0.7474E-02  0.7474E-02  0.7474E-02  0.0000E+00  0.0000E+00  0.0000E+00  0.0000E+00  0.0000E+00
     -5.496  0.8724E-01  0.7460E-02  0.7460E-02  0.7460E-02  0.0000E+00  0.0000E+00  0.0000E+00  0.0000E+00  0.0000E+00
     -5.482  0.8672E-01  0.7448E-02  0.7448E-02  0.7448E-02  0.0000E+00  0.0000E+00  0.0000E+00  0.0000E+00  0.0000E+00
     -5.468  0.8620E-01  0.7437E-02  0.7437E-02  0.7437E-02  0.0000E+00  0.0000E+00  0.0000E+00  0.0000E+00  0.0000E+00
     -5.454  0.8570E-01  0.7429E-02  0.7429E-02  0.7429E-02  0.0000E+00  0.0000E+00  0.0000E+00  0.0000E+00  0.0000E+00
     -5.440  0.8520E-01  0.7424E-02  0.7424E-02  0.7424E-02  0.0000E+00  0.0000E+00  0.0000E+00  0.0000E+00  0.0000E+00
     -5.426  0.8471E-01  0.7420E-02  0.7420E-02  0.7420E-02  0.0000E+00  0.0000E+00  0.0000E+00  0.0000E+00  0.0000E+00
     -5.413  0.8424E-01  0.7419E-02  0.7419E-02  0.7419E-02  0.0000E+00  0.0000E+00  0.0000E+00  0.0000E+00  0.0000E+00
     -5.399  0.8441E-01  0.7466E-02  0.7466E-02  0.7466E-02  0.0000E+00  0.0000E+00  0.0000E+00  0.0000E+00  0.0000E+00
     -5.385  0.8558E-01  0.7584E-02  0.7584E-02  0.7584E-02  0.0000E+00  0.0000E+00  0.0000E+00  0.0000E+00  0.0000E+00
     -5.371  0.8775E-01  0.7775E-02  0.7775E-02  0.7775E-02  0.0000E+00  0.0000E+00  0.0000E+00  0.0000E+00  0.0000E+00
     -5.357  0.9069E-01  0.8020E-02  0.8020E-02  0.8020E-02  0.0000E+00  0.0000E+00  0.0000E+00  0.0000E+00  0.0000E+00
     -5.343  0.9277E-01  0.8201E-02  0.8201E-02  0.8201E-02  0.0000E+00  0.0000E+00  0.0000E+00  0.0000E+00  0.0000E+00
     -5.329  0.9368E-01  0.8291E-02  0.8291E-02  0.8291E-02  0.0000E+00  0.0000E+00  0.0000E+00  0.0000E+00  0.0000E+00
     -5.315  0.9354E-01  0.8300E-02  0.8300E-02  0.8300E-02  0.0000E+00  0.0000E+00  0.0000E+00  0.0000E+00  0.0000E+00
     -5.301  0.9323E-01  0.8296E-02  0.8296E-02  0.8296E-02  0.0000E+00  0.0000E+00  0.0000E+00  0.0000E+00  0.0000E+00
     -5.287  0.9292E-01  0.8290E-02  0.8290E-02  0.8290E-02  0.0000E+00  0.0000E+00  0.0000E+00  0.0000E+00  0.0000E+00
     -5.273  0.9259E-01  0.8284E-02  0.8284E-02  0.8284E-02  0.0000E+00  0.0000E+00  0.0000E+00  0.0000E+00  0.0000E+00
     -5.259  0.9225E-01  0.8276E-02  0.8276E-02  0.8276E-02  0.0000E+00  0.0000E+00  0.0000E+00  0.0000E+00  0.0000E+00
     -5.245  0.9190E-01  0.8268E-02  0.8268E-02  0.8268E-02  0.0000E+00  0.0000E+00  0.0000E+00  0.0000E+00  0.0000E+00
     -5.231  0.9154E-01  0.8259E-02  0.8259E-02  0.8259E-02  0.0000E+00  0.0000E+00  0.0000E+00  0.0000E+00  0.0000E+00
     -5.217  0.9116E-01  0.8249E-02  0.8249E-02  0.8249E-02  0.0000E+00  0.0000E+00  0.0000E+00  0.0000E+00  0.0000E+00
     -5.203  0.9078E-01  0.8237E-02  0.8237E-02  0.8237E-02  0.0000E+00  0.0000E+00  0.0000E+00  0.0000E+00  0.0000E+00
     -5.189  0.9038E-01  0.8225E-02  0.8225E-02  0.8225E-02  0.0000E+00  0.0000E+00  0.0000E+00  0.0000E+00  0.0000E+00
     -5.175  0.8998E-01  0.8213E-02  0.8213E-02  0.8213E-02  0.0000E+00  0.0000E+00  0.0000E+00  0.0000E+00  0.0000E+00
     -5.161  0.8956E-01  0.8199E-02  0.8199E-02  0.8199E-02  0.0000E+00  0.0000E+00  0.0000E+00  0.0000E+00  0.0000E+00
     -5.147  0.8913E-01  0.8184E-02  0.8184E-02  0.8184E-02  0.0000E+00  0.0000E+00  0.0000E+00  0.0000E+00  0.0000E+00
     -5.133  0.8869E-01  0.8168E-02  0.8168E-02  0.8168E-02  0.0000E+00  0.0000E+00  0.0000E+00  0.0000E+00  0.0000E+00
     -5.119  0.8824E-01  0.8151E-02  0.8151E-02  0.8151E-02  0.0000E+00  0.0000E+00  0.0000E+00  0.0000E+00  0.0000E+00
     -5.105  0.8778E-01  0.8134E-02  0.8134E-02  0.8134E-02  0.0000E+00  0.0000E+00  0.0000E+00  0.0000E+00  0.0000E+00
     -5.091  0.8731E-01  0.8115E-02  0.8115E-02  0.8115E-02  0.0000E+00  0.0000E+00  0.0000E+00  0.0000E+00  0.0000E+00
     -5.077  0.8683E-01  0.8096E-02  0.8096E-02  0.8096E-02  0.0000E+00  0.0000E+00  0.0000E+00  0.0000E+00  0.0000E+00
     -5.063  0.8633E-01  0.8076E-02  0.8076E-02  0.8076E-02  0.0000E+00  0.0000E+00  0.0000E+00  0.0000E+00  0.0000E+00
     -5.049  0.8583E-01  0.8054E-02  0.8054E-02  0.8054E-02  0.0000E+00  0.0000E+00  0.0000E+00  0.0000E+00  0.0000E+00
     -5.035  0.8531E-01  0.8032E-02  0.8032E-02  0.8032E-02  0.0000E+00  0.0000E+00  0.0000E+00  0.0000E+00  0.0000E+00
     -5.021  0.8478E-01  0.8009E-02  0.8009E-02  0.8009E-02  0.0000E+00  0.0000E+00  0.0000E+00  0.0000E+00  0.0000E+00
     -5.007  0.8424E-01  0.7985E-02  0.7985E-02  0.7985E-02  0.0000E+00  0.0000E+00  0.0000E+00  0.0000E+00  0.0000E+00
     -4.993  0.8369E-01  0.7960E-02  0.7960E-02  0.7960E-02  0.0000E+00  0.0000E+00  0.0000E+00  0.0000E+00  0.0000E+00
     -4.979  0.8313E-01  0.7934E-02  0.7934E-02  0.7934E-02  0.0000E+00  0.0000E+00  0.0000E+00  0.0000E+00  0.0000E+00
     -4.965  0.8256E-01  0.7907E-02  0.7907E-02  0.7907E-02  0.0000E+00  0.0000E+00  0.0000E+00  0.0000E+00  0.0000E+00
     -4.951  0.8198E-01  0.7879E-02  0.7879E-02  0.7879E-02  0.0000E+00  0.0000E+00  0.0000E+00  0.0000E+00  0.0000E+00
     -4.937  0.8138E-01  0.7851E-02  0.7851E-02  0.7851E-02  0.0000E+00  0.0000E+00  0.0000E+00  0.0000E+00  0.0000E+00
     -4.923  0.8078E-01  0.7821E-02  0.7821E-02  0.7821E-02  0.0000E+00  0.0000E+00  0.0000E+00  0.0000E+00  0.0000E+00
     -4.909  0.8016E-01  0.7790E-02  0.7790E-02  0.7790E-02  0.0000E+00  0.0000E+00  0.0000E+00  0.0000E+00  0.0000E+00
     -4.895  0.7953E-01  0.7759E-02  0.7759E-02  0.7759E-02  0.0000E+00  0.0000E+00  0.0000E+00  0.0000E+00  0.0000E+00
     -4.881  0.7889E-01  0.7727E-02  0.7727E-02  0.7727E-02  0.0000E+00  0.0000E+00  0.0000E+00  0.0000E+00  0.0000E+00
     -4.867  0.7824E-01  0.7693E-02  0.7693E-02  0.7693E-02  0.0000E+00  0.0000E+00  0.0000E+00  0.0000E+00  0.0000E+00
     -4.853  0.7758E-01  0.7659E-02  0.7659E-02  0.7659E-02  0.0000E+00  0.0000E+00  0.0000E+00  0.0000E+00  0.0000E+00
     -4.839  0.7691E-01  0.7623E-02  0.7623E-02  0.7623E-02  0.0000E+00  0.0000E+00  0.0000E+00  0.0000E+00  0.0000E+00
     -4.825  0.7621E-01  0.7586E-02  0.7586E-02  0.7586E-02  0.0000E+00  0.0000E+00  0.0000E+00  0.0000E+00  0.0000E+00
     -4.812  0.7550E-01  0.7547E-02  0.7547E-02  0.7547E-02  0.0000E+00  0.0000E+00  0.0000E+00  0.0000E+00  0.0000E+00
     -4.798  0.7476E-01  0.7506E-02  0.7506E-02  0.7506E-02  0.0000E+00  0.0000E+00  0.0000E+00  0.0000E+00  0.0000E+00
     -4.784  0.7401E-01  0.7464E-02  0.7464E-02  0.7464E-02  0.0000E+00  0.0000E+00  0.0000E+00  0.0000E+00  0.0000E+00
     -4.770  0.7324E-01  0.7420E-02  0.7420E-02  0.7420E-02  0.0000E+00  0.0000E+00  0.0000E+00  0.0000E+00  0.0000E+00
     -4.756  0.7245E-01  0.7374E-02  0.7374E-02  0.7374E-02  0.0000E+00  0.0000E+00  0.0000E+00  0.0000E+00  0.0000E+00
     -4.742  0.7212E-01  0.7359E-02  0.7359E-02  0.7359E-02  0.0000E+00  0.0000E+00  0.0000E+00  0.0000E+00  0.0000E+00
     -4.728  0.7186E-01  0.7348E-02  0.7348E-02  0.7348E-02  0.0000E+00  0.0000E+00  0.0000E+00  0.0000E+00  0.0000E+00
     -4.714  0.7160E-01  0.7337E-02  0.7337E-02  0.7337E-02  0.0000E+00  0.0000E+00  0.0000E+00  0.0000E+00  0.0000E+00
     -4.700  0.7134E-01  0.7327E-02  0.7327E-02  0.7327E-02  0.0000E+00  0.0000E+00  0.0000E+00  0.0000E+00  0.0000E+00
     -4.686  0.7109E-01  0.7317E-02  0.7317E-02  0.7317E-02  0.0000E+00  0.0000E+00  0.0000E+00  0.0000E+00  0.0000E+00
     -4.672  0.7085E-01  0.7307E-02  0.7307E-02  0.7307E-02  0.0000E+00  0.0000E+00  0.0000E+00  0.0000E+00  0.0000E+00
     -4.658  0.7061E-01  0.7298E-02  0.7298E-02  0.7298E-02  0.0000E+00  0.0000E+00  0.0000E+00  0.0000E+00  0.0000E+00
     -4.644  0.7037E-01  0.7288E-02  0.7288E-02  0.7288E-02  0.0000E+00  0.0000E+00  0.0000E+00  0.0000E+00  0.0000E+00
     -4.630  0.7014E-01  0.7280E-02  0.7280E-02  0.7280E-02  0.0000E+00  0.0000E+00  0.0000E+00  0.0000E+00  0.0000E+00
     -4.616  0.6991E-01  0.7271E-02  0.7271E-02  0.7271E-02  0.0000E+00  0.0000E+00  0.0000E+00  0.0000E+00  0.0000E+00
     -4.602  0.6968E-01  0.7263E-02  0.7263E-02  0.7263E-02  0.0000E+00  0.0000E+00  0.0000E+00  0.0000E+00  0.0000E+00
     -4.588  0.6946E-01  0.7255E-02  0.7255E-02  0.7255E-02  0.0000E+00  0.0000E+00  0.0000E+00  0.0000E+00  0.0000E+00
     -4.574  0.6925E-01  0.7248E-02  0.7248E-02  0.7248E-02  0.0000E+00  0.0000E+00  0.0000E+00  0.0000E+00  0.0000E+00
     -4.560  0.6904E-01  0.7241E-02  0.7241E-02  0.7241E-02  0.0000E+00  0.0000E+00  0.0000E+00  0.0000E+00  0.0000E+00
     -4.546  0.6883E-01  0.7234E-02  0.7234E-02  0.7234E-02  0.0000E+00  0.0000E+00  0.0000E+00  0.0000E+00  0.0000E+00
     -4.532  0.6863E-01  0.7228E-02  0.7228E-02  0.7228E-02  0.0000E+00  0.0000E+00  0.0000E+00  0.0000E+00  0.0000E+00
     -4.518  0.6843E-01  0.7221E-02  0.7221E-02  0.7221E-02  0.0000E+00  0.0000E+00  0.0000E+00  0.0000E+00  0.0000E+00
     -4.504  0.6823E-01  0.7215E-02  0.7215E-02  0.7215E-02  0.0000E+00  0.0000E+00  0.0000E+00  0.0000E+00  0.0000E+00
     -4.490  0.6804E-01  0.7210E-02  0.7210E-02  0.7210E-02  0.0000E+00  0.0000E+00  0.0000E+00  0.0000E+00  0.0000E+00
     -4.476  0.6790E-01  0.7212E-02  0.7212E-02  0.7212E-02  0.0000E+00  0.0000E+00  0.0000E+00  0.0000E+00  0.0000E+00
     -4.462  0.6785E-01  0.7225E-02  0.7225E-02  0.7225E-02  0.0000E+00  0.0000E+00  0.0000E+00  0.0000E+00  0.0000E+00
     -4.448  0.6779E-01  0.7238E-02  0.7238E-02  0.7238E-02  0.0000E+00  0.0000E+00  0.0000E+00  0.0000E+00  0.0000E+00
     -4.434  0.6774E-01  0.7252E-02  0.7252E-02  0.7252E-02  0.0000E+00  0.0000E+00  0.0000E+00  0.0000E+00  0.0000E+00
     -4.420  0.6768E-01  0.7264E-02  0.7264E-02  0.7264E-02  0.0000E+00  0.0000E+00  0.0000E+00  0.0000E+00  0.0000E+00
     -4.406  0.6762E-01  0.7277E-02  0.7277E-02  0.7277E-02  0.0000E+00  0.0000E+00  0.0000E+00  0.0000E+00  0.0000E+00
     -4.392  0.6757E-01  0.7289E-02  0.7289E-02  0.7289E-02  0.0000E+00  0.0000E+00  0.0000E+00  0.0000E+00  0.0000E+00
     -4.378  0.6752E-01  0.7301E-02  0.7301E-02  0.7301E-02  0.0000E+00  0.0000E+00  0.0000E+00  0.0000E+00  0.0000E+00
     -4.364  0.6746E-01  0.7313E-02  0.7313E-02  0.7313E-02  0.0000E+00  0.0000E+00  0.0000E+00  0.0000E+00  0.0000E+00
     -4.350  0.6741E-01  0.7324E-02  0.7324E-02  0.7324E-02  0.0000E+00  0.0000E+00  0.0000E+00  0.0000E+00  0.0000E+00
     -4.336  0.6736E-01  0.7336E-02  0.7336E-02  0.7336E-02  0.0000E+00  0.0000E+00  0.0000E+00  0.0000E+00  0.0000E+00
     -4.322  0.6730E-01  0.7347E-02  0.7347E-02  0.7347E-02  0.0000E+00  0.0000E+00  0.0000E+00  0.0000E+00  0.0000E+00
     -4.308  0.6725E-01  0.7358E-02  0.7358E-02  0.7358E-02  0.0000E+00  0.0000E+00  0.0000E+00  0.0000E+00  0.0000E+00
     -4.294  0.6720E-01  0.7368E-02  0.7368E-02  0.7368E-02  0.0000E+00  0.0000E+00  0.0000E+00  0.0000E+00  0.0000E+00
     -4.280  0.6715E-01  0.7378E-02  0.7378E-02  0.7378E-02  0.0000E+00  0.0000E+00  0.0000E+00  0.0000E+00  0.0000E+00
     -4.266  0.6710E-01  0.7388E-02  0.7388E-02  0.7388E-02  0.0000E+00  0.0000E+00  0.0000E+00  0.0000E+00  0.0000E+00
     -4.252  0.6705E-01  0.7398E-02  0.7398E-02  0.7398E-02  0.0000E+00  0.0000E+00  0.0000E+00  0.0000E+00  0.0000E+00
     -4.238  0.6700E-01  0.7408E-02  0.7408E-02  0.7408E-02  0.0000E+00  0.0000E+00  0.0000E+00  0.0000E+00  0.0000E+00
     -4.224  0.6695E-01  0.7417E-02  0.7417E-02  0.7417E-02  0.0000E+00  0.0000E+00  0.0000E+00  0.0000E+00  0.0000E+00
     -4.211  0.6690E-01  0.7426E-02  0.7426E-02  0.7426E-02  0.0000E+00  0.0000E+00  0.0000E+00  0.0000E+00  0.0000E+00
     -4.197  0.6685E-01  0.7435E-02  0.7435E-02  0.7435E-02  0.0000E+00  0.0000E+00  0.0000E+00  0.0000E+00  0.0000E+00
     -4.183  0.6680E-01  0.7443E-02  0.7443E-02  0.7443E-02  0.0000E+00  0.0000E+00  0.0000E+00  0.0000E+00  0.0000E+00
     -4.169  0.6676E-01  0.7452E-02  0.7452E-02  0.7452E-02  0.0000E+00  0.0000E+00  0.0000E+00  0.0000E+00  0.0000E+00
     -4.155  0.6671E-01  0.7460E-02  0.7460E-02  0.7460E-02  0.0000E+00  0.0000E+00  0.0000E+00  0.0000E+00  0.0000E+00
     -4.141  0.6666E-01  0.7468E-02  0.7468E-02  0.7468E-02  0.0000E+00  0.0000E+00  0.0000E+00  0.0000E+00  0.0000E+00
     -4.127  0.6662E-01  0.7475E-02  0.7475E-02  0.7475E-02  0.0000E+00  0.0000E+00  0.0000E+00  0.0000E+00  0.0000E+00
     -4.113  0.6657E-01  0.7482E-02  0.7482E-02  0.7482E-02  0.0000E+00  0.0000E+00  0.0000E+00  0.0000E+00  0.0000E+00
     -4.099  0.6659E-01  0.7499E-02  0.7499E-02  0.7499E-02  0.0000E+00  0.0000E+00  0.0000E+00  0.0000E+00  0.0000E+00
     -4.085  0.6658E-01  0.7511E-02  0.7511E-02  0.7511E-02  0.0000E+00  0.0000E+00  0.0000E+00  0.0000E+00  0.0000E+00
     -4.071  0.6653E-01  0.7520E-02  0.7520E-02  0.7520E-02  0.0000E+00  0.0000E+00  0.0000E+00  0.0000E+00  0.0000E+00
     -4.057  0.6644E-01  0.7525E-02  0.7525E-02  0.7525E-02  0.0000E+00  0.0000E+00  0.0000E+00  0.0000E+00  0.0000E+00
     -4.043  0.6630E-01  0.7527E-02  0.7527E-02  0.7527E-02  0.0000E+00  0.0000E+00  0.0000E+00  0.0000E+00  0.0000E+00
     -4.029  0.6613E-01  0.7524E-02  0.7524E-02  0.7524E-02  0.0000E+00  0.0000E+00  0.0000E+00  0.0000E+00  0.0000E+00
     -4.015  0.6592E-01  0.7517E-02  0.7517E-02  0.7517E-02  0.0000E+00  0.0000E+00  0.0000E+00  0.0000E+00  0.0000E+00
     -4.001  0.6566E-01  0.7507E-02  0.7507E-02  0.7507E-02  0.0000E+00  0.0000E+00  0.0000E+00  0.0000E+00  0.0000E+00
     -3.987  0.6537E-01  0.7493E-02  0.7493E-02  0.7493E-02  0.0000E+00  0.0000E+00  0.0000E+00  0.0000E+00  0.0000E+00
     -3.973  0.6570E-01  0.7559E-02  0.7559E-02  0.7559E-02  0.0000E+00  0.0000E+00  0.0000E+00  0.0000E+00  0.0000E+00
     -3.959  0.6643E-01  0.7677E-02  0.7677E-02  0.7677E-02  0.0000E+00  0.0000E+00  0.0000E+00  0.0000E+00  0.0000E+00
     -3.945  0.6705E-01  0.7781E-02  0.7781E-02  0.7781E-02  0.0000E+00  0.0000E+00  0.0000E+00  0.0000E+00  0.0000E+00
     -3.931  0.6758E-01  0.7874E-02  0.7874E-02  0.7874E-02  0.0000E+00  0.0000E+00  0.0000E+00  0.0000E+00  0.0000E+00
     -3.917  0.6800E-01  0.7954E-02  0.7954E-02  0.7954E-02  0.0000E+00  0.0000E+00  0.0000E+00  0.0000E+00  0.0000E+00
     -3.903  0.6833E-01  0.8022E-02  0.8022E-02  0.8022E-02  0.0000E+00  0.0000E+00  0.0000E+00  0.0000E+00  0.0000E+00
     -3.889  0.6855E-01  0.8077E-02  0.8077E-02  0.8077E-02  0.0000E+00  0.0000E+00  0.0000E+00  0.0000E+00  0.0000E+00
     -3.875  0.6868E-01  0.8119E-02  0.8119E-02  0.8119E-02  0.0000E+00  0.0000E+00  0.0000E+00  0.0000E+00  0.0000E+00
     -3.861  0.6870E-01  0.8150E-02  0.8150E-02  0.8150E-02  0.0000E+00  0.0000E+00  0.0000E+00  0.0000E+00  0.0000E+00
     -3.847  0.6863E-01  0.8168E-02  0.8168E-02  0.8168E-02  0.0000E+00  0.0000E+00  0.0000E+00  0.0000E+00  0.0000E+00
     -3.833  0.6845E-01  0.8173E-02  0.8173E-02  0.8173E-02  0.0000E+00  0.0000E+00  0.0000E+00  0.0000E+00  0.0000E+00
     -3.819  0.6818E-01  0.8166E-02  0.8166E-02  0.8166E-02  0.0000E+00  0.0000E+00  0.0000E+00  0.0000E+00  0.0000E+00
     -3.805  0.6780E-01  0.8147E-02  0.8147E-02  0.8147E-02  0.0000E+00  0.0000E+00  0.0000E+00  0.0000E+00  0.0000E+00
     -3.791  0.6733E-01  0.8115E-02  0.8115E-02  0.8115E-02  0.0000E+00  0.0000E+00  0.0000E+00  0.0000E+00  0.0000E+00
     -3.777  0.6675E-01  0.8071E-02  0.8071E-02  0.8071E-02  0.0000E+00  0.0000E+00  0.0000E+00  0.0000E+00  0.0000E+00
     -3.763  0.6608E-01  0.8014E-02  0.8014E-02  0.8014E-02  0.0000E+00  0.0000E+00  0.0000E+00  0.0000E+00  0.0000E+00
     -3.749  0.6530E-01  0.7945E-02  0.7945E-02  0.7945E-02  0.0000E+00  0.0000E+00  0.0000E+00  0.0000E+00  0.0000E+00
     -3.735  0.6443E-01  0.7863E-02  0.7863E-02  0.7863E-02  0.0000E+00  0.0000E+00  0.0000E+00  0.0000E+00  0.0000E+00
     -3.721  0.6345E-01  0.7769E-02  0.7769E-02  0.7769E-02  0.0000E+00  0.0000E+00  0.0000E+00  0.0000E+00  0.0000E+00
     -3.707  0.6238E-01  0.7663E-02  0.7663E-02  0.7663E-02  0.0000E+00  0.0000E+00  0.0000E+00  0.0000E+00  0.0000E+00
     -3.693  0.6120E-01  0.7544E-02  0.7544E-02  0.7544E-02  0.0000E+00  0.0000E+00  0.0000E+00  0.0000E+00  0.0000E+00
     -3.679  0.5998E-01  0.7420E-02  0.7420E-02  0.7420E-02  0.0000E+00  0.0000E+00  0.0000E+00  0.0000E+00  0.0000E+00
     -3.665  0.5879E-01  0.7296E-02  0.7296E-02  0.7296E-02  0.0000E+00  0.0000E+00  0.0000E+00  0.0000E+00  0.0000E+00
     -3.651  0.5762E-01  0.7176E-02  0.7176E-02  0.7176E-02  0.0000E+00  0.0000E+00  0.0000E+00  0.0000E+00  0.0000E+00
     -3.637  0.5647E-01  0.7060E-02  0.7060E-02  0.7060E-02  0.0000E+00  0.0000E+00  0.0000E+00  0.0000E+00  0.0000E+00
     -3.623  0.5535E-01  0.6950E-02  0.6950E-02  0.6950E-02  0.0000E+00  0.0000E+00  0.0000E+00  0.0000E+00  0.0000E+00
     -3.610  0.5427E-01  0.6846E-02  0.6846E-02  0.6846E-02  0.0000E+00  0.0000E+00  0.0000E+00  0.0000E+00  0.0000E+00
     -3.596  0.5321E-01  0.6747E-02  0.6747E-02  0.6747E-02  0.0000E+00  0.0000E+00  0.0000E+00  0.0000E+00  0.0000E+00
     -3.582  0.5217E-01  0.6653E-02  0.6653E-02  0.6653E-02  0.0000E+00  0.0000E+00  0.0000E+00  0.0000E+00  0.0000E+00
     -3.568  0.5117E-01  0.6565E-02  0.6565E-02  0.6565E-02  0.0000E+00  0.0000E+00  0.0000E+00  0.0000E+00  0.0000E+00
     -3.554  0.5020E-01  0.6482E-02  0.6482E-02  0.6482E-02  0.0000E+00  0.0000E+00  0.0000E+00  0.0000E+00  0.0000E+00
     -3.540  0.4925E-01  0.6405E-02  0.6405E-02  0.6405E-02  0.0000E+00  0.0000E+00  0.0000E+00  0.0000E+00  0.0000E+00
     -3.526  0.4833E-01  0.6333E-02  0.6333E-02  0.6333E-02  0.0000E+00  0.0000E+00  0.0000E+00  0.0000E+00  0.0000E+00
     -3.512  0.4744E-01  0.6266E-02  0.6266E-02  0.6266E-02  0.0000E+00  0.0000E+00  0.0000E+00  0.0000E+00  0.0000E+00
     -3.498  0.4657E-01  0.6205E-02  0.6205E-02  0.6205E-02  0.0000E+00  0.0000E+00  0.0000E+00  0.0000E+00  0.0000E+00
     -3.484  0.4562E-01  0.6130E-02  0.6130E-02  0.6130E-02  0.0000E+00  0.0000E+00  0.0000E+00  0.0000E+00  0.0000E+00
     -3.470  0.4467E-01  0.6060E-02  0.6060E-02  0.6060E-02  0.0000E+00  0.0000E+00  0.0000E+00  0.0000E+00  0.0000E+00
     -3.456  0.4374E-01  0.5994E-02  0.5994E-02  0.5994E-02  0.0000E+00  0.0000E+00  0.0000E+00  0.0000E+00  0.0000E+00
     -3.442  0.4282E-01  0.5932E-02  0.5932E-02  0.5932E-02  0.0000E+00  0.0000E+00  0.0000E+00  0.0000E+00  0.0000E+00
     -3.428  0.4191E-01  0.5874E-02  0.5874E-02  0.5874E-02  0.0000E+00  0.0000E+00  0.0000E+00  0.0000E+00  0.0000E+00
     -3.414  0.4102E-01  0.5821E-02  0.5821E-02  0.5821E-02  0.0000E+00  0.0000E+00  0.0000E+00  0.0000E+00  0.0000E+00
     -3.400  0.4014E-01  0.5772E-02  0.5772E-02  0.5772E-02  0.0000E+00  0.0000E+00  0.0000E+00  0.0000E+00  0.0000E+00
     -3.386  0.3927E-01  0.5727E-02  0.5727E-02  0.5727E-02  0.0000E+00  0.0000E+00  0.0000E+00  0.0000E+00  0.0000E+00
     -3.372  0.3841E-01  0.5686E-02  0.5686E-02  0.5686E-02  0.0000E+00  0.0000E+00  0.0000E+00  0.0000E+00  0.0000E+00
     -3.358  0.3757E-01  0.5650E-02  0.5650E-02  0.5650E-02  0.0000E+00  0.0000E+00  0.0000E+00  0.0000E+00  0.0000E+00
     -3.344  0.3674E-01  0.5618E-02  0.5618E-02  0.5618E-02  0.0000E+00  0.0000E+00  0.0000E+00  0.0000E+00  0.0000E+00
     -3.330  0.3592E-01  0.5590E-02  0.5590E-02  0.5590E-02  0.0000E+00  0.0000E+00  0.0000E+00  0.0000E+00  0.0000E+00
     -3.316  0.3512E-01  0.5566E-02  0.5566E-02  0.5566E-02  0.0000E+00  0.0000E+00  0.0000E+00  0.0000E+00  0.0000E+00
     -3.302  0.3433E-01  0.5547E-02  0.5547E-02  0.5547E-02  0.0000E+00  0.0000E+00  0.0000E+00  0.0000E+00  0.0000E+00
     -3.288  0.3355E-01  0.5532E-02  0.5532E-02  0.5532E-02  0.0000E+00  0.0000E+00  0.0000E+00  0.0000E+00  0.0000E+00
     -3.274  0.3278E-01  0.5521E-02  0.5521E-02  0.5521E-02  0.0000E+00  0.0000E+00  0.0000E+00  0.0000E+00  0.0000E+00
     -3.260  0.3203E-01  0.5514E-02  0.5514E-02  0.5514E-02  0.0000E+00  0.0000E+00  0.0000E+00  0.0000E+00  0.0000E+00
     -3.246  0.3129E-01  0.5512E-02  0.5512E-02  0.5512E-02  0.0000E+00  0.0000E+00  0.0000E+00  0.0000E+00  0.0000E+00
     -3.232  0.3056E-01  0.5514E-02  0.5514E-02  0.5514E-02  0.0000E+00  0.0000E+00  0.0000E+00  0.0000E+00  0.0000E+00
     -3.218  0.2984E-01  0.5520E-02  0.5520E-02  0.5520E-02  0.0000E+00  0.0000E+00  0.0000E+00  0.0000E+00  0.0000E+00
     -3.204  0.2914E-01  0.5530E-02  0.5530E-02  0.5530E-02  0.0000E+00  0.0000E+00  0.0000E+00  0.0000E+00  0.0000E+00
     -3.190  0.2845E-01  0.5545E-02  0.5545E-02  0.5545E-02  0.0000E+00  0.0000E+00  0.0000E+00  0.0000E+00  0.0000E+00
     -3.176  0.2778E-01  0.5564E-02  0.5564E-02  0.5564E-02  0.0000E+00  0.0000E+00  0.0000E+00  0.0000E+00  0.0000E+00
     -3.162  0.2711E-01  0.5587E-02  0.5587E-02  0.5587E-02  0.0000E+00  0.0000E+00  0.0000E+00  0.0000E+00  0.0000E+00
     -3.148  0.2646E-01  0.5614E-02  0.5614E-02  0.5614E-02  0.0000E+00  0.0000E+00  0.0000E+00  0.0000E+00  0.0000E+00
     -3.134  0.2582E-01  0.5646E-02  0.5646E-02  0.5646E-02  0.0000E+00  0.0000E+00  0.0000E+00  0.0000E+00  0.0000E+00
     -3.120  0.2540E-01  0.5808E-02  0.5808E-02  0.5808E-02  0.0000E+00  0.0000E+00  0.0000E+00  0.0000E+00  0.0000E+00
     -3.106  0.2589E-01  0.6531E-02  0.6531E-02  0.6531E-02  0.0000E+00  0.0000E+00  0.0000E+00  0.0000E+00  0.0000E+00
     -3.092  0.2625E-01  0.7167E-02  0.7167E-02  0.7167E-02  0.0000E+00  0.0000E+00  0.0000E+00  0.0000E+00  0.0000E+00
     -3.078  0.2648E-01  0.7717E-02  0.7717E-02  0.7717E-02  0.0000E+00  0.0000E+00  0.0000E+00  0.0000E+00  0.0000E+00
     -3.064  0.2659E-01  0.8180E-02  0.8180E-02  0.8180E-02  0.0000E+00  0.0000E+00  0.0000E+00  0.0000E+00  0.0000E+00
     -3.050  0.2657E-01  0.8560E-02  0.8560E-02  0.8560E-02  0.0000E+00  0.0000E+00  0.0000E+00  0.0000E+00  0.0000E+00
     -3.036  0.2644E-01  0.8855E-02  0.8855E-02  0.8855E-02  0.0000E+00  0.0000E+00  0.0000E+00  0.0000E+00  0.0000E+00
     -3.022  0.2620E-01  0.9067E-02  0.9067E-02  0.9067E-02  0.0000E+00  0.0000E+00  0.0000E+00  0.0000E+00  0.0000E+00
     -3.009  0.2586E-01  0.9198E-02  0.9198E-02  0.9198E-02  0.0000E+00  0.0000E+00  0.0000E+00  0.0000E+00  0.0000E+00
     -2.995  0.2547E-01  0.9271E-02  0.9271E-02  0.9271E-02  0.0000E+00  0.0000E+00  0.0000E+00  0.0000E+00  0.0000E+00
     -2.981  0.2510E-01  0.9344E-02  0.9344E-02  0.9344E-02  0.0000E+00  0.0000E+00  0.0000E+00  0.0000E+00  0.0000E+00
     -2.967  0.2477E-01  0.9419E-02  0.9419E-02  0.9419E-02  0.0000E+00  0.0000E+00  0.0000E+00  0.0000E+00  0.0000E+00
     -2.953  0.2447E-01  0.9496E-02  0.9496E-02  0.9496E-02  0.0000E+00  0.0000E+00  0.0000E+00  0.0000E+00  0.0000E+00
     -2.939  0.2421E-01  0.9575E-02  0.9575E-02  0.9575E-02  0.0000E+00  0.0000E+00  0.0000E+00  0.0000E+00  0.0000E+00
     -2.925  0.2398E-01  0.9656E-02  0.9656E-02  0.9656E-02  0.0000E+00  0.0000E+00  0.0000E+00  0.0000E+00  0.0000E+00
     -2.911  0.2379E-01  0.9739E-02  0.9739E-02  0.9739E-02  0.0000E+00  0.0000E+00  0.0000E+00  0.0000E+00  0.0000E+00
     -2.897  0.2363E-01  0.9824E-02  0.9824E-02  0.9824E-02  0.0000E+00  0.0000E+00  0.0000E+00  0.0000E+00  0.0000E+00
     -2.883  0.2351E-01  0.9911E-02  0.9911E-02  0.9911E-02  0.0000E+00  0.0000E+00  0.0000E+00  0.0000E+00  0.0000E+00
     -2.869  0.2342E-01  0.1000E-01  0.1000E-01  0.1000E-01  0.0000E+00  0.0000E+00  0.0000E+00  0.0000E+00  0.0000E+00
     -2.855  0.2337E-01  0.1009E-01  0.1009E-01  0.1009E-01  0.0000E+00  0.0000E+00  0.0000E+00  0.0000E+00  0.0000E+00
     -2.841  0.2334E-01  0.1018E-01  0.1018E-01  0.1018E-01  0.0000E+00  0.0000E+00  0.0000E+00  0.0000E+00  0.0000E+00
     -2.827  0.2333E-01  0.1027E-01  0.1027E-01  0.1027E-01  0.0000E+00  0.0000E+00  0.0000E+00  0.0000E+00  0.0000E+00
     -2.813  0.2333E-01  0.1036E-01  0.1036E-01  0.1036E-01  0.0000E+00  0.0000E+00  0.0000E+00  0.0000E+00  0.0000E+00
     -2.799  0.2333E-01  0.1045E-01  0.1045E-01  0.1045E-01  0.0000E+00  0.0000E+00  0.0000E+00  0.0000E+00  0.0000E+00
     -2.785  0.2336E-01  0.1054E-01  0.1054E-01  0.1054E-01  0.0000E+00  0.0000E+00  0.0000E+00  0.0000E+00  0.0000E+00
     -2.771  0.2339E-01  0.1063E-01  0.1063E-01  0.1063E-01  0.0000E+00  0.0000E+00  0.0000E+00  0.0000E+00  0.0000E+00
     -2.757  0.2344E-01  0.1071E-01  0.1071E-01  0.1071E-01  0.0000E+00  0.0000E+00  0.0000E+00  0.0000E+00  0.0000E+00
     -2.743  0.2349E-01  0.1080E-01  0.1080E-01  0.1080E-01  0.0000E+00  0.0000E+00  0.0000E+00  0.0000E+00  0.0000E+00
     -2.729  0.2356E-01  0.1088E-01  0.1088E-01  0.1088E-01  0.0000E+00  0.0000E+00  0.0000E+00  0.0000E+00  0.0000E+00
     -2.715  0.2365E-01  0.1097E-01  0.1097E-01  0.1097E-01  0.0000E+00  0.0000E+00  0.0000E+00  0.0000E+00  0.0000E+00
     -2.701  0.2374E-01  0.1105E-01  0.1105E-01  0.1105E-01  0.0000E+00  0.0000E+00  0.0000E+00  0.0000E+00  0.0000E+00
     -2.687  0.2385E-01  0.1113E-01  0.1113E-01  0.1113E-01  0.0000E+00  0.0000E+00  0.0000E+00  0.0000E+00  0.0000E+00
     -2.673  0.2397E-01  0.1121E-01  0.1121E-01  0.1121E-01  0.0000E+00  0.0000E+00  0.0000E+00  0.0000E+00  0.0000E+00
     -2.659  0.2410E-01  0.1130E-01  0.1130E-01  0.1130E-01  0.0000E+00  0.0000E+00  0.0000E+00  0.0000E+00  0.0000E+00
     -2.645  0.2424E-01  0.1137E-01  0.1137E-01  0.1137E-01  0.0000E+00  0.0000E+00  0.0000E+00  0.0000E+00  0.0000E+00
     -2.631  0.2440E-01  0.1145E-01  0.1145E-01  0.1145E-01  0.0000E+00  0.0000E+00  0.0000E+00  0.0000E+00  0.0000E+00
     -2.617  0.2457E-01  0.1153E-01  0.1153E-01  0.1153E-01  0.0000E+00  0.0000E+00  0.0000E+00  0.0000E+00  0.0000E+00
     -2.603  0.2475E-01  0.1161E-01  0.1161E-01  0.1161E-01  0.0000E+00  0.0000E+00  0.0000E+00  0.0000E+00  0.0000E+00
     -2.589  0.2494E-01  0.1168E-01  0.1168E-01  0.1168E-01  0.0000E+00  0.0000E+00  0.0000E+00  0.0000E+00  0.0000E+00
     -2.575  0.2514E-01  0.1176E-01  0.1176E-01  0.1176E-01  0.0000E+00  0.0000E+00  0.0000E+00  0.0000E+00  0.0000E+00
     -2.561  0.2536E-01  0.1183E-01  0.1183E-01  0.1183E-01  0.0000E+00  0.0000E+00  0.0000E+00  0.0000E+00  0.0000E+00
     -2.547  0.2559E-01  0.1191E-01  0.1191E-01  0.1191E-01  0.0000E+00  0.0000E+00  0.0000E+00  0.0000E+00  0.0000E+00
     -2.533  0.2583E-01  0.1198E-01  0.1198E-01  0.1198E-01  0.0000E+00  0.0000E+00  0.0000E+00  0.0000E+00  0.0000E+00
     -2.519  0.2608E-01  0.1205E-01  0.1205E-01  0.1205E-01  0.0000E+00  0.0000E+00  0.0000E+00  0.0000E+00  0.0000E+00
     -2.505  0.2635E-01  0.1212E-01  0.1212E-01  0.1212E-01  0.0000E+00  0.0000E+00  0.0000E+00  0.0000E+00  0.0000E+00
     -2.491  0.2663E-01  0.1219E-01  0.1219E-01  0.1219E-01  0.0000E+00  0.0000E+00  0.0000E+00  0.0000E+00  0.0000E+00
     -2.477  0.2692E-01  0.1226E-01  0.1226E-01  0.1226E-01  0.0000E+00  0.0000E+00  0.0000E+00  0.0000E+00  0.0000E+00
     -2.463  0.2726E-01  0.1235E-01  0.1235E-01  0.1235E-01  0.0000E+00  0.0000E+00  0.0000E+00  0.0000E+00  0.0000E+00
     -2.449  0.2766E-01  0.1247E-01  0.1247E-01  0.1247E-01  0.0000E+00  0.0000E+00  0.0000E+00  0.0000E+00  0.0000E+00
     -2.435  0.2813E-01  0.1262E-01  0.1262E-01  0.1262E-01  0.0000E+00  0.0000E+00  0.0000E+00  0.0000E+00  0.0000E+00
     -2.421  0.2866E-01  0.1280E-01  0.1280E-01  0.1280E-01  0.0000E+00  0.0000E+00  0.0000E+00  0.0000E+00  0.0000E+00
     -2.408  0.2927E-01  0.1301E-01  0.1301E-01  0.1301E-01  0.0000E+00  0.0000E+00  0.0000E+00  0.0000E+00  0.0000E+00
     -2.394  0.2995E-01  0.1326E-01  0.1326E-01  0.1326E-01  0.0000E+00  0.0000E+00  0.0000E+00  0.0000E+00  0.0000E+00
     -2.380  0.3107E-01  0.1359E-01  0.1359E-01  0.1359E-01  0.0000E+00  0.0000E+00  0.0000E+00  0.0000E+00  0.0000E+00
     -2.366  0.3222E-01  0.1393E-01  0.1393E-01  0.1393E-01  0.0000E+00  0.0000E+00  0.0000E+00  0.0000E+00  0.0000E+00
     -2.352  0.3340E-01  0.1429E-01  0.1429E-01  0.1429E-01  0.0000E+00  0.0000E+00  0.0000E+00  0.0000E+00  0.0000E+00
     -2.338  0.3462E-01  0.1466E-01  0.1466E-01  0.1466E-01  0.0000E+00  0.0000E+00  0.0000E+00  0.0000E+00  0.0000E+00
     -2.324  0.3587E-01  0.1504E-01  0.1504E-01  0.1504E-01  0.0000E+00  0.0000E+00  0.0000E+00  0.0000E+00  0.0000E+00
     -2.310  0.3715E-01  0.1543E-01  0.1543E-01  0.1543E-01  0.0000E+00  0.0000E+00  0.0000E+00  0.0000E+00  0.0000E+00
     -2.296  0.3847E-01  0.1584E-01  0.1584E-01  0.1584E-01  0.0000E+00  0.0000E+00  0.0000E+00  0.0000E+00  0.0000E+00
     -2.282  0.3982E-01  0.1626E-01  0.1626E-01  0.1626E-01  0.0000E+00  0.0000E+00  0.0000E+00  0.0000E+00  0.0000E+00
     -2.268  0.4120E-01  0.1669E-01  0.1669E-01  0.1669E-01  0.0000E+00  0.0000E+00  0.0000E+00  0.0000E+00  0.0000E+00
     -2.254  0.4262E-01  0.1713E-01  0.1713E-01  0.1713E-01  0.0000E+00  0.0000E+00  0.0000E+00  0.0000E+00  0.0000E+00
     -2.240  0.4407E-01  0.1759E-01  0.1759E-01  0.1759E-01  0.0000E+00  0.0000E+00  0.0000E+00  0.0000E+00  0.0000E+00
     -2.226  0.4555E-01  0.1805E-01  0.1805E-01  0.1805E-01  0.0000E+00  0.0000E+00  0.0000E+00  0.0000E+00  0.0000E+00
     -2.212  0.4706E-01  0.1853E-01  0.1853E-01  0.1853E-01  0.0000E+00  0.0000E+00  0.0000E+00  0.0000E+00  0.0000E+00
     -2.198  0.4861E-01  0.1902E-01  0.1902E-01  0.1902E-01  0.0000E+00  0.0000E+00  0.0000E+00  0.0000E+00  0.0000E+00
     -2.184  0.5019E-01  0.1953E-01  0.1953E-01  0.1953E-01  0.0000E+00  0.0000E+00  0.0000E+00  0.0000E+00  0.0000E+00
     -2.170  0.5181E-01  0.2004E-01  0.2004E-01  0.2004E-01  0.0000E+00  0.0000E+00  0.0000E+00  0.0000E+00  0.0000E+00
     -2.156  0.5345E-01  0.2057E-01  0.2057E-01  0.2057E-01  0.0000E+00  0.0000E+00  0.0000E+00  0.0000E+00  0.0000E+00
     -2.142  0.5513E-01  0.2111E-01  0.2111E-01  0.2111E-01  0.0000E+00  0.0000E+00  0.0000E+00  0.0000E+00  0.0000E+00
     -2.128  0.5685E-01  0.2166E-01  0.2166E-01  0.2166E-01  0.0000E+00  0.0000E+00  0.0000E+00  0.0000E+00  0.0000E+00
     -2.114  0.5859E-01  0.2223E-01  0.2223E-01  0.2223E-01  0.0000E+00  0.0000E+00  0.0000E+00  0.0000E+00  0.0000E+00
     -2.100  0.6037E-01  0.2280E-01  0.2280E-01  0.2280E-01  0.0000E+00  0.0000E+00  0.0000E+00  0.0000E+00  0.0000E+00
     -2.086  0.6218E-01  0.2339E-01  0.2339E-01  0.2339E-01  0.0000E+00  0.0000E+00  0.0000E+00  0.0000E+00  0.0000E+00
     -2.072  0.6403E-01  0.2399E-01  0.2399E-01  0.2399E-01  0.0000E+00  0.0000E+00  0.0000E+00  0.0000E+00  0.0000E+00
     -2.058  0.6591E-01  0.2460E-01  0.2460E-01  0.2460E-01  0.0000E+00  0.0000E+00  0.0000E+00  0.0000E+00  0.0000E+00
     -2.044  0.6782E-01  0.2523E-01  0.2523E-01  0.2523E-01  0.0000E+00  0.0000E+00  0.0000E+00  0.0000E+00  0.0000E+00
     -2.030  0.6976E-01  0.2587E-01  0.2587E-01  0.2587E-01  0.0000E+00  0.0000E+00  0.0000E+00  0.0000E+00  0.0000E+00
     -2.016  0.7174E-01  0.2652E-01  0.2652E-01  0.2652E-01  0.0000E+00  0.0000E+00  0.0000E+00  0.0000E+00  0.0000E+00
     -2.002  0.7375E-01  0.2718E-01  0.2718E-01  0.2718E-01  0.0000E+00  0.0000E+00  0.0000E+00  0.0000E+00  0.0000E+00
     -1.988  0.7580E-01  0.2785E-01  0.2785E-01  0.2785E-01  0.0000E+00  0.0000E+00  0.0000E+00  0.0000E+00  0.0000E+00
     -1.974  0.7787E-01  0.2854E-01  0.2854E-01  0.2854E-01  0.0000E+00  0.0000E+00  0.0000E+00  0.0000E+00  0.0000E+00
     -1.960  0.8032E-01  0.2912E-01  0.2912E-01  0.2912E-01  0.0000E+00  0.0000E+00  0.0000E+00  0.0000E+00  0.0000E+00
     -1.946  0.8272E-01  0.2966E-01  0.2966E-01  0.2966E-01  0.0000E+00  0.0000E+00  0.0000E+00  0.0000E+00  0.0000E+00
     -1.932  0.8515E-01  0.3023E-01  0.3023E-01  0.3023E-01  0.0000E+00  0.0000E+00  0.0000E+00  0.0000E+00  0.0000E+00
     -1.918  0.8760E-01  0.3083E-01  0.3083E-01  0.3083E-01  0.0000E+00  0.0000E+00  0.0000E+00  0.0000E+00  0.0000E+00
     -1.904  0.9009E-01  0.3145E-01  0.3145E-01  0.3145E-01  0.0000E+00  0.0000E+00  0.0000E+00  0.0000E+00  0.0000E+00
     -1.890  0.9261E-01  0.3211E-01  0.3211E-01  0.3211E-01  0.0000E+00  0.0000E+00  0.0000E+00  0.0000E+00  0.0000E+00
     -1.876  0.9516E-01  0.3279E-01  0.3279E-01  0.3279E-01  0.0000E+00  0.0000E+00  0.0000E+00  0.0000E+00  0.0000E+00
     -1.862  0.9774E-01  0.3350E-01  0.3350E-01  0.3350E-01  0.0000E+00  0.0000E+00  0.0000E+00  0.0000E+00  0.0000E+00
     -1.848  0.1004E+00  0.3424E-01  0.3424E-01  0.3424E-01  0.0000E+00  0.0000E+00  0.0000E+00  0.0000E+00  0.0000E+00
     -1.834  0.1030E+00  0.3501E-01  0.3501E-01  0.3501E-01  0.0000E+00  0.0000E+00  0.0000E+00  0.0000E+00  0.0000E+00
     -1.820  0.1056E+00  0.3578E-01  0.3578E-01  0.3578E-01  0.0000E+00  0.0000E+00  0.0000E+00  0.0000E+00  0.0000E+00
     -1.807  0.1082E+00  0.3653E-01  0.3653E-01  0.3653E-01  0.0000E+00  0.0000E+00  0.0000E+00  0.0000E+00  0.0000E+00
     -1.793  0.1107E+00  0.3725E-01  0.3725E-01  0.3725E-01  0.0000E+00  0.0000E+00  0.0000E+00  0.0000E+00  0.0000E+00
     -1.779  0.1131E+00  0.3795E-01  0.3795E-01  0.3795E-01  0.0000E+00  0.0000E+00  0.0000E+00  0.0000E+00  0.0000E+00
     -1.765  0.1155E+00  0.3862E-01  0.3862E-01  0.3862E-01  0.0000E+00  0.0000E+00  0.0000E+00  0.0000E+00  0.0000E+00
     -1.751  0.1178E+00  0.3927E-01  0.3927E-01  0.3927E-01  0.0000E+00  0.0000E+00  0.0000E+00  0.0000E+00  0.0000E+00
     -1.737  0.1201E+00  0.3989E-01  0.3989E-01  0.3989E-01  0.0000E+00  0.0000E+00  0.0000E+00  0.0000E+00  0.0000E+00
     -1.723  0.1223E+00  0.4048E-01  0.4048E-01  0.4048E-01  0.0000E+00  0.0000E+00  0.0000E+00  0.0000E+00  0.0000E+00
     -1.709  0.1244E+00  0.4105E-01  0.4105E-01  0.4105E-01  0.0000E+00  0.0000E+00  0.0000E+00  0.0000E+00  0.0000E+00
     -1.695  0.1265E+00  0.4159E-01  0.4159E-01  0.4159E-01  0.0000E+00  0.0000E+00  0.0000E+00  0.0000E+00  0.0000E+00
     -1.681  0.1283E+00  0.4208E-01  0.4208E-01  0.4208E-01  0.0000E+00  0.0000E+00  0.0000E+00  0.0000E+00  0.0000E+00
     -1.667  0.1294E+00  0.4237E-01  0.4237E-01  0.4237E-01  0.0000E+00  0.0000E+00  0.0000E+00  0.0000E+00  0.0000E+00
     -1.653  0.1299E+00  0.4249E-01  0.4249E-01  0.4249E-01  0.0000E+00  0.0000E+00  0.0000E+00  0.0000E+00  0.0000E+00
     -1.639  0.1298E+00  0.4244E-01  0.4244E-01  0.4244E-01  0.0000E+00  0.0000E+00  0.0000E+00  0.0000E+00  0.0000E+00
     -1.625  0.1291E+00  0.4222E-01  0.4222E-01  0.4222E-01  0.0000E+00  0.0000E+00  0.0000E+00  0.0000E+00  0.0000E+00
     -1.611  0.1279E+00  0.4184E-01  0.4184E-01  0.4184E-01  0.0000E+00  0.0000E+00  0.0000E+00  0.0000E+00  0.0000E+00
     -1.597  0.1261E+00  0.4128E-01  0.4128E-01  0.4128E-01  0.0000E+00  0.0000E+00  0.0000E+00  0.0000E+00  0.0000E+00
     -1.583  0.1238E+00  0.4055E-01  0.4055E-01  0.4055E-01  0.0000E+00  0.0000E+00  0.0000E+00  0.0000E+00  0.0000E+00
     -1.569  0.1208E+00  0.3966E-01  0.3966E-01  0.3966E-01  0.0000E+00  0.0000E+00  0.0000E+00  0.0000E+00  0.0000E+00
     -1.555  0.1173E+00  0.3859E-01  0.3859E-01  0.3859E-01  0.0000E+00  0.0000E+00  0.0000E+00  0.0000E+00  0.0000E+00
     -1.541  0.1135E+00  0.3744E-01  0.3744E-01  0.3744E-01  0.0000E+00  0.0000E+00  0.0000E+00  0.0000E+00  0.0000E+00
     -1.527  0.1098E+00  0.3632E-01  0.3632E-01  0.3632E-01  0.0000E+00  0.0000E+00  0.0000E+00  0.0000E+00  0.0000E+00
     -1.513  0.1062E+00  0.3526E-01  0.3526E-01  0.3526E-01  0.0000E+00  0.0000E+00  0.0000E+00  0.0000E+00  0.0000E+00
     -1.499  0.1027E+00  0.3424E-01  0.3424E-01  0.3424E-01  0.0000E+00  0.0000E+00  0.0000E+00  0.0000E+00  0.0000E+00
     -1.485  0.9928E-01  0.3327E-01  0.3327E-01  0.3327E-01  0.0000E+00  0.0000E+00  0.0000E+00  0.0000E+00  0.0000E+00
     -1.471  0.9600E-01  0.3234E-01  0.3234E-01  0.3234E-01  0.0000E+00  0.0000E+00  0.0000E+00  0.0000E+00  0.0000E+00
     -1.457  0.9282E-01  0.3146E-01  0.3146E-01  0.3146E-01  0.0000E+00  0.0000E+00  0.0000E+00  0.0000E+00  0.0000E+00
     -1.443  0.8976E-01  0.3063E-01  0.3063E-01  0.3063E-01  0.0000E+00  0.0000E+00  0.0000E+00  0.0000E+00  0.0000E+00
     -1.429  0.8680E-01  0.2985E-01  0.2985E-01  0.2985E-01  0.0000E+00  0.0000E+00  0.0000E+00  0.0000E+00  0.0000E+00
     -1.415  0.8395E-01  0.2911E-01  0.2911E-01  0.2911E-01  0.0000E+00  0.0000E+00  0.0000E+00  0.0000E+00  0.0000E+00
     -1.401  0.8122E-01  0.2842E-01  0.2842E-01  0.2842E-01  0.0000E+00  0.0000E+00  0.0000E+00  0.0000E+00  0.0000E+00
     -1.387  0.7860E-01  0.2777E-01  0.2777E-01  0.2777E-01  0.0000E+00  0.0000E+00  0.0000E+00  0.0000E+00  0.0000E+00
     -1.373  0.7794E-01  0.2755E-01  0.2755E-01  0.2755E-01  0.0000E+00  0.0000E+00  0.0000E+00  0.0000E+00  0.0000E+00
     -1.359  0.7732E-01  0.2736E-01  0.2736E-01  0.2736E-01  0.0000E+00  0.0000E+00  0.0000E+00  0.0000E+00  0.0000E+00
     -1.345  0.7676E-01  0.2718E-01  0.2718E-01  0.2718E-01  0.0000E+00  0.0000E+00  0.0000E+00  0.0000E+00  0.0000E+00
     -1.331  0.7625E-01  0.2703E-01  0.2703E-01  0.2703E-01  0.0000E+00  0.0000E+00  0.0000E+00  0.0000E+00  0.0000E+00
     -1.317  0.7578E-01  0.2689E-01  0.2689E-01  0.2689E-01  0.0000E+00  0.0000E+00  0.0000E+00  0.0000E+00  0.0000E+00
     -1.303  0.7537E-01  0.2677E-01  0.2677E-01  0.2677E-01  0.0000E+00  0.0000E+00  0.0000E+00  0.0000E+00  0.0000E+00
     -1.289  0.7500E-01  0.2668E-01  0.2668E-01  0.2668E-01  0.0000E+00  0.0000E+00  0.0000E+00  0.0000E+00  0.0000E+00
     -1.275  0.7469E-01  0.2660E-01  0.2660E-01  0.2660E-01  0.0000E+00  0.0000E+00  0.0000E+00  0.0000E+00  0.0000E+00
     -1.261  0.7442E-01  0.2655E-01  0.2655E-01  0.2655E-01  0.0000E+00  0.0000E+00  0.0000E+00  0.0000E+00  0.0000E+00
     -1.247  0.7359E-01  0.2631E-01  0.2631E-01  0.2631E-01  0.0000E+00  0.0000E+00  0.0000E+00  0.0000E+00  0.0000E+00
     -1.233  0.7259E-01  0.2600E-01  0.2600E-01  0.2600E-01  0.0000E+00  0.0000E+00  0.0000E+00  0.0000E+00  0.0000E+00
     -1.219  0.7160E-01  0.2571E-01  0.2571E-01  0.2571E-01  0.0000E+00  0.0000E+00  0.0000E+00  0.0000E+00  0.0000E+00
     -1.206  0.7064E-01  0.2542E-01  0.2542E-01  0.2542E-01  0.0000E+00  0.0000E+00  0.0000E+00  0.0000E+00  0.0000E+00
     -1.192  0.6969E-01  0.2514E-01  0.2514E-01  0.2514E-01  0.0000E+00  0.0000E+00  0.0000E+00  0.0000E+00  0.0000E+00
     -1.178  0.6877E-01  0.2487E-01  0.2487E-01  0.2487E-01  0.0000E+00  0.0000E+00  0.0000E+00  0.0000E+00  0.0000E+00
     -1.164  0.6786E-01  0.2461E-01  0.2461E-01  0.2461E-01  0.0000E+00  0.0000E+00  0.0000E+00  0.0000E+00  0.0000E+00
     -1.150  0.6698E-01  0.2435E-01  0.2435E-01  0.2435E-01  0.0000E+00  0.0000E+00  0.0000E+00  0.0000E+00  0.0000E+00
     -1.136  0.6611E-01  0.2410E-01  0.2410E-01  0.2410E-01  0.0000E+00  0.0000E+00  0.0000E+00  0.0000E+00  0.0000E+00
     -1.122  0.6526E-01  0.2385E-01  0.2385E-01  0.2385E-01  0.0000E+00  0.0000E+00  0.0000E+00  0.0000E+00  0.0000E+00
     -1.108  0.6443E-01  0.2361E-01  0.2361E-01  0.2361E-01  0.0000E+00  0.0000E+00  0.0000E+00  0.0000E+00  0.0000E+00
     -1.094  0.6361E-01  0.2338E-01  0.2338E-01  0.2338E-01  0.0000E+00  0.0000E+00  0.0000E+00  0.0000E+00  0.0000E+00
     -1.080  0.6281E-01  0.2315E-01  0.2315E-01  0.2315E-01  0.0000E+00  0.0000E+00  0.0000E+00  0.0000E+00  0.0000E+00
     -1.066  0.6203E-01  0.2292E-01  0.2292E-01  0.2292E-01  0.0000E+00  0.0000E+00  0.0000E+00  0.0000E+00  0.0000E+00
     -1.052  0.6126E-01  0.2270E-01  0.2270E-01  0.2270E-01  0.0000E+00  0.0000E+00  0.0000E+00  0.0000E+00  0.0000E+00
     -1.038  0.6050E-01  0.2248E-01  0.2248E-01  0.2248E-01  0.0000E+00  0.0000E+00  0.0000E+00  0.0000E+00  0.0000E+00
     -1.024  0.5976E-01  0.2227E-01  0.2227E-01  0.2227E-01  0.0000E+00  0.0000E+00  0.0000E+00  0.0000E+00  0.0000E+00
     -1.010  0.5904E-01  0.2207E-01  0.2207E-01  0.2207E-01  0.0000E+00  0.0000E+00  0.0000E+00  0.0000E+00  0.0000E+00
     -0.996  0.5833E-01  0.2186E-01  0.2186E-01  0.2186E-01  0.0000E+00  0.0000E+00  0.0000E+00  0.0000E+00  0.0000E+00
     -0.982  0.5764E-01  0.2166E-01  0.2166E-01  0.2166E-01  0.0000E+00  0.0000E+00  0.0000E+00  0.0000E+00  0.0000E+00
     -0.968  0.5697E-01  0.2147E-01  0.2147E-01  0.2147E-01  0.0000E+00  0.0000E+00  0.0000E+00  0.0000E+00  0.0000E+00
     -0.954  0.5631E-01  0.2128E-01  0.2128E-01  0.2128E-01  0.0000E+00  0.0000E+00  0.0000E+00  0.0000E+00  0.0000E+00
     -0.940  0.5566E-01  0.2110E-01  0.2110E-01  0.2110E-01  0.0000E+00  0.0000E+00  0.0000E+00  0.0000E+00  0.0000E+00
     -0.926  0.5503E-01  0.2092E-01  0.2092E-01  0.2092E-01  0.0000E+00  0.0000E+00  0.0000E+00  0.0000E+00  0.0000E+00
     -0.912  0.5442E-01  0.2074E-01  0.2074E-01  0.2074E-01  0.0000E+00  0.0000E+00  0.0000E+00  0.0000E+00  0.0000E+00
     -0.898  0.5382E-01  0.2057E-01  0.2057E-01  0.2057E-01  0.0000E+00  0.0000E+00  0.0000E+00  0.0000E+00  0.0000E+00
     -0.884  0.5324E-01  0.2041E-01  0.2041E-01  0.2041E-01  0.0000E+00  0.0000E+00  0.0000E+00  0.0000E+00  0.0000E+00
     -0.870  0.5268E-01  0.2024E-01  0.2024E-01  0.2024E-01  0.0000E+00  0.0000E+00  0.0000E+00  0.0000E+00  0.0000E+00
     -0.856  0.5213E-01  0.2009E-01  0.2009E-01  0.2009E-01  0.0000E+00  0.0000E+00  0.0000E+00  0.0000E+00  0.0000E+00
     -0.842  0.5159E-01  0.1993E-01  0.1993E-01  0.1993E-01  0.0000E+00  0.0000E+00  0.0000E+00  0.0000E+00  0.0000E+00
     -0.828  0.5107E-01  0.1979E-01  0.1979E-01  0.1979E-01  0.0000E+00  0.0000E+00  0.0000E+00  0.0000E+00  0.0000E+00
     -0.814  0.5057E-01  0.1964E-01  0.1964E-01  0.1964E-01  0.0000E+00  0.0000E+00  0.0000E+00  0.0000E+00  0.0000E+00
     -0.800  0.5008E-01  0.1951E-01  0.1951E-01  0.1951E-01  0.0000E+00  0.0000E+00  0.0000E+00  0.0000E+00  0.0000E+00
     -0.786  0.4961E-01  0.1937E-01  0.1937E-01  0.1937E-01  0.0000E+00  0.0000E+00  0.0000E+00  0.0000E+00  0.0000E+00
     -0.772  0.4916E-01  0.1924E-01  0.1924E-01  0.1924E-01  0.0000E+00  0.0000E+00  0.0000E+00  0.0000E+00  0.0000E+00
     -0.758  0.4872E-01  0.1912E-01  0.1912E-01  0.1912E-01  0.0000E+00  0.0000E+00  0.0000E+00  0.0000E+00  0.0000E+00
     -0.744  0.4829E-01  0.1900E-01  0.1900E-01  0.1900E-01  0.0000E+00  0.0000E+00  0.0000E+00  0.0000E+00  0.0000E+00
     -0.730  0.4788E-01  0.1888E-01  0.1888E-01  0.1888E-01  0.0000E+00  0.0000E+00  0.0000E+00  0.0000E+00  0.0000E+00
     -0.716  0.4749E-01  0.1877E-01  0.1877E-01  0.1877E-01  0.0000E+00  0.0000E+00  0.0000E+00  0.0000E+00  0.0000E+00
     -0.702  0.4711E-01  0.1867E-01  0.1867E-01  0.1867E-01  0.0000E+00  0.0000E+00  0.0000E+00  0.0000E+00  0.0000E+00
     -0.688  0.4675E-01  0.1856E-01  0.1856E-01  0.1856E-01  0.0000E+00  0.0000E+00  0.0000E+00  0.0000E+00  0.0000E+00
     -0.674  0.4640E-01  0.1847E-01  0.1847E-01  0.1847E-01  0.0000E+00  0.0000E+00  0.0000E+00  0.0000E+00  0.0000E+00
     -0.660  0.4607E-01  0.1837E-01  0.1837E-01  0.1837E-01  0.0000E+00  0.0000E+00  0.0000E+00  0.0000E+00  0.0000E+00
     -0.646  0.4576E-01  0.1829E-01  0.1829E-01  0.1829E-01  0.0000E+00  0.0000E+00  0.0000E+00  0.0000E+00  0.0000E+00
     -0.632  0.4546E-01  0.1820E-01  0.1820E-01  0.1820E-01  0.0000E+00  0.0000E+00  0.0000E+00  0.0000E+00  0.0000E+00
     -0.618  0.4517E-01  0.1813E-01  0.1813E-01  0.1813E-01  0.0000E+00  0.0000E+00  0.0000E+00  0.0000E+00  0.0000E+00
     -0.605  0.4491E-01  0.1805E-01  0.1805E-01  0.1805E-01  0.0000E+00  0.0000E+00  0.0000E+00  0.0000E+00  0.0000E+00
     -0.591  0.4465E-01  0.1798E-01  0.1798E-01  0.1798E-01  0.0000E+00  0.0000E+00  0.0000E+00  0.0000E+00  0.0000E+00
     -0.577  0.4442E-01  0.1792E-01  0.1792E-01  0.1792E-01  0.0000E+00  0.0000E+00  0.0000E+00  0.0000E+00  0.0000E+00
     -0.563  0.4420E-01  0.1786E-01  0.1786E-01  0.1786E-01  0.0000E+00  0.0000E+00  0.0000E+00  0.0000E+00  0.0000E+00
     -0.549  0.4399E-01  0.1780E-01  0.1780E-01  0.1780E-01  0.0000E+00  0.0000E+00  0.0000E+00  0.0000E+00  0.0000E+00
     -0.535  0.4380E-01  0.1775E-01  0.1775E-01  0.1775E-01  0.0000E+00  0.0000E+00  0.0000E+00  0.0000E+00  0.0000E+00
     -0.521  0.4362E-01  0.1770E-01  0.1770E-01  0.1770E-01  0.0000E+00  0.0000E+00  0.0000E+00  0.0000E+00  0.0000E+00
     -0.507  0.4345E-01  0.1766E-01  0.1766E-01  0.1766E-01  0.0000E+00  0.0000E+00  0.0000E+00  0.0000E+00  0.0000E+00
     -0.493  0.4330E-01  0.1762E-01  0.1762E-01  0.1762E-01  0.0000E+00  0.0000E+00  0.0000E+00  0.0000E+00  0.0000E+00
     -0.479  0.4316E-01  0.1758E-01  0.1758E-01  0.1758E-01  0.0000E+00  0.0000E+00  0.0000E+00  0.0000E+00  0.0000E+00
     -0.465  0.4302E-01  0.1755E-01  0.1755E-01  0.1755E-01  0.0000E+00  0.0000E+00  0.0000E+00  0.0000E+00  0.0000E+00
     -0.451  0.4289E-01  0.1751E-01  0.1751E-01  0.1751E-01  0.0000E+00  0.0000E+00  0.0000E+00  0.0000E+00  0.0000E+00
     -0.437  0.4275E-01  0.1748E-01  0.1748E-01  0.1748E-01  0.0000E+00  0.0000E+00  0.0000E+00  0.0000E+00  0.0000E+00
     -0.423  0.4263E-01  0.1745E-01  0.1745E-01  0.1745E-01  0.0000E+00  0.0000E+00  0.0000E+00  0.0000E+00  0.0000E+00
     -0.409  0.4250E-01  0.1742E-01  0.1742E-01  0.1742E-01  0.0000E+00  0.0000E+00  0.0000E+00  0.0000E+00  0.0000E+00
     -0.395  0.4237E-01  0.1739E-01  0.1739E-01  0.1739E-01  0.0000E+00  0.0000E+00  0.0000E+00  0.0000E+00  0.0000E+00
     -0.381  0.4225E-01  0.1737E-01  0.1737E-01  0.1737E-01  0.0000E+00  0.0000E+00  0.0000E+00  0.0000E+00  0.0000E+00
     -0.367  0.4213E-01  0.1734E-01  0.1734E-01  0.1734E-01  0.0000E+00  0.0000E+00  0.0000E+00  0.0000E+00  0.0000E+00
     -0.353  0.4202E-01  0.1732E-01  0.1732E-01  0.1732E-01  0.0000E+00  0.0000E+00  0.0000E+00  0.0000E+00  0.0000E+00
     -0.339  0.4190E-01  0.1730E-01  0.1730E-01  0.1730E-01  0.0000E+00  0.0000E+00  0.0000E+00  0.0000E+00  0.0000E+00
     -0.325  0.4179E-01  0.1728E-01  0.1728E-01  0.1728E-01  0.0000E+00  0.0000E+00  0.0000E+00  0.0000E+00  0.0000E+00
     -0.311  0.4168E-01  0.1726E-01  0.1726E-01  0.1726E-01  0.0000E+00  0.0000E+00  0.0000E+00  0.0000E+00  0.0000E+00
     -0.297  0.4157E-01  0.1725E-01  0.1725E-01  0.1725E-01  0.0000E+00  0.0000E+00  0.0000E+00  0.0000E+00  0.0000E+00
     -0.283  0.4147E-01  0.1723E-01  0.1723E-01  0.1723E-01  0.0000E+00  0.0000E+00  0.0000E+00  0.0000E+00  0.0000E+00
     -0.269  0.4137E-01  0.1722E-01  0.1722E-01  0.1722E-01  0.0000E+00  0.0000E+00  0.0000E+00  0.0000E+00  0.0000E+00
     -0.255  0.4127E-01  0.1720E-01  0.1720E-01  0.1720E-01  0.0000E+00  0.0000E+00  0.0000E+00  0.0000E+00  0.0000E+00
     -0.241  0.4117E-01  0.1719E-01  0.1719E-01  0.1719E-01  0.0000E+00  0.0000E+00  0.0000E+00  0.0000E+00  0.0000E+00
     -0.227  0.4107E-01  0.1718E-01  0.1718E-01  0.1718E-01  0.0000E+00  0.0000E+00  0.0000E+00  0.0000E+00  0.0000E+00
     -0.213  0.4098E-01  0.1718E-01  0.1718E-01  0.1718E-01  0.0000E+00  0.0000E+00  0.0000E+00  0.0000E+00  0.0000E+00
     -0.199  0.4089E-01  0.1717E-01  0.1717E-01  0.1717E-01  0.0000E+00  0.0000E+00  0.0000E+00  0.0000E+00  0.0000E+00
     -0.185  0.4080E-01  0.1716E-01  0.1716E-01  0.1716E-01  0.0000E+00  0.0000E+00  0.0000E+00  0.0000E+00  0.0000E+00
     -0.171  0.4072E-01  0.1716E-01  0.1716E-01  0.1716E-01  0.0000E+00  0.0000E+00  0.0000E+00  0.0000E+00  0.0000E+00
     -0.157  0.4063E-01  0.1716E-01  0.1716E-01  0.1716E-01  0.0000E+00  0.0000E+00  0.0000E+00  0.0000E+00  0.0000E+00
     -0.143  0.4055E-01  0.1716E-01  0.1716E-01  0.1716E-01  0.0000E+00  0.0000E+00  0.0000E+00  0.0000E+00  0.0000E+00
     -0.129  0.4047E-01  0.1716E-01  0.1716E-01  0.1716E-01  0.0000E+00  0.0000E+00  0.0000E+00  0.0000E+00  0.0000E+00
     -0.115  0.4040E-01  0.1716E-01  0.1716E-01  0.1716E-01  0.0000E+00  0.0000E+00  0.0000E+00  0.0000E+00  0.0000E+00
     -0.101  0.4033E-01  0.1717E-01  0.1717E-01  0.1717E-01  0.0000E+00  0.0000E+00  0.0000E+00  0.0000E+00  0.0000E+00
     -0.087  0.4025E-01  0.1717E-01  0.1717E-01  0.1717E-01  0.0000E+00  0.0000E+00  0.0000E+00  0.0000E+00  0.0000E+00
     -0.073  0.4019E-01  0.1718E-01  0.1718E-01  0.1718E-01  0.0000E+00  0.0000E+00  0.0000E+00  0.0000E+00  0.0000E+00
     -0.059  0.4012E-01  0.1719E-01  0.1719E-01  0.1719E-01  0.0000E+00  0.0000E+00  0.0000E+00  0.0000E+00  0.0000E+00
     -0.045  0.4006E-01  0.1720E-01  0.1720E-01  0.1720E-01  0.0000E+00  0.0000E+00  0.0000E+00  0.0000E+00  0.0000E+00
     -0.031  0.4000E-01  0.1721E-01  0.1721E-01  0.1721E-01  0.0000E+00  0.0000E+00  0.0000E+00  0.0000E+00  0.0000E+00
     -0.017  0.3994E-01  0.1722E-01  0.1722E-01  0.1722E-01  0.0000E+00  0.0000E+00  0.0000E+00  0.0000E+00  0.0000E+00
     -0.004  0.3988E-01  0.1724E-01  0.1724E-01  0.1724E-01  0.0000E+00  0.0000E+00  0.0000E+00  0.0000E+00  0.0000E+00
      0.010  0.3978E-01  0.1724E-01  0.1724E-01  0.1724E-01  0.0000E+00  0.0000E+00  0.0000E+00  0.0000E+00  0.0000E+00
      0.024  0.3957E-01  0.1718E-01  0.1718E-01  0.1718E-01  0.0000E+00  0.0000E+00  0.0000E+00  0.0000E+00  0.0000E+00
      0.038  0.3936E-01  0.1713E-01  0.1713E-01  0.1713E-01  0.0000E+00  0.0000E+00  0.0000E+00  0.0000E+00  0.0000E+00
      0.052  0.3915E-01  0.1707E-01  0.1707E-01  0.1707E-01  0.0000E+00  0.0000E+00  0.0000E+00  0.0000E+00  0.0000E+00
      0.066  0.3894E-01  0.1702E-01  0.1702E-01  0.1702E-01  0.0000E+00  0.0000E+00  0.0000E+00  0.0000E+00  0.0000E+00
      0.080  0.3873E-01  0.1697E-01  0.1697E-01  0.1697E-01  0.0000E+00  0.0000E+00  0.0000E+00  0.0000E+00  0.0000E+00
      0.094  0.3853E-01  0.1692E-01  0.1692E-01  0.1692E-01  0.0000E+00  0.0000E+00  0.0000E+00  0.0000E+00  0.0000E+00
      0.108  0.3833E-01  0.1687E-01  0.1687E-01  0.1687E-01  0.0000E+00  0.0000E+00  0.0000E+00  0.0000E+00  0.0000E+00
      0.122  0.3813E-01  0.1682E-01  0.1682E-01  0.1682E-01  0.0000E+00  0.0000E+00  0.0000E+00  0.0000E+00  0.0000E+00
      0.136  0.3793E-01  0.1678E-01  0.1678E-01  0.1678E-01  0.0000E+00  0.0000E+00  0.0000E+00  0.0000E+00  0.0000E+00
      0.150  0.3773E-01  0.1673E-01  0.1673E-01  0.1673E-01  0.0000E+00  0.0000E+00  0.0000E+00  0.0000E+00  0.0000E+00
      0.164  0.3746E-01  0.1666E-01  0.1666E-01  0.1666E-01  0.0000E+00  0.0000E+00  0.0000E+00  0.0000E+00  0.0000E+00
      0.178  0.3712E-01  0.1657E-01  0.1657E-01  0.1657E-01  0.0000E+00  0.0000E+00  0.0000E+00  0.0000E+00  0.0000E+00
      0.192  0.3669E-01  0.1644E-01  0.1644E-01  0.1644E-01  0.0000E+00  0.0000E+00  0.0000E+00  0.0000E+00  0.0000E+00
      0.206  0.3618E-01  0.1629E-01  0.1629E-01  0.1629E-01  0.0000E+00  0.0000E+00  0.0000E+00  0.0000E+00  0.0000E+00
      0.220  0.3559E-01  0.1612E-01  0.1612E-01  0.1612E-01  0.0000E+00  0.0000E+00  0.0000E+00  0.0000E+00  0.0000E+00
      0.234  0.3492E-01  0.1592E-01  0.1592E-01  0.1592E-01  0.0000E+00  0.0000E+00  0.0000E+00  0.0000E+00  0.0000E+00
      0.248  0.3417E-01  0.1569E-01  0.1569E-01  0.1569E-01  0.0000E+00  0.0000E+00  0.0000E+00  0.0000E+00  0.0000E+00
      0.262  0.3335E-01  0.1543E-01  0.1543E-01  0.1543E-01  0.0000E+00  0.0000E+00  0.0000E+00  0.0000E+00  0.0000E+00
      0.276  0.3263E-01  0.1521E-01  0.1521E-01  0.1521E-01  0.0000E+00  0.0000E+00  0.0000E+00  0.0000E+00  0.0000E+00
      0.290  0.3238E-01  0.1512E-01  0.1512E-01  0.1512E-01  0.0000E+00  0.0000E+00  0.0000E+00  0.0000E+00  0.0000E+00
      0.304  0.3212E-01  0.1504E-01  0.1504E-01  0.1504E-01  0.0000E+00  0.0000E+00  0.0000E+00  0.0000E+00  0.0000E+00
      0.318  0.3187E-01  0.1496E-01  0.1496E-01  0.1496E-01  0.0000E+00  0.0000E+00  0.0000E+00  0.0000E+00  0.0000E+00
      0.332  0.3163E-01  0.1488E-01  0.1488E-01  0.1488E-01  0.0000E+00  0.0000E+00  0.0000E+00  0.0000E+00  0.0000E+00
      0.346  0.3139E-01  0.1480E-01  0.1480E-01  0.1480E-01  0.0000E+00  0.0000E+00  0.0000E+00  0.0000E+00  0.0000E+00
      0.360  0.3115E-01  0.1473E-01  0.1473E-01  0.1473E-01  0.0000E+00  0.0000E+00  0.0000E+00  0.0000E+00  0.0000E+00
      0.374  0.3091E-01  0.1465E-01  0.1465E-01  0.1465E-01  0.0000E+00  0.0000E+00  0.0000E+00  0.0000E+00  0.0000E+00
      0.388  0.3068E-01  0.1458E-01  0.1458E-01  0.1458E-01  0.0000E+00  0.0000E+00  0.0000E+00  0.0000E+00  0.0000E+00
      0.402  0.3046E-01  0.1452E-01  0.1452E-01  0.1452E-01  0.0000E+00  0.0000E+00  0.0000E+00  0.0000E+00  0.0000E+00
      0.416  0.3025E-01  0.1450E-01  0.1450E-01  0.1450E-01  0.0000E+00  0.0000E+00  0.0000E+00  0.0000E+00  0.0000E+00
      0.430  0.3006E-01  0.1451E-01  0.1451E-01  0.1451E-01  0.0000E+00  0.0000E+00  0.0000E+00  0.0000E+00  0.0000E+00
      0.444  0.2988E-01  0.1455E-01  0.1455E-01  0.1455E-01  0.0000E+00  0.0000E+00  0.0000E+00  0.0000E+00  0.0000E+00
      0.458  0.2971E-01  0.1463E-01  0.1463E-01  0.1463E-01  0.0000E+00  0.0000E+00  0.0000E+00  0.0000E+00  0.0000E+00
      0.472  0.2956E-01  0.1473E-01  0.1473E-01  0.1473E-01  0.0000E+00  0.0000E+00  0.0000E+00  0.0000E+00  0.0000E+00
      0.486  0.2942E-01  0.1488E-01  0.1488E-01  0.1488E-01  0.0000E+00  0.0000E+00  0.0000E+00  0.0000E+00  0.0000E+00
      0.500  0.2930E-01  0.1505E-01  0.1505E-01  0.1505E-01  0.0000E+00  0.0000E+00  0.0000E+00  0.0000E+00  0.0000E+00
      0.514  0.2919E-01  0.1526E-01  0.1526E-01  0.1526E-01  0.0000E+00  0.0000E+00  0.0000E+00  0.0000E+00  0.0000E+00
      0.528  0.2910E-01  0.1550E-01  0.1550E-01  0.1550E-01  0.0000E+00  0.0000E+00  0.0000E+00  0.0000E+00  0.0000E+00
      0.542  0.2901E-01  0.1577E-01  0.1577E-01  0.1577E-01  0.0000E+00  0.0000E+00  0.0000E+00  0.0000E+00  0.0000E+00
      0.556  0.2895E-01  0.1608E-01  0.1608E-01  0.1608E-01  0.0000E+00  0.0000E+00  0.0000E+00  0.0000E+00  0.0000E+00
      0.570  0.2889E-01  0.1641E-01  0.1641E-01  0.1641E-01  0.0000E+00  0.0000E+00  0.0000E+00  0.0000E+00  0.0000E+00
      0.584  0.2885E-01  0.1679E-01  0.1679E-01  0.1679E-01  0.0000E+00  0.0000E+00  0.0000E+00  0.0000E+00  0.0000E+00
      0.597  0.2882E-01  0.1719E-01  0.1719E-01  0.1719E-01  0.0000E+00  0.0000E+00  0.0000E+00  0.0000E+00  0.0000E+00
      0.611  0.2881E-01  0.1763E-01  0.1763E-01  0.1763E-01  0.0000E+00  0.0000E+00  0.0000E+00  0.0000E+00  0.0000E+00
      0.625  0.2881E-01  0.1810E-01  0.1810E-01  0.1810E-01  0.0000E+00  0.0000E+00  0.0000E+00  0.0000E+00  0.0000E+00
      0.639  0.2883E-01  0.1860E-01  0.1860E-01  0.1860E-01  0.0000E+00  0.0000E+00  0.0000E+00  0.0000E+00  0.0000E+00
      0.653  0.2886E-01  0.1914E-01  0.1914E-01  0.1914E-01  0.0000E+00  0.0000E+00  0.0000E+00  0.0000E+00  0.0000E+00
      0.667  0.2890E-01  0.1971E-01  0.1971E-01  0.1971E-01  0.0000E+00  0.0000E+00  0.0000E+00  0.0000E+00  0.0000E+00
      0.681  0.2896E-01  0.2031E-01  0.2031E-01  0.2031E-01  0.0000E+00  0.0000E+00  0.0000E+00  0.0000E+00  0.0000E+00
      0.695  0.2903E-01  0.2094E-01  0.2094E-01  0.2094E-01  0.0000E+00  0.0000E+00  0.0000E+00  0.0000E+00  0.0000E+00
      0.709  0.2911E-01  0.2161E-01  0.2161E-01  0.2161E-01  0.0000E+00  0.0000E+00  0.0000E+00  0.0000E+00  0.0000E+00
      0.723  0.2921E-01  0.2231E-01  0.2231E-01  0.2231E-01  0.0000E+00  0.0000E+00  0.0000E+00  0.0000E+00  0.0000E+00
      0.737  0.2933E-01  0.2304E-01  0.2304E-01  0.2304E-01  0.0000E+00  0.0000E+00  0.0000E+00  0.0000E+00  0.0000E+00
      0.751  0.2945E-01  0.2381E-01  0.2381E-01  0.2381E-01  0.0000E+00  0.0000E+00  0.0000E+00  0.0000E+00  0.0000E+00
      0.765  0.2959E-01  0.2461E-01  0.2461E-01  0.2461E-01  0.0000E+00  0.0000E+00  0.0000E+00  0.0000E+00  0.0000E+00
      0.779  0.2975E-01  0.2544E-01  0.2544E-01  0.2544E-01  0.0000E+00  0.0000E+00  0.0000E+00  0.0000E+00  0.0000E+00
      0.793  0.2992E-01  0.2630E-01  0.2630E-01  0.2630E-01  0.0000E+00  0.0000E+00  0.0000E+00  0.0000E+00  0.0000E+00
      0.807  0.3010E-01  0.2720E-01  0.2720E-01  0.2720E-01  0.0000E+00  0.0000E+00  0.0000E+00  0.0000E+00  0.0000E+00
      0.821  0.3029E-01  0.2813E-01  0.2813E-01  0.2813E-01  0.0000E+00  0.0000E+00  0.0000E+00  0.0000E+00  0.0000E+00
      0.835  0.3050E-01  0.2909E-01  0.2909E-01  0.2909E-01  0.0000E+00  0.0000E+00  0.0000E+00  0.0000E+00  0.0000E+00
      0.849  0.3071E-01  0.3005E-01  0.3005E-01  0.3005E-01  0.0000E+00  0.0000E+00  0.0000E+00  0.0000E+00  0.0000E+00
      0.863  0.3090E-01  0.3097E-01  0.3097E-01  0.3097E-01  0.0000E+00  0.0000E+00  0.0000E+00  0.0000E+00  0.0000E+00
      0.877  0.3109E-01  0.3187E-01  0.3187E-01  0.3187E-01  0.0000E+00  0.0000E+00  0.0000E+00  0.0000E+00  0.0000E+00
      0.891  0.3126E-01  0.3274E-01  0.3274E-01  0.3274E-01  0.0000E+00  0.0000E+00  0.0000E+00  0.0000E+00  0.0000E+00
      0.905  0.3141E-01  0.3358E-01  0.3358E-01  0.3358E-01  0.0000E+00  0.0000E+00  0.0000E+00  0.0000E+00  0.0000E+00
      0.919  0.3156E-01  0.3439E-01  0.3439E-01  0.3439E-01  0.0000E+00  0.0000E+00  0.0000E+00  0.0000E+00  0.0000E+00
      0.933  0.3168E-01  0.3514E-01  0.3514E-01  0.3514E-01  0.0000E+00  0.0000E+00  0.0000E+00  0.0000E+00  0.0000E+00
      0.947  0.3174E-01  0.3569E-01  0.3569E-01  0.3569E-01  0.0000E+00  0.0000E+00  0.0000E+00  0.0000E+00  0.0000E+00
      0.961  0.3174E-01  0.3601E-01  0.3601E-01  0.3601E-01  0.0000E+00  0.0000E+00  0.0000E+00  0.0000E+00  0.0000E+00
      0.975  0.3167E-01  0.3612E-01  0.3612E-01  0.3612E-01  0.0000E+00  0.0000E+00  0.0000E+00  0.0000E+00  0.0000E+00
      0.989  0.3153E-01  0.3601E-01  0.3601E-01  0.3601E-01  0.0000E+00  0.0000E+00  0.0000E+00  0.0000E+00  0.0000E+00
      1.003  0.3133E-01  0.3568E-01  0.3568E-01  0.3568E-01  0.0000E+00  0.0000E+00  0.0000E+00  0.0000E+00  0.0000E+00
      1.017  0.3105E-01  0.3512E-01  0.3512E-01  0.3512E-01  0.0000E+00  0.0000E+00  0.0000E+00  0.0000E+00  0.0000E+00
      1.031  0.3092E-01  0.3495E-01  0.3495E-01  0.3495E-01  0.0000E+00  0.0000E+00  0.0000E+00  0.0000E+00  0.0000E+00
      1.045  0.3106E-01  0.3551E-01  0.3551E-01  0.3551E-01  0.0000E+00  0.0000E+00  0.0000E+00  0.0000E+00  0.0000E+00
      1.059  0.3120E-01  0.3609E-01  0.3609E-01  0.3609E-01  0.0000E+00  0.0000E+00  0.0000E+00  0.0000E+00  0.0000E+00
      1.073  0.3137E-01  0.3681E-01  0.3681E-01  0.3681E-01  0.0000E+00  0.0000E+00  0.0000E+00  0.0000E+00  0.0000E+00
      1.087  0.3154E-01  0.3753E-01  0.3753E-01  0.3753E-01  0.0000E+00  0.0000E+00  0.0000E+00  0.0000E+00  0.0000E+00
      1.101  0.3171E-01  0.3825E-01  0.3825E-01  0.3825E-01  0.0000E+00  0.0000E+00  0.0000E+00  0.0000E+00  0.0000E+00
      1.115  0.3188E-01  0.3896E-01  0.3896E-01  0.3896E-01  0.0000E+00  0.0000E+00  0.0000E+00  0.0000E+00  0.0000E+00
      1.129  0.3205E-01  0.3968E-01  0.3968E-01  0.3968E-01  0.0000E+00  0.0000E+00  0.0000E+00  0.0000E+00  0.0000E+00
      1.143  0.3223E-01  0.4039E-01  0.4039E-01  0.4039E-01  0.0000E+00  0.0000E+00  0.0000E+00  0.0000E+00  0.0000E+00
      1.157  0.3240E-01  0.4110E-01  0.4110E-01  0.4110E-01  0.0000E+00  0.0000E+00  0.0000E+00  0.0000E+00  0.0000E+00
      1.171  0.3258E-01  0.4181E-01  0.4181E-01  0.4181E-01  0.0000E+00  0.0000E+00  0.0000E+00  0.0000E+00  0.0000E+00
      1.185  0.3276E-01  0.4252E-01  0.4252E-01  0.4252E-01  0.0000E+00  0.0000E+00  0.0000E+00  0.0000E+00  0.0000E+00
      1.199  0.3294E-01  0.4322E-01  0.4322E-01  0.4322E-01  0.0000E+00  0.0000E+00  0.0000E+00  0.0000E+00  0.0000E+00
      1.212  0.3312E-01  0.4392E-01  0.4392E-01  0.4392E-01  0.0000E+00  0.0000E+00  0.0000E+00  0.0000E+00  0.0000E+00
      1.226  0.3330E-01  0.4462E-01  0.4462E-01  0.4462E-01  0.0000E+00  0.0000E+00  0.0000E+00  0.0000E+00  0.0000E+00
      1.240  0.3348E-01  0.4532E-01  0.4532E-01  0.4532E-01  0.0000E+00  0.0000E+00  0.0000E+00  0.0000E+00  0.0000E+00
      1.254  0.3366E-01  0.4602E-01  0.4602E-01  0.4602E-01  0.0000E+00  0.0000E+00  0.0000E+00  0.0000E+00  0.0000E+00
      1.268  0.3385E-01  0.4671E-01  0.4671E-01  0.4671E-01  0.0000E+00  0.0000E+00  0.0000E+00  0.0000E+00  0.0000E+00
      1.282  0.3403E-01  0.4740E-01  0.4740E-01  0.4740E-01  0.0000E+00  0.0000E+00  0.0000E+00  0.0000E+00  0.0000E+00
      1.296  0.3422E-01  0.4809E-01  0.4809E-01  0.4809E-01  0.0000E+00  0.0000E+00  0.0000E+00  0.0000E+00  0.0000E+00
      1.310  0.3440E-01  0.4878E-01  0.4878E-01  0.4878E-01  0.0000E+00  0.0000E+00  0.0000E+00  0.0000E+00  0.0000E+00
      1.324  0.3459E-01  0.4947E-01  0.4947E-01  0.4947E-01  0.0000E+00  0.0000E+00  0.0000E+00  0.0000E+00  0.0000E+00
      1.338  0.3478E-01  0.5015E-01  0.5015E-01  0.5015E-01  0.0000E+00  0.0000E+00  0.0000E+00  0.0000E+00  0.0000E+00
      1.352  0.3497E-01  0.5084E-01  0.5084E-01  0.5084E-01  0.0000E+00  0.0000E+00  0.0000E+00  0.0000E+00  0.0000E+00
      1.366  0.3647E-01  0.6062E-01  0.6062E-01  0.6062E-01  0.0000E+00  0.0000E+00  0.0000E+00  0.0000E+00  0.0000E+00
      1.380  0.3625E-01  0.5977E-01  0.5977E-01  0.5977E-01  0.0000E+00  0.0000E+00  0.0000E+00  0.0000E+00  0.0000E+00
      1.394  0.3578E-01  0.5743E-01  0.5743E-01  0.5743E-01  0.0000E+00  0.0000E+00  0.0000E+00  0.0000E+00  0.0000E+00
      1.408  0.3536E-01  0.5527E-01  0.5527E-01  0.5527E-01  0.0000E+00  0.0000E+00  0.0000E+00  0.0000E+00  0.0000E+00
      1.422  0.3497E-01  0.5327E-01  0.5327E-01  0.5327E-01  0.0000E+00  0.0000E+00  0.0000E+00  0.0000E+00  0.0000E+00
      1.436  0.3461E-01  0.5145E-01  0.5145E-01  0.5145E-01  0.0000E+00  0.0000E+00  0.0000E+00  0.0000E+00  0.0000E+00
      1.450  0.3429E-01  0.4979E-01  0.4979E-01  0.4979E-01  0.0000E+00  0.0000E+00  0.0000E+00  0.0000E+00  0.0000E+00
      1.464  0.3400E-01  0.4830E-01  0.4830E-01  0.4830E-01  0.0000E+00  0.0000E+00  0.0000E+00  0.0000E+00  0.0000E+00
      1.478  0.3375E-01  0.4698E-01  0.4698E-01  0.4698E-01  0.0000E+00  0.0000E+00  0.0000E+00  0.0000E+00  0.0000E+00
      1.492  0.3353E-01  0.4583E-01  0.4583E-01  0.4583E-01  0.0000E+00  0.0000E+00  0.0000E+00  0.0000E+00  0.0000E+00
      1.506  0.3335E-01  0.4484E-01  0.4484E-01  0.4484E-01  0.0000E+00  0.0000E+00  0.0000E+00  0.0000E+00  0.0000E+00
      1.520  0.3320E-01  0.4403E-01  0.4403E-01  0.4403E-01  0.0000E+00  0.0000E+00  0.0000E+00  0.0000E+00  0.0000E+00
      1.534  0.3309E-01  0.4338E-01  0.4338E-01  0.4338E-01  0.0000E+00  0.0000E+00  0.0000E+00  0.0000E+00  0.0000E+00
      1.548  0.3301E-01  0.4291E-01  0.4291E-01  0.4291E-01  0.0000E+00  0.0000E+00  0.0000E+00  0.0000E+00  0.0000E+00
      1.562  0.3296E-01  0.4260E-01  0.4260E-01  0.4260E-01  0.0000E+00  0.0000E+00  0.0000E+00  0.0000E+00  0.0000E+00
      1.576  0.3297E-01  0.4254E-01  0.4254E-01  0.4254E-01  0.0000E+00  0.0000E+00  0.0000E+00  0.0000E+00  0.0000E+00
      1.590  0.3302E-01  0.4271E-01  0.4271E-01  0.4271E-01  0.0000E+00  0.0000E+00  0.0000E+00  0.0000E+00  0.0000E+00
      1.604  0.3307E-01  0.4288E-01  0.4288E-01  0.4288E-01  0.0000E+00  0.0000E+00  0.0000E+00  0.0000E+00  0.0000E+00
      1.618  0.3312E-01  0.4306E-01  0.4306E-01  0.4306E-01  0.0000E+00  0.0000E+00  0.0000E+00  0.0000E+00  0.0000E+00
      1.632  0.3318E-01  0.4324E-01  0.4324E-01  0.4324E-01  0.0000E+00  0.0000E+00  0.0000E+00  0.0000E+00  0.0000E+00
      1.646  0.3323E-01  0.4342E-01  0.4342E-01  0.4342E-01  0.0000E+00  0.0000E+00  0.0000E+00  0.0000E+00  0.0000E+00
      1.660  0.3329E-01  0.4362E-01  0.4362E-01  0.4362E-01  0.0000E+00  0.0000E+00  0.0000E+00  0.0000E+00  0.0000E+00
      1.674  0.3335E-01  0.4382E-01  0.4382E-01  0.4382E-01  0.0000E+00  0.0000E+00  0.0000E+00  0.0000E+00  0.0000E+00
      1.688  0.3341E-01  0.4402E-01  0.4402E-01  0.4402E-01  0.0000E+00  0.0000E+00  0.0000E+00  0.0000E+00  0.0000E+00
      1.702  0.3348E-01  0.4423E-01  0.4423E-01  0.4423E-01  0.0000E+00  0.0000E+00  0.0000E+00  0.0000E+00  0.0000E+00
      1.716  0.3354E-01  0.4445E-01  0.4445E-01  0.4445E-01  0.0000E+00  0.0000E+00  0.0000E+00  0.0000E+00  0.0000E+00
      1.730  0.3362E-01  0.4467E-01  0.4467E-01  0.4467E-01  0.0000E+00  0.0000E+00  0.0000E+00  0.0000E+00  0.0000E+00
      1.744  0.3369E-01  0.4490E-01  0.4490E-01  0.4490E-01  0.0000E+00  0.0000E+00  0.0000E+00  0.0000E+00  0.0000E+00
      1.758  0.3376E-01  0.4513E-01  0.4513E-01  0.4513E-01  0.0000E+00  0.0000E+00  0.0000E+00  0.0000E+00  0.0000E+00
      1.772  0.3384E-01  0.4537E-01  0.4537E-01  0.4537E-01  0.0000E+00  0.0000E+00  0.0000E+00  0.0000E+00  0.0000E+00
      1.786  0.3392E-01  0.4562E-01  0.4562E-01  0.4562E-01  0.0000E+00  0.0000E+00  0.0000E+00  0.0000E+00  0.0000E+00
      1.800  0.3401E-01  0.4587E-01  0.4587E-01  0.4587E-01  0.0000E+00  0.0000E+00  0.0000E+00  0.0000E+00  0.0000E+00
      1.813  0.3410E-01  0.4612E-01  0.4612E-01  0.4612E-01  0.0000E+00  0.0000E+00  0.0000E+00  0.0000E+00  0.0000E+00
      1.827  0.3405E-01  0.4631E-01  0.4631E-01  0.4631E-01  0.0000E+00  0.0000E+00  0.0000E+00  0.0000E+00  0.0000E+00
      1.841  0.3398E-01  0.4649E-01  0.4649E-01  0.4649E-01  0.0000E+00  0.0000E+00  0.0000E+00  0.0000E+00  0.0000E+00
      1.855  0.3391E-01  0.4667E-01  0.4667E-01  0.4667E-01  0.0000E+00  0.0000E+00  0.0000E+00  0.0000E+00  0.0000E+00
      1.869  0.3384E-01  0.4685E-01  0.4685E-01  0.4685E-01  0.0000E+00  0.0000E+00  0.0000E+00  0.0000E+00  0.0000E+00
      1.883  0.3366E-01  0.4684E-01  0.4684E-01  0.4684E-01  0.0000E+00  0.0000E+00  0.0000E+00  0.0000E+00  0.0000E+00
      1.897  0.3336E-01  0.4663E-01  0.4663E-01  0.4663E-01  0.0000E+00  0.0000E+00  0.0000E+00  0.0000E+00  0.0000E+00
      1.911  0.3308E-01  0.4642E-01  0.4642E-01  0.4642E-01  0.0000E+00  0.0000E+00  0.0000E+00  0.0000E+00  0.0000E+00
      1.925  0.3279E-01  0.4623E-01  0.4623E-01  0.4623E-01  0.0000E+00  0.0000E+00  0.0000E+00  0.0000E+00  0.0000E+00
      1.939  0.3252E-01  0.4604E-01  0.4604E-01  0.4604E-01  0.0000E+00  0.0000E+00  0.0000E+00  0.0000E+00  0.0000E+00
      1.953  0.3225E-01  0.4587E-01  0.4587E-01  0.4587E-01  0.0000E+00  0.0000E+00  0.0000E+00  0.0000E+00  0.0000E+00
      1.967  0.3199E-01  0.4571E-01  0.4571E-01  0.4571E-01  0.0000E+00  0.0000E+00  0.0000E+00  0.0000E+00  0.0000E+00
      1.981  0.3174E-01  0.4557E-01  0.4557E-01  0.4557E-01  0.0000E+00  0.0000E+00  0.0000E+00  0.0000E+00  0.0000E+00
      1.995  0.3150E-01  0.4543E-01  0.4543E-01  0.4543E-01  0.0000E+00  0.0000E+00  0.0000E+00  0.0000E+00  0.0000E+00
      2.009  0.3126E-01  0.4530E-01  0.4530E-01  0.4530E-01  0.0000E+00  0.0000E+00  0.0000E+00  0.0000E+00  0.0000E+00
      2.023  0.3103E-01  0.4519E-01  0.4519E-01  0.4519E-01  0.0000E+00  0.0000E+00  0.0000E+00  0.0000E+00  0.0000E+00
      2.037  0.3081E-01  0.4509E-01  0.4509E-01  0.4509E-01  0.0000E+00  0.0000E+00  0.0000E+00  0.0000E+00  0.0000E+00
      2.051  0.3059E-01  0.4499E-01  0.4499E-01  0.4499E-01  0.0000E+00  0.0000E+00  0.0000E+00  0.0000E+00  0.0000E+00
      2.065  0.3038E-01  0.4491E-01  0.4491E-01  0.4491E-01  0.0000E+00  0.0000E+00  0.0000E+00  0.0000E+00  0.0000E+00
      2.079  0.3018E-01  0.4485E-01  0.4485E-01  0.4485E-01  0.0000E+00  0.0000E+00  0.0000E+00  0.0000E+00  0.0000E+00
      2.093  0.2999E-01  0.4479E-01  0.4479E-01  0.4479E-01  0.0000E+00  0.0000E+00  0.0000E+00  0.0000E+00  0.0000E+00
      2.107  0.2980E-01  0.4474E-01  0.4474E-01  0.4474E-01  0.0000E+00  0.0000E+00  0.0000E+00  0.0000E+00  0.0000E+00
      2.121  0.2962E-01  0.4471E-01  0.4471E-01  0.4471E-01  0.0000E+00  0.0000E+00  0.0000E+00  0.0000E+00  0.0000E+00
      2.135  0.2945E-01  0.4468E-01  0.4468E-01  0.4468E-01  0.0000E+00  0.0000E+00  0.0000E+00  0.0000E+00  0.0000E+00
      2.149  0.2929E-01  0.4467E-01  0.4467E-01  0.4467E-01  0.0000E+00  0.0000E+00  0.0000E+00  0.0000E+00  0.0000E+00
      2.163  0.2913E-01  0.4467E-01  0.4467E-01  0.4467E-01  0.0000E+00  0.0000E+00  0.0000E+00  0.0000E+00  0.0000E+00
      2.177  0.2898E-01  0.4468E-01  0.4468E-01  0.4468E-01  0.0000E+00  0.0000E+00  0.0000E+00  0.0000E+00  0.0000E+00
      2.191  0.2884E-01  0.4470E-01  0.4470E-01  0.4470E-01  0.0000E+00  0.0000E+00  0.0000E+00  0.0000E+00  0.0000E+00
      2.205  0.2870E-01  0.4472E-01  0.4472E-01  0.4472E-01  0.0000E+00  0.0000E+00  0.0000E+00  0.0000E+00  0.0000E+00
      2.219  0.2856E-01  0.4474E-01  0.4474E-01  0.4474E-01  0.0000E+00  0.0000E+00  0.0000E+00  0.0000E+00  0.0000E+00
      2.233  0.2842E-01  0.4476E-01  0.4476E-01  0.4476E-01  0.0000E+00  0.0000E+00  0.0000E+00  0.0000E+00  0.0000E+00
      2.247  0.2828E-01  0.4478E-01  0.4478E-01  0.4478E-01  0.0000E+00  0.0000E+00  0.0000E+00  0.0000E+00  0.0000E+00
      2.261  0.2814E-01  0.4480E-01  0.4480E-01  0.4480E-01  0.0000E+00  0.0000E+00  0.0000E+00  0.0000E+00  0.0000E+00
      2.275  0.2800E-01  0.4481E-01  0.4481E-01  0.4481E-01  0.0000E+00  0.0000E+00  0.0000E+00  0.0000E+00  0.0000E+00
      2.289  0.2786E-01  0.4483E-01  0.4483E-01  0.4483E-01  0.0000E+00  0.0000E+00  0.0000E+00  0.0000E+00  0.0000E+00
      2.303  0.2773E-01  0.4484E-01  0.4484E-01  0.4484E-01  0.0000E+00  0.0000E+00  0.0000E+00  0.0000E+00  0.0000E+00
      2.317  0.2759E-01  0.4486E-01  0.4486E-01  0.4486E-01  0.0000E+00  0.0000E+00  0.0000E+00  0.0000E+00  0.0000E+00
      2.331  0.2746E-01  0.4487E-01  0.4487E-01  0.4487E-01  0.0000E+00  0.0000E+00  0.0000E+00  0.0000E+00  0.0000E+00
      2.345  0.2734E-01  0.4491E-01  0.4491E-01  0.4491E-01  0.0000E+00  0.0000E+00  0.0000E+00  0.0000E+00  0.0000E+00
      2.359  0.2725E-01  0.4500E-01  0.4500E-01  0.4500E-01  0.0000E+00  0.0000E+00  0.0000E+00  0.0000E+00  0.0000E+00
      2.373  0.2716E-01  0.4508E-01  0.4508E-01  0.4508E-01  0.0000E+00  0.0000E+00  0.0000E+00  0.0000E+00  0.0000E+00
      2.387  0.2708E-01  0.4518E-01  0.4518E-01  0.4518E-01  0.0000E+00  0.0000E+00  0.0000E+00  0.0000E+00  0.0000E+00
      2.401  0.2700E-01  0.4527E-01  0.4527E-01  0.4527E-01  0.0000E+00  0.0000E+00  0.0000E+00  0.0000E+00  0.0000E+00
      2.414  0.2693E-01  0.4538E-01  0.4538E-01  0.4538E-01  0.0000E+00  0.0000E+00  0.0000E+00  0.0000E+00  0.0000E+00
      2.428  0.2686E-01  0.4549E-01  0.4549E-01  0.4549E-01  0.0000E+00  0.0000E+00  0.0000E+00  0.0000E+00  0.0000E+00
      2.442  0.2680E-01  0.4560E-01  0.4560E-01  0.4560E-01  0.0000E+00  0.0000E+00  0.0000E+00  0.0000E+00  0.0000E+00
      2.456  0.2674E-01  0.4572E-01  0.4572E-01  0.4572E-01  0.0000E+00  0.0000E+00  0.0000E+00  0.0000E+00  0.0000E+00
      2.470  0.2668E-01  0.4585E-01  0.4585E-01  0.4585E-01  0.0000E+00  0.0000E+00  0.0000E+00  0.0000E+00  0.0000E+00
      2.484  0.2663E-01  0.4598E-01  0.4598E-01  0.4598E-01  0.0000E+00  0.0000E+00  0.0000E+00  0.0000E+00  0.0000E+00
      2.498  0.2658E-01  0.4612E-01  0.4612E-01  0.4612E-01  0.0000E+00  0.0000E+00  0.0000E+00  0.0000E+00  0.0000E+00
      2.512  0.2654E-01  0.4626E-01  0.4626E-01  0.4626E-01  0.0000E+00  0.0000E+00  0.0000E+00  0.0000E+00  0.0000E+00
      2.526  0.2650E-01  0.4641E-01  0.4641E-01  0.4641E-01  0.0000E+00  0.0000E+00  0.0000E+00  0.0000E+00  0.0000E+00
      2.540  0.2646E-01  0.4656E-01  0.4656E-01  0.4656E-01  0.0000E+00  0.0000E+00  0.0000E+00  0.0000E+00  0.0000E+00
      2.554  0.2643E-01  0.4672E-01  0.4672E-01  0.4672E-01  0.0000E+00  0.0000E+00  0.0000E+00  0.0000E+00  0.0000E+00
      2.568  0.2640E-01  0.4688E-01  0.4688E-01  0.4688E-01  0.0000E+00  0.0000E+00  0.0000E+00  0.0000E+00  0.0000E+00
      2.582  0.2638E-01  0.4705E-01  0.4705E-01  0.4705E-01  0.0000E+00  0.0000E+00  0.0000E+00  0.0000E+00  0.0000E+00
      2.596  0.2636E-01  0.4723E-01  0.4723E-01  0.4723E-01  0.0000E+00  0.0000E+00  0.0000E+00  0.0000E+00  0.0000E+00
      2.610  0.2635E-01  0.4741E-01  0.4741E-01  0.4741E-01  0.0000E+00  0.0000E+00  0.0000E+00  0.0000E+00  0.0000E+00
      2.624  0.2633E-01  0.4759E-01  0.4759E-01  0.4759E-01  0.0000E+00  0.0000E+00  0.0000E+00  0.0000E+00  0.0000E+00
      2.638  0.2632E-01  0.4778E-01  0.4778E-01  0.4778E-01  0.0000E+00  0.0000E+00  0.0000E+00  0.0000E+00  0.0000E+00
      2.652  0.2692E-01  0.5629E-01  0.5629E-01  0.5629E-01  0.0000E+00  0.0000E+00  0.0000E+00  0.0000E+00  0.0000E+00
      2.666  0.2721E-01  0.6083E-01  0.6083E-01  0.6083E-01  0.0000E+00  0.0000E+00  0.0000E+00  0.0000E+00  0.0000E+00
      2.680  0.2720E-01  0.6129E-01  0.6129E-01  0.6129E-01  0.0000E+00  0.0000E+00  0.0000E+00  0.0000E+00  0.0000E+00
      2.694  0.2708E-01  0.6024E-01  0.6024E-01  0.6024E-01  0.0000E+00  0.0000E+00  0.0000E+00  0.0000E+00  0.0000E+00
      2.708  0.2696E-01  0.5928E-01  0.5928E-01  0.5928E-01  0.0000E+00  0.0000E+00  0.0000E+00  0.0000E+00  0.0000E+00
      2.722  0.2686E-01  0.5841E-01  0.5841E-01  0.5841E-01  0.0000E+00  0.0000E+00  0.0000E+00  0.0000E+00  0.0000E+00
      2.736  0.2676E-01  0.5763E-01  0.5763E-01  0.5763E-01  0.0000E+00  0.0000E+00  0.0000E+00  0.0000E+00  0.0000E+00
      2.750  0.2666E-01  0.5694E-01  0.5694E-01  0.5694E-01  0.0000E+00  0.0000E+00  0.0000E+00  0.0000E+00  0.0000E+00
      2.764  0.2658E-01  0.5635E-01  0.5635E-01  0.5635E-01  0.0000E+00  0.0000E+00  0.0000E+00  0.0000E+00  0.0000E+00
      2.778  0.2650E-01  0.5584E-01  0.5584E-01  0.5584E-01  0.0000E+00  0.0000E+00  0.0000E+00  0.0000E+00  0.0000E+00
      2.792  0.2643E-01  0.5543E-01  0.5543E-01  0.5543E-01  0.0000E+00  0.0000E+00  0.0000E+00  0.0000E+00  0.0000E+00
      2.806  0.2637E-01  0.5510E-01  0.5510E-01  0.5510E-01  0.0000E+00  0.0000E+00  0.0000E+00  0.0000E+00  0.0000E+00
      2.820  0.2632E-01  0.5487E-01  0.5487E-01  0.5487E-01  0.0000E+00  0.0000E+00  0.0000E+00  0.0000E+00  0.0000E+00
      2.834  0.2627E-01  0.5473E-01  0.5473E-01  0.5473E-01  0.0000E+00  0.0000E+00  0.0000E+00  0.0000E+00  0.0000E+00
      2.848  0.2624E-01  0.5468E-01  0.5468E-01  0.5468E-01  0.0000E+00  0.0000E+00  0.0000E+00  0.0000E+00  0.0000E+00
      2.862  0.2621E-01  0.5472E-01  0.5472E-01  0.5472E-01  0.0000E+00  0.0000E+00  0.0000E+00  0.0000E+00  0.0000E+00
      2.876  0.2619E-01  0.5485E-01  0.5485E-01  0.5485E-01  0.0000E+00  0.0000E+00  0.0000E+00  0.0000E+00  0.0000E+00
      2.890  0.2617E-01  0.5507E-01  0.5507E-01  0.5507E-01  0.0000E+00  0.0000E+00  0.0000E+00  0.0000E+00  0.0000E+00
      2.904  0.2617E-01  0.5539E-01  0.5539E-01  0.5539E-01  0.0000E+00  0.0000E+00  0.0000E+00  0.0000E+00  0.0000E+00
      2.918  0.2618E-01  0.5579E-01  0.5579E-01  0.5579E-01  0.0000E+00  0.0000E+00  0.0000E+00  0.0000E+00  0.0000E+00
      2.932  0.2621E-01  0.5629E-01  0.5629E-01  0.5629E-01  0.0000E+00  0.0000E+00  0.0000E+00  0.0000E+00  0.0000E+00
      2.946  0.2627E-01  0.5689E-01  0.5689E-01  0.5689E-01  0.0000E+00  0.0000E+00  0.0000E+00  0.0000E+00  0.0000E+00
      2.960  0.2635E-01  0.5757E-01  0.5757E-01  0.5757E-01  0.0000E+00  0.0000E+00  0.0000E+00  0.0000E+00  0.0000E+00
      2.974  0.2645E-01  0.5835E-01  0.5835E-01  0.5835E-01  0.0000E+00  0.0000E+00  0.0000E+00  0.0000E+00  0.0000E+00
      2.988  0.2650E-01  0.5900E-01  0.5900E-01  0.5900E-01  0.0000E+00  0.0000E+00  0.0000E+00  0.0000E+00  0.0000E+00
      3.002  0.2647E-01  0.5944E-01  0.5944E-01  0.5944E-01  0.0000E+00  0.0000E+00  0.0000E+00  0.0000E+00  0.0000E+00
      3.015  0.2645E-01  0.5990E-01  0.5990E-01  0.5990E-01  0.0000E+00  0.0000E+00  0.0000E+00  0.0000E+00  0.0000E+00
      3.029  0.2643E-01  0.6038E-01  0.6038E-01  0.6038E-01  0.0000E+00  0.0000E+00  0.0000E+00  0.0000E+00  0.0000E+00
      3.043  0.2641E-01  0.6088E-01  0.6088E-01  0.6088E-01  0.0000E+00  0.0000E+00  0.0000E+00  0.0000E+00  0.0000E+00
      3.057  0.2639E-01  0.6139E-01  0.6139E-01  0.6139E-01  0.0000E+00  0.0000E+00  0.0000E+00  0.0000E+00  0.0000E+00
      3.071  0.2637E-01  0.6192E-01  0.6192E-01  0.6192E-01  0.0000E+00  0.0000E+00  0.0000E+00  0.0000E+00  0.0000E+00
      3.085  0.2635E-01  0.6247E-01  0.6247E-01  0.6247E-01  0.0000E+00  0.0000E+00  0.0000E+00  0.0000E+00  0.0000E+00
      3.099  0.2629E-01  0.6295E-01  0.6295E-01  0.6295E-01  0.0000E+00  0.0000E+00  0.0000E+00  0.0000E+00  0.0000E+00
      3.113  0.2623E-01  0.6345E-01  0.6345E-01  0.6345E-01  0.0000E+00  0.0000E+00  0.0000E+00  0.0000E+00  0.0000E+00
      3.127  0.2618E-01  0.6397E-01  0.6397E-01  0.6397E-01  0.0000E+00  0.0000E+00  0.0000E+00  0.0000E+00  0.0000E+00
      3.141  0.2612E-01  0.6450E-01  0.6450E-01  0.6450E-01  0.0000E+00  0.0000E+00  0.0000E+00  0.0000E+00  0.0000E+00
      3.155  0.2607E-01  0.6505E-01  0.6505E-01  0.6505E-01  0.0000E+00  0.0000E+00  0.0000E+00  0.0000E+00  0.0000E+00
      3.169  0.2601E-01  0.6562E-01  0.6562E-01  0.6562E-01  0.0000E+00  0.0000E+00  0.0000E+00  0.0000E+00  0.0000E+00
      3.183  0.2596E-01  0.6621E-01  0.6621E-01  0.6621E-01  0.0000E+00  0.0000E+00  0.0000E+00  0.0000E+00  0.0000E+00
      3.197  0.2591E-01  0.6682E-01  0.6682E-01  0.6682E-01  0.0000E+00  0.0000E+00  0.0000E+00  0.0000E+00  0.0000E+00
      3.211  0.2585E-01  0.6744E-01  0.6744E-01  0.6744E-01  0.0000E+00  0.0000E+00  0.0000E+00  0.0000E+00  0.0000E+00
      3.225  0.2580E-01  0.6808E-01  0.6808E-01  0.6808E-01  0.0000E+00  0.0000E+00  0.0000E+00  0.0000E+00  0.0000E+00
      3.239  0.2575E-01  0.6874E-01  0.6874E-01  0.6874E-01  0.0000E+00  0.0000E+00  0.0000E+00  0.0000E+00  0.0000E+00
      3.253  0.2570E-01  0.6941E-01  0.6941E-01  0.6941E-01  0.0000E+00  0.0000E+00  0.0000E+00  0.0000E+00  0.0000E+00
      3.267  0.2565E-01  0.7011E-01  0.7011E-01  0.7011E-01  0.0000E+00  0.0000E+00  0.0000E+00  0.0000E+00  0.0000E+00
      3.281  0.2602E-01  0.8043E-01  0.8043E-01  0.8043E-01  0.0000E+00  0.0000E+00  0.0000E+00  0.0000E+00  0.0000E+00
      3.295  0.2613E-01  0.8459E-01  0.8459E-01  0.8459E-01  0.0000E+00  0.0000E+00  0.0000E+00  0.0000E+00  0.0000E+00
      3.309  0.2595E-01  0.8241E-01  0.8241E-01  0.8241E-01  0.0000E+00  0.0000E+00  0.0000E+00  0.0000E+00  0.0000E+00
      3.323  0.2574E-01  0.7948E-01  0.7948E-01  0.7948E-01  0.0000E+00  0.0000E+00  0.0000E+00  0.0000E+00  0.0000E+00
      3.337  0.2556E-01  0.7717E-01  0.7717E-01  0.7717E-01  0.0000E+00  0.0000E+00  0.0000E+00  0.0000E+00  0.0000E+00
      3.351  0.2541E-01  0.7549E-01  0.7549E-01  0.7549E-01  0.0000E+00  0.0000E+00  0.0000E+00  0.0000E+00  0.0000E+00
      3.365  0.2528E-01  0.7444E-01  0.7444E-01  0.7444E-01  0.0000E+00  0.0000E+00  0.0000E+00  0.0000E+00  0.0000E+00
      3.379  0.2518E-01  0.7401E-01  0.7401E-01  0.7401E-01  0.0000E+00  0.0000E+00  0.0000E+00  0.0000E+00  0.0000E+00
      3.393  0.2510E-01  0.7421E-01  0.7421E-01  0.7421E-01  0.0000E+00  0.0000E+00  0.0000E+00  0.0000E+00  0.0000E+00
      3.407  0.2504E-01  0.7474E-01  0.7474E-01  0.7474E-01  0.0000E+00  0.0000E+00  0.0000E+00  0.0000E+00  0.0000E+00
      3.421  0.2498E-01  0.7533E-01  0.7533E-01  0.7533E-01  0.0000E+00  0.0000E+00  0.0000E+00  0.0000E+00  0.0000E+00
      3.435  0.2491E-01  0.7600E-01  0.7600E-01  0.7600E-01  0.0000E+00  0.0000E+00  0.0000E+00  0.0000E+00  0.0000E+00
      3.449  0.2485E-01  0.7674E-01  0.7674E-01  0.7674E-01  0.0000E+00  0.0000E+00  0.0000E+00  0.0000E+00  0.0000E+00
      3.463  0.2478E-01  0.7755E-01  0.7755E-01  0.7755E-01  0.0000E+00  0.0000E+00  0.0000E+00  0.0000E+00  0.0000E+00
      3.477  0.2471E-01  0.7843E-01  0.7843E-01  0.7843E-01  0.0000E+00  0.0000E+00  0.0000E+00  0.0000E+00  0.0000E+00
      3.491  0.2465E-01  0.7939E-01  0.7939E-01  0.7939E-01  0.0000E+00  0.0000E+00  0.0000E+00  0.0000E+00  0.0000E+00
      3.505  0.2458E-01  0.8041E-01  0.8041E-01  0.8041E-01  0.0000E+00  0.0000E+00  0.0000E+00  0.0000E+00  0.0000E+00
      3.519  0.2451E-01  0.8150E-01  0.8150E-01  0.8150E-01  0.0000E+00  0.0000E+00  0.0000E+00  0.0000E+00  0.0000E+00
      3.533  0.2444E-01  0.8267E-01  0.8267E-01  0.8267E-01  0.0000E+00  0.0000E+00  0.0000E+00  0.0000E+00  0.0000E+00
      3.547  0.2437E-01  0.8390E-01  0.8390E-01  0.8390E-01  0.0000E+00  0.0000E+00  0.0000E+00  0.0000E+00  0.0000E+00
      3.561  0.2430E-01  0.8521E-01  0.8521E-01  0.8521E-01  0.0000E+00  0.0000E+00  0.0000E+00  0.0000E+00  0.0000E+00
      3.575  0.2423E-01  0.8659E-01  0.8659E-01  0.8659E-01  0.0000E+00  0.0000E+00  0.0000E+00  0.0000E+00  0.0000E+00
      3.589  0.2416E-01  0.8803E-01  0.8803E-01  0.8803E-01  0.0000E+00  0.0000E+00  0.0000E+00  0.0000E+00  0.0000E+00
      3.603  0.2408E-01  0.8955E-01  0.8955E-01  0.8955E-01  0.0000E+00  0.0000E+00  0.0000E+00  0.0000E+00  0.0000E+00
      3.616  0.2399E-01  0.9113E-01  0.9113E-01  0.9113E-01  0.0000E+00  0.0000E+00  0.0000E+00  0.0000E+00  0.0000E+00
      3.630  0.2389E-01  0.9075E-01  0.9075E-01  0.9075E-01  0.0000E+00  0.0000E+00  0.0000E+00  0.0000E+00  0.0000E+00
      3.644  0.2380E-01  0.8813E-01  0.8813E-01  0.8813E-01  0.0000E+00  0.0000E+00  0.0000E+00  0.0000E+00  0.0000E+00
      3.658  0.2370E-01  0.8585E-01  0.8585E-01  0.8585E-01  0.0000E+00  0.0000E+00  0.0000E+00  0.0000E+00  0.0000E+00
      3.672  0.2359E-01  0.8393E-01  0.8393E-01  0.8393E-01  0.0000E+00  0.0000E+00  0.0000E+00  0.0000E+00  0.0000E+00
      3.686  0.2348E-01  0.8234E-01  0.8234E-01  0.8234E-01  0.0000E+00  0.0000E+00  0.0000E+00  0.0000E+00  0.0000E+00
      3.700  0.2332E-01  0.8095E-01  0.8095E-01  0.8095E-01  0.0000E+00  0.0000E+00  0.0000E+00  0.0000E+00  0.0000E+00
      3.714  0.2307E-01  0.7958E-01  0.7958E-01  0.7958E-01  0.0000E+00  0.0000E+00  0.0000E+00  0.0000E+00  0.0000E+00
      3.728  0.2285E-01  0.7872E-01  0.7872E-01  0.7872E-01  0.0000E+00  0.0000E+00  0.0000E+00  0.0000E+00  0.0000E+00
      3.742  0.2266E-01  0.7837E-01  0.7837E-01  0.7837E-01  0.0000E+00  0.0000E+00  0.0000E+00  0.0000E+00  0.0000E+00
      3.756  0.2246E-01  0.7819E-01  0.7819E-01  0.7819E-01  0.0000E+00  0.0000E+00  0.0000E+00  0.0000E+00  0.0000E+00
      3.770  0.2224E-01  0.7800E-01  0.7800E-01  0.7800E-01  0.0000E+00  0.0000E+00  0.0000E+00  0.0000E+00  0.0000E+00
      3.784  0.2201E-01  0.7782E-01  0.7782E-01  0.7782E-01  0.0000E+00  0.0000E+00  0.0000E+00  0.0000E+00  0.0000E+00
      3.798  0.2177E-01  0.7765E-01  0.7765E-01  0.7765E-01  0.0000E+00  0.0000E+00  0.0000E+00  0.0000E+00  0.0000E+00
      3.812  0.2153E-01  0.7748E-01  0.7748E-01  0.7748E-01  0.0000E+00  0.0000E+00  0.0000E+00  0.0000E+00  0.0000E+00
      3.826  0.2129E-01  0.7732E-01  0.7732E-01  0.7732E-01  0.0000E+00  0.0000E+00  0.0000E+00  0.0000E+00  0.0000E+00
      3.840  0.2107E-01  0.7718E-01  0.7718E-01  0.7718E-01  0.0000E+00  0.0000E+00  0.0000E+00  0.0000E+00  0.0000E+00
      3.854  0.2093E-01  0.7708E-01  0.7708E-01  0.7708E-01  0.0000E+00  0.0000E+00  0.0000E+00  0.0000E+00  0.0000E+00
      3.868  0.2080E-01  0.7700E-01  0.7700E-01  0.7700E-01  0.0000E+00  0.0000E+00  0.0000E+00  0.0000E+00  0.0000E+00
      3.882  0.2067E-01  0.7693E-01  0.7693E-01  0.7693E-01  0.0000E+00  0.0000E+00  0.0000E+00  0.0000E+00  0.0000E+00
      3.896  0.2054E-01  0.7686E-01  0.7686E-01  0.7686E-01  0.0000E+00  0.0000E+00  0.0000E+00  0.0000E+00  0.0000E+00
      3.910  0.2042E-01  0.7679E-01  0.7679E-01  0.7679E-01  0.0000E+00  0.0000E+00  0.0000E+00  0.0000E+00  0.0000E+00
      3.924  0.2029E-01  0.7672E-01  0.7672E-01  0.7672E-01  0.0000E+00  0.0000E+00  0.0000E+00  0.0000E+00  0.0000E+00
      3.938  0.2017E-01  0.7666E-01  0.7666E-01  0.7666E-01  0.0000E+00  0.0000E+00  0.0000E+00  0.0000E+00  0.0000E+00
      3.952  0.2005E-01  0.7659E-01  0.7659E-01  0.7659E-01  0.0000E+00  0.0000E+00  0.0000E+00  0.0000E+00  0.0000E+00
      3.966  0.1993E-01  0.7654E-01  0.7654E-01  0.7654E-01  0.0000E+00  0.0000E+00  0.0000E+00  0.0000E+00  0.0000E+00
      3.980  0.1981E-01  0.7648E-01  0.7648E-01  0.7648E-01  0.0000E+00  0.0000E+00  0.0000E+00  0.0000E+00  0.0000E+00
      3.994  0.1969E-01  0.7643E-01  0.7643E-01  0.7643E-01  0.0000E+00  0.0000E+00  0.0000E+00  0.0000E+00  0.0000E+00
      4.008  0.1958E-01  0.7637E-01  0.7637E-01  0.7637E-01  0.0000E+00  0.0000E+00  0.0000E+00  0.0000E+00  0.0000E+00
      4.022  0.1946E-01  0.7633E-01  0.7633E-01  0.7633E-01  0.0000E+00  0.0000E+00  0.0000E+00  0.0000E+00  0.0000E+00
      4.036  0.1935E-01  0.7628E-01  0.7628E-01  0.7628E-01  0.0000E+00  0.0000E+00  0.0000E+00  0.0000E+00  0.0000E+00
      4.050  0.1923E-01  0.7624E-01  0.7624E-01  0.7624E-01  0.0000E+00  0.0000E+00  0.0000E+00  0.0000E+00  0.0000E+00
      4.064  0.1912E-01  0.7620E-01  0.7620E-01  0.7620E-01  0.0000E+00  0.0000E+00  0.0000E+00  0.0000E+00  0.0000E+00
      4.078  0.1901E-01  0.7616E-01  0.7616E-01  0.7616E-01  0.0000E+00  0.0000E+00  0.0000E+00  0.0000E+00  0.0000E+00
      4.092  0.1890E-01  0.7612E-01  0.7612E-01  0.7612E-01  0.0000E+00  0.0000E+00  0.0000E+00  0.0000E+00  0.0000E+00
      4.106  0.1878E-01  0.7609E-01  0.7609E-01  0.7609E-01  0.0000E+00  0.0000E+00  0.0000E+00  0.0000E+00  0.0000E+00
      4.120  0.1867E-01  0.7606E-01  0.7606E-01  0.7606E-01  0.0000E+00  0.0000E+00  0.0000E+00  0.0000E+00  0.0000E+00
      4.134  0.1856E-01  0.7603E-01  0.7603E-01  0.7603E-01  0.0000E+00  0.0000E+00  0.0000E+00  0.0000E+00  0.0000E+00
      4.148  0.1846E-01  0.7600E-01  0.7600E-01  0.7600E-01  0.0000E+00  0.0000E+00  0.0000E+00  0.0000E+00  0.0000E+00
      4.162  0.1835E-01  0.7598E-01  0.7598E-01  0.7598E-01  0.0000E+00  0.0000E+00  0.0000E+00  0.0000E+00  0.0000E+00
      4.176  0.1824E-01  0.7596E-01  0.7596E-01  0.7596E-01  0.0000E+00  0.0000E+00  0.0000E+00  0.0000E+00  0.0000E+00
      4.190  0.1813E-01  0.7594E-01  0.7594E-01  0.7594E-01  0.0000E+00  0.0000E+00  0.0000E+00  0.0000E+00  0.0000E+00
      4.204  0.1803E-01  0.7592E-01  0.7592E-01  0.7592E-01  0.0000E+00  0.0000E+00  0.0000E+00  0.0000E+00  0.0000E+00
      4.217  0.1792E-01  0.7591E-01  0.7591E-01  0.7591E-01  0.0000E+00  0.0000E+00  0.0000E+00  0.0000E+00  0.0000E+00
      4.231  0.1782E-01  0.7590E-01  0.7590E-01  0.7590E-01  0.0000E+00  0.0000E+00  0.0000E+00  0.0000E+00  0.0000E+00
      4.245  0.1771E-01  0.7589E-01  0.7589E-01  0.7589E-01  0.0000E+00  0.0000E+00  0.0000E+00  0.0000E+00  0.0000E+00
      4.259  0.1761E-01  0.7589E-01  0.7589E-01  0.7589E-01  0.0000E+00  0.0000E+00  0.0000E+00  0.0000E+00  0.0000E+00
      4.273  0.1751E-01  0.7588E-01  0.7588E-01  0.7588E-01  0.0000E+00  0.0000E+00  0.0000E+00  0.0000E+00  0.0000E+00
      4.287  0.1741E-01  0.7588E-01  0.7588E-01  0.7588E-01  0.0000E+00  0.0000E+00  0.0000E+00  0.0000E+00  0.0000E+00
      4.301  0.1731E-01  0.7589E-01  0.7589E-01  0.7589E-01  0.0000E+00  0.0000E+00  0.0000E+00  0.0000E+00  0.0000E+00
      4.315  0.1721E-01  0.7589E-01  0.7589E-01  0.7589E-01  0.0000E+00  0.0000E+00  0.0000E+00  0.0000E+00  0.0000E+00
      4.329  0.1711E-01  0.7606E-01  0.7606E-01  0.7606E-01  0.0000E+00  0.0000E+00  0.0000E+00  0.0000E+00  0.0000E+00
      4.343  0.1701E-01  0.7630E-01  0.7630E-01  0.7630E-01  0.0000E+00  0.0000E+00  0.0000E+00  0.0000E+00  0.0000E+00
      4.357  0.1693E-01  0.7656E-01  0.7656E-01  0.7656E-01  0.0000E+00  0.0000E+00  0.0000E+00  0.0000E+00  0.0000E+00
      4.371  0.1685E-01  0.7682E-01  0.7682E-01  0.7682E-01  0.0000E+00  0.0000E+00  0.0000E+00  0.0000E+00  0.0000E+00
      4.385  0.1677E-01  0.7706E-01  0.7706E-01  0.7706E-01  0.0000E+00  0.0000E+00  0.0000E+00  0.0000E+00  0.0000E+00
      4.399  0.1670E-01  0.7729E-01  0.7729E-01  0.7729E-01  0.0000E+00  0.0000E+00  0.0000E+00  0.0000E+00  0.0000E+00
      4.413  0.1662E-01  0.7751E-01  0.7751E-01  0.7751E-01  0.0000E+00  0.0000E+00  0.0000E+00  0.0000E+00  0.0000E+00
      4.427  0.1655E-01  0.7771E-01  0.7771E-01  0.7771E-01  0.0000E+00  0.0000E+00  0.0000E+00  0.0000E+00  0.0000E+00
      4.441  0.1648E-01  0.7791E-01  0.7791E-01  0.7791E-01  0.0000E+00  0.0000E+00  0.0000E+00  0.0000E+00  0.0000E+00
      4.455  0.1641E-01  0.7809E-01  0.7809E-01  0.7809E-01  0.0000E+00  0.0000E+00  0.0000E+00  0.0000E+00  0.0000E+00
      4.469  0.1634E-01  0.7826E-01  0.7826E-01  0.7826E-01  0.0000E+00  0.0000E+00  0.0000E+00  0.0000E+00  0.0000E+00
      4.483  0.1627E-01  0.7841E-01  0.7841E-01  0.7841E-01  0.0000E+00  0.0000E+00  0.0000E+00  0.0000E+00  0.0000E+00
      4.497  0.1621E-01  0.7856E-01  0.7856E-01  0.7856E-01  0.0000E+00  0.0000E+00  0.0000E+00  0.0000E+00  0.0000E+00
      4.511  0.1614E-01  0.7869E-01  0.7869E-01  0.7869E-01  0.0000E+00  0.0000E+00  0.0000E+00  0.0000E+00  0.0000E+00
      4.525  0.1608E-01  0.7882E-01  0.7882E-01  0.7882E-01  0.0000E+00  0.0000E+00  0.0000E+00  0.0000E+00  0.0000E+00
      4.539  0.1602E-01  0.7895E-01  0.7895E-01  0.7895E-01  0.0000E+00  0.0000E+00  0.0000E+00  0.0000E+00  0.0000E+00
      4.553  0.1596E-01  0.7908E-01  0.7908E-01  0.7908E-01  0.0000E+00  0.0000E+00  0.0000E+00  0.0000E+00  0.0000E+00
      4.567  0.1590E-01  0.7921E-01  0.7921E-01  0.7921E-01  0.0000E+00  0.0000E+00  0.0000E+00  0.0000E+00  0.0000E+00
      4.581  0.1583E-01  0.7932E-01  0.7932E-01  0.7932E-01  0.0000E+00  0.0000E+00  0.0000E+00  0.0000E+00  0.0000E+00
      4.595  0.1575E-01  0.7932E-01  0.7932E-01  0.7932E-01  0.0000E+00  0.0000E+00  0.0000E+00  0.0000E+00  0.0000E+00
      4.609  0.1566E-01  0.7932E-01  0.7932E-01  0.7932E-01  0.0000E+00  0.0000E+00  0.0000E+00  0.0000E+00  0.0000E+00
      4.623  0.1558E-01  0.7932E-01  0.7932E-01  0.7932E-01  0.0000E+00  0.0000E+00  0.0000E+00  0.0000E+00  0.0000E+00
      4.637  0.1550E-01  0.7931E-01  0.7931E-01  0.7931E-01  0.0000E+00  0.0000E+00  0.0000E+00  0.0000E+00  0.0000E+00
      4.651  0.1542E-01  0.7930E-01  0.7930E-01  0.7930E-01  0.0000E+00  0.0000E+00  0.0000E+00  0.0000E+00  0.0000E+00
      4.665  0.1534E-01  0.7928E-01  0.7928E-01  0.7928E-01  0.0000E+00  0.0000E+00  0.0000E+00  0.0000E+00  0.0000E+00
      4.679  0.1526E-01  0.7926E-01  0.7926E-01  0.7926E-01  0.0000E+00  0.0000E+00  0.0000E+00  0.0000E+00  0.0000E+00
      4.693  0.1519E-01  0.7924E-01  0.7924E-01  0.7924E-01  0.0000E+00  0.0000E+00  0.0000E+00  0.0000E+00  0.0000E+00
      4.707  0.1511E-01  0.7921E-01  0.7921E-01  0.7921E-01  0.0000E+00  0.0000E+00  0.0000E+00  0.0000E+00  0.0000E+00
      4.721  0.1504E-01  0.7918E-01  0.7918E-01  0.7918E-01  0.0000E+00  0.0000E+00  0.0000E+00  0.0000E+00  0.0000E+00
      4.735  0.1497E-01  0.7914E-01  0.7914E-01  0.7914E-01  0.0000E+00  0.0000E+00  0.0000E+00  0.0000E+00  0.0000E+00
      4.749  0.1489E-01  0.7910E-01  0.7910E-01  0.7910E-01  0.0000E+00  0.0000E+00  0.0000E+00  0.0000E+00  0.0000E+00
      4.763  0.1482E-01  0.7905E-01  0.7905E-01  0.7905E-01  0.0000E+00  0.0000E+00  0.0000E+00  0.0000E+00  0.0000E+00
      4.777  0.1475E-01  0.7900E-01  0.7900E-01  0.7900E-01  0.0000E+00  0.0000E+00  0.0000E+00  0.0000E+00  0.0000E+00
      4.791  0.1469E-01  0.7896E-01  0.7896E-01  0.7896E-01  0.0000E+00  0.0000E+00  0.0000E+00  0.0000E+00  0.0000E+00
      4.805  0.1462E-01  0.7890E-01  0.7890E-01  0.7890E-01  0.0000E+00  0.0000E+00  0.0000E+00  0.0000E+00  0.0000E+00
      4.818  0.1455E-01  0.7885E-01  0.7885E-01  0.7885E-01  0.0000E+00  0.0000E+00  0.0000E+00  0.0000E+00  0.0000E+00
      4.832  0.1449E-01  0.7879E-01  0.7879E-01  0.7879E-01  0.0000E+00  0.0000E+00  0.0000E+00  0.0000E+00  0.0000E+00
      4.846  0.1442E-01  0.7872E-01  0.7872E-01  0.7872E-01  0.0000E+00  0.0000E+00  0.0000E+00  0.0000E+00  0.0000E+00
      4.860  0.1436E-01  0.7865E-01  0.7865E-01  0.7865E-01  0.0000E+00  0.0000E+00  0.0000E+00  0.0000E+00  0.0000E+00
      4.874  0.1430E-01  0.7858E-01  0.7858E-01  0.7858E-01  0.0000E+00  0.0000E+00  0.0000E+00  0.0000E+00  0.0000E+00
      4.888  0.1423E-01  0.7850E-01  0.7850E-01  0.7850E-01  0.0000E+00  0.0000E+00  0.0000E+00  0.0000E+00  0.0000E+00
      4.902  0.1417E-01  0.7842E-01  0.7842E-01  0.7842E-01  0.0000E+00  0.0000E+00  0.0000E+00  0.0000E+00  0.0000E+00
      4.916  0.1412E-01  0.7833E-01  0.7833E-01  0.7833E-01  0.0000E+00  0.0000E+00  0.0000E+00  0.0000E+00  0.0000E+00
      4.930  0.1406E-01  0.7824E-01  0.7824E-01  0.7824E-01  0.0000E+00  0.0000E+00  0.0000E+00  0.0000E+00  0.0000E+00
      4.944  0.1400E-01  0.7816E-01  0.7816E-01  0.7816E-01  0.0000E+00  0.0000E+00  0.0000E+00  0.0000E+00  0.0000E+00
      4.958  0.1394E-01  0.7806E-01  0.7806E-01  0.7806E-01  0.0000E+00  0.0000E+00  0.0000E+00  0.0000E+00  0.0000E+00
      4.972  0.1389E-01  0.7797E-01  0.7797E-01  0.7797E-01  0.0000E+00  0.0000E+00  0.0000E+00  0.0000E+00  0.0000E+00
      4.986  0.1383E-01  0.7787E-01  0.7787E-01  0.7787E-01  0.0000E+00  0.0000E+00  0.0000E+00  0.0000E+00  0.0000E+00
      5.000  0.1378E-01  0.7777E-01  0.7777E-01  0.7777E-01  0.0000E+00  0.0000E+00  0.0000E+00  0.0000E+00  0.0000E+00
      5.014  0.1372E-01  0.7768E-01  0.7768E-01  0.7768E-01  0.0000E+00  0.0000E+00  0.0000E+00  0.0000E+00  0.0000E+00
      5.028  0.1367E-01  0.7758E-01  0.7758E-01  0.7758E-01  0.0000E+00  0.0000E+00  0.0000E+00  0.0000E+00  0.0000E+00
      5.042  0.1361E-01  0.7747E-01  0.7747E-01  0.7747E-01  0.0000E+00  0.0000E+00  0.0000E+00  0.0000E+00  0.0000E+00
      5.056  0.1356E-01  0.7737E-01  0.7737E-01  0.7737E-01  0.0000E+00  0.0000E+00  0.0000E+00  0.0000E+00  0.0000E+00
      5.070  0.1351E-01  0.7727E-01  0.7727E-01  0.7727E-01  0.0000E+00  0.0000E+00  0.0000E+00  0.0000E+00  0.0000E+00
      5.084  0.1345E-01  0.7716E-01  0.7716E-01  0.7716E-01  0.0000E+00  0.0000E+00  0.0000E+00  0.0000E+00  0.0000E+00
      5.098  0.1340E-01  0.7706E-01  0.7706E-01  0.7706E-01  0.0000E+00  0.0000E+00  0.0000E+00  0.0000E+00  0.0000E+00
      5.112  0.1335E-01  0.7695E-01  0.7695E-01  0.7695E-01  0.0000E+00  0.0000E+00  0.0000E+00  0.0000E+00  0.0000E+00
      5.126  0.1330E-01  0.7684E-01  0.7684E-01  0.7684E-01  0.0000E+00  0.0000E+00  0.0000E+00  0.0000E+00  0.0000E+00
      5.140  0.1325E-01  0.7673E-01  0.7673E-01  0.7673E-01  0.0000E+00  0.0000E+00  0.0000E+00  0.0000E+00  0.0000E+00
      5.154  0.1320E-01  0.7662E-01  0.7662E-01  0.7662E-01  0.0000E+00  0.0000E+00  0.0000E+00  0.0000E+00  0.0000E+00
      5.168  0.1315E-01  0.7650E-01  0.7650E-01  0.7650E-01  0.0000E+00  0.0000E+00  0.0000E+00  0.0000E+00  0.0000E+00
      5.182  0.1310E-01  0.7639E-01  0.7639E-01  0.7639E-01  0.0000E+00  0.0000E+00  0.0000E+00  0.0000E+00  0.0000E+00
      5.196  0.1305E-01  0.7627E-01  0.7627E-01  0.7627E-01  0.0000E+00  0.0000E+00  0.0000E+00  0.0000E+00  0.0000E+00
      5.210  0.1300E-01  0.7616E-01  0.7616E-01  0.7616E-01  0.0000E+00  0.0000E+00  0.0000E+00  0.0000E+00  0.0000E+00
      5.224  0.1295E-01  0.7604E-01  0.7604E-01  0.7604E-01  0.0000E+00  0.0000E+00  0.0000E+00  0.0000E+00  0.0000E+00
      5.238  0.1290E-01  0.7592E-01  0.7592E-01  0.7592E-01  0.0000E+00  0.0000E+00  0.0000E+00  0.0000E+00  0.0000E+00
      5.252  0.1285E-01  0.7580E-01  0.7580E-01  0.7580E-01  0.0000E+00  0.0000E+00  0.0000E+00  0.0000E+00  0.0000E+00
      5.266  0.1280E-01  0.7568E-01  0.7568E-01  0.7568E-01  0.0000E+00  0.0000E+00  0.0000E+00  0.0000E+00  0.0000E+00
      5.280  0.1276E-01  0.7556E-01  0.7556E-01  0.7556E-01  0.0000E+00  0.0000E+00  0.0000E+00  0.0000E+00  0.0000E+00
      5.294  0.1271E-01  0.7545E-01  0.7545E-01  0.7545E-01  0.0000E+00  0.0000E+00  0.0000E+00  0.0000E+00  0.0000E+00
      5.308  0.1266E-01  0.7536E-01  0.7536E-01  0.7536E-01  0.0000E+00  0.0000E+00  0.0000E+00  0.0000E+00  0.0000E+00
      5.322  0.1261E-01  0.7529E-01  0.7529E-01  0.7529E-01  0.0000E+00  0.0000E+00  0.0000E+00  0.0000E+00  0.0000E+00
      5.336  0.1257E-01  0.7524E-01  0.7524E-01  0.7524E-01  0.0000E+00  0.0000E+00  0.0000E+00  0.0000E+00  0.0000E+00
      5.350  0.1252E-01  0.7519E-01  0.7519E-01  0.7519E-01  0.0000E+00  0.0000E+00  0.0000E+00  0.0000E+00  0.0000E+00
      5.364  0.1247E-01  0.7515E-01  0.7515E-01  0.7515E-01  0.0000E+00  0.0000E+00  0.0000E+00  0.0000E+00  0.0000E+00
      5.378  0.1243E-01  0.7512E-01  0.7512E-01  0.7512E-01  0.0000E+00  0.0000E+00  0.0000E+00  0.0000E+00  0.0000E+00
      5.392  0.1238E-01  0.7510E-01  0.7510E-01  0.7510E-01  0.0000E+00  0.0000E+00  0.0000E+00  0.0000E+00  0.0000E+00
      5.406  0.1234E-01  0.7508E-01  0.7508E-01  0.7508E-01  0.0000E+00  0.0000E+00  0.0000E+00  0.0000E+00  0.0000E+00
      5.419  0.1229E-01  0.7507E-01  0.7507E-01  0.7507E-01  0.0000E+00  0.0000E+00  0.0000E+00  0.0000E+00  0.0000E+00
      5.433  0.1225E-01  0.7506E-01  0.7506E-01  0.7506E-01  0.0000E+00  0.0000E+00  0.0000E+00  0.0000E+00  0.0000E+00
      5.447  0.1220E-01  0.7506E-01  0.7506E-01  0.7506E-01  0.0000E+00  0.0000E+00  0.0000E+00  0.0000E+00  0.0000E+00
      5.461  0.1215E-01  0.7508E-01  0.7508E-01  0.7508E-01  0.0000E+00  0.0000E+00  0.0000E+00  0.0000E+00  0.0000E+00
      5.475  0.1211E-01  0.7512E-01  0.7512E-01  0.7512E-01  0.0000E+00  0.0000E+00  0.0000E+00  0.0000E+00  0.0000E+00
      5.489  0.1206E-01  0.7518E-01  0.7518E-01  0.7518E-01  0.0000E+00  0.0000E+00  0.0000E+00  0.0000E+00  0.0000E+00
      5.503  0.1202E-01  0.7526E-01  0.7526E-01  0.7526E-01  0.0000E+00  0.0000E+00  0.0000E+00  0.0000E+00  0.0000E+00
      5.517  0.1197E-01  0.7537E-01  0.7537E-01  0.7537E-01  0.0000E+00  0.0000E+00  0.0000E+00  0.0000E+00  0.0000E+00
      5.531  0.1193E-01  0.7550E-01  0.7550E-01  0.7550E-01  0.0000E+00  0.0000E+00  0.0000E+00  0.0000E+00  0.0000E+00
      5.545  0.1188E-01  0.7565E-01  0.7565E-01  0.7565E-01  0.0000E+00  0.0000E+00  0.0000E+00  0.0000E+00  0.0000E+00
      5.559  0.1184E-01  0.7583E-01  0.7583E-01  0.7583E-01  0.0000E+00  0.0000E+00  0.0000E+00  0.0000E+00  0.0000E+00
      5.573  0.1179E-01  0.7603E-01  0.7603E-01  0.7603E-01  0.0000E+00  0.0000E+00  0.0000E+00  0.0000E+00  0.0000E+00
      5.587  0.1175E-01  0.7625E-01  0.7625E-01  0.7625E-01  0.0000E+00  0.0000E+00  0.0000E+00  0.0000E+00  0.0000E+00
      5.601  0.1170E-01  0.7649E-01  0.7649E-01  0.7649E-01  0.0000E+00  0.0000E+00  0.0000E+00  0.0000E+00  0.0000E+00
      5.615  0.1166E-01  0.7676E-01  0.7676E-01  0.7676E-01  0.0000E+00  0.0000E+00  0.0000E+00  0.0000E+00  0.0000E+00
      5.629  0.1161E-01  0.7706E-01  0.7706E-01  0.7706E-01  0.0000E+00  0.0000E+00  0.0000E+00  0.0000E+00  0.0000E+00
      5.643  0.1157E-01  0.7736E-01  0.7736E-01  0.7736E-01  0.0000E+00  0.0000E+00  0.0000E+00  0.0000E+00  0.0000E+00
      5.657  0.1152E-01  0.7763E-01  0.7763E-01  0.7763E-01  0.0000E+00  0.0000E+00  0.0000E+00  0.0000E+00  0.0000E+00
      5.671  0.1148E-01  0.7763E-01  0.7763E-01  0.7763E-01  0.0000E+00  0.0000E+00  0.0000E+00  0.0000E+00  0.0000E+00
      5.685  0.1143E-01  0.7765E-01  0.7765E-01  0.7765E-01  0.0000E+00  0.0000E+00  0.0000E+00  0.0000E+00  0.0000E+00
      5.699  0.1138E-01  0.7769E-01  0.7769E-01  0.7769E-01  0.0000E+00  0.0000E+00  0.0000E+00  0.0000E+00  0.0000E+00
      5.713  0.1134E-01  0.7774E-01  0.7774E-01  0.7774E-01  0.0000E+00  0.0000E+00  0.0000E+00  0.0000E+00  0.0000E+00
      5.727  0.1129E-01  0.7781E-01  0.7781E-01  0.7781E-01  0.0000E+00  0.0000E+00  0.0000E+00  0.0000E+00  0.0000E+00
      5.741  0.1124E-01  0.7789E-01  0.7789E-01  0.7789E-01  0.0000E+00  0.0000E+00  0.0000E+00  0.0000E+00  0.0000E+00
      5.755  0.1119E-01  0.7800E-01  0.7800E-01  0.7800E-01  0.0000E+00  0.0000E+00  0.0000E+00  0.0000E+00  0.0000E+00
      5.769  0.1114E-01  0.7812E-01  0.7812E-01  0.7812E-01  0.0000E+00  0.0000E+00  0.0000E+00  0.0000E+00  0.0000E+00
      5.783  0.1109E-01  0.7825E-01  0.7825E-01  0.7825E-01  0.0000E+00  0.0000E+00  0.0000E+00  0.0000E+00  0.0000E+00
      5.797  0.1103E-01  0.7840E-01  0.7840E-01  0.7840E-01  0.0000E+00  0.0000E+00  0.0000E+00  0.0000E+00  0.0000E+00
      5.811  0.1098E-01  0.7855E-01  0.7855E-01  0.7855E-01  0.0000E+00  0.0000E+00  0.0000E+00  0.0000E+00  0.0000E+00
      5.825  0.1093E-01  0.7872E-01  0.7872E-01  0.7872E-01  0.0000E+00  0.0000E+00  0.0000E+00  0.0000E+00  0.0000E+00
      5.839  0.1087E-01  0.7889E-01  0.7889E-01  0.7889E-01  0.0000E+00  0.0000E+00  0.0000E+00  0.0000E+00  0.0000E+00
      5.853  0.1082E-01  0.7907E-01  0.7907E-01  0.7907E-01  0.0000E+00  0.0000E+00  0.0000E+00  0.0000E+00  0.0000E+00
      5.867  0.1077E-01  0.7926E-01  0.7926E-01  0.7926E-01  0.0000E+00  0.0000E+00  0.0000E+00  0.0000E+00  0.0000E+00
      5.881  0.1072E-01  0.7946E-01  0.7946E-01  0.7946E-01  0.0000E+00  0.0000E+00  0.0000E+00  0.0000E+00  0.0000E+00
      5.895  0.1066E-01  0.7966E-01  0.7966E-01  0.7966E-01  0.0000E+00  0.0000E+00  0.0000E+00  0.0000E+00  0.0000E+00
      5.909  0.1056E-01  0.7981E-01  0.7981E-01  0.7981E-01  0.0000E+00  0.0000E+00  0.0000E+00  0.0000E+00  0.0000E+00
      5.923  0.1046E-01  0.7996E-01  0.7996E-01  0.7996E-01  0.0000E+00  0.0000E+00  0.0000E+00  0.0000E+00  0.0000E+00
      5.937  0.1035E-01  0.8012E-01  0.8012E-01  0.8012E-01  0.0000E+00  0.0000E+00  0.0000E+00  0.0000E+00  0.0000E+00
      5.951  0.1025E-01  0.8029E-01  0.8029E-01  0.8029E-01  0.0000E+00  0.0000E+00  0.0000E+00  0.0000E+00  0.0000E+00
      5.965  0.1015E-01  0.8031E-01  0.8031E-01  0.8031E-01  0.0000E+00  0.0000E+00  0.0000E+00  0.0000E+00  0.0000E+00
      5.979  0.1004E-01  0.8021E-01  0.8021E-01  0.8021E-01  0.0000E+00  0.0000E+00  0.0000E+00  0.0000E+00  0.0000E+00
      5.993  0.9941E-02  0.8010E-01  0.8010E-01  0.8010E-01  0.0000E+00  0.0000E+00  0.0000E+00  0.0000E+00  0.0000E+00
      6.007  0.9841E-02  0.7998E-01  0.7998E-01  0.7998E-01  0.0000E+00  0.0000E+00  0.0000E+00  0.0000E+00  0.0000E+00
      6.020  0.9739E-02  0.7985E-01  0.7985E-01  0.7985E-01  0.0000E+00  0.0000E+00  0.0000E+00  0.0000E+00  0.0000E+00
      6.034  0.9635E-02  0.7972E-01  0.7972E-01  0.7972E-01  0.0000E+00  0.0000E+00  0.0000E+00  0.0000E+00  0.0000E+00
      6.048  0.9534E-02  0.7958E-01  0.7958E-01  0.7958E-01  0.0000E+00  0.0000E+00  0.0000E+00  0.0000E+00  0.0000E+00
      6.062  0.9434E-02  0.7944E-01  0.7944E-01  0.7944E-01  0.0000E+00  0.0000E+00  0.0000E+00  0.0000E+00  0.0000E+00
      6.076  0.9336E-02  0.7930E-01  0.7930E-01  0.7930E-01  0.0000E+00  0.0000E+00  0.0000E+00  0.0000E+00  0.0000E+00
      6.090  0.9239E-02  0.7915E-01  0.7915E-01  0.7915E-01  0.0000E+00  0.0000E+00  0.0000E+00  0.0000E+00  0.0000E+00
      6.104  0.9144E-02  0.7900E-01  0.7900E-01  0.7900E-01  0.0000E+00  0.0000E+00  0.0000E+00  0.0000E+00  0.0000E+00
      6.118  0.9051E-02  0.7884E-01  0.7884E-01  0.7884E-01  0.0000E+00  0.0000E+00  0.0000E+00  0.0000E+00  0.0000E+00
      6.132  0.8960E-02  0.7868E-01  0.7868E-01  0.7868E-01  0.0000E+00  0.0000E+00  0.0000E+00  0.0000E+00  0.0000E+00
      6.146  0.8871E-02  0.7852E-01  0.7852E-01  0.7852E-01  0.0000E+00  0.0000E+00  0.0000E+00  0.0000E+00  0.0000E+00
      6.160  0.8783E-02  0.7835E-01  0.7835E-01  0.7835E-01  0.0000E+00  0.0000E+00  0.0000E+00  0.0000E+00  0.0000E+00
      6.174  0.8697E-02  0.7818E-01  0.7818E-01  0.7818E-01  0.0000E+00  0.0000E+00  0.0000E+00  0.0000E+00  0.0000E+00
      6.188  0.8613E-02  0.7800E-01  0.7800E-01  0.7800E-01  0.0000E+00  0.0000E+00  0.0000E+00  0.0000E+00  0.0000E+00
      6.202  0.8530E-02  0.7782E-01  0.7782E-01  0.7782E-01  0.0000E+00  0.0000E+00  0.0000E+00  0.0000E+00  0.0000E+00
      6.216  0.8449E-02  0.7764E-01  0.7764E-01  0.7764E-01  0.0000E+00  0.0000E+00  0.0000E+00  0.0000E+00  0.0000E+00
      6.230  0.8370E-02  0.7745E-01  0.7745E-01  0.7745E-01  0.0000E+00  0.0000E+00  0.0000E+00  0.0000E+00  0.0000E+00
      6.244  0.8293E-02  0.7726E-01  0.7726E-01  0.7726E-01  0.0000E+00  0.0000E+00  0.0000E+00  0.0000E+00  0.0000E+00
      6.258  0.8217E-02  0.7706E-01  0.7706E-01  0.7706E-01  0.0000E+00  0.0000E+00  0.0000E+00  0.0000E+00  0.0000E+00
      6.272  0.8144E-02  0.7686E-01  0.7686E-01  0.7686E-01  0.0000E+00  0.0000E+00  0.0000E+00  0.0000E+00  0.0000E+00
      6.286  0.8068E-02  0.7662E-01  0.7662E-01  0.7662E-01  0.0000E+00  0.0000E+00  0.0000E+00  0.0000E+00  0.0000E+00
      6.300  0.7992E-02  0.7636E-01  0.7636E-01  0.7636E-01  0.0000E+00  0.0000E+00  0.0000E+00  0.0000E+00  0.0000E+00
      6.314  0.7918E-02  0.7610E-01  0.7610E-01  0.7610E-01  0.0000E+00  0.0000E+00  0.0000E+00  0.0000E+00  0.0000E+00
      6.328  0.7847E-02  0.7583E-01  0.7583E-01  0.7583E-01  0.0000E+00  0.0000E+00  0.0000E+00  0.0000E+00  0.0000E+00
      6.342  0.7777E-02  0.7555E-01  0.7555E-01  0.7555E-01  0.0000E+00  0.0000E+00  0.0000E+00  0.0000E+00  0.0000E+00
      6.356  0.7709E-02  0.7527E-01  0.7527E-01  0.7527E-01  0.0000E+00  0.0000E+00  0.0000E+00  0.0000E+00  0.0000E+00
      6.370  0.7644E-02  0.7498E-01  0.7498E-01  0.7498E-01  0.0000E+00  0.0000E+00  0.0000E+00  0.0000E+00  0.0000E+00
      6.384  0.7580E-02  0.7485E-01  0.7485E-01  0.7485E-01  0.0000E+00  0.0000E+00  0.0000E+00  0.0000E+00  0.0000E+00
      6.398  0.7518E-02  0.7485E-01  0.7485E-01  0.7485E-01  0.0000E+00  0.0000E+00  0.0000E+00  0.0000E+00  0.0000E+00
      6.412  0.7457E-02  0.7484E-01  0.7484E-01  0.7484E-01  0.0000E+00  0.0000E+00  0.0000E+00  0.0000E+00  0.0000E+00
      6.426  0.7398E-02  0.7482E-01  0.7482E-01  0.7482E-01  0.0000E+00  0.0000E+00  0.0000E+00  0.0000E+00  0.0000E+00
      6.440  0.7341E-02  0.7480E-01  0.7480E-01  0.7480E-01  0.0000E+00  0.0000E+00  0.0000E+00  0.0000E+00  0.0000E+00
      6.454  0.7286E-02  0.7476E-01  0.7476E-01  0.7476E-01  0.0000E+00  0.0000E+00  0.0000E+00  0.0000E+00  0.0000E+00
      6.468  0.7231E-02  0.7471E-01  0.7471E-01  0.7471E-01  0.0000E+00  0.0000E+00  0.0000E+00  0.0000E+00  0.0000E+00
      6.482  0.7177E-02  0.7465E-01  0.7465E-01  0.7465E-01  0.0000E+00  0.0000E+00  0.0000E+00  0.0000E+00  0.0000E+00
      6.496  0.7125E-02  0.7458E-01  0.7458E-01  0.7458E-01  0.0000E+00  0.0000E+00  0.0000E+00  0.0000E+00  0.0000E+00
      6.510  0.7073E-02  0.7450E-01  0.7450E-01  0.7450E-01  0.0000E+00  0.0000E+00  0.0000E+00  0.0000E+00  0.0000E+00
      6.524  0.7022E-02  0.7440E-01  0.7440E-01  0.7440E-01  0.0000E+00  0.0000E+00  0.0000E+00  0.0000E+00  0.0000E+00
      6.538  0.6972E-02  0.7430E-01  0.7430E-01  0.7430E-01  0.0000E+00  0.0000E+00  0.0000E+00  0.0000E+00  0.0000E+00
      6.552  0.6923E-02  0.7419E-01  0.7419E-01  0.7419E-01  0.0000E+00  0.0000E+00  0.0000E+00  0.0000E+00  0.0000E+00
      6.566  0.6875E-02  0.7406E-01  0.7406E-01  0.7406E-01  0.0000E+00  0.0000E+00  0.0000E+00  0.0000E+00  0.0000E+00
      6.580  0.6828E-02  0.7392E-01  0.7392E-01  0.7392E-01  0.0000E+00  0.0000E+00  0.0000E+00  0.0000E+00  0.0000E+00
      6.594  0.6782E-02  0.7377E-01  0.7377E-01  0.7377E-01  0.0000E+00  0.0000E+00  0.0000E+00  0.0000E+00  0.0000E+00
      6.608  0.6736E-02  0.7358E-01  0.7358E-01  0.7358E-01  0.0000E+00  0.0000E+00  0.0000E+00  0.0000E+00  0.0000E+00
      6.621  0.6690E-02  0.7335E-01  0.7335E-01  0.7335E-01  0.0000E+00  0.0000E+00  0.0000E+00  0.0000E+00  0.0000E+00
      6.635  0.6645E-02  0.7307E-01  0.7307E-01  0.7307E-01  0.0000E+00  0.0000E+00  0.0000E+00  0.0000E+00  0.0000E+00
      6.649  0.6600E-02  0.7276E-01  0.7276E-01  0.7276E-01  0.0000E+00  0.0000E+00  0.0000E+00  0.0000E+00  0.0000E+00
      6.663  0.6554E-02  0.7240E-01  0.7240E-01  0.7240E-01  0.0000E+00  0.0000E+00  0.0000E+00  0.0000E+00  0.0000E+00
      6.677  0.6509E-02  0.7199E-01  0.7199E-01  0.7199E-01  0.0000E+00  0.0000E+00  0.0000E+00  0.0000E+00  0.0000E+00
      6.691  0.6465E-02  0.7154E-01  0.7154E-01  0.7154E-01  0.0000E+00  0.0000E+00  0.0000E+00  0.0000E+00  0.0000E+00
      6.705  0.6420E-02  0.7104E-01  0.7104E-01  0.7104E-01  0.0000E+00  0.0000E+00  0.0000E+00  0.0000E+00  0.0000E+00
      6.719  0.6375E-02  0.7049E-01  0.7049E-01  0.7049E-01  0.0000E+00  0.0000E+00  0.0000E+00  0.0000E+00  0.0000E+00
      6.733  0.6331E-02  0.6989E-01  0.6989E-01  0.6989E-01  0.0000E+00  0.0000E+00  0.0000E+00  0.0000E+00  0.0000E+00
      6.747  0.6286E-02  0.6925E-01  0.6925E-01  0.6925E-01  0.0000E+00  0.0000E+00  0.0000E+00  0.0000E+00  0.0000E+00
      6.761  0.6240E-02  0.6857E-01  0.6857E-01  0.6857E-01  0.0000E+00  0.0000E+00  0.0000E+00  0.0000E+00  0.0000E+00
      6.775  0.6193E-02  0.6784E-01  0.6784E-01  0.6784E-01  0.0000E+00  0.0000E+00  0.0000E+00  0.0000E+00  0.0000E+00
      6.789  0.6146E-02  0.6707E-01  0.6707E-01  0.6707E-01  0.0000E+00  0.0000E+00  0.0000E+00  0.0000E+00  0.0000E+00
      6.803  0.6100E-02  0.6618E-01  0.6618E-01  0.6618E-01  0.0000E+00  0.0000E+00  0.0000E+00  0.0000E+00  0.0000E+00
      6.817  0.6054E-02  0.6514E-01  0.6514E-01  0.6514E-01  0.0000E+00  0.0000E+00  0.0000E+00  0.0000E+00  0.0000E+00
      6.831  0.6009E-02  0.6397E-01  0.6397E-01  0.6397E-01  0.0000E+00  0.0000E+00  0.0000E+00  0.0000E+00  0.0000E+00
      6.845  0.5965E-02  0.6264E-01  0.6264E-01  0.6264E-01  0.0000E+00  0.0000E+00  0.0000E+00  0.0000E+00  0.0000E+00
      6.859  0.5921E-02  0.6118E-01  0.6118E-01  0.6118E-01  0.0000E+00  0.0000E+00  0.0000E+00  0.0000E+00  0.0000E+00
      6.873  0.5880E-02  0.5966E-01  0.5966E-01  0.5966E-01  0.0000E+00  0.0000E+00  0.0000E+00  0.0000E+00  0.0000E+00
      6.887  0.5840E-02  0.5824E-01  0.5824E-01  0.5824E-01  0.0000E+00  0.0000E+00  0.0000E+00  0.0000E+00  0.0000E+00
      6.901  0.5801E-02  0.5691E-01  0.5691E-01  0.5691E-01  0.0000E+00  0.0000E+00  0.0000E+00  0.0000E+00  0.0000E+00
      6.915  0.5763E-02  0.5567E-01  0.5567E-01  0.5567E-01  0.0000E+00  0.0000E+00  0.0000E+00  0.0000E+00  0.0000E+00
      6.929  0.5726E-02  0.5454E-01  0.5454E-01  0.5454E-01  0.0000E+00  0.0000E+00  0.0000E+00  0.0000E+00  0.0000E+00
      6.943  0.5691E-02  0.5349E-01  0.5349E-01  0.5349E-01  0.0000E+00  0.0000E+00  0.0000E+00  0.0000E+00  0.0000E+00
      6.957  0.5656E-02  0.5254E-01  0.5254E-01  0.5254E-01  0.0000E+00  0.0000E+00  0.0000E+00  0.0000E+00  0.0000E+00
      6.971  0.5623E-02  0.5169E-01  0.5169E-01  0.5169E-01  0.0000E+00  0.0000E+00  0.0000E+00  0.0000E+00  0.0000E+00
      6.985  0.5591E-02  0.5093E-01  0.5093E-01  0.5093E-01  0.0000E+00  0.0000E+00  0.0000E+00  0.0000E+00  0.0000E+00
      6.999  0.5560E-02  0.5027E-01  0.5027E-01  0.5027E-01  0.0000E+00  0.0000E+00  0.0000E+00  0.0000E+00  0.0000E+00
      7.013  0.5530E-02  0.4970E-01  0.4970E-01  0.4970E-01  0.0000E+00  0.0000E+00  0.0000E+00  0.0000E+00  0.0000E+00
      7.027  0.5501E-02  0.4923E-01  0.4923E-01  0.4923E-01  0.0000E+00  0.0000E+00  0.0000E+00  0.0000E+00  0.0000E+00
      7.041  0.5474E-02  0.4884E-01  0.4884E-01  0.4884E-01  0.0000E+00  0.0000E+00  0.0000E+00  0.0000E+00  0.0000E+00
      7.055  0.5446E-02  0.4847E-01  0.4847E-01  0.4847E-01  0.0000E+00  0.0000E+00  0.0000E+00  0.0000E+00  0.0000E+00
      7.069  0.5417E-02  0.4810E-01  0.4810E-01  0.4810E-01  0.0000E+00  0.0000E+00  0.0000E+00  0.0000E+00  0.0000E+00
      7.083  0.5388E-02  0.4773E-01  0.4773E-01  0.4773E-01  0.0000E+00  0.0000E+00  0.0000E+00  0.0000E+00  0.0000E+00
      7.097  0.5358E-02  0.4736E-01  0.4736E-01  0.4736E-01  0.0000E+00  0.0000E+00  0.0000E+00  0.0000E+00  0.0000E+00
      7.111  0.5328E-02  0.4698E-01  0.4698E-01  0.4698E-01  0.0000E+00  0.0000E+00  0.0000E+00  0.0000E+00  0.0000E+00
      7.125  0.5298E-02  0.4661E-01  0.4661E-01  0.4661E-01  0.0000E+00  0.0000E+00  0.0000E+00  0.0000E+00  0.0000E+00
      7.139  0.5267E-02  0.4624E-01  0.4624E-01  0.4624E-01  0.0000E+00  0.0000E+00  0.0000E+00  0.0000E+00  0.0000E+00
      7.153  0.5235E-02  0.4587E-01  0.4587E-01  0.4587E-01  0.0000E+00  0.0000E+00  0.0000E+00  0.0000E+00  0.0000E+00
      7.167  0.5203E-02  0.4550E-01  0.4550E-01  0.4550E-01  0.0000E+00  0.0000E+00  0.0000E+00  0.0000E+00  0.0000E+00
      7.181  0.5171E-02  0.4513E-01  0.4513E-01  0.4513E-01  0.0000E+00  0.0000E+00  0.0000E+00  0.0000E+00  0.0000E+00
      7.195  0.5138E-02  0.4476E-01  0.4476E-01  0.4476E-01  0.0000E+00  0.0000E+00  0.0000E+00  0.0000E+00  0.0000E+00
      7.209  0.5104E-02  0.4439E-01  0.4439E-01  0.4439E-01  0.0000E+00  0.0000E+00  0.0000E+00  0.0000E+00  0.0000E+00
      7.222  0.5070E-02  0.4401E-01  0.4401E-01  0.4401E-01  0.0000E+00  0.0000E+00  0.0000E+00  0.0000E+00  0.0000E+00
      7.236  0.5036E-02  0.4364E-01  0.4364E-01  0.4364E-01  0.0000E+00  0.0000E+00  0.0000E+00  0.0000E+00  0.0000E+00
      7.250  0.5000E-02  0.4327E-01  0.4327E-01  0.4327E-01  0.0000E+00  0.0000E+00  0.0000E+00  0.0000E+00  0.0000E+00
      7.264  0.4965E-02  0.4290E-01  0.4290E-01  0.4290E-01  0.0000E+00  0.0000E+00  0.0000E+00  0.0000E+00  0.0000E+00
      7.278  0.4929E-02  0.4253E-01  0.4253E-01  0.4253E-01  0.0000E+00  0.0000E+00  0.0000E+00  0.0000E+00  0.0000E+00
      7.292  0.4892E-02  0.4216E-01  0.4216E-01  0.4216E-01  0.0000E+00  0.0000E+00  0.0000E+00  0.0000E+00  0.0000E+00
      7.306  0.4855E-02  0.4179E-01  0.4179E-01  0.4179E-01  0.0000E+00  0.0000E+00  0.0000E+00  0.0000E+00  0.0000E+00
      7.320  0.4818E-02  0.4142E-01  0.4142E-01  0.4142E-01  0.0000E+00  0.0000E+00  0.0000E+00  0.0000E+00  0.0000E+00
      7.334  0.4780E-02  0.4105E-01  0.4105E-01  0.4105E-01  0.0000E+00  0.0000E+00  0.0000E+00  0.0000E+00  0.0000E+00
      7.348  0.4741E-02  0.4070E-01  0.4070E-01  0.4070E-01  0.0000E+00  0.0000E+00  0.0000E+00  0.0000E+00  0.0000E+00
      7.362  0.4700E-02  0.4039E-01  0.4039E-01  0.4039E-01  0.0000E+00  0.0000E+00  0.0000E+00  0.0000E+00  0.0000E+00
      7.376  0.4659E-02  0.4010E-01  0.4010E-01  0.4010E-01  0.0000E+00  0.0000E+00  0.0000E+00  0.0000E+00  0.0000E+00
      7.390  0.4617E-02  0.3986E-01  0.3986E-01  0.3986E-01  0.0000E+00  0.0000E+00  0.0000E+00  0.0000E+00  0.0000E+00
      7.404  0.4573E-02  0.3964E-01  0.3964E-01  0.3964E-01  0.0000E+00  0.0000E+00  0.0000E+00  0.0000E+00  0.0000E+00
      7.418  0.4529E-02  0.3946E-01  0.3946E-01  0.3946E-01  0.0000E+00  0.0000E+00  0.0000E+00  0.0000E+00  0.0000E+00
      7.432  0.4483E-02  0.3931E-01  0.3931E-01  0.3931E-01  0.0000E+00  0.0000E+00  0.0000E+00  0.0000E+00  0.0000E+00
      7.446  0.4436E-02  0.3919E-01  0.3919E-01  0.3919E-01  0.0000E+00  0.0000E+00  0.0000E+00  0.0000E+00  0.0000E+00
      7.460  0.4383E-02  0.3911E-01  0.3911E-01  0.3911E-01  0.0000E+00  0.0000E+00  0.0000E+00  0.0000E+00  0.0000E+00
      7.474  0.4312E-02  0.3884E-01  0.3884E-01  0.3884E-01  0.0000E+00  0.0000E+00  0.0000E+00  0.0000E+00  0.0000E+00
      7.488  0.4222E-02  0.3841E-01  0.3841E-01  0.3841E-01  0.0000E+00  0.0000E+00  0.0000E+00  0.0000E+00  0.0000E+00
      7.502  0.4110E-02  0.3798E-01  0.3798E-01  0.3798E-01  0.0000E+00  0.0000E+00  0.0000E+00  0.0000E+00  0.0000E+00
      7.516  0.3978E-02  0.3756E-01  0.3756E-01  0.3756E-01  0.0000E+00  0.0000E+00  0.0000E+00  0.0000E+00  0.0000E+00
      7.530  0.3877E-02  0.3719E-01  0.3719E-01  0.3719E-01  0.0000E+00  0.0000E+00  0.0000E+00  0.0000E+00  0.0000E+00
      7.544  0.3825E-02  0.3689E-01  0.3689E-01  0.3689E-01  0.0000E+00  0.0000E+00  0.0000E+00  0.0000E+00  0.0000E+00
      7.558  0.3799E-02  0.3664E-01  0.3664E-01  0.3664E-01  0.0000E+00  0.0000E+00  0.0000E+00  0.0000E+00  0.0000E+00
      7.572  0.3772E-02  0.3638E-01  0.3638E-01  0.3638E-01  0.0000E+00  0.0000E+00  0.0000E+00  0.0000E+00  0.0000E+00
      7.586  0.3746E-02  0.3613E-01  0.3613E-01  0.3613E-01  0.0000E+00  0.0000E+00  0.0000E+00  0.0000E+00  0.0000E+00
      7.600  0.3720E-02  0.3587E-01  0.3587E-01  0.3587E-01  0.0000E+00  0.0000E+00  0.0000E+00  0.0000E+00  0.0000E+00
      7.614  0.3695E-02  0.3561E-01  0.3561E-01  0.3561E-01  0.0000E+00  0.0000E+00  0.0000E+00  0.0000E+00  0.0000E+00
      7.628  0.3669E-02  0.3534E-01  0.3534E-01  0.3534E-01  0.0000E+00  0.0000E+00  0.0000E+00  0.0000E+00  0.0000E+00
      7.642  0.3644E-02  0.3508E-01  0.3508E-01  0.3508E-01  0.0000E+00  0.0000E+00  0.0000E+00  0.0000E+00  0.0000E+00
      7.656  0.3618E-02  0.3481E-01  0.3481E-01  0.3481E-01  0.0000E+00  0.0000E+00  0.0000E+00  0.0000E+00  0.0000E+00
      7.670  0.3593E-02  0.3454E-01  0.3454E-01  0.3454E-01  0.0000E+00  0.0000E+00  0.0000E+00  0.0000E+00  0.0000E+00
      7.684  0.3568E-02  0.3428E-01  0.3428E-01  0.3428E-01  0.0000E+00  0.0000E+00  0.0000E+00  0.0000E+00  0.0000E+00
      7.698  0.3543E-02  0.3401E-01  0.3401E-01  0.3401E-01  0.0000E+00  0.0000E+00  0.0000E+00  0.0000E+00  0.0000E+00
      7.712  0.3518E-02  0.3374E-01  0.3374E-01  0.3374E-01  0.0000E+00  0.0000E+00  0.0000E+00  0.0000E+00  0.0000E+00
      7.726  0.3494E-02  0.3348E-01  0.3348E-01  0.3348E-01  0.0000E+00  0.0000E+00  0.0000E+00  0.0000E+00  0.0000E+00
      7.740  0.3469E-02  0.3321E-01  0.3321E-01  0.3321E-01  0.0000E+00  0.0000E+00  0.0000E+00  0.0000E+00  0.0000E+00
      7.754  0.3444E-02  0.3295E-01  0.3295E-01  0.3295E-01  0.0000E+00  0.0000E+00  0.0000E+00  0.0000E+00  0.0000E+00
      7.768  0.3420E-02  0.3269E-01  0.3269E-01  0.3269E-01  0.0000E+00  0.0000E+00  0.0000E+00  0.0000E+00  0.0000E+00
      7.782  0.3395E-02  0.3243E-01  0.3243E-01  0.3243E-01  0.0000E+00  0.0000E+00  0.0000E+00  0.0000E+00  0.0000E+00
      7.796  0.3370E-02  0.3217E-01  0.3217E-01  0.3217E-01  0.0000E+00  0.0000E+00  0.0000E+00  0.0000E+00  0.0000E+00
      7.810  0.3346E-02  0.3191E-01  0.3191E-01  0.3191E-01  0.0000E+00  0.0000E+00  0.0000E+00  0.0000E+00  0.0000E+00
      7.823  0.3321E-02  0.3166E-01  0.3166E-01  0.3166E-01  0.0000E+00  0.0000E+00  0.0000E+00  0.0000E+00  0.0000E+00
      7.837  0.3296E-02  0.3140E-01  0.3140E-01  0.3140E-01  0.0000E+00  0.0000E+00  0.0000E+00  0.0000E+00  0.0000E+00
      7.851  0.3271E-02  0.3114E-01  0.3114E-01  0.3114E-01  0.0000E+00  0.0000E+00  0.0000E+00  0.0000E+00  0.0000E+00
      7.865  0.3246E-02  0.3089E-01  0.3089E-01  0.3089E-01  0.0000E+00  0.0000E+00  0.0000E+00  0.0000E+00  0.0000E+00
      7.879  0.3221E-02  0.3063E-01  0.3063E-01  0.3063E-01  0.0000E+00  0.0000E+00  0.0000E+00  0.0000E+00  0.0000E+00
      7.893  0.3195E-02  0.3038E-01  0.3038E-01  0.3038E-01  0.0000E+00  0.0000E+00  0.0000E+00  0.0000E+00  0.0000E+00
      7.907  0.3170E-02  0.3012E-01  0.3012E-01  0.3012E-01  0.0000E+00  0.0000E+00  0.0000E+00  0.0000E+00  0.0000E+00
      7.921  0.3145E-02  0.2987E-01  0.2987E-01  0.2987E-01  0.0000E+00  0.0000E+00  0.0000E+00  0.0000E+00  0.0000E+00
      7.935  0.3119E-02  0.2962E-01  0.2962E-01  0.2962E-01  0.0000E+00  0.0000E+00  0.0000E+00  0.0000E+00  0.0000E+00
      7.949  0.3094E-02  0.2936E-01  0.2936E-01  0.2936E-01  0.0000E+00  0.0000E+00  0.0000E+00  0.0000E+00  0.0000E+00
      7.963  0.3068E-02  0.2911E-01  0.2911E-01  0.2911E-01  0.0000E+00  0.0000E+00  0.0000E+00  0.0000E+00  0.0000E+00
      7.977  0.3043E-02  0.2886E-01  0.2886E-01  0.2886E-01  0.0000E+00  0.0000E+00  0.0000E+00  0.0000E+00  0.0000E+00
      7.991  0.3001E-02  0.2859E-01  0.2859E-01  0.2859E-01  0.0000E+00  0.0000E+00  0.0000E+00  0.0000E+00  0.0000E+00
      8.005  0.2959E-02  0.2831E-01  0.2831E-01  0.2831E-01  0.0000E+00  0.0000E+00  0.0000E+00  0.0000E+00  0.0000E+00
      8.019  0.2917E-02  0.2803E-01  0.2803E-01  0.2803E-01  0.0000E+00  0.0000E+00  0.0000E+00  0.0000E+00  0.0000E+00
      8.033  0.2876E-02  0.2776E-01  0.2776E-01  0.2776E-01  0.0000E+00  0.0000E+00  0.0000E+00  0.0000E+00  0.0000E+00
      8.047  0.2836E-02  0.2748E-01  0.2748E-01  0.2748E-01  0.0000E+00  0.0000E+00  0.0000E+00  0.0000E+00  0.0000E+00
      8.061  0.2795E-02  0.2721E-01  0.2721E-01  0.2721E-01  0.0000E+00  0.0000E+00  0.0000E+00  0.0000E+00  0.0000E+00
      8.075  0.2756E-02  0.2694E-01  0.2694E-01  0.2694E-01  0.0000E+00  0.0000E+00  0.0000E+00  0.0000E+00  0.0000E+00
      8.089  0.2716E-02  0.2667E-01  0.2667E-01  0.2667E-01  0.0000E+00  0.0000E+00  0.0000E+00  0.0000E+00  0.0000E+00
      8.103  0.2677E-02  0.2639E-01  0.2639E-01  0.2639E-01  0.0000E+00  0.0000E+00  0.0000E+00  0.0000E+00  0.0000E+00
      8.117  0.2639E-02  0.2612E-01  0.2612E-01  0.2612E-01  0.0000E+00  0.0000E+00  0.0000E+00  0.0000E+00  0.0000E+00
      8.131  0.2601E-02  0.2585E-01  0.2585E-01  0.2585E-01  0.0000E+00  0.0000E+00  0.0000E+00  0.0000E+00  0.0000E+00
      8.145  0.2563E-02  0.2558E-01  0.2558E-01  0.2558E-01  0.0000E+00  0.0000E+00  0.0000E+00  0.0000E+00  0.0000E+00
      8.159  0.2526E-02  0.2531E-01  0.2531E-01  0.2531E-01  0.0000E+00  0.0000E+00  0.0000E+00  0.0000E+00  0.0000E+00
      8.173  0.2489E-02  0.2505E-01  0.2505E-01  0.2505E-01  0.0000E+00  0.0000E+00  0.0000E+00  0.0000E+00  0.0000E+00
      8.187  0.2453E-02  0.2478E-01  0.2478E-01  0.2478E-01  0.0000E+00  0.0000E+00  0.0000E+00  0.0000E+00  0.0000E+00
      8.201  0.2417E-02  0.2451E-01  0.2451E-01  0.2451E-01  0.0000E+00  0.0000E+00  0.0000E+00  0.0000E+00  0.0000E+00
      8.215  0.2381E-02  0.2424E-01  0.2424E-01  0.2424E-01  0.0000E+00  0.0000E+00  0.0000E+00  0.0000E+00  0.0000E+00
      8.229  0.2346E-02  0.2398E-01  0.2398E-01  0.2398E-01  0.0000E+00  0.0000E+00  0.0000E+00  0.0000E+00  0.0000E+00
      8.243  0.2312E-02  0.2371E-01  0.2371E-01  0.2371E-01  0.0000E+00  0.0000E+00  0.0000E+00  0.0000E+00  0.0000E+00
      8.257  0.2278E-02  0.2345E-01  0.2345E-01  0.2345E-01  0.0000E+00  0.0000E+00  0.0000E+00  0.0000E+00  0.0000E+00
      8.271  0.2244E-02  0.2319E-01  0.2319E-01  0.2319E-01  0.0000E+00  0.0000E+00  0.0000E+00  0.0000E+00  0.0000E+00
      8.285  0.2211E-02  0.2292E-01  0.2292E-01  0.2292E-01  0.0000E+00  0.0000E+00  0.0000E+00  0.0000E+00  0.0000E+00
      8.299  0.2178E-02  0.2266E-01  0.2266E-01  0.2266E-01  0.0000E+00  0.0000E+00  0.0000E+00  0.0000E+00  0.0000E+00
      8.313  0.2145E-02  0.2240E-01  0.2240E-01  0.2240E-01  0.0000E+00  0.0000E+00  0.0000E+00  0.0000E+00  0.0000E+00
      8.327  0.2086E-02  0.2225E-01  0.2225E-01  0.2225E-01  0.0000E+00  0.0000E+00  0.0000E+00  0.0000E+00  0.0000E+00
      8.341  0.1981E-02  0.2225E-01  0.2225E-01  0.2225E-01  0.0000E+00  0.0000E+00  0.0000E+00  0.0000E+00  0.0000E+00
      8.355  0.1887E-02  0.2221E-01  0.2221E-01  0.2221E-01  0.0000E+00  0.0000E+00  0.0000E+00  0.0000E+00  0.0000E+00
      8.369  0.1807E-02  0.2212E-01  0.2212E-01  0.2212E-01  0.0000E+00  0.0000E+00  0.0000E+00  0.0000E+00  0.0000E+00
      8.383  0.1742E-02  0.2197E-01  0.2197E-01  0.2197E-01  0.0000E+00  0.0000E+00  0.0000E+00  0.0000E+00  0.0000E+00
      8.397  0.1692E-02  0.2177E-01  0.2177E-01  0.2177E-01  0.0000E+00  0.0000E+00  0.0000E+00  0.0000E+00  0.0000E+00
      8.411  0.1656E-02  0.2152E-01  0.2152E-01  0.2152E-01  0.0000E+00  0.0000E+00  0.0000E+00  0.0000E+00  0.0000E+00
      8.424  0.1632E-02  0.2123E-01  0.2123E-01  0.2123E-01  0.0000E+00  0.0000E+00  0.0000E+00  0.0000E+00  0.0000E+00
      8.438  0.1610E-02  0.2094E-01  0.2094E-01  0.2094E-01  0.0000E+00  0.0000E+00  0.0000E+00  0.0000E+00  0.0000E+00
      8.452  0.1588E-02  0.2065E-01  0.2065E-01  0.2065E-01  0.0000E+00  0.0000E+00  0.0000E+00  0.0000E+00  0.0000E+00
      8.466  0.1567E-02  0.2036E-01  0.2036E-01  0.2036E-01  0.0000E+00  0.0000E+00  0.0000E+00  0.0000E+00  0.0000E+00
      8.480  0.1546E-02  0.2008E-01  0.2008E-01  0.2008E-01  0.0000E+00  0.0000E+00  0.0000E+00  0.0000E+00  0.0000E+00
      8.494  0.1525E-02  0.1980E-01  0.1980E-01  0.1980E-01  0.0000E+00  0.0000E+00  0.0000E+00  0.0000E+00  0.0000E+00
      8.508  0.1505E-02  0.1952E-01  0.1952E-01  0.1952E-01  0.0000E+00  0.0000E+00  0.0000E+00  0.0000E+00  0.0000E+00
      8.522  0.1485E-02  0.1925E-01  0.1925E-01  0.1925E-01  0.0000E+00  0.0000E+00  0.0000E+00  0.0000E+00  0.0000E+00
      8.536  0.1466E-02  0.1898E-01  0.1898E-01  0.1898E-01  0.0000E+00  0.0000E+00  0.0000E+00  0.0000E+00  0.0000E+00
      8.550  0.1446E-02  0.1871E-01  0.1871E-01  0.1871E-01  0.0000E+00  0.0000E+00  0.0000E+00  0.0000E+00  0.0000E+00
      8.564  0.1427E-02  0.1845E-01  0.1845E-01  0.1845E-01  0.0000E+00  0.0000E+00  0.0000E+00  0.0000E+00  0.0000E+00
      8.578  0.1409E-02  0.1819E-01  0.1819E-01  0.1819E-01  0.0000E+00  0.0000E+00  0.0000E+00  0.0000E+00  0.0000E+00
      8.592  0.1391E-02  0.1793E-01  0.1793E-01  0.1793E-01  0.0000E+00  0.0000E+00  0.0000E+00  0.0000E+00  0.0000E+00
      8.606  0.1373E-02  0.1768E-01  0.1768E-01  0.1768E-01  0.0000E+00  0.0000E+00  0.0000E+00  0.0000E+00  0.0000E+00
      8.620  0.1355E-02  0.1743E-01  0.1743E-01  0.1743E-01  0.0000E+00  0.0000E+00  0.0000E+00  0.0000E+00  0.0000E+00
      8.634  0.1338E-02  0.1719E-01  0.1719E-01  0.1719E-01  0.0000E+00  0.0000E+00  0.0000E+00  0.0000E+00  0.0000E+00
      8.648  0.1321E-02  0.1695E-01  0.1695E-01  0.1695E-01  0.0000E+00  0.0000E+00  0.0000E+00  0.0000E+00  0.0000E+00
      8.662  0.1304E-02  0.1671E-01  0.1671E-01  0.1671E-01  0.0000E+00  0.0000E+00  0.0000E+00  0.0000E+00  0.0000E+00
      8.676  0.1288E-02  0.1647E-01  0.1647E-01  0.1647E-01  0.0000E+00  0.0000E+00  0.0000E+00  0.0000E+00  0.0000E+00
      8.690  0.1272E-02  0.1624E-01  0.1624E-01  0.1624E-01  0.0000E+00  0.0000E+00  0.0000E+00  0.0000E+00  0.0000E+00
      8.704  0.1256E-02  0.1601E-01  0.1601E-01  0.1601E-01  0.0000E+00  0.0000E+00  0.0000E+00  0.0000E+00  0.0000E+00
      8.718  0.1241E-02  0.1579E-01  0.1579E-01  0.1579E-01  0.0000E+00  0.0000E+00  0.0000E+00  0.0000E+00  0.0000E+00
      8.732  0.1226E-02  0.1557E-01  0.1557E-01  0.1557E-01  0.0000E+00  0.0000E+00  0.0000E+00  0.0000E+00  0.0000E+00
      8.746  0.1212E-02  0.1535E-01  0.1535E-01  0.1535E-01  0.0000E+00  0.0000E+00  0.0000E+00  0.0000E+00  0.0000E+00
      8.760  0.1197E-02  0.1514E-01  0.1514E-01  0.1514E-01  0.0000E+00  0.0000E+00  0.0000E+00  0.0000E+00  0.0000E+00
      8.774  0.1183E-02  0.1493E-01  0.1493E-01  0.1493E-01  0.0000E+00  0.0000E+00  0.0000E+00  0.0000E+00  0.0000E+00
      8.788  0.1170E-02  0.1472E-01  0.1472E-01  0.1472E-01  0.0000E+00  0.0000E+00  0.0000E+00  0.0000E+00  0.0000E+00
      8.802  0.1156E-02  0.1453E-01  0.1453E-01  0.1453E-01  0.0000E+00  0.0000E+00  0.0000E+00  0.0000E+00  0.0000E+00
      8.816  0.1141E-02  0.1434E-01  0.1434E-01  0.1434E-01  0.0000E+00  0.0000E+00  0.0000E+00  0.0000E+00  0.0000E+00
      8.830  0.1127E-02  0.1416E-01  0.1416E-01  0.1416E-01  0.0000E+00  0.0000E+00  0.0000E+00  0.0000E+00  0.0000E+00
      8.844  0.1113E-02  0.1399E-01  0.1399E-01  0.1399E-01  0.0000E+00  0.0000E+00  0.0000E+00  0.0000E+00  0.0000E+00
      8.858  0.1098E-02  0.1383E-01  0.1383E-01  0.1383E-01  0.0000E+00  0.0000E+00  0.0000E+00  0.0000E+00  0.0000E+00
      8.872  0.1083E-02  0.1367E-01  0.1367E-01  0.1367E-01  0.0000E+00  0.0000E+00  0.0000E+00  0.0000E+00  0.0000E+00
      8.886  0.1069E-02  0.1353E-01  0.1353E-01  0.1353E-01  0.0000E+00  0.0000E+00  0.0000E+00  0.0000E+00  0.0000E+00
      8.900  0.1054E-02  0.1339E-01  0.1339E-01  0.1339E-01  0.0000E+00  0.0000E+00  0.0000E+00  0.0000E+00  0.0000E+00
      8.914  0.1038E-02  0.1326E-01  0.1326E-01  0.1326E-01  0.0000E+00  0.0000E+00  0.0000E+00  0.0000E+00  0.0000E+00
      8.928  0.1023E-02  0.1314E-01  0.1314E-01  0.1314E-01  0.0000E+00  0.0000E+00  0.0000E+00  0.0000E+00  0.0000E+00
      8.942  0.1008E-02  0.1303E-01  0.1303E-01  0.1303E-01  0.0000E+00  0.0000E+00  0.0000E+00  0.0000E+00  0.0000E+00
      8.956  0.9919E-03  0.1293E-01  0.1293E-01  0.1293E-01  0.0000E+00  0.0000E+00  0.0000E+00  0.0000E+00  0.0000E+00
      8.970  0.9761E-03  0.1284E-01  0.1284E-01  0.1284E-01  0.0000E+00  0.0000E+00  0.0000E+00  0.0000E+00  0.0000E+00
      8.984  0.9602E-03  0.1275E-01  0.1275E-01  0.1275E-01  0.0000E+00  0.0000E+00  0.0000E+00  0.0000E+00  0.0000E+00
      8.998  0.9441E-03  0.1268E-01  0.1268E-01  0.1268E-01  0.0000E+00  0.0000E+00  0.0000E+00  0.0000E+00  0.0000E+00
      9.012  0.9279E-03  0.1261E-01  0.1261E-01  0.1261E-01  0.0000E+00  0.0000E+00  0.0000E+00  0.0000E+00  0.0000E+00
      9.025  0.9115E-03  0.1255E-01  0.1255E-01  0.1255E-01  0.0000E+00  0.0000E+00  0.0000E+00  0.0000E+00  0.0000E+00
      9.039  0.8950E-03  0.1250E-01  0.1250E-01  0.1250E-01  0.0000E+00  0.0000E+00  0.0000E+00  0.0000E+00  0.0000E+00
      9.053  0.8783E-03  0.1246E-01  0.1246E-01  0.1246E-01  0.0000E+00  0.0000E+00  0.0000E+00  0.0000E+00  0.0000E+00
      9.067  0.8614E-03  0.1242E-01  0.1242E-01  0.1242E-01  0.0000E+00  0.0000E+00  0.0000E+00  0.0000E+00  0.0000E+00
      9.081  0.8444E-03  0.1240E-01  0.1240E-01  0.1240E-01  0.0000E+00  0.0000E+00  0.0000E+00  0.0000E+00  0.0000E+00
      9.095  0.8273E-03  0.1238E-01  0.1238E-01  0.1238E-01  0.0000E+00  0.0000E+00  0.0000E+00  0.0000E+00  0.0000E+00
      9.109  0.8100E-03  0.1237E-01  0.1237E-01  0.1237E-01  0.0000E+00  0.0000E+00  0.0000E+00  0.0000E+00  0.0000E+00
      9.123  0.7926E-03  0.1237E-01  0.1237E-01  0.1237E-01  0.0000E+00  0.0000E+00  0.0000E+00  0.0000E+00  0.0000E+00
      9.137  0.7750E-03  0.1238E-01  0.1238E-01  0.1238E-01  0.0000E+00  0.0000E+00  0.0000E+00  0.0000E+00  0.0000E+00
      9.151  0.7572E-03  0.1240E-01  0.1240E-01  0.1240E-01  0.0000E+00  0.0000E+00  0.0000E+00  0.0000E+00  0.0000E+00
      9.165  0.7393E-03  0.1242E-01  0.1242E-01  0.1242E-01  0.0000E+00  0.0000E+00  0.0000E+00  0.0000E+00  0.0000E+00
      9.179  0.7013E-03  0.1216E-01  0.1216E-01  0.1216E-01  0.0000E+00  0.0000E+00  0.0000E+00  0.0000E+00  0.0000E+00
      9.193  0.4930E-03  0.9359E-02  0.9359E-02  0.9359E-02  0.0000E+00  0.0000E+00  0.0000E+00  0.0000E+00  0.0000E+00
      9.207  0.2436E-03  0.5793E-02  0.5793E-02  0.5793E-02  0.0000E+00  0.0000E+00  0.0000E+00  0.0000E+00  0.0000E+00
      9.221  0.2284E-03  0.5429E-02  0.5429E-02  0.5429E-02  0.0000E+00  0.0000E+00  0.0000E+00  0.0000E+00  0.0000E+00
      9.235  0.2136E-03  0.5078E-02  0.5078E-02  0.5078E-02  0.0000E+00  0.0000E+00  0.0000E+00  0.0000E+00  0.0000E+00
      9.249  0.1993E-03  0.4738E-02  0.4738E-02  0.4738E-02  0.0000E+00  0.0000E+00  0.0000E+00  0.0000E+00  0.0000E+00
      9.263  0.1855E-03  0.4410E-02  0.4410E-02  0.4410E-02  0.0000E+00  0.0000E+00  0.0000E+00  0.0000E+00  0.0000E+00
      9.277  0.1722E-03  0.4094E-02  0.4094E-02  0.4094E-02  0.0000E+00  0.0000E+00  0.0000E+00  0.0000E+00  0.0000E+00
      9.291  0.1594E-03  0.3790E-02  0.3790E-02  0.3790E-02  0.0000E+00  0.0000E+00  0.0000E+00  0.0000E+00  0.0000E+00
      9.305  0.1471E-03  0.3497E-02  0.3497E-02  0.3497E-02  0.0000E+00  0.0000E+00  0.0000E+00  0.0000E+00  0.0000E+00
      9.319  0.1353E-03  0.3216E-02  0.3216E-02  0.3216E-02  0.0000E+00  0.0000E+00  0.0000E+00  0.0000E+00  0.0000E+00
      9.333  0.1240E-03  0.2947E-02  0.2947E-02  0.2947E-02  0.0000E+00  0.0000E+00  0.0000E+00  0.0000E+00  0.0000E+00
      9.347  0.1131E-03  0.2690E-02  0.2690E-02  0.2690E-02  0.0000E+00  0.0000E+00  0.0000E+00  0.0000E+00  0.0000E+00
      9.361  0.1028E-03  0.2444E-02  0.2444E-02  0.2444E-02  0.0000E+00  0.0000E+00  0.0000E+00  0.0000E+00  0.0000E+00
      9.375  0.9298E-04  0.2211E-02  0.2211E-02  0.2211E-02  0.0000E+00  0.0000E+00  0.0000E+00  0.0000E+00  0.0000E+00
      9.389  0.8364E-04  0.1988E-02  0.1988E-02  0.1988E-02  0.0000E+00  0.0000E+00  0.0000E+00  0.0000E+00  0.0000E+00
      9.403  0.7479E-04  0.1778E-02  0.1778E-02  0.1778E-02  0.0000E+00  0.0000E+00  0.0000E+00  0.0000E+00  0.0000E+00
      9.417  0.6644E-04  0.1579E-02  0.1579E-02  0.1579E-02  0.0000E+00  0.0000E+00  0.0000E+00  0.0000E+00  0.0000E+00
      9.431  0.5858E-04  0.1393E-02  0.1393E-02  0.1393E-02  0.0000E+00  0.0000E+00  0.0000E+00  0.0000E+00  0.0000E+00
      9.445  0.5121E-04  0.1218E-02  0.1218E-02  0.1218E-02  0.0000E+00  0.0000E+00  0.0000E+00  0.0000E+00  0.0000E+00
      9.459  0.4434E-04  0.1054E-02  0.1054E-02  0.1054E-02  0.0000E+00  0.0000E+00  0.0000E+00  0.0000E+00  0.0000E+00
      9.473  0.3797E-04  0.9027E-03  0.9027E-03  0.9027E-03  0.0000E+00  0.0000E+00  0.0000E+00  0.0000E+00  0.0000E+00
      9.487  0.3209E-04  0.7629E-03  0.7629E-03  0.7629E-03  0.0000E+00  0.0000E+00  0.0000E+00  0.0000E+00  0.0000E+00
      9.501  0.2670E-04  0.6348E-03  0.6348E-03  0.6348E-03  0.0000E+00  0.0000E+00  0.0000E+00  0.0000E+00  0.0000E+00
      9.515  0.2181E-04  0.5186E-03  0.5186E-03  0.5186E-03  0.0000E+00  0.0000E+00  0.0000E+00  0.0000E+00  0.0000E+00
      9.529  0.1741E-04  0.4140E-03  0.4140E-03  0.4140E-03  0.0000E+00  0.0000E+00  0.0000E+00  0.0000E+00  0.0000E+00
      9.543  0.1351E-04  0.3212E-03  0.3212E-03  0.3212E-03  0.0000E+00  0.0000E+00  0.0000E+00  0.0000E+00  0.0000E+00
      9.557  0.1010E-04  0.2402E-03  0.2402E-03  0.2402E-03  0.0000E+00  0.0000E+00  0.0000E+00  0.0000E+00  0.0000E+00
      9.571  0.7189E-05  0.1709E-03  0.1709E-03  0.1709E-03  0.0000E+00  0.0000E+00  0.0000E+00  0.0000E+00  0.0000E+00
      9.585  0.4770E-05  0.1134E-03  0.1134E-03  0.1134E-03  0.0000E+00  0.0000E+00  0.0000E+00  0.0000E+00  0.0000E+00
      9.599  0.2845E-05  0.6765E-04  0.6765E-04  0.6765E-04  0.0000E+00  0.0000E+00  0.0000E+00  0.0000E+00  0.0000E+00
      9.613  0.1415E-05  0.3365E-04  0.3365E-04  0.3365E-04  0.0000E+00  0.0000E+00  0.0000E+00  0.0000E+00  0.0000E+00
      9.626  0.4794E-06  0.1140E-04  0.1140E-04  0.1140E-04  0.0000E+00  0.0000E+00  0.0000E+00  0.0000E+00  0.0000E+00
      9.640  0.3809E-07  0.9063E-06  0.9063E-06  0.9063E-06  0.0000E+00  0.0000E+00  0.0000E+00  0.0000E+00  0.0000E+00
      9.654  0.0000E+00  0.0000E+00  0.0000E+00  0.0000E+00  0.0000E+00  0.0000E+00  0.0000E+00  0.0000E+00  0.0000E+00
      9.668  0.0000E+00  0.0000E+00  0.0000E+00  0.0000E+00  0.0000E+00  0.0000E+00  0.0000E+00  0.0000E+00  0.0000E+00
      9.682  0.0000E+00  0.0000E+00  0.0000E+00  0.0000E+00  0.0000E+00  0.0000E+00  0.0000E+00  0.0000E+00  0.0000E+00
      9.696  0.0000E+00  0.0000E+00  0.0000E+00  0.0000E+00  0.0000E+00  0.0000E+00  0.0000E+00  0.0000E+00  0.0000E+00
      9.710  0.0000E+00  0.0000E+00  0.0000E+00  0.0000E+00  0.0000E+00  0.0000E+00  0.0000E+00  0.0000E+00  0.0000E+00
      9.724  0.0000E+00  0.0000E+00  0.0000E+00  0.0000E+00  0.0000E+00  0.0000E+00  0.0000E+00  0.0000E+00  0.0000E+00
      9.738  0.0000E+00  0.0000E+00  0.0000E+00  0.0000E+00  0.0000E+00  0.0000E+00  0.0000E+00  0.0000E+00  0.0000E+00
      9.752  0.0000E+00  0.0000E+00  0.0000E+00  0.0000E+00  0.0000E+00  0.0000E+00  0.0000E+00  0.0000E+00  0.0000E+00
      9.766  0.0000E+00  0.0000E+00  0.0000E+00  0.0000E+00  0.0000E+00  0.0000E+00  0.0000E+00  0.0000E+00  0.0000E+00
      9.780  0.0000E+00  0.0000E+00  0.0000E+00  0.0000E+00  0.0000E+00  0.0000E+00  0.0000E+00  0.0000E+00  0.0000E+00
      9.794  0.0000E+00  0.0000E+00  0.0000E+00  0.0000E+00  0.0000E+00  0.0000E+00  0.0000E+00  0.0000E+00  0.0000E+00
      9.808  0.0000E+00  0.0000E+00  0.0000E+00  0.0000E+00  0.0000E+00  0.0000E+00  0.0000E+00  0.0000E+00  0.0000E+00
      9.822  0.0000E+00  0.0000E+00  0.0000E+00  0.0000E+00  0.0000E+00  0.0000E+00  0.0000E+00  0.0000E+00  0.0000E+00
      9.836  0.0000E+00  0.0000E+00  0.0000E+00  0.0000E+00  0.0000E+00  0.0000E+00  0.0000E+00  0.0000E+00  0.0000E+00
      9.850  0.0000E+00  0.0000E+00  0.0000E+00  0.0000E+00  0.0000E+00  0.0000E+00  0.0000E+00  0.0000E+00  0.0000E+00
      9.864  0.0000E+00  0.0000E+00  0.0000E+00  0.0000E+00  0.0000E+00  0.0000E+00  0.0000E+00  0.0000E+00  0.0000E+00
      9.878  0.0000E+00  0.0000E+00  0.0000E+00  0.0000E+00  0.0000E+00  0.0000E+00  0.0000E+00  0.0000E+00  0.0000E+00
      9.892  0.0000E+00  0.0000E+00  0.0000E+00  0.0000E+00  0.0000E+00  0.0000E+00  0.0000E+00  0.0000E+00  0.0000E+00
      9.906  0.0000E+00  0.0000E+00  0.0000E+00  0.0000E+00  0.0000E+00  0.0000E+00  0.0000E+00  0.0000E+00  0.0000E+00
      9.920  0.0000E+00  0.0000E+00  0.0000E+00  0.0000E+00  0.0000E+00  0.0000E+00  0.0000E+00  0.0000E+00  0.0000E+00
      9.934  0.0000E+00  0.0000E+00  0.0000E+00  0.0000E+00  0.0000E+00  0.0000E+00  0.0000E+00  0.0000E+00  0.0000E+00
      9.948  0.0000E+00  0.0000E+00  0.0000E+00  0.0000E+00  0.0000E+00  0.0000E+00  0.0000E+00  0.0000E+00  0.0000E+00
      9.962  0.0000E+00  0.0000E+00  0.0000E+00  0.0000E+00  0.0000E+00  0.0000E+00  0.0000E+00  0.0000E+00  0.0000E+00
      9.976  0.0000E+00  0.0000E+00  0.0000E+00  0.0000E+00  0.0000E+00  0.0000E+00  0.0000E+00  0.0000E+00  0.0000E+00
      9.990  0.0000E+00  0.0000E+00  0.0000E+00  0.0000E+00  0.0000E+00  0.0000E+00  0.0000E+00  0.0000E+00  0.0000E+00
     10.004  0.0000E+00  0.0000E+00  0.0000E+00  0.0000E+00  0.0000E+00  0.0000E+00  0.0000E+00  0.0000E+00  0.0000E+00
     10.018  0.0000E+00  0.0000E+00  0.0000E+00  0.0000E+00  0.0000E+00  0.0000E+00  0.0000E+00  0.0000E+00  0.0000E+00
     10.032  0.0000E+00  0.0000E+00  0.0000E+00  0.0000E+00  0.0000E+00  0.0000E+00  0.0000E+00  0.0000E+00  0.0000E+00
     10.046  0.0000E+00  0.0000E+00  0.0000E+00  0.0000E+00  0.0000E+00  0.0000E+00  0.0000E+00  0.0000E+00  0.0000E+00
     10.060  0.0000E+00  0.0000E+00  0.0000E+00  0.0000E+00  0.0000E+00  0.0000E+00  0.0000E+00  0.0000E+00  0.0000E+00
     10.074  0.0000E+00  0.0000E+00  0.0000E+00  0.0000E+00  0.0000E+00  0.0000E+00  0.0000E+00  0.0000E+00  0.0000E+00
     10.088  0.0000E+00  0.0000E+00  0.0000E+00  0.0000E+00  0.0000E+00  0.0000E+00  0.0000E+00  0.0000E+00  0.0000E+00
     10.102  0.0000E+00  0.0000E+00  0.0000E+00  0.0000E+00  0.0000E+00  0.0000E+00  0.0000E+00  0.0000E+00  0.0000E+00
     10.116  0.0000E+00  0.0000E+00  0.0000E+00  0.0000E+00  0.0000E+00  0.0000E+00  0.0000E+00  0.0000E+00  0.0000E+00
     10.130  0.0000E+00  0.0000E+00  0.0000E+00  0.0000E+00  0.0000E+00  0.0000E+00  0.0000E+00  0.0000E+00  0.0000E+00
     10.144  0.0000E+00  0.0000E+00  0.0000E+00  0.0000E+00  0.0000E+00  0.0000E+00  0.0000E+00  0.0000E+00  0.0000E+00
     10.158  0.0000E+00  0.0000E+00  0.0000E+00  0.0000E+00  0.0000E+00  0.0000E+00  0.0000E+00  0.0000E+00  0.0000E+00
     10.172  0.0000E+00  0.0000E+00  0.0000E+00  0.0000E+00  0.0000E+00  0.0000E+00  0.0000E+00  0.0000E+00  0.0000E+00
     10.186  0.0000E+00  0.0000E+00  0.0000E+00  0.0000E+00  0.0000E+00  0.0000E+00  0.0000E+00  0.0000E+00  0.0000E+00
     10.200  0.0000E+00  0.0000E+00  0.0000E+00  0.0000E+00  0.0000E+00  0.0000E+00  0.0000E+00  0.0000E+00  0.0000E+00
     10.214  0.0000E+00  0.0000E+00  0.0000E+00  0.0000E+00  0.0000E+00  0.0000E+00  0.0000E+00  0.0000E+00  0.0000E+00
     10.227  0.0000E+00  0.0000E+00  0.0000E+00  0.0000E+00  0.0000E+00  0.0000E+00  0.0000E+00  0.0000E+00  0.0000E+00
     10.241  0.0000E+00  0.0000E+00  0.0000E+00  0.0000E+00  0.0000E+00  0.0000E+00  0.0000E+00  0.0000E+00  0.0000E+00
     10.255  0.0000E+00  0.0000E+00  0.0000E+00  0.0000E+00  0.0000E+00  0.0000E+00  0.0000E+00  0.0000E+00  0.0000E+00
     10.269  0.0000E+00  0.0000E+00  0.0000E+00  0.0000E+00  0.0000E+00  0.0000E+00  0.0000E+00  0.0000E+00  0.0000E+00
     10.283  0.0000E+00  0.0000E+00  0.0000E+00  0.0000E+00  0.0000E+00  0.0000E+00  0.0000E+00  0.0000E+00  0.0000E+00
     10.297  0.0000E+00  0.0000E+00  0.0000E+00  0.0000E+00  0.0000E+00  0.0000E+00  0.0000E+00  0.0000E+00  0.0000E+00
     10.311  0.0000E+00  0.0000E+00  0.0000E+00  0.0000E+00  0.0000E+00  0.0000E+00  0.0000E+00  0.0000E+00  0.0000E+00
     10.325  0.0000E+00  0.0000E+00  0.0000E+00  0.0000E+00  0.0000E+00  0.0000E+00  0.0000E+00  0.0000E+00  0.0000E+00
     10.339  0.0000E+00  0.0000E+00  0.0000E+00  0.0000E+00  0.0000E+00  0.0000E+00  0.0000E+00  0.0000E+00  0.0000E+00
     10.353  0.0000E+00  0.0000E+00  0.0000E+00  0.0000E+00  0.0000E+00  0.0000E+00  0.0000E+00  0.0000E+00  0.0000E+00
     10.367  0.0000E+00  0.0000E+00  0.0000E+00  0.0000E+00  0.0000E+00  0.0000E+00  0.0000E+00  0.0000E+00  0.0000E+00
     10.381  0.0000E+00  0.0000E+00  0.0000E+00  0.0000E+00  0.0000E+00  0.0000E+00  0.0000E+00  0.0000E+00  0.0000E+00
     10.395  0.0000E+00  0.0000E+00  0.0000E+00  0.0000E+00  0.0000E+00  0.0000E+00  0.0000E+00  0.0000E+00  0.0000E+00
     10.409  0.0000E+00  0.0000E+00  0.0000E+00  0.0000E+00  0.0000E+00  0.0000E+00  0.0000E+00  0.0000E+00  0.0000E+00
     10.423  0.0000E+00  0.0000E+00  0.0000E+00  0.0000E+00  0.0000E+00  0.0000E+00  0.0000E+00  0.0000E+00  0.0000E+00
     10.437  0.0000E+00  0.0000E+00  0.0000E+00  0.0000E+00  0.0000E+00  0.0000E+00  0.0000E+00  0.0000E+00  0.0000E+00
     10.451  0.0000E+00  0.0000E+00  0.0000E+00  0.0000E+00  0.0000E+00  0.0000E+00  0.0000E+00  0.0000E+00  0.0000E+00
     10.465  0.0000E+00  0.0000E+00  0.0000E+00  0.0000E+00  0.0000E+00  0.0000E+00  0.0000E+00  0.0000E+00  0.0000E+00
     10.479  0.0000E+00  0.0000E+00  0.0000E+00  0.0000E+00  0.0000E+00  0.0000E+00  0.0000E+00  0.0000E+00  0.0000E+00
     10.493  0.0000E+00  0.0000E+00  0.0000E+00  0.0000E+00  0.0000E+00  0.0000E+00  0.0000E+00  0.0000E+00  0.0000E+00
     10.507  0.0000E+00  0.0000E+00  0.0000E+00  0.0000E+00  0.0000E+00  0.0000E+00  0.0000E+00  0.0000E+00  0.0000E+00
     10.521  0.0000E+00  0.0000E+00  0.0000E+00  0.0000E+00  0.0000E+00  0.0000E+00  0.0000E+00  0.0000E+00  0.0000E+00
     10.535  0.0000E+00  0.0000E+00  0.0000E+00  0.0000E+00  0.0000E+00  0.0000E+00  0.0000E+00  0.0000E+00  0.0000E+00
     10.549  0.0000E+00  0.0000E+00  0.0000E+00  0.0000E+00  0.0000E+00  0.0000E+00  0.0000E+00  0.0000E+00  0.0000E+00
     10.563  0.0000E+00  0.0000E+00  0.0000E+00  0.0000E+00  0.0000E+00  0.0000E+00  0.0000E+00  0.0000E+00  0.0000E+00
     10.577  0.0000E+00  0.0000E+00  0.0000E+00  0.0000E+00  0.0000E+00  0.0000E+00  0.0000E+00  0.0000E+00  0.0000E+00
     10.591  0.0000E+00  0.0000E+00  0.0000E+00  0.0000E+00  0.0000E+00  0.0000E+00  0.0000E+00  0.0000E+00  0.0000E+00
     10.605  0.0000E+00  0.0000E+00  0.0000E+00  0.0000E+00  0.0000E+00  0.0000E+00  0.0000E+00  0.0000E+00  0.0000E+00
     10.619  0.0000E+00  0.0000E+00  0.0000E+00  0.0000E+00  0.0000E+00  0.0000E+00  0.0000E+00  0.0000E+00  0.0000E+00
     10.633  0.0000E+00  0.0000E+00  0.0000E+00  0.0000E+00  0.0000E+00  0.0000E+00  0.0000E+00  0.0000E+00  0.0000E+00
     10.647  0.0000E+00  0.0000E+00  0.0000E+00  0.0000E+00  0.0000E+00  0.0000E+00  0.0000E+00  0.0000E+00  0.0000E+00
     10.661  0.0000E+00  0.0000E+00  0.0000E+00  0.0000E+00  0.0000E+00  0.0000E+00  0.0000E+00  0.0000E+00  0.0000E+00
     10.675  0.0000E+00  0.0000E+00  0.0000E+00  0.0000E+00  0.0000E+00  0.0000E+00  0.0000E+00  0.0000E+00  0.0000E+00
     10.689  0.0000E+00  0.0000E+00  0.0000E+00  0.0000E+00  0.0000E+00  0.0000E+00  0.0000E+00  0.0000E+00  0.0000E+00
     10.703  0.0000E+00  0.0000E+00  0.0000E+00  0.0000E+00  0.0000E+00  0.0000E+00  0.0000E+00  0.0000E+00  0.0000E+00
     10.717  0.0000E+00  0.0000E+00  0.0000E+00  0.0000E+00  0.0000E+00  0.0000E+00  0.0000E+00  0.0000E+00  0.0000E+00
     10.731  0.0000E+00  0.0000E+00  0.0000E+00  0.0000E+00  0.0000E+00  0.0000E+00  0.0000E+00  0.0000E+00  0.0000E+00
     10.745  0.0000E+00  0.0000E+00  0.0000E+00  0.0000E+00  0.0000E+00  0.0000E+00  0.0000E+00  0.0000E+00  0.0000E+00
     10.759  0.0000E+00  0.0000E+00  0.0000E+00  0.0000E+00  0.0000E+00  0.0000E+00  0.0000E+00  0.0000E+00  0.0000E+00
     10.773  0.0000E+00  0.0000E+00  0.0000E+00  0.0000E+00  0.0000E+00  0.0000E+00  0.0000E+00  0.0000E+00  0.0000E+00
     10.787  0.0000E+00  0.0000E+00  0.0000E+00  0.0000E+00  0.0000E+00  0.0000E+00  0.0000E+00  0.0000E+00  0.0000E+00
     10.801  0.0000E+00  0.0000E+00  0.0000E+00  0.0000E+00  0.0000E+00  0.0000E+00  0.0000E+00  0.0000E+00  0.0000E+00
     10.815  0.0000E+00  0.0000E+00  0.0000E+00  0.0000E+00  0.0000E+00  0.0000E+00  0.0000E+00  0.0000E+00  0.0000E+00
     10.829  0.0000E+00  0.0000E+00  0.0000E+00  0.0000E+00  0.0000E+00  0.0000E+00  0.0000E+00  0.0000E+00  0.0000E+00
     10.842  0.0000E+00  0.0000E+00  0.0000E+00  0.0000E+00  0.0000E+00  0.0000E+00  0.0000E+00  0.0000E+00  0.0000E+00
     10.856  0.0000E+00  0.0000E+00  0.0000E+00  0.0000E+00  0.0000E+00  0.0000E+00  0.0000E+00  0.0000E+00  0.0000E+00
     10.870  0.0000E+00  0.0000E+00  0.0000E+00  0.0000E+00  0.0000E+00  0.0000E+00  0.0000E+00  0.0000E+00  0.0000E+00
     10.884  0.0000E+00  0.0000E+00  0.0000E+00  0.0000E+00  0.0000E+00  0.0000E+00  0.0000E+00  0.0000E+00  0.0000E+00
     10.898  0.0000E+00  0.0000E+00  0.0000E+00  0.0000E+00  0.0000E+00  0.0000E+00  0.0000E+00  0.0000E+00  0.0000E+00
     10.912  0.0000E+00  0.0000E+00  0.0000E+00  0.0000E+00  0.0000E+00  0.0000E+00  0.0000E+00  0.0000E+00  0.0000E+00
     10.926  0.0000E+00  0.0000E+00  0.0000E+00  0.0000E+00  0.0000E+00  0.0000E+00  0.0000E+00  0.0000E+00  0.0000E+00
     10.940  0.0000E+00  0.0000E+00  0.0000E+00  0.0000E+00  0.0000E+00  0.0000E+00  0.0000E+00  0.0000E+00  0.0000E+00
     10.954  0.0000E+00  0.0000E+00  0.0000E+00  0.0000E+00  0.0000E+00  0.0000E+00  0.0000E+00  0.0000E+00  0.0000E+00
     10.968  0.0000E+00  0.0000E+00  0.0000E+00  0.0000E+00  0.0000E+00  0.0000E+00  0.0000E+00  0.0000E+00  0.0000E+00
     10.982  0.0000E+00  0.0000E+00  0.0000E+00  0.0000E+00  0.0000E+00  0.0000E+00  0.0000E+00  0.0000E+00  0.0000E+00
     10.996  0.0000E+00  0.0000E+00  0.0000E+00  0.0000E+00  0.0000E+00  0.0000E+00  0.0000E+00  0.0000E+00  0.0000E+00
     11.010  0.0000E+00  0.0000E+00  0.0000E+00  0.0000E+00  0.0000E+00  0.0000E+00  0.0000E+00  0.0000E+00  0.0000E+00
     11.024  0.0000E+00  0.0000E+00  0.0000E+00  0.0000E+00  0.0000E+00  0.0000E+00  0.0000E+00  0.0000E+00  0.0000E+00
     11.038  0.0000E+00  0.0000E+00  0.0000E+00  0.0000E+00  0.0000E+00  0.0000E+00  0.0000E+00  0.0000E+00  0.0000E+00
     11.052  0.0000E+00  0.0000E+00  0.0000E+00  0.0000E+00  0.0000E+00  0.0000E+00  0.0000E+00  0.0000E+00  0.0000E+00
     11.066  0.0000E+00  0.0000E+00  0.0000E+00  0.0000E+00  0.0000E+00  0.0000E+00  0.0000E+00  0.0000E+00  0.0000E+00
     11.080  0.0000E+00  0.0000E+00  0.0000E+00  0.0000E+00  0.0000E+00  0.0000E+00  0.0000E+00  0.0000E+00  0.0000E+00
     11.094  0.0000E+00  0.0000E+00  0.0000E+00  0.0000E+00  0.0000E+00  0.0000E+00  0.0000E+00  0.0000E+00  0.0000E+00
     11.108  0.0000E+00  0.0000E+00  0.0000E+00  0.0000E+00  0.0000E+00  0.0000E+00  0.0000E+00  0.0000E+00  0.0000E+00
     11.122  0.0000E+00  0.0000E+00  0.0000E+00  0.0000E+00  0.0000E+00  0.0000E+00  0.0000E+00  0.0000E+00  0.0000E+00
     11.136  0.0000E+00  0.0000E+00  0.0000E+00  0.0000E+00  0.0000E+00  0.0000E+00  0.0000E+00  0.0000E+00  0.0000E+00
     11.150  0.0000E+00  0.0000E+00  0.0000E+00  0.0000E+00  0.0000E+00  0.0000E+00  0.0000E+00  0.0000E+00  0.0000E+00
     11.164  0.0000E+00  0.0000E+00  0.0000E+00  0.0000E+00  0.0000E+00  0.0000E+00  0.0000E+00  0.0000E+00  0.0000E+00
     11.178  0.0000E+00  0.0000E+00  0.0000E+00  0.0000E+00  0.0000E+00  0.0000E+00  0.0000E+00  0.0000E+00  0.0000E+00
     11.192  0.0000E+00  0.0000E+00  0.0000E+00  0.0000E+00  0.0000E+00  0.0000E+00  0.0000E+00  0.0000E+00  0.0000E+00
     11.206  0.0000E+00  0.0000E+00  0.0000E+00  0.0000E+00  0.0000E+00  0.0000E+00  0.0000E+00  0.0000E+00  0.0000E+00
     11.220  0.0000E+00  0.0000E+00  0.0000E+00  0.0000E+00  0.0000E+00  0.0000E+00  0.0000E+00  0.0000E+00  0.0000E+00
     11.234  0.0000E+00  0.0000E+00  0.0000E+00  0.0000E+00  0.0000E+00  0.0000E+00  0.0000E+00  0.0000E+00  0.0000E+00
     11.248  0.0000E+00  0.0000E+00  0.0000E+00  0.0000E+00  0.0000E+00  0.0000E+00  0.0000E+00  0.0000E+00  0.0000E+00
     11.262  0.0000E+00  0.0000E+00  0.0000E+00  0.0000E+00  0.0000E+00  0.0000E+00  0.0000E+00  0.0000E+00  0.0000E+00
     11.276  0.0000E+00  0.0000E+00  0.0000E+00  0.0000E+00  0.0000E+00  0.0000E+00  0.0000E+00  0.0000E+00  0.0000E+00
     11.290  0.0000E+00  0.0000E+00  0.0000E+00  0.0000E+00  0.0000E+00  0.0000E+00  0.0000E+00  0.0000E+00  0.0000E+00
     11.304  0.0000E+00  0.0000E+00  0.0000E+00  0.0000E+00  0.0000E+00  0.0000E+00  0.0000E+00  0.0000E+00  0.0000E+00
     11.318  0.0000E+00  0.0000E+00  0.0000E+00  0.0000E+00  0.0000E+00  0.0000E+00  0.0000E+00  0.0000E+00  0.0000E+00
     11.332  0.0000E+00  0.0000E+00  0.0000E+00  0.0000E+00  0.0000E+00  0.0000E+00  0.0000E+00  0.0000E+00  0.0000E+00
     11.346  0.0000E+00  0.0000E+00  0.0000E+00  0.0000E+00  0.0000E+00  0.0000E+00  0.0000E+00  0.0000E+00  0.0000E+00
     11.360  0.0000E+00  0.0000E+00  0.0000E+00  0.0000E+00  0.0000E+00  0.0000E+00  0.0000E+00  0.0000E+00  0.0000E+00
     11.374  0.0000E+00  0.0000E+00  0.0000E+00  0.0000E+00  0.0000E+00  0.0000E+00  0.0000E+00  0.0000E+00  0.0000E+00
     11.388  0.0000E+00  0.0000E+00  0.0000E+00  0.0000E+00  0.0000E+00  0.0000E+00  0.0000E+00  0.0000E+00  0.0000E+00
     11.402  0.0000E+00  0.0000E+00  0.0000E+00  0.0000E+00  0.0000E+00  0.0000E+00  0.0000E+00  0.0000E+00  0.0000E+00
     11.416  0.0000E+00  0.0000E+00  0.0000E+00  0.0000E+00  0.0000E+00  0.0000E+00  0.0000E+00  0.0000E+00  0.0000E+00
     11.430  0.0000E+00  0.0000E+00  0.0000E+00  0.0000E+00  0.0000E+00  0.0000E+00  0.0000E+00  0.0000E+00  0.0000E+00
     11.443  0.0000E+00  0.0000E+00  0.0000E+00  0.0000E+00  0.0000E+00  0.0000E+00  0.0000E+00  0.0000E+00  0.0000E+00
     11.457  0.0000E+00  0.0000E+00  0.0000E+00  0.0000E+00  0.0000E+00  0.0000E+00  0.0000E+00  0.0000E+00  0.0000E+00
     11.471  0.0000E+00  0.0000E+00  0.0000E+00  0.0000E+00  0.0000E+00  0.0000E+00  0.0000E+00  0.0000E+00  0.0000E+00
     11.485  0.0000E+00  0.0000E+00  0.0000E+00  0.0000E+00  0.0000E+00  0.0000E+00  0.0000E+00  0.0000E+00  0.0000E+00
     11.499  0.0000E+00  0.0000E+00  0.0000E+00  0.0000E+00  0.0000E+00  0.0000E+00  0.0000E+00  0.0000E+00  0.0000E+00
     11.513  0.0000E+00  0.0000E+00  0.0000E+00  0.0000E+00  0.0000E+00  0.0000E+00  0.0000E+00  0.0000E+00  0.0000E+00
     11.527  0.0000E+00  0.0000E+00  0.0000E+00  0.0000E+00  0.0000E+00  0.0000E+00  0.0000E+00  0.0000E+00  0.0000E+00
     11.541  0.0000E+00  0.0000E+00  0.0000E+00  0.0000E+00  0.0000E+00  0.0000E+00  0.0000E+00  0.0000E+00  0.0000E+00
     11.555  0.0000E+00  0.0000E+00  0.0000E+00  0.0000E+00  0.0000E+00  0.0000E+00  0.0000E+00  0.0000E+00  0.0000E+00
     11.569  0.0000E+00  0.0000E+00  0.0000E+00  0.0000E+00  0.0000E+00  0.0000E+00  0.0000E+00  0.0000E+00  0.0000E+00
     11.583  0.0000E+00  0.0000E+00  0.0000E+00  0.0000E+00  0.0000E+00  0.0000E+00  0.0000E+00  0.0000E+00  0.0000E+00
     11.597  0.0000E+00  0.0000E+00  0.0000E+00  0.0000E+00  0.0000E+00  0.0000E+00  0.0000E+00  0.0000E+00  0.0000E+00
     11.611  0.0000E+00  0.0000E+00  0.0000E+00  0.0000E+00  0.0000E+00  0.0000E+00  0.0000E+00  0.0000E+00  0.0000E+00
     11.625  0.0000E+00  0.0000E+00  0.0000E+00  0.0000E+00  0.0000E+00  0.0000E+00  0.0000E+00  0.0000E+00  0.0000E+00
     11.639  0.0000E+00  0.0000E+00  0.0000E+00  0.0000E+00  0.0000E+00  0.0000E+00  0.0000E+00  0.0000E+00  0.0000E+00
     11.653  0.0000E+00  0.0000E+00  0.0000E+00  0.0000E+00  0.0000E+00  0.0000E+00  0.0000E+00  0.0000E+00  0.0000E+00
     11.667  0.0000E+00  0.0000E+00  0.0000E+00  0.0000E+00  0.0000E+00  0.0000E+00  0.0000E+00  0.0000E+00  0.0000E+00
     11.681  0.0000E+00  0.0000E+00  0.0000E+00  0.0000E+00  0.0000E+00  0.0000E+00  0.0000E+00  0.0000E+00  0.0000E+00
     11.695  0.0000E+00  0.0000E+00  0.0000E+00  0.0000E+00  0.0000E+00  0.0000E+00  0.0000E+00  0.0000E+00  0.0000E+00
     11.709  0.0000E+00  0.0000E+00  0.0000E+00  0.0000E+00  0.0000E+00  0.0000E+00  0.0000E+00  0.0000E+00  0.0000E+00
     11.723  0.0000E+00  0.0000E+00  0.0000E+00  0.0000E+00  0.0000E+00  0.0000E+00  0.0000E+00  0.0000E+00  0.0000E+00
     11.737  0.0000E+00  0.0000E+00  0.0000E+00  0.0000E+00  0.0000E+00  0.0000E+00  0.0000E+00  0.0000E+00  0.0000E+00
     11.751  0.0000E+00  0.0000E+00  0.0000E+00  0.0000E+00  0.0000E+00  0.0000E+00  0.0000E+00  0.0000E+00  0.0000E+00
     11.765  0.0000E+00  0.0000E+00  0.0000E+00  0.0000E+00  0.0000E+00  0.0000E+00  0.0000E+00  0.0000E+00  0.0000E+00
     11.779  0.0000E+00  0.0000E+00  0.0000E+00  0.0000E+00  0.0000E+00  0.0000E+00  0.0000E+00  0.0000E+00  0.0000E+00
     11.793  0.0000E+00  0.0000E+00  0.0000E+00  0.0000E+00  0.0000E+00  0.0000E+00  0.0000E+00  0.0000E+00  0.0000E+00
     11.807  0.0000E+00  0.0000E+00  0.0000E+00  0.0000E+00  0.0000E+00  0.0000E+00  0.0000E+00  0.0000E+00  0.0000E+00
     11.821  0.0000E+00  0.0000E+00  0.0000E+00  0.0000E+00  0.0000E+00  0.0000E+00  0.0000E+00  0.0000E+00  0.0000E+00
     11.835  0.0000E+00  0.0000E+00  0.0000E+00  0.0000E+00  0.0000E+00  0.0000E+00  0.0000E+00  0.0000E+00  0.0000E+00
     11.849  0.0000E+00  0.0000E+00  0.0000E+00  0.0000E+00  0.0000E+00  0.0000E+00  0.0000E+00  0.0000E+00  0.0000E+00
     11.863  0.0000E+00  0.0000E+00  0.0000E+00  0.0000E+00  0.0000E+00  0.0000E+00  0.0000E+00  0.0000E+00  0.0000E+00
     11.877  0.0000E+00  0.0000E+00  0.0000E+00  0.0000E+00  0.0000E+00  0.0000E+00  0.0000E+00  0.0000E+00  0.0000E+00
     11.891  0.0000E+00  0.0000E+00  0.0000E+00  0.0000E+00  0.0000E+00  0.0000E+00  0.0000E+00  0.0000E+00  0.0000E+00
     11.905  0.0000E+00  0.0000E+00  0.0000E+00  0.0000E+00  0.0000E+00  0.0000E+00  0.0000E+00  0.0000E+00  0.0000E+00
     11.919  0.0000E+00  0.0000E+00  0.0000E+00  0.0000E+00  0.0000E+00  0.0000E+00  0.0000E+00  0.0000E+00  0.0000E+00
     11.933  0.0000E+00  0.0000E+00  0.0000E+00  0.0000E+00  0.0000E+00  0.0000E+00  0.0000E+00  0.0000E+00  0.0000E+00
     11.947  0.0000E+00  0.0000E+00  0.0000E+00  0.0000E+00  0.0000E+00  0.0000E+00  0.0000E+00  0.0000E+00  0.0000E+00
     11.961  0.0000E+00  0.0000E+00  0.0000E+00  0.0000E+00  0.0000E+00  0.0000E+00  0.0000E+00  0.0000E+00  0.0000E+00
     11.975  0.0000E+00  0.0000E+00  0.0000E+00  0.0000E+00  0.0000E+00  0.0000E+00  0.0000E+00  0.0000E+00  0.0000E+00
     11.989  0.0000E+00  0.0000E+00  0.0000E+00  0.0000E+00  0.0000E+00  0.0000E+00  0.0000E+00  0.0000E+00  0.0000E+00
     12.003  0.0000E+00  0.0000E+00  0.0000E+00  0.0000E+00  0.0000E+00  0.0000E+00  0.0000E+00  0.0000E+00  0.0000E+00
     12.017  0.0000E+00  0.0000E+00  0.0000E+00  0.0000E+00  0.0000E+00  0.0000E+00  0.0000E+00  0.0000E+00  0.0000E+00
     12.031  0.0000E+00  0.0000E+00  0.0000E+00  0.0000E+00  0.0000E+00  0.0000E+00  0.0000E+00  0.0000E+00  0.0000E+00
     12.044  0.0000E+00  0.0000E+00  0.0000E+00  0.0000E+00  0.0000E+00  0.0000E+00  0.0000E+00  0.0000E+00  0.0000E+00
     12.058  0.0000E+00  0.0000E+00  0.0000E+00  0.0000E+00  0.0000E+00  0.0000E+00  0.0000E+00  0.0000E+00  0.0000E+00
     12.072  0.0000E+00  0.0000E+00  0.0000E+00  0.0000E+00  0.0000E+00  0.0000E+00  0.0000E+00  0.0000E+00  0.0000E+00
     12.086  0.0000E+00  0.0000E+00  0.0000E+00  0.0000E+00  0.0000E+00  0.0000E+00  0.0000E+00  0.0000E+00  0.0000E+00
     12.100  0.0000E+00  0.0000E+00  0.0000E+00  0.0000E+00  0.0000E+00  0.0000E+00  0.0000E+00  0.0000E+00  0.0000E+00
     12.114  0.0000E+00  0.0000E+00  0.0000E+00  0.0000E+00  0.0000E+00  0.0000E+00  0.0000E+00  0.0000E+00  0.0000E+00
     12.128  0.0000E+00  0.0000E+00  0.0000E+00  0.0000E+00  0.0000E+00  0.0000E+00  0.0000E+00  0.0000E+00  0.0000E+00
     12.142  0.0000E+00  0.0000E+00  0.0000E+00  0.0000E+00  0.0000E+00  0.0000E+00  0.0000E+00  0.0000E+00  0.0000E+00
     12.156  0.0000E+00  0.0000E+00  0.0000E+00  0.0000E+00  0.0000E+00  0.0000E+00  0.0000E+00  0.0000E+00  0.0000E+00
     12.170  0.0000E+00  0.0000E+00  0.0000E+00  0.0000E+00  0.0000E+00  0.0000E+00  0.0000E+00  0.0000E+00  0.0000E+00
     12.184  0.0000E+00  0.0000E+00  0.0000E+00  0.0000E+00  0.0000E+00  0.0000E+00  0.0000E+00  0.0000E+00  0.0000E+00
     12.198  0.0000E+00  0.0000E+00  0.0000E+00  0.0000E+00  0.0000E+00  0.0000E+00  0.0000E+00  0.0000E+00  0.0000E+00
     12.212  0.0000E+00  0.0000E+00  0.0000E+00  0.0000E+00  0.0000E+00  0.0000E+00  0.0000E+00  0.0000E+00  0.0000E+00
     12.226  0.0000E+00  0.0000E+00  0.0000E+00  0.0000E+00  0.0000E+00  0.0000E+00  0.0000E+00  0.0000E+00  0.0000E+00
     12.240  0.0000E+00  0.0000E+00  0.0000E+00  0.0000E+00  0.0000E+00  0.0000E+00  0.0000E+00  0.0000E+00  0.0000E+00
     12.254  0.0000E+00  0.0000E+00  0.0000E+00  0.0000E+00  0.0000E+00  0.0000E+00  0.0000E+00  0.0000E+00  0.0000E+00
     12.268  0.0000E+00  0.0000E+00  0.0000E+00  0.0000E+00  0.0000E+00  0.0000E+00  0.0000E+00  0.0000E+00  0.0000E+00
     12.282  0.0000E+00  0.0000E+00  0.0000E+00  0.0000E+00  0.0000E+00  0.0000E+00  0.0000E+00  0.0000E+00  0.0000E+00
     12.296  0.0000E+00  0.0000E+00  0.0000E+00  0.0000E+00  0.0000E+00  0.0000E+00  0.0000E+00  0.0000E+00  0.0000E+00
     12.310  0.0000E+00  0.0000E+00  0.0000E+00  0.0000E+00  0.0000E+00  0.0000E+00  0.0000E+00  0.0000E+00  0.0000E+00
     12.324  0.0000E+00  0.0000E+00  0.0000E+00  0.0000E+00  0.0000E+00  0.0000E+00  0.0000E+00  0.0000E+00  0.0000E+00
     12.338  0.0000E+00  0.0000E+00  0.0000E+00  0.0000E+00  0.0000E+00  0.0000E+00  0.0000E+00  0.0000E+00  0.0000E+00
     12.352  0.0000E+00  0.0000E+00  0.0000E+00  0.0000E+00  0.0000E+00  0.0000E+00  0.0000E+00  0.0000E+00  0.0000E+00
     12.366  0.0000E+00  0.0000E+00  0.0000E+00  0.0000E+00  0.0000E+00  0.0000E+00  0.0000E+00  0.0000E+00  0.0000E+00
     12.380  0.0000E+00  0.0000E+00  0.0000E+00  0.0000E+00  0.0000E+00  0.0000E+00  0.0000E+00  0.0000E+00  0.0000E+00
     12.394  0.0000E+00  0.0000E+00  0.0000E+00  0.0000E+00  0.0000E+00  0.0000E+00  0.0000E+00  0.0000E+00  0.0000E+00
     12.408  0.0000E+00  0.0000E+00  0.0000E+00  0.0000E+00  0.0000E+00  0.0000E+00  0.0000E+00  0.0000E+00  0.0000E+00
     12.422  0.0000E+00  0.0000E+00  0.0000E+00  0.0000E+00  0.0000E+00  0.0000E+00  0.0000E+00  0.0000E+00  0.0000E+00
     12.436  0.0000E+00  0.0000E+00  0.0000E+00  0.0000E+00  0.0000E+00  0.0000E+00  0.0000E+00  0.0000E+00  0.0000E+00
     12.450  0.0000E+00  0.0000E+00  0.0000E+00  0.0000E+00  0.0000E+00  0.0000E+00  0.0000E+00  0.0000E+00  0.0000E+00
     12.464  0.0000E+00  0.0000E+00  0.0000E+00  0.0000E+00  0.0000E+00  0.0000E+00  0.0000E+00  0.0000E+00  0.0000E+00
     12.478  0.0000E+00  0.0000E+00  0.0000E+00  0.0000E+00  0.0000E+00  0.0000E+00  0.0000E+00  0.0000E+00  0.0000E+00
     12.492  0.0000E+00  0.0000E+00  0.0000E+00  0.0000E+00  0.0000E+00  0.0000E+00  0.0000E+00  0.0000E+00  0.0000E+00
     12.506  0.0000E+00  0.0000E+00  0.0000E+00  0.0000E+00  0.0000E+00  0.0000E+00  0.0000E+00  0.0000E+00  0.0000E+00
     12.520  0.0000E+00  0.0000E+00  0.0000E+00  0.0000E+00  0.0000E+00  0.0000E+00  0.0000E+00  0.0000E+00  0.0000E+00
     12.534  0.0000E+00  0.0000E+00  0.0000E+00  0.0000E+00  0.0000E+00  0.0000E+00  0.0000E+00  0.0000E+00  0.0000E+00
     12.548  0.0000E+00  0.0000E+00  0.0000E+00  0.0000E+00  0.0000E+00  0.0000E+00  0.0000E+00  0.0000E+00  0.0000E+00
     12.562  0.0000E+00  0.0000E+00  0.0000E+00  0.0000E+00  0.0000E+00  0.0000E+00  0.0000E+00  0.0000E+00  0.0000E+00
     12.576  0.0000E+00  0.0000E+00  0.0000E+00  0.0000E+00  0.0000E+00  0.0000E+00  0.0000E+00  0.0000E+00  0.0000E+00
     12.590  0.0000E+00  0.0000E+00  0.0000E+00  0.0000E+00  0.0000E+00  0.0000E+00  0.0000E+00  0.0000E+00  0.0000E+00
     12.604  0.0000E+00  0.0000E+00  0.0000E+00  0.0000E+00  0.0000E+00  0.0000E+00  0.0000E+00  0.0000E+00  0.0000E+00
     12.618  0.0000E+00  0.0000E+00  0.0000E+00  0.0000E+00  0.0000E+00  0.0000E+00  0.0000E+00  0.0000E+00  0.0000E+00
     12.632  0.0000E+00  0.0000E+00  0.0000E+00  0.0000E+00  0.0000E+00  0.0000E+00  0.0000E+00  0.0000E+00  0.0000E+00
     12.645  0.0000E+00  0.0000E+00  0.0000E+00  0.0000E+00  0.0000E+00  0.0000E+00  0.0000E+00  0.0000E+00  0.0000E+00
     12.659  0.0000E+00  0.0000E+00  0.0000E+00  0.0000E+00  0.0000E+00  0.0000E+00  0.0000E+00  0.0000E+00  0.0000E+00
     12.673  0.0000E+00  0.0000E+00  0.0000E+00  0.0000E+00  0.0000E+00  0.0000E+00  0.0000E+00  0.0000E+00  0.0000E+00
     12.687  0.0000E+00  0.0000E+00  0.0000E+00  0.0000E+00  0.0000E+00  0.0000E+00  0.0000E+00  0.0000E+00  0.0000E+00
     12.701  0.0000E+00  0.0000E+00  0.0000E+00  0.0000E+00  0.0000E+00  0.0000E+00  0.0000E+00  0.0000E+00  0.0000E+00
     12.715  0.0000E+00  0.0000E+00  0.0000E+00  0.0000E+00  0.0000E+00  0.0000E+00  0.0000E+00  0.0000E+00  0.0000E+00
     12.729  0.0000E+00  0.0000E+00  0.0000E+00  0.0000E+00  0.0000E+00  0.0000E+00  0.0000E+00  0.0000E+00  0.0000E+00
     12.743  0.0000E+00  0.0000E+00  0.0000E+00  0.0000E+00  0.0000E+00  0.0000E+00  0.0000E+00  0.0000E+00  0.0000E+00
     12.757  0.0000E+00  0.0000E+00  0.0000E+00  0.0000E+00  0.0000E+00  0.0000E+00  0.0000E+00  0.0000E+00  0.0000E+00
     12.771  0.0000E+00  0.0000E+00  0.0000E+00  0.0000E+00  0.0000E+00  0.0000E+00  0.0000E+00  0.0000E+00  0.0000E+00
     12.785  0.0000E+00  0.0000E+00  0.0000E+00  0.0000E+00  0.0000E+00  0.0000E+00  0.0000E+00  0.0000E+00  0.0000E+00
     12.799  0.0000E+00  0.0000E+00  0.0000E+00  0.0000E+00  0.0000E+00  0.0000E+00  0.0000E+00  0.0000E+00  0.0000E+00
     12.813  0.0000E+00  0.0000E+00  0.0000E+00  0.0000E+00  0.0000E+00  0.0000E+00  0.0000E+00  0.0000E+00  0.0000E+00
     12.827  0.0000E+00  0.0000E+00  0.0000E+00  0.0000E+00  0.0000E+00  0.0000E+00  0.0000E+00  0.0000E+00  0.0000E+00
     12.841  0.0000E+00  0.0000E+00  0.0000E+00  0.0000E+00  0.0000E+00  0.0000E+00  0.0000E+00  0.0000E+00  0.0000E+00
     12.855  0.0000E+00  0.0000E+00  0.0000E+00  0.0000E+00  0.0000E+00  0.0000E+00  0.0000E+00  0.0000E+00  0.0000E+00
     12.869  0.0000E+00  0.0000E+00  0.0000E+00  0.0000E+00  0.0000E+00  0.0000E+00  0.0000E+00  0.0000E+00  0.0000E+00
     12.883  0.0000E+00  0.0000E+00  0.0000E+00  0.0000E+00  0.0000E+00  0.0000E+00  0.0000E+00  0.0000E+00  0.0000E+00
     12.897  0.0000E+00  0.0000E+00  0.0000E+00  0.0000E+00  0.0000E+00  0.0000E+00  0.0000E+00  0.0000E+00  0.0000E+00
     12.911  0.0000E+00  0.0000E+00  0.0000E+00  0.0000E+00  0.0000E+00  0.0000E+00  0.0000E+00  0.0000E+00  0.0000E+00
     12.925  0.0000E+00  0.0000E+00  0.0000E+00  0.0000E+00  0.0000E+00  0.0000E+00  0.0000E+00  0.0000E+00  0.0000E+00
     12.939  0.0000E+00  0.0000E+00  0.0000E+00  0.0000E+00  0.0000E+00  0.0000E+00  0.0000E+00  0.0000E+00  0.0000E+00
     12.953  0.0000E+00  0.0000E+00  0.0000E+00  0.0000E+00  0.0000E+00  0.0000E+00  0.0000E+00  0.0000E+00  0.0000E+00
     12.967  0.0000E+00  0.0000E+00  0.0000E+00  0.0000E+00  0.0000E+00  0.0000E+00  0.0000E+00  0.0000E+00  0.0000E+00
     12.981  0.0000E+00  0.0000E+00  0.0000E+00  0.0000E+00  0.0000E+00  0.0000E+00  0.0000E+00  0.0000E+00  0.0000E+00
     12.995  0.0000E+00  0.0000E+00  0.0000E+00  0.0000E+00  0.0000E+00  0.0000E+00  0.0000E+00  0.0000E+00  0.0000E+00
     13.009  0.0000E+00  0.0000E+00  0.0000E+00  0.0000E+00  0.0000E+00  0.0000E+00  0.0000E+00  0.0000E+00  0.0000E+00
     13.023  0.0000E+00  0.0000E+00  0.0000E+00  0.0000E+00  0.0000E+00  0.0000E+00  0.0000E+00  0.0000E+00  0.0000E+00
     13.037  0.0000E+00  0.0000E+00  0.0000E+00  0.0000E+00  0.0000E+00  0.0000E+00  0.0000E+00  0.0000E+00  0.0000E+00
     13.051  0.0000E+00  0.0000E+00  0.0000E+00  0.0000E+00  0.0000E+00  0.0000E+00  0.0000E+00  0.0000E+00  0.0000E+00
     13.065  0.0000E+00  0.0000E+00  0.0000E+00  0.0000E+00  0.0000E+00  0.0000E+00  0.0000E+00  0.0000E+00  0.0000E+00
     13.079  0.0000E+00  0.0000E+00  0.0000E+00  0.0000E+00  0.0000E+00  0.0000E+00  0.0000E+00  0.0000E+00  0.0000E+00
     13.093  0.0000E+00  0.0000E+00  0.0000E+00  0.0000E+00  0.0000E+00  0.0000E+00  0.0000E+00  0.0000E+00  0.0000E+00
     13.107  0.0000E+00  0.0000E+00  0.0000E+00  0.0000E+00  0.0000E+00  0.0000E+00  0.0000E+00  0.0000E+00  0.0000E+00
     13.121  0.0000E+00  0.0000E+00  0.0000E+00  0.0000E+00  0.0000E+00  0.0000E+00  0.0000E+00  0.0000E+00  0.0000E+00
     13.135  0.0000E+00  0.0000E+00  0.0000E+00  0.0000E+00  0.0000E+00  0.0000E+00  0.0000E+00  0.0000E+00  0.0000E+00
     13.149  0.0000E+00  0.0000E+00  0.0000E+00  0.0000E+00  0.0000E+00  0.0000E+00  0.0000E+00  0.0000E+00  0.0000E+00
     13.163  0.0000E+00  0.0000E+00  0.0000E+00  0.0000E+00  0.0000E+00  0.0000E+00  0.0000E+00  0.0000E+00  0.0000E+00
     13.177  0.0000E+00  0.0000E+00  0.0000E+00  0.0000E+00  0.0000E+00  0.0000E+00  0.0000E+00  0.0000E+00  0.0000E+00
     13.191  0.0000E+00  0.0000E+00  0.0000E+00  0.0000E+00  0.0000E+00  0.0000E+00  0.0000E+00  0.0000E+00  0.0000E+00
     13.205  0.0000E+00  0.0000E+00  0.0000E+00  0.0000E+00  0.0000E+00  0.0000E+00  0.0000E+00  0.0000E+00  0.0000E+00
     13.219  0.0000E+00  0.0000E+00  0.0000E+00  0.0000E+00  0.0000E+00  0.0000E+00  0.0000E+00  0.0000E+00  0.0000E+00
     13.233  0.0000E+00  0.0000E+00  0.0000E+00  0.0000E+00  0.0000E+00  0.0000E+00  0.0000E+00  0.0000E+00  0.0000E+00
     13.246  0.0000E+00  0.0000E+00  0.0000E+00  0.0000E+00  0.0000E+00  0.0000E+00  0.0000E+00  0.0000E+00  0.0000E+00
     13.260  0.0000E+00  0.0000E+00  0.0000E+00  0.0000E+00  0.0000E+00  0.0000E+00  0.0000E+00  0.0000E+00  0.0000E+00
     13.274  0.0000E+00  0.0000E+00  0.0000E+00  0.0000E+00  0.0000E+00  0.0000E+00  0.0000E+00  0.0000E+00  0.0000E+00
     13.288  0.0000E+00  0.0000E+00  0.0000E+00  0.0000E+00  0.0000E+00  0.0000E+00  0.0000E+00  0.0000E+00  0.0000E+00
     13.302  0.0000E+00  0.0000E+00  0.0000E+00  0.0000E+00  0.0000E+00  0.0000E+00  0.0000E+00  0.0000E+00  0.0000E+00
     13.316  0.0000E+00  0.0000E+00  0.0000E+00  0.0000E+00  0.0000E+00  0.0000E+00  0.0000E+00  0.0000E+00  0.0000E+00
     13.330  0.0000E+00  0.0000E+00  0.0000E+00  0.0000E+00  0.0000E+00  0.0000E+00  0.0000E+00  0.0000E+00  0.0000E+00
     13.344  0.0000E+00  0.0000E+00  0.0000E+00  0.0000E+00  0.0000E+00  0.0000E+00  0.0000E+00  0.0000E+00  0.0000E+00
     13.358  0.0000E+00  0.0000E+00  0.0000E+00  0.0000E+00  0.0000E+00  0.0000E+00  0.0000E+00  0.0000E+00  0.0000E+00
     13.372  0.0000E+00  0.0000E+00  0.0000E+00  0.0000E+00  0.0000E+00  0.0000E+00  0.0000E+00  0.0000E+00  0.0000E+00
     13.386  0.0000E+00  0.0000E+00  0.0000E+00  0.0000E+00  0.0000E+00  0.0000E+00  0.0000E+00  0.0000E+00  0.0000E+00
     13.400  0.0000E+00  0.0000E+00  0.0000E+00  0.0000E+00  0.0000E+00  0.0000E+00  0.0000E+00  0.0000E+00  0.0000E+00
     13.414  0.0000E+00  0.0000E+00  0.0000E+00  0.0000E+00  0.0000E+00  0.0000E+00  0.0000E+00  0.0000E+00  0.0000E+00
     13.428  0.0000E+00  0.0000E+00  0.0000E+00  0.0000E+00  0.0000E+00  0.0000E+00  0.0000E+00  0.0000E+00  0.0000E+00
     13.442  0.0000E+00  0.0000E+00  0.0000E+00  0.0000E+00  0.0000E+00  0.0000E+00  0.0000E+00  0.0000E+00  0.0000E+00
     13.456  0.0000E+00  0.0000E+00  0.0000E+00  0.0000E+00  0.0000E+00  0.0000E+00  0.0000E+00  0.0000E+00  0.0000E+00
     13.470  0.0000E+00  0.0000E+00  0.0000E+00  0.0000E+00  0.0000E+00  0.0000E+00  0.0000E+00  0.0000E+00  0.0000E+00
     13.484  0.0000E+00  0.0000E+00  0.0000E+00  0.0000E+00  0.0000E+00  0.0000E+00  0.0000E+00  0.0000E+00  0.0000E+00
     13.498  0.0000E+00  0.0000E+00  0.0000E+00  0.0000E+00  0.0000E+00  0.0000E+00  0.0000E+00  0.0000E+00  0.0000E+00
     13.512  0.0000E+00  0.0000E+00  0.0000E+00  0.0000E+00  0.0000E+00  0.0000E+00  0.0000E+00  0.0000E+00  0.0000E+00
     13.526  0.0000E+00  0.0000E+00  0.0000E+00  0.0000E+00  0.0000E+00  0.0000E+00  0.0000E+00  0.0000E+00  0.0000E+00
     13.540  0.0000E+00  0.0000E+00  0.0000E+00  0.0000E+00  0.0000E+00  0.0000E+00  0.0000E+00  0.0000E+00  0.0000E+00
     13.554  0.0000E+00  0.0000E+00  0.0000E+00  0.0000E+00  0.0000E+00  0.0000E+00  0.0000E+00  0.0000E+00  0.0000E+00
     13.568  0.0000E+00  0.0000E+00  0.0000E+00  0.0000E+00  0.0000E+00  0.0000E+00  0.0000E+00  0.0000E+00  0.0000E+00
     13.582  0.0000E+00  0.0000E+00  0.0000E+00  0.0000E+00  0.0000E+00  0.0000E+00  0.0000E+00  0.0000E+00  0.0000E+00
     13.596  0.0000E+00  0.0000E+00  0.0000E+00  0.0000E+00  0.0000E+00  0.0000E+00  0.0000E+00  0.0000E+00  0.0000E+00
     13.610  0.0000E+00  0.0000E+00  0.0000E+00  0.0000E+00  0.0000E+00  0.0000E+00  0.0000E+00  0.0000E+00  0.0000E+00
     13.624  0.0000E+00  0.0000E+00  0.0000E+00  0.0000E+00  0.0000E+00  0.0000E+00  0.0000E+00  0.0000E+00  0.0000E+00
     13.638  0.0000E+00  0.0000E+00  0.0000E+00  0.0000E+00  0.0000E+00  0.0000E+00  0.0000E+00  0.0000E+00  0.0000E+00
     13.652  0.0000E+00  0.0000E+00  0.0000E+00  0.0000E+00  0.0000E+00  0.0000E+00  0.0000E+00  0.0000E+00  0.0000E+00
     13.666  0.0000E+00  0.0000E+00  0.0000E+00  0.0000E+00  0.0000E+00  0.0000E+00  0.0000E+00  0.0000E+00  0.0000E+00
     13.680  0.0000E+00  0.0000E+00  0.0000E+00  0.0000E+00  0.0000E+00  0.0000E+00  0.0000E+00  0.0000E+00  0.0000E+00
     13.694  0.0000E+00  0.0000E+00  0.0000E+00  0.0000E+00  0.0000E+00  0.0000E+00  0.0000E+00  0.0000E+00  0.0000E+00
     13.708  0.0000E+00  0.0000E+00  0.0000E+00  0.0000E+00  0.0000E+00  0.0000E+00  0.0000E+00  0.0000E+00  0.0000E+00
     13.722  0.0000E+00  0.0000E+00  0.0000E+00  0.0000E+00  0.0000E+00  0.0000E+00  0.0000E+00  0.0000E+00  0.0000E+00
     13.736  0.0000E+00  0.0000E+00  0.0000E+00  0.0000E+00  0.0000E+00  0.0000E+00  0.0000E+00  0.0000E+00  0.0000E+00
     13.750  0.0000E+00  0.0000E+00  0.0000E+00  0.0000E+00  0.0000E+00  0.0000E+00  0.0000E+00  0.0000E+00  0.0000E+00
     13.764  0.0000E+00  0.0000E+00  0.0000E+00  0.0000E+00  0.0000E+00  0.0000E+00  0.0000E+00  0.0000E+00  0.0000E+00
     13.778  0.0000E+00  0.0000E+00  0.0000E+00  0.0000E+00  0.0000E+00  0.0000E+00  0.0000E+00  0.0000E+00  0.0000E+00
     13.792  0.0000E+00  0.0000E+00  0.0000E+00  0.0000E+00  0.0000E+00  0.0000E+00  0.0000E+00  0.0000E+00  0.0000E+00
     13.806  0.1182E-05  0.4212E-06  0.4212E-06  0.4212E-06  0.0000E+00  0.0000E+00  0.0000E+00  0.0000E+00  0.0000E+00
     13.820  0.3648E-04  0.1300E-04  0.1300E-04  0.1300E-04  0.0000E+00  0.0000E+00  0.0000E+00  0.0000E+00  0.0000E+00
     13.834  0.1208E-03  0.4306E-04  0.4306E-04  0.4306E-04  0.0000E+00  0.0000E+00  0.0000E+00  0.0000E+00  0.0000E+00
     13.847  0.2543E-03  0.9061E-04  0.9061E-04  0.9061E-04  0.0000E+00  0.0000E+00  0.0000E+00  0.0000E+00  0.0000E+00
     13.861  0.4367E-03  0.1556E-03  0.1556E-03  0.1556E-03  0.0000E+00  0.0000E+00  0.0000E+00  0.0000E+00  0.0000E+00
     13.875  0.6594E-03  0.2352E-03  0.2352E-03  0.2352E-03  0.0000E+00  0.0000E+00  0.0000E+00  0.0000E+00  0.0000E+00
     13.889  0.8920E-03  0.3189E-03  0.3189E-03  0.3189E-03  0.0000E+00  0.0000E+00  0.0000E+00  0.0000E+00  0.0000E+00
     13.903  0.1132E-02  0.4060E-03  0.4060E-03  0.4060E-03  0.0000E+00  0.0000E+00  0.0000E+00  0.0000E+00  0.0000E+00
     13.917  0.1379E-02  0.4966E-03  0.4966E-03  0.4966E-03  0.0000E+00  0.0000E+00  0.0000E+00  0.0000E+00  0.0000E+00
     13.931  0.1634E-02  0.5904E-03  0.5904E-03  0.5904E-03  0.0000E+00  0.0000E+00  0.0000E+00  0.0000E+00  0.0000E+00
     13.945  0.1896E-02  0.6877E-03  0.6877E-03  0.6877E-03  0.0000E+00  0.0000E+00  0.0000E+00  0.0000E+00  0.0000E+00
     13.959  0.2165E-02  0.7883E-03  0.7883E-03  0.7883E-03  0.0000E+00  0.0000E+00  0.0000E+00  0.0000E+00  0.0000E+00
     13.973  0.2442E-02  0.8923E-03  0.8923E-03  0.8923E-03  0.0000E+00  0.0000E+00  0.0000E+00  0.0000E+00  0.0000E+00
     13.987  0.2726E-02  0.9997E-03  0.9997E-03  0.9997E-03  0.0000E+00  0.0000E+00  0.0000E+00  0.0000E+00  0.0000E+00
     14.001  0.3018E-02  0.1110E-02  0.1110E-02  0.1110E-02  0.0000E+00  0.0000E+00  0.0000E+00  0.0000E+00  0.0000E+00
     14.015  0.3317E-02  0.1225E-02  0.1225E-02  0.1225E-02  0.0000E+00  0.0000E+00  0.0000E+00  0.0000E+00  0.0000E+00
     14.029  0.3623E-02  0.1342E-02  0.1342E-02  0.1342E-02  0.0000E+00  0.0000E+00  0.0000E+00  0.0000E+00  0.0000E+00
     14.043  0.3936E-02  0.1463E-02  0.1463E-02  0.1463E-02  0.0000E+00  0.0000E+00  0.0000E+00  0.0000E+00  0.0000E+00
     14.057  0.4257E-02  0.1587E-02  0.1587E-02  0.1587E-02  0.0000E+00  0.0000E+00  0.0000E+00  0.0000E+00  0.0000E+00
     14.071  0.4585E-02  0.1715E-02  0.1715E-02  0.1715E-02  0.0000E+00  0.0000E+00  0.0000E+00  0.0000E+00  0.0000E+00
     14.085  0.4921E-02  0.1846E-02  0.1846E-02  0.1846E-02  0.0000E+00  0.0000E+00  0.0000E+00  0.0000E+00  0.0000E+00
     14.099  0.5264E-02  0.1980E-02  0.1980E-02  0.1980E-02  0.0000E+00  0.0000E+00  0.0000E+00  0.0000E+00  0.0000E+00
     14.113  0.5614E-02  0.2118E-02  0.2118E-02  0.2118E-02  0.0000E+00  0.0000E+00  0.0000E+00  0.0000E+00  0.0000E+00
     14.127  0.5972E-02  0.2259E-02  0.2259E-02  0.2259E-02  0.0000E+00  0.0000E+00  0.0000E+00  0.0000E+00  0.0000E+00
     14.141  0.6337E-02  0.2404E-02  0.2404E-02  0.2404E-02  0.0000E+00  0.0000E+00  0.0000E+00  0.0000E+00  0.0000E+00
     14.155  0.6709E-02  0.2552E-02  0.2552E-02  0.2552E-02  0.0000E+00  0.0000E+00  0.0000E+00  0.0000E+00  0.0000E+00
     14.169  0.7089E-02  0.2703E-02  0.2703E-02  0.2703E-02  0.0000E+00  0.0000E+00  0.0000E+00  0.0000E+00  0.0000E+00
     14.183  0.7476E-02  0.2858E-02  0.2858E-02  0.2858E-02  0.0000E+00  0.0000E+00  0.0000E+00  0.0000E+00  0.0000E+00
     14.197  0.7871E-02  0.3016E-02  0.3016E-02  0.3016E-02  0.0000E+00  0.0000E+00  0.0000E+00  0.0000E+00  0.0000E+00
     14.211  0.8273E-02  0.3177E-02  0.3177E-02  0.3177E-02  0.0000E+00  0.0000E+00  0.0000E+00  0.0000E+00  0.0000E+00
     14.225  0.8682E-02  0.3342E-02  0.3342E-02  0.3342E-02  0.0000E+00  0.0000E+00  0.0000E+00  0.0000E+00  0.0000E+00
     14.239  0.9098E-02  0.3510E-02  0.3510E-02  0.3510E-02  0.0000E+00  0.0000E+00  0.0000E+00  0.0000E+00  0.0000E+00
     14.253  0.9522E-02  0.3681E-02  0.3681E-02  0.3681E-02  0.0000E+00  0.0000E+00  0.0000E+00  0.0000E+00  0.0000E+00
     14.267  0.9954E-02  0.3856E-02  0.3856E-02  0.3856E-02  0.0000E+00  0.0000E+00  0.0000E+00  0.0000E+00  0.0000E+00
     14.281  0.1039E-01  0.4035E-02  0.4035E-02  0.4035E-02  0.0000E+00  0.0000E+00  0.0000E+00  0.0000E+00  0.0000E+00
     14.295  0.1084E-01  0.4216E-02  0.4216E-02  0.4216E-02  0.0000E+00  0.0000E+00  0.0000E+00  0.0000E+00  0.0000E+00
     14.309  0.1129E-01  0.4401E-02  0.4401E-02  0.4401E-02  0.0000E+00  0.0000E+00  0.0000E+00  0.0000E+00  0.0000E+00
     14.323  0.1175E-01  0.4590E-02  0.4590E-02  0.4590E-02  0.0000E+00  0.0000E+00  0.0000E+00  0.0000E+00  0.0000E+00
     14.337  0.1222E-01  0.4781E-02  0.4781E-02  0.4781E-02  0.0000E+00  0.0000E+00  0.0000E+00  0.0000E+00  0.0000E+00
     14.351  0.1270E-01  0.4977E-02  0.4977E-02  0.4977E-02  0.0000E+00  0.0000E+00  0.0000E+00  0.0000E+00  0.0000E+00
     14.365  0.1318E-01  0.5175E-02  0.5175E-02  0.5175E-02  0.0000E+00  0.0000E+00  0.0000E+00  0.0000E+00  0.0000E+00
     14.379  0.1366E-01  0.5378E-02  0.5378E-02  0.5378E-02  0.0000E+00  0.0000E+00  0.0000E+00  0.0000E+00  0.0000E+00
     14.393  0.1415E-01  0.5584E-02  0.5584E-02  0.5584E-02  0.0000E+00  0.0000E+00  0.0000E+00  0.0000E+00  0.0000E+00
     14.407  0.1462E-01  0.5789E-02  0.5789E-02  0.5789E-02  0.0000E+00  0.0000E+00  0.0000E+00  0.0000E+00  0.0000E+00
     14.421  0.1504E-01  0.5992E-02  0.5992E-02  0.5992E-02  0.0000E+00  0.0000E+00  0.0000E+00  0.0000E+00  0.0000E+00
     14.435  0.1543E-01  0.6194E-02  0.6194E-02  0.6194E-02  0.0000E+00  0.0000E+00  0.0000E+00  0.0000E+00  0.0000E+00
     14.448  0.1576E-01  0.6390E-02  0.6390E-02  0.6390E-02  0.0000E+00  0.0000E+00  0.0000E+00  0.0000E+00  0.0000E+00
     14.462  0.1603E-01  0.6579E-02  0.6579E-02  0.6579E-02  0.0000E+00  0.0000E+00  0.0000E+00  0.0000E+00  0.0000E+00
     14.476  0.1626E-01  0.6761E-02  0.6761E-02  0.6761E-02  0.0000E+00  0.0000E+00  0.0000E+00  0.0000E+00  0.0000E+00
     14.490  0.1652E-01  0.6935E-02  0.6935E-02  0.6935E-02  0.0000E+00  0.0000E+00  0.0000E+00  0.0000E+00  0.0000E+00
     14.504  0.1677E-01  0.7111E-02  0.7111E-02  0.7111E-02  0.0000E+00  0.0000E+00  0.0000E+00  0.0000E+00  0.0000E+00
     14.518  0.1703E-01  0.7288E-02  0.7288E-02  0.7288E-02  0.0000E+00  0.0000E+00  0.0000E+00  0.0000E+00  0.0000E+00
     14.532  0.1728E-01  0.7466E-02  0.7466E-02  0.7466E-02  0.0000E+00  0.0000E+00  0.0000E+00  0.0000E+00  0.0000E+00
     14.546  0.1752E-01  0.7646E-02  0.7646E-02  0.7646E-02  0.0000E+00  0.0000E+00  0.0000E+00  0.0000E+00  0.0000E+00
     14.560  0.1777E-01  0.7827E-02  0.7827E-02  0.7827E-02  0.0000E+00  0.0000E+00  0.0000E+00  0.0000E+00  0.0000E+00
     14.574  0.1801E-01  0.8009E-02  0.8009E-02  0.8009E-02  0.0000E+00  0.0000E+00  0.0000E+00  0.0000E+00  0.0000E+00
     14.588  0.1825E-01  0.8192E-02  0.8192E-02  0.8192E-02  0.0000E+00  0.0000E+00  0.0000E+00  0.0000E+00  0.0000E+00
     14.602  0.1848E-01  0.8376E-02  0.8376E-02  0.8376E-02  0.0000E+00  0.0000E+00  0.0000E+00  0.0000E+00  0.0000E+00
     14.616  0.1871E-01  0.8562E-02  0.8562E-02  0.8562E-02  0.0000E+00  0.0000E+00  0.0000E+00  0.0000E+00  0.0000E+00
     14.630  0.1894E-01  0.8749E-02  0.8749E-02  0.8749E-02  0.0000E+00  0.0000E+00  0.0000E+00  0.0000E+00  0.0000E+00
     14.644  0.1917E-01  0.8937E-02  0.8937E-02  0.8937E-02  0.0000E+00  0.0000E+00  0.0000E+00  0.0000E+00  0.0000E+00
     14.658  0.1939E-01  0.9127E-02  0.9127E-02  0.9127E-02  0.0000E+00  0.0000E+00  0.0000E+00  0.0000E+00  0.0000E+00
     14.672  0.1961E-01  0.9317E-02  0.9317E-02  0.9317E-02  0.0000E+00  0.0000E+00  0.0000E+00  0.0000E+00  0.0000E+00
     14.686  0.1983E-01  0.9509E-02  0.9509E-02  0.9509E-02  0.0000E+00  0.0000E+00  0.0000E+00  0.0000E+00  0.0000E+00
     14.700  0.2004E-01  0.9702E-02  0.9702E-02  0.9702E-02  0.0000E+00  0.0000E+00  0.0000E+00  0.0000E+00  0.0000E+00
     14.714  0.2025E-01  0.9897E-02  0.9897E-02  0.9897E-02  0.0000E+00  0.0000E+00  0.0000E+00  0.0000E+00  0.0000E+00
     14.728  0.2046E-01  0.1009E-01  0.1009E-01  0.1009E-01  0.0000E+00  0.0000E+00  0.0000E+00  0.0000E+00  0.0000E+00
     14.742  0.2066E-01  0.1029E-01  0.1029E-01  0.1029E-01  0.0000E+00  0.0000E+00  0.0000E+00  0.0000E+00  0.0000E+00
     14.756  0.2086E-01  0.1049E-01  0.1049E-01  0.1049E-01  0.0000E+00  0.0000E+00  0.0000E+00  0.0000E+00  0.0000E+00
     14.770  0.2106E-01  0.1069E-01  0.1069E-01  0.1069E-01  0.0000E+00  0.0000E+00  0.0000E+00  0.0000E+00  0.0000E+00
     14.784  0.2126E-01  0.1089E-01  0.1089E-01  0.1089E-01  0.0000E+00  0.0000E+00  0.0000E+00  0.0000E+00  0.0000E+00
     14.798  0.2146E-01  0.1109E-01  0.1109E-01  0.1109E-01  0.0000E+00  0.0000E+00  0.0000E+00  0.0000E+00  0.0000E+00
     14.812  0.2166E-01  0.1129E-01  0.1129E-01  0.1129E-01  0.0000E+00  0.0000E+00  0.0000E+00  0.0000E+00  0.0000E+00
     14.826  0.2186E-01  0.1149E-01  0.1149E-01  0.1149E-01  0.0000E+00  0.0000E+00  0.0000E+00  0.0000E+00  0.0000E+00
     14.840  0.2206E-01  0.1169E-01  0.1169E-01  0.1169E-01  0.0000E+00  0.0000E+00  0.0000E+00  0.0000E+00  0.0000E+00
     14.854  0.2226E-01  0.1189E-01  0.1189E-01  0.1189E-01  0.0000E+00  0.0000E+00  0.0000E+00  0.0000E+00  0.0000E+00
     14.868  0.2246E-01  0.1209E-01  0.1209E-01  0.1209E-01  0.0000E+00  0.0000E+00  0.0000E+00  0.0000E+00  0.0000E+00
     14.882  0.2266E-01  0.1230E-01  0.1230E-01  0.1230E-01  0.0000E+00  0.0000E+00  0.0000E+00  0.0000E+00  0.0000E+00
     14.896  0.2286E-01  0.1250E-01  0.1250E-01  0.1250E-01  0.0000E+00  0.0000E+00  0.0000E+00  0.0000E+00  0.0000E+00
     14.910  0.2306E-01  0.1270E-01  0.1270E-01  0.1270E-01  0.0000E+00  0.0000E+00  0.0000E+00  0.0000E+00  0.0000E+00
     14.924  0.2325E-01  0.1291E-01  0.1291E-01  0.1291E-01  0.0000E+00  0.0000E+00  0.0000E+00  0.0000E+00  0.0000E+00
     14.938  0.2345E-01  0.1311E-01  0.1311E-01  0.1311E-01  0.0000E+00  0.0000E+00  0.0000E+00  0.0000E+00  0.0000E+00
     14.952  0.2365E-01  0.1332E-01  0.1332E-01  0.1332E-01  0.0000E+00  0.0000E+00  0.0000E+00  0.0000E+00  0.0000E+00
     14.966  0.2385E-01  0.1353E-01  0.1353E-01  0.1353E-01  0.0000E+00  0.0000E+00  0.0000E+00  0.0000E+00  0.0000E+00
     14.980  0.2404E-01  0.1375E-01  0.1375E-01  0.1375E-01  0.0000E+00  0.0000E+00  0.0000E+00  0.0000E+00  0.0000E+00
     14.994  0.2424E-01  0.1398E-01  0.1398E-01  0.1398E-01  0.0000E+00  0.0000E+00  0.0000E+00  0.0000E+00  0.0000E+00
     15.008  0.2443E-01  0.1422E-01  0.1422E-01  0.1422E-01  0.0000E+00  0.0000E+00  0.0000E+00  0.0000E+00  0.0000E+00
     15.022  0.2461E-01  0.1447E-01  0.1447E-01  0.1447E-01  0.0000E+00  0.0000E+00  0.0000E+00  0.0000E+00  0.0000E+00
     15.036  0.2480E-01  0.1473E-01  0.1473E-01  0.1473E-01  0.0000E+00  0.0000E+00  0.0000E+00  0.0000E+00  0.0000E+00
     15.049  0.2498E-01  0.1499E-01  0.1499E-01  0.1499E-01  0.0000E+00  0.0000E+00  0.0000E+00  0.0000E+00  0.0000E+00
     15.063  0.2516E-01  0.1526E-01  0.1526E-01  0.1526E-01  0.0000E+00  0.0000E+00  0.0000E+00  0.0000E+00  0.0000E+00
     15.077  0.2533E-01  0.1554E-01  0.1554E-01  0.1554E-01  0.0000E+00  0.0000E+00  0.0000E+00  0.0000E+00  0.0000E+00
     15.091  0.2550E-01  0.1583E-01  0.1583E-01  0.1583E-01  0.0000E+00  0.0000E+00  0.0000E+00  0.0000E+00  0.0000E+00
     15.105  0.2567E-01  0.1612E-01  0.1612E-01  0.1612E-01  0.0000E+00  0.0000E+00  0.0000E+00  0.0000E+00  0.0000E+00
     15.119  0.2583E-01  0.1643E-01  0.1643E-01  0.1643E-01  0.0000E+00  0.0000E+00  0.0000E+00  0.0000E+00  0.0000E+00
     15.133  0.2600E-01  0.1674E-01  0.1674E-01  0.1674E-01  0.0000E+00  0.0000E+00  0.0000E+00  0.0000E+00  0.0000E+00
     15.147  0.2615E-01  0.1706E-01  0.1706E-01  0.1706E-01  0.0000E+00  0.0000E+00  0.0000E+00  0.0000E+00  0.0000E+00
     15.161  0.2631E-01  0.1739E-01  0.1739E-01  0.1739E-01  0.0000E+00  0.0000E+00  0.0000E+00  0.0000E+00  0.0000E+00
     15.175  0.2646E-01  0.1773E-01  0.1773E-01  0.1773E-01  0.0000E+00  0.0000E+00  0.0000E+00  0.0000E+00  0.0000E+00
     15.189  0.2661E-01  0.1807E-01  0.1807E-01  0.1807E-01  0.0000E+00  0.0000E+00  0.0000E+00  0.0000E+00  0.0000E+00
     15.203  0.2676E-01  0.1843E-01  0.1843E-01  0.1843E-01  0.0000E+00  0.0000E+00  0.0000E+00  0.0000E+00  0.0000E+00
     15.217  0.2692E-01  0.1879E-01  0.1879E-01  0.1879E-01  0.0000E+00  0.0000E+00  0.0000E+00  0.0000E+00  0.0000E+00
     15.231  0.2708E-01  0.1917E-01  0.1917E-01  0.1917E-01  0.0000E+00  0.0000E+00  0.0000E+00  0.0000E+00  0.0000E+00
     15.245  0.2724E-01  0.1954E-01  0.1954E-01  0.1954E-01  0.0000E+00  0.0000E+00  0.0000E+00  0.0000E+00  0.0000E+00
     15.259  0.2740E-01  0.1992E-01  0.1992E-01  0.1992E-01  0.0000E+00  0.0000E+00  0.0000E+00  0.0000E+00  0.0000E+00
     15.273  0.2757E-01  0.2030E-01  0.2030E-01  0.2030E-01  0.0000E+00  0.0000E+00  0.0000E+00  0.0000E+00  0.0000E+00
     15.287  0.2774E-01  0.2068E-01  0.2068E-01  0.2068E-01  0.0000E+00  0.0000E+00  0.0000E+00  0.0000E+00  0.0000E+00
     15.301  0.2791E-01  0.2107E-01  0.2107E-01  0.2107E-01  0.0000E+00  0.0000E+00  0.0000E+00  0.0000E+00  0.0000E+00
     15.315  0.2808E-01  0.2145E-01  0.2145E-01  0.2145E-01  0.0000E+00  0.0000E+00  0.0000E+00  0.0000E+00  0.0000E+00
     15.329  0.2825E-01  0.2184E-01  0.2184E-01  0.2184E-01  0.0000E+00  0.0000E+00  0.0000E+00  0.0000E+00  0.0000E+00
     15.343  0.2841E-01  0.2223E-01  0.2223E-01  0.2223E-01  0.0000E+00  0.0000E+00  0.0000E+00  0.0000E+00  0.0000E+00
     15.357  0.2858E-01  0.2262E-01  0.2262E-01  0.2262E-01  0.0000E+00  0.0000E+00  0.0000E+00  0.0000E+00  0.0000E+00
     15.371  0.2875E-01  0.2302E-01  0.2302E-01  0.2302E-01  0.0000E+00  0.0000E+00  0.0000E+00  0.0000E+00  0.0000E+00
     15.385  0.2892E-01  0.2341E-01  0.2341E-01  0.2341E-01  0.0000E+00  0.0000E+00  0.0000E+00  0.0000E+00  0.0000E+00
     15.399  0.2909E-01  0.2380E-01  0.2380E-01  0.2380E-01  0.0000E+00  0.0000E+00  0.0000E+00  0.0000E+00  0.0000E+00
     15.413  0.2926E-01  0.2418E-01  0.2418E-01  0.2418E-01  0.0000E+00  0.0000E+00  0.0000E+00  0.0000E+00  0.0000E+00
     15.427  0.2943E-01  0.2455E-01  0.2455E-01  0.2455E-01  0.0000E+00  0.0000E+00  0.0000E+00  0.0000E+00  0.0000E+00
     15.441  0.2959E-01  0.2490E-01  0.2490E-01  0.2490E-01  0.0000E+00  0.0000E+00  0.0000E+00  0.0000E+00  0.0000E+00
     15.455  0.2976E-01  0.2525E-01  0.2525E-01  0.2525E-01  0.0000E+00  0.0000E+00  0.0000E+00  0.0000E+00  0.0000E+00
     15.469  0.2993E-01  0.2560E-01  0.2560E-01  0.2560E-01  0.0000E+00  0.0000E+00  0.0000E+00  0.0000E+00  0.0000E+00
     15.483  0.3009E-01  0.2593E-01  0.2593E-01  0.2593E-01  0.0000E+00  0.0000E+00  0.0000E+00  0.0000E+00  0.0000E+00
     15.497  0.3025E-01  0.2625E-01  0.2625E-01  0.2625E-01  0.0000E+00  0.0000E+00  0.0000E+00  0.0000E+00  0.0000E+00
     15.511  0.3042E-01  0.2657E-01  0.2657E-01  0.2657E-01  0.0000E+00  0.0000E+00  0.0000E+00  0.0000E+00  0.0000E+00
     15.525  0.3058E-01  0.2687E-01  0.2687E-01  0.2687E-01  0.0000E+00  0.0000E+00  0.0000E+00  0.0000E+00  0.0000E+00
     15.539  0.3074E-01  0.2717E-01  0.2717E-01  0.2717E-01  0.0000E+00  0.0000E+00  0.0000E+00  0.0000E+00  0.0000E+00
     15.553  0.3090E-01  0.2745E-01  0.2745E-01  0.2745E-01  0.0000E+00  0.0000E+00  0.0000E+00  0.0000E+00  0.0000E+00
     15.567  0.3106E-01  0.2773E-01  0.2773E-01  0.2773E-01  0.0000E+00  0.0000E+00  0.0000E+00  0.0000E+00  0.0000E+00
     15.581  0.3122E-01  0.2800E-01  0.2800E-01  0.2800E-01  0.0000E+00  0.0000E+00  0.0000E+00  0.0000E+00  0.0000E+00
     15.595  0.3138E-01  0.2826E-01  0.2826E-01  0.2826E-01  0.0000E+00  0.0000E+00  0.0000E+00  0.0000E+00  0.0000E+00
     15.609  0.3153E-01  0.2851E-01  0.2851E-01  0.2851E-01  0.0000E+00  0.0000E+00  0.0000E+00  0.0000E+00  0.0000E+00
     15.623  0.3169E-01  0.2876E-01  0.2876E-01  0.2876E-01  0.0000E+00  0.0000E+00  0.0000E+00  0.0000E+00  0.0000E+00
     15.637  0.3184E-01  0.2899E-01  0.2899E-01  0.2899E-01  0.0000E+00  0.0000E+00  0.0000E+00  0.0000E+00  0.0000E+00
     15.650  0.3200E-01  0.2921E-01  0.2921E-01  0.2921E-01  0.0000E+00  0.0000E+00  0.0000E+00  0.0000E+00  0.0000E+00
     15.664  0.3215E-01  0.2943E-01  0.2943E-01  0.2943E-01  0.0000E+00  0.0000E+00  0.0000E+00  0.0000E+00  0.0000E+00
     15.678  0.3230E-01  0.2963E-01  0.2963E-01  0.2963E-01  0.0000E+00  0.0000E+00  0.0000E+00  0.0000E+00  0.0000E+00
     15.692  0.3245E-01  0.2983E-01  0.2983E-01  0.2983E-01  0.0000E+00  0.0000E+00  0.0000E+00  0.0000E+00  0.0000E+00
     15.706  0.3260E-01  0.3002E-01  0.3002E-01  0.3002E-01  0.0000E+00  0.0000E+00  0.0000E+00  0.0000E+00  0.0000E+00
     15.720  0.3275E-01  0.3020E-01  0.3020E-01  0.3020E-01  0.0000E+00  0.0000E+00  0.0000E+00  0.0000E+00  0.0000E+00
     15.734  0.3290E-01  0.3037E-01  0.3037E-01  0.3037E-01  0.0000E+00  0.0000E+00  0.0000E+00  0.0000E+00  0.0000E+00
     15.748  0.3305E-01  0.3053E-01  0.3053E-01  0.3053E-01  0.0000E+00  0.0000E+00  0.0000E+00  0.0000E+00  0.0000E+00
     15.762  0.3320E-01  0.3068E-01  0.3068E-01  0.3068E-01  0.0000E+00  0.0000E+00  0.0000E+00  0.0000E+00  0.0000E+00
     15.776  0.3333E-01  0.3084E-01  0.3084E-01  0.3084E-01  0.0000E+00  0.0000E+00  0.0000E+00  0.0000E+00  0.0000E+00
     15.790  0.3347E-01  0.3099E-01  0.3099E-01  0.3099E-01  0.0000E+00  0.0000E+00  0.0000E+00  0.0000E+00  0.0000E+00
     15.804  0.3360E-01  0.3109E-01  0.3109E-01  0.3109E-01  0.0000E+00  0.0000E+00  0.0000E+00  0.0000E+00  0.0000E+00
     15.818  0.3371E-01  0.3085E-01  0.3085E-01  0.3085E-01  0.0000E+00  0.0000E+00  0.0000E+00  0.0000E+00  0.0000E+00
     15.832  0.3380E-01  0.3065E-01  0.3065E-01  0.3065E-01  0.0000E+00  0.0000E+00  0.0000E+00  0.0000E+00  0.0000E+00
     15.846  0.3388E-01  0.3049E-01  0.3049E-01  0.3049E-01  0.0000E+00  0.0000E+00  0.0000E+00  0.0000E+00  0.0000E+00
     15.860  0.3395E-01  0.3038E-01  0.3038E-01  0.3038E-01  0.0000E+00  0.0000E+00  0.0000E+00  0.0000E+00  0.0000E+00
     15.874  0.3402E-01  0.3031E-01  0.3031E-01  0.3031E-01  0.0000E+00  0.0000E+00  0.0000E+00  0.0000E+00  0.0000E+00
     15.888  0.3409E-01  0.3029E-01  0.3029E-01  0.3029E-01  0.0000E+00  0.0000E+00  0.0000E+00  0.0000E+00  0.0000E+00
     15.902  0.3415E-01  0.3031E-01  0.3031E-01  0.3031E-01  0.0000E+00  0.0000E+00  0.0000E+00  0.0000E+00  0.0000E+00
     15.916  0.3421E-01  0.3039E-01  0.3039E-01  0.3039E-01  0.0000E+00  0.0000E+00  0.0000E+00  0.0000E+00  0.0000E+00
     15.930  0.3428E-01  0.3051E-01  0.3051E-01  0.3051E-01  0.0000E+00  0.0000E+00  0.0000E+00  0.0000E+00  0.0000E+00
     15.944  0.3432E-01  0.3064E-01  0.3064E-01  0.3064E-01  0.0000E+00  0.0000E+00  0.0000E+00  0.0000E+00  0.0000E+00
     15.958  0.3436E-01  0.3079E-01  0.3079E-01  0.3079E-01  0.0000E+00  0.0000E+00  0.0000E+00  0.0000E+00  0.0000E+00
     15.972  0.3439E-01  0.3097E-01  0.3097E-01  0.3097E-01  0.0000E+00  0.0000E+00  0.0000E+00  0.0000E+00  0.0000E+00
     15.986  0.3442E-01  0.3115E-01  0.3115E-01  0.3115E-01  0.0000E+00  0.0000E+00  0.0000E+00  0.0000E+00  0.0000E+00
     16.000  0.3444E-01  0.3133E-01  0.3133E-01  0.3133E-01  0.0000E+00  0.0000E+00  0.0000E+00  0.0000E+00  0.0000E+00
     16.014  0.3446E-01  0.3152E-01  0.3152E-01  0.3152E-01  0.0000E+00  0.0000E+00  0.0000E+00  0.0000E+00  0.0000E+00
     16.028  0.3447E-01  0.3170E-01  0.3170E-01  0.3170E-01  0.0000E+00  0.0000E+00  0.0000E+00  0.0000E+00  0.0000E+00
     16.042  0.3448E-01  0.3188E-01  0.3188E-01  0.3188E-01  0.0000E+00  0.0000E+00  0.0000E+00  0.0000E+00  0.0000E+00
     16.056  0.3448E-01  0.3206E-01  0.3206E-01  0.3206E-01  0.0000E+00  0.0000E+00  0.0000E+00  0.0000E+00  0.0000E+00
     16.070  0.3448E-01  0.3224E-01  0.3224E-01  0.3224E-01  0.0000E+00  0.0000E+00  0.0000E+00  0.0000E+00  0.0000E+00
     16.084  0.3447E-01  0.3242E-01  0.3242E-01  0.3242E-01  0.0000E+00  0.0000E+00  0.0000E+00  0.0000E+00  0.0000E+00
     16.098  0.3446E-01  0.3260E-01  0.3260E-01  0.3260E-01  0.0000E+00  0.0000E+00  0.0000E+00  0.0000E+00  0.0000E+00
     16.112  0.3444E-01  0.3277E-01  0.3277E-01  0.3277E-01  0.0000E+00  0.0000E+00  0.0000E+00  0.0000E+00  0.0000E+00
     16.126  0.3442E-01  0.3295E-01  0.3295E-01  0.3295E-01  0.0000E+00  0.0000E+00  0.0000E+00  0.0000E+00  0.0000E+00
     16.140  0.3440E-01  0.3313E-01  0.3313E-01  0.3313E-01  0.0000E+00  0.0000E+00  0.0000E+00  0.0000E+00  0.0000E+00
     16.154  0.3436E-01  0.3331E-01  0.3331E-01  0.3331E-01  0.0000E+00  0.0000E+00  0.0000E+00  0.0000E+00  0.0000E+00
     16.168  0.3433E-01  0.3346E-01  0.3346E-01  0.3346E-01  0.0000E+00  0.0000E+00  0.0000E+00  0.0000E+00  0.0000E+00
     16.182  0.3429E-01  0.3362E-01  0.3362E-01  0.3362E-01  0.0000E+00  0.0000E+00  0.0000E+00  0.0000E+00  0.0000E+00
     16.196  0.3425E-01  0.3377E-01  0.3377E-01  0.3377E-01  0.0000E+00  0.0000E+00  0.0000E+00  0.0000E+00  0.0000E+00
     16.210  0.3421E-01  0.3393E-01  0.3393E-01  0.3393E-01  0.0000E+00  0.0000E+00  0.0000E+00  0.0000E+00  0.0000E+00
     16.224  0.3415E-01  0.3408E-01  0.3408E-01  0.3408E-01  0.0000E+00  0.0000E+00  0.0000E+00  0.0000E+00  0.0000E+00
     16.238  0.3415E-01  0.3425E-01  0.3425E-01  0.3425E-01  0.0000E+00  0.0000E+00  0.0000E+00  0.0000E+00  0.0000E+00
     16.251  0.3420E-01  0.3444E-01  0.3444E-01  0.3444E-01  0.0000E+00  0.0000E+00  0.0000E+00  0.0000E+00  0.0000E+00
     16.265  0.3425E-01  0.3462E-01  0.3462E-01  0.3462E-01  0.0000E+00  0.0000E+00  0.0000E+00  0.0000E+00  0.0000E+00
     16.279  0.3429E-01  0.3481E-01  0.3481E-01  0.3481E-01  0.0000E+00  0.0000E+00  0.0000E+00  0.0000E+00  0.0000E+00
     16.293  0.3434E-01  0.3499E-01  0.3499E-01  0.3499E-01  0.0000E+00  0.0000E+00  0.0000E+00  0.0000E+00  0.0000E+00
     16.307  0.3438E-01  0.3518E-01  0.3518E-01  0.3518E-01  0.0000E+00  0.0000E+00  0.0000E+00  0.0000E+00  0.0000E+00
     16.321  0.3442E-01  0.3537E-01  0.3537E-01  0.3537E-01  0.0000E+00  0.0000E+00  0.0000E+00  0.0000E+00  0.0000E+00
     16.335  0.3446E-01  0.3555E-01  0.3555E-01  0.3555E-01  0.0000E+00  0.0000E+00  0.0000E+00  0.0000E+00  0.0000E+00
     16.349  0.3450E-01  0.3574E-01  0.3574E-01  0.3574E-01  0.0000E+00  0.0000E+00  0.0000E+00  0.0000E+00  0.0000E+00
     16.363  0.3454E-01  0.3594E-01  0.3594E-01  0.3594E-01  0.0000E+00  0.0000E+00  0.0000E+00  0.0000E+00  0.0000E+00
     16.377  0.3458E-01  0.3613E-01  0.3613E-01  0.3613E-01  0.0000E+00  0.0000E+00  0.0000E+00  0.0000E+00  0.0000E+00
     16.391  0.3462E-01  0.3632E-01  0.3632E-01  0.3632E-01  0.0000E+00  0.0000E+00  0.0000E+00  0.0000E+00  0.0000E+00
     16.405  0.3466E-01  0.3652E-01  0.3652E-01  0.3652E-01  0.0000E+00  0.0000E+00  0.0000E+00  0.0000E+00  0.0000E+00
     16.419  0.3469E-01  0.3672E-01  0.3672E-01  0.3672E-01  0.0000E+00  0.0000E+00  0.0000E+00  0.0000E+00  0.0000E+00
     16.433  0.3472E-01  0.3692E-01  0.3692E-01  0.3692E-01  0.0000E+00  0.0000E+00  0.0000E+00  0.0000E+00  0.0000E+00
     16.447  0.3475E-01  0.3712E-01  0.3712E-01  0.3712E-01  0.0000E+00  0.0000E+00  0.0000E+00  0.0000E+00  0.0000E+00
     16.461  0.3479E-01  0.3733E-01  0.3733E-01  0.3733E-01  0.0000E+00  0.0000E+00  0.0000E+00  0.0000E+00  0.0000E+00
     16.475  0.3482E-01  0.3754E-01  0.3754E-01  0.3754E-01  0.0000E+00  0.0000E+00  0.0000E+00  0.0000E+00  0.0000E+00
     16.489  0.3486E-01  0.3776E-01  0.3776E-01  0.3776E-01  0.0000E+00  0.0000E+00  0.0000E+00  0.0000E+00  0.0000E+00
     16.503  0.3490E-01  0.3798E-01  0.3798E-01  0.3798E-01  0.0000E+00  0.0000E+00  0.0000E+00  0.0000E+00  0.0000E+00
     16.517  0.3495E-01  0.3821E-01  0.3821E-01  0.3821E-01  0.0000E+00  0.0000E+00  0.0000E+00  0.0000E+00  0.0000E+00
     16.531  0.3499E-01  0.3844E-01  0.3844E-01  0.3844E-01  0.0000E+00  0.0000E+00  0.0000E+00  0.0000E+00  0.0000E+00
     16.545  0.3503E-01  0.3868E-01  0.3868E-01  0.3868E-01  0.0000E+00  0.0000E+00  0.0000E+00  0.0000E+00  0.0000E+00
     16.559  0.3508E-01  0.3892E-01  0.3892E-01  0.3892E-01  0.0000E+00  0.0000E+00  0.0000E+00  0.0000E+00  0.0000E+00
     16.573  0.3512E-01  0.3917E-01  0.3917E-01  0.3917E-01  0.0000E+00  0.0000E+00  0.0000E+00  0.0000E+00  0.0000E+00
     16.587  0.3517E-01  0.3942E-01  0.3942E-01  0.3942E-01  0.0000E+00  0.0000E+00  0.0000E+00  0.0000E+00  0.0000E+00
     16.601  0.3521E-01  0.3967E-01  0.3967E-01  0.3967E-01  0.0000E+00  0.0000E+00  0.0000E+00  0.0000E+00  0.0000E+00
     16.615  0.3526E-01  0.3993E-01  0.3993E-01  0.3993E-01  0.0000E+00  0.0000E+00  0.0000E+00  0.0000E+00  0.0000E+00
     16.629  0.3531E-01  0.4019E-01  0.4019E-01  0.4019E-01  0.0000E+00  0.0000E+00  0.0000E+00  0.0000E+00  0.0000E+00
     16.643  0.3536E-01  0.4046E-01  0.4046E-01  0.4046E-01  0.0000E+00  0.0000E+00  0.0000E+00  0.0000E+00  0.0000E+00
     16.657  0.3541E-01  0.4074E-01  0.4074E-01  0.4074E-01  0.0000E+00  0.0000E+00  0.0000E+00  0.0000E+00  0.0000E+00
     16.671  0.3546E-01  0.4102E-01  0.4102E-01  0.4102E-01  0.0000E+00  0.0000E+00  0.0000E+00  0.0000E+00  0.0000E+00
     16.685  0.3552E-01  0.4131E-01  0.4131E-01  0.4131E-01  0.0000E+00  0.0000E+00  0.0000E+00  0.0000E+00  0.0000E+00
     16.699  0.3557E-01  0.4160E-01  0.4160E-01  0.4160E-01  0.0000E+00  0.0000E+00  0.0000E+00  0.0000E+00  0.0000E+00
     16.713  0.3563E-01  0.4189E-01  0.4189E-01  0.4189E-01  0.0000E+00  0.0000E+00  0.0000E+00  0.0000E+00  0.0000E+00
     16.727  0.3569E-01  0.4219E-01  0.4219E-01  0.4219E-01  0.0000E+00  0.0000E+00  0.0000E+00  0.0000E+00  0.0000E+00
     16.741  0.3574E-01  0.4250E-01  0.4250E-01  0.4250E-01  0.0000E+00  0.0000E+00  0.0000E+00  0.0000E+00  0.0000E+00
     16.755  0.3580E-01  0.4281E-01  0.4281E-01  0.4281E-01  0.0000E+00  0.0000E+00  0.0000E+00  0.0000E+00  0.0000E+00
     16.769  0.3587E-01  0.4313E-01  0.4313E-01  0.4313E-01  0.0000E+00  0.0000E+00  0.0000E+00  0.0000E+00  0.0000E+00
     16.783  0.3593E-01  0.4345E-01  0.4345E-01  0.4345E-01  0.0000E+00  0.0000E+00  0.0000E+00  0.0000E+00  0.0000E+00
     16.797  0.3599E-01  0.4378E-01  0.4378E-01  0.4378E-01  0.0000E+00  0.0000E+00  0.0000E+00  0.0000E+00  0.0000E+00
     16.811  0.3606E-01  0.4412E-01  0.4412E-01  0.4412E-01  0.0000E+00  0.0000E+00  0.0000E+00  0.0000E+00  0.0000E+00
     16.825  0.3612E-01  0.4445E-01  0.4445E-01  0.4445E-01  0.0000E+00  0.0000E+00  0.0000E+00  0.0000E+00  0.0000E+00
     16.839  0.3619E-01  0.4480E-01  0.4480E-01  0.4480E-01  0.0000E+00  0.0000E+00  0.0000E+00  0.0000E+00  0.0000E+00
     16.852  0.3626E-01  0.4515E-01  0.4515E-01  0.4515E-01  0.0000E+00  0.0000E+00  0.0000E+00  0.0000E+00  0.0000E+00
     16.866  0.3633E-01  0.4550E-01  0.4550E-01  0.4550E-01  0.0000E+00  0.0000E+00  0.0000E+00  0.0000E+00  0.0000E+00
     16.880  0.3641E-01  0.4586E-01  0.4586E-01  0.4586E-01  0.0000E+00  0.0000E+00  0.0000E+00  0.0000E+00  0.0000E+00
     16.894  0.3649E-01  0.4622E-01  0.4622E-01  0.4622E-01  0.0000E+00  0.0000E+00  0.0000E+00  0.0000E+00  0.0000E+00
     16.908  0.3658E-01  0.4660E-01  0.4660E-01  0.4660E-01  0.0000E+00  0.0000E+00  0.0000E+00  0.0000E+00  0.0000E+00
     16.922  0.3669E-01  0.4698E-01  0.4698E-01  0.4698E-01  0.0000E+00  0.0000E+00  0.0000E+00  0.0000E+00  0.0000E+00
     16.936  0.3680E-01  0.4737E-01  0.4737E-01  0.4737E-01  0.0000E+00  0.0000E+00  0.0000E+00  0.0000E+00  0.0000E+00
     16.950  0.3693E-01  0.4775E-01  0.4775E-01  0.4775E-01  0.0000E+00  0.0000E+00  0.0000E+00  0.0000E+00  0.0000E+00
     16.964  0.3708E-01  0.4812E-01  0.4812E-01  0.4812E-01  0.0000E+00  0.0000E+00  0.0000E+00  0.0000E+00  0.0000E+00
     16.978  0.3725E-01  0.4848E-01  0.4848E-01  0.4848E-01  0.0000E+00  0.0000E+00  0.0000E+00  0.0000E+00  0.0000E+00
     16.992  0.3743E-01  0.4885E-01  0.4885E-01  0.4885E-01  0.0000E+00  0.0000E+00  0.0000E+00  0.0000E+00  0.0000E+00
     17.006  0.3762E-01  0.4924E-01  0.4924E-01  0.4924E-01  0.0000E+00  0.0000E+00  0.0000E+00  0.0000E+00  0.0000E+00
     17.020  0.3781E-01  0.4964E-01  0.4964E-01  0.4964E-01  0.0000E+00  0.0000E+00  0.0000E+00  0.0000E+00  0.0000E+00
     17.034  0.3802E-01  0.5005E-01  0.5005E-01  0.5005E-01  0.0000E+00  0.0000E+00  0.0000E+00  0.0000E+00  0.0000E+00
     17.048  0.3824E-01  0.5047E-01  0.5047E-01  0.5047E-01  0.0000E+00  0.0000E+00  0.0000E+00  0.0000E+00  0.0000E+00
     17.062  0.3846E-01  0.5091E-01  0.5091E-01  0.5091E-01  0.0000E+00  0.0000E+00  0.0000E+00  0.0000E+00  0.0000E+00
     17.076  0.3877E-01  0.5144E-01  0.5144E-01  0.5144E-01  0.0000E+00  0.0000E+00  0.0000E+00  0.0000E+00  0.0000E+00
     17.090  0.3920E-01  0.5210E-01  0.5210E-01  0.5210E-01  0.0000E+00  0.0000E+00  0.0000E+00  0.0000E+00  0.0000E+00
     17.104  0.3962E-01  0.5276E-01  0.5276E-01  0.5276E-01  0.0000E+00  0.0000E+00  0.0000E+00  0.0000E+00  0.0000E+00
     17.118  0.4005E-01  0.5343E-01  0.5343E-01  0.5343E-01  0.0000E+00  0.0000E+00  0.0000E+00  0.0000E+00  0.0000E+00
     17.132  0.4047E-01  0.5410E-01  0.5410E-01  0.5410E-01  0.0000E+00  0.0000E+00  0.0000E+00  0.0000E+00  0.0000E+00
     17.146  0.4090E-01  0.5478E-01  0.5478E-01  0.5478E-01  0.0000E+00  0.0000E+00  0.0000E+00  0.0000E+00  0.0000E+00
     17.160  0.4133E-01  0.5548E-01  0.5548E-01  0.5548E-01  0.0000E+00  0.0000E+00  0.0000E+00  0.0000E+00  0.0000E+00
     17.174  0.4177E-01  0.5619E-01  0.5619E-01  0.5619E-01  0.0000E+00  0.0000E+00  0.0000E+00  0.0000E+00  0.0000E+00
     17.188  0.4221E-01  0.5691E-01  0.5691E-01  0.5691E-01  0.0000E+00  0.0000E+00  0.0000E+00  0.0000E+00  0.0000E+00
     17.202  0.4266E-01  0.5764E-01  0.5764E-01  0.5764E-01  0.0000E+00  0.0000E+00  0.0000E+00  0.0000E+00  0.0000E+00
     17.216  0.4310E-01  0.5838E-01  0.5838E-01  0.5838E-01  0.0000E+00  0.0000E+00  0.0000E+00  0.0000E+00  0.0000E+00
     17.230  0.4355E-01  0.5914E-01  0.5914E-01  0.5914E-01  0.0000E+00  0.0000E+00  0.0000E+00  0.0000E+00  0.0000E+00
     17.244  0.4401E-01  0.5991E-01  0.5991E-01  0.5991E-01  0.0000E+00  0.0000E+00  0.0000E+00  0.0000E+00  0.0000E+00
     17.258  0.4447E-01  0.6069E-01  0.6069E-01  0.6069E-01  0.0000E+00  0.0000E+00  0.0000E+00  0.0000E+00  0.0000E+00
     17.272  0.4493E-01  0.6148E-01  0.6148E-01  0.6148E-01  0.0000E+00  0.0000E+00  0.0000E+00  0.0000E+00  0.0000E+00
     17.286  0.4539E-01  0.6228E-01  0.6228E-01  0.6228E-01  0.0000E+00  0.0000E+00  0.0000E+00  0.0000E+00  0.0000E+00
     17.300  0.4587E-01  0.6311E-01  0.6311E-01  0.6311E-01  0.0000E+00  0.0000E+00  0.0000E+00  0.0000E+00  0.0000E+00
     17.314  0.4635E-01  0.6394E-01  0.6394E-01  0.6394E-01  0.0000E+00  0.0000E+00  0.0000E+00  0.0000E+00  0.0000E+00
     17.328  0.4685E-01  0.6480E-01  0.6480E-01  0.6480E-01  0.0000E+00  0.0000E+00  0.0000E+00  0.0000E+00  0.0000E+00
     17.342  0.4735E-01  0.6567E-01  0.6567E-01  0.6567E-01  0.0000E+00  0.0000E+00  0.0000E+00  0.0000E+00  0.0000E+00
     17.356  0.4786E-01  0.6656E-01  0.6656E-01  0.6656E-01  0.0000E+00  0.0000E+00  0.0000E+00  0.0000E+00  0.0000E+00
     17.370  0.4837E-01  0.6746E-01  0.6746E-01  0.6746E-01  0.0000E+00  0.0000E+00  0.0000E+00  0.0000E+00  0.0000E+00
     17.384  0.4889E-01  0.6837E-01  0.6837E-01  0.6837E-01  0.0000E+00  0.0000E+00  0.0000E+00  0.0000E+00  0.0000E+00
     17.398  0.4941E-01  0.6929E-01  0.6929E-01  0.6929E-01  0.0000E+00  0.0000E+00  0.0000E+00  0.0000E+00  0.0000E+00
     17.412  0.4994E-01  0.7023E-01  0.7023E-01  0.7023E-01  0.0000E+00  0.0000E+00  0.0000E+00  0.0000E+00  0.0000E+00
     17.426  0.5047E-01  0.7118E-01  0.7118E-01  0.7118E-01  0.0000E+00  0.0000E+00  0.0000E+00  0.0000E+00  0.0000E+00
     17.440  0.5100E-01  0.7213E-01  0.7213E-01  0.7213E-01  0.0000E+00  0.0000E+00  0.0000E+00  0.0000E+00  0.0000E+00
     17.453  0.5154E-01  0.7311E-01  0.7311E-01  0.7311E-01  0.0000E+00  0.0000E+00  0.0000E+00  0.0000E+00  0.0000E+00
     17.467  0.5208E-01  0.7409E-01  0.7409E-01  0.7409E-01  0.0000E+00  0.0000E+00  0.0000E+00  0.0000E+00  0.0000E+00
     17.481  0.5263E-01  0.7509E-01  0.7509E-01  0.7509E-01  0.0000E+00  0.0000E+00  0.0000E+00  0.0000E+00  0.0000E+00
     17.495  0.5318E-01  0.7609E-01  0.7609E-01  0.7609E-01  0.0000E+00  0.0000E+00  0.0000E+00  0.0000E+00  0.0000E+00
     17.509  0.5373E-01  0.7712E-01  0.7712E-01  0.7712E-01  0.0000E+00  0.0000E+00  0.0000E+00  0.0000E+00  0.0000E+00
     17.523  0.5449E-01  0.7852E-01  0.7852E-01  0.7852E-01  0.0000E+00  0.0000E+00  0.0000E+00  0.0000E+00  0.0000E+00
     17.537  0.5568E-01  0.8070E-01  0.8070E-01  0.8070E-01  0.0000E+00  0.0000E+00  0.0000E+00  0.0000E+00  0.0000E+00
     17.551  0.5681E-01  0.8280E-01  0.8280E-01  0.8280E-01  0.0000E+00  0.0000E+00  0.0000E+00  0.0000E+00  0.0000E+00
     17.565  0.5789E-01  0.8484E-01  0.8484E-01  0.8484E-01  0.0000E+00  0.0000E+00  0.0000E+00  0.0000E+00  0.0000E+00
     17.579  0.5891E-01  0.8679E-01  0.8679E-01  0.8679E-01  0.0000E+00  0.0000E+00  0.0000E+00  0.0000E+00  0.0000E+00
     17.593  0.5987E-01  0.8868E-01  0.8868E-01  0.8868E-01  0.0000E+00  0.0000E+00  0.0000E+00  0.0000E+00  0.0000E+00
     17.607  0.6071E-01  0.9053E-01  0.9053E-01  0.9053E-01  0.0000E+00  0.0000E+00  0.0000E+00  0.0000E+00  0.0000E+00
     17.621  0.6124E-01  0.9227E-01  0.9227E-01  0.9227E-01  0.0000E+00  0.0000E+00  0.0000E+00  0.0000E+00  0.0000E+00
     17.635  0.6147E-01  0.9367E-01  0.9367E-01  0.9367E-01  0.0000E+00  0.0000E+00  0.0000E+00  0.0000E+00  0.0000E+00
     17.649  0.6143E-01  0.9453E-01  0.9453E-01  0.9453E-01  0.0000E+00  0.0000E+00  0.0000E+00  0.0000E+00  0.0000E+00
     17.663  0.6110E-01  0.9485E-01  0.9485E-01  0.9485E-01  0.0000E+00  0.0000E+00  0.0000E+00  0.0000E+00  0.0000E+00
     17.677  0.6050E-01  0.9463E-01  0.9463E-01  0.9463E-01  0.0000E+00  0.0000E+00  0.0000E+00  0.0000E+00  0.0000E+00
     17.691  0.5961E-01  0.9388E-01  0.9388E-01  0.9388E-01  0.0000E+00  0.0000E+00  0.0000E+00  0.0000E+00  0.0000E+00
     17.705  0.5844E-01  0.9258E-01  0.9258E-01  0.9258E-01  0.0000E+00  0.0000E+00  0.0000E+00  0.0000E+00  0.0000E+00
     17.719  0.5702E-01  0.9082E-01  0.9082E-01  0.9082E-01  0.0000E+00  0.0000E+00  0.0000E+00  0.0000E+00  0.0000E+00
     17.733  0.5554E-01  0.8887E-01  0.8887E-01  0.8887E-01  0.0000E+00  0.0000E+00  0.0000E+00  0.0000E+00  0.0000E+00
     17.747  0.5402E-01  0.8678E-01  0.8678E-01  0.8678E-01  0.0000E+00  0.0000E+00  0.0000E+00  0.0000E+00  0.0000E+00
     17.761  0.5247E-01  0.8454E-01  0.8454E-01  0.8454E-01  0.0000E+00  0.0000E+00  0.0000E+00  0.0000E+00  0.0000E+00
     17.775  0.5087E-01  0.8213E-01  0.8213E-01  0.8213E-01  0.0000E+00  0.0000E+00  0.0000E+00  0.0000E+00  0.0000E+00
     17.789  0.4924E-01  0.7956E-01  0.7956E-01  0.7956E-01  0.0000E+00  0.0000E+00  0.0000E+00  0.0000E+00  0.0000E+00
     17.803  0.4757E-01  0.7683E-01  0.7683E-01  0.7683E-01  0.0000E+00  0.0000E+00  0.0000E+00  0.0000E+00  0.0000E+00
     17.817  0.4586E-01  0.7393E-01  0.7393E-01  0.7393E-01  0.0000E+00  0.0000E+00  0.0000E+00  0.0000E+00  0.0000E+00
     17.831  0.4417E-01  0.7098E-01  0.7098E-01  0.7098E-01  0.0000E+00  0.0000E+00  0.0000E+00  0.0000E+00  0.0000E+00
     17.845  0.4260E-01  0.6818E-01  0.6818E-01  0.6818E-01  0.0000E+00  0.0000E+00  0.0000E+00  0.0000E+00  0.0000E+00
     17.859  0.4116E-01  0.6555E-01  0.6555E-01  0.6555E-01  0.0000E+00  0.0000E+00  0.0000E+00  0.0000E+00  0.0000E+00
     17.873  0.3985E-01  0.6309E-01  0.6309E-01  0.6309E-01  0.0000E+00  0.0000E+00  0.0000E+00  0.0000E+00  0.0000E+00
     17.887  0.3867E-01  0.6080E-01  0.6080E-01  0.6080E-01  0.0000E+00  0.0000E+00  0.0000E+00  0.0000E+00  0.0000E+00
     17.901  0.3762E-01  0.5867E-01  0.5867E-01  0.5867E-01  0.0000E+00  0.0000E+00  0.0000E+00  0.0000E+00  0.0000E+00
     17.915  0.3670E-01  0.5671E-01  0.5671E-01  0.5671E-01  0.0000E+00  0.0000E+00  0.0000E+00  0.0000E+00  0.0000E+00
     17.929  0.3592E-01  0.5477E-01  0.5477E-01  0.5477E-01  0.0000E+00  0.0000E+00  0.0000E+00  0.0000E+00  0.0000E+00
     17.943  0.3529E-01  0.5283E-01  0.5283E-01  0.5283E-01  0.0000E+00  0.0000E+00  0.0000E+00  0.0000E+00  0.0000E+00
     17.957  0.3472E-01  0.5095E-01  0.5095E-01  0.5095E-01  0.0000E+00  0.0000E+00  0.0000E+00  0.0000E+00  0.0000E+00
     17.971  0.3418E-01  0.4919E-01  0.4919E-01  0.4919E-01  0.0000E+00  0.0000E+00  0.0000E+00  0.0000E+00  0.0000E+00
     17.985  0.3366E-01  0.4754E-01  0.4754E-01  0.4754E-01  0.0000E+00  0.0000E+00  0.0000E+00  0.0000E+00  0.0000E+00
     17.999  0.3318E-01  0.4600E-01  0.4600E-01  0.4600E-01  0.0000E+00  0.0000E+00  0.0000E+00  0.0000E+00  0.0000E+00
     18.013  0.3273E-01  0.4457E-01  0.4457E-01  0.4457E-01  0.0000E+00  0.0000E+00  0.0000E+00  0.0000E+00  0.0000E+00
     18.027  0.3231E-01  0.4325E-01  0.4325E-01  0.4325E-01  0.0000E+00  0.0000E+00  0.0000E+00  0.0000E+00  0.0000E+00
     18.041  0.3192E-01  0.4203E-01  0.4203E-01  0.4203E-01  0.0000E+00  0.0000E+00  0.0000E+00  0.0000E+00  0.0000E+00
     18.054  0.3162E-01  0.4111E-01  0.4111E-01  0.4111E-01  0.0000E+00  0.0000E+00  0.0000E+00  0.0000E+00  0.0000E+00
     18.068  0.3148E-01  0.4070E-01  0.4070E-01  0.4070E-01  0.0000E+00  0.0000E+00  0.0000E+00  0.0000E+00  0.0000E+00
     18.082  0.3150E-01  0.4082E-01  0.4082E-01  0.4082E-01  0.0000E+00  0.0000E+00  0.0000E+00  0.0000E+00  0.0000E+00
     18.096  0.3183E-01  0.4146E-01  0.4146E-01  0.4146E-01  0.0000E+00  0.0000E+00  0.0000E+00  0.0000E+00  0.0000E+00
     18.110  0.3240E-01  0.4237E-01  0.4237E-01  0.4237E-01  0.0000E+00  0.0000E+00  0.0000E+00  0.0000E+00  0.0000E+00
     18.124  0.3299E-01  0.4328E-01  0.4328E-01  0.4328E-01  0.0000E+00  0.0000E+00  0.0000E+00  0.0000E+00  0.0000E+00
     18.138  0.3362E-01  0.4419E-01  0.4419E-01  0.4419E-01  0.0000E+00  0.0000E+00  0.0000E+00  0.0000E+00  0.0000E+00
     18.152  0.3427E-01  0.4510E-01  0.4510E-01  0.4510E-01  0.0000E+00  0.0000E+00  0.0000E+00  0.0000E+00  0.0000E+00
     18.166  0.3495E-01  0.4601E-01  0.4601E-01  0.4601E-01  0.0000E+00  0.0000E+00  0.0000E+00  0.0000E+00  0.0000E+00
     18.180  0.3567E-01  0.4693E-01  0.4693E-01  0.4693E-01  0.0000E+00  0.0000E+00  0.0000E+00  0.0000E+00  0.0000E+00
     18.194  0.3636E-01  0.4780E-01  0.4780E-01  0.4780E-01  0.0000E+00  0.0000E+00  0.0000E+00  0.0000E+00  0.0000E+00
     18.208  0.3683E-01  0.4840E-01  0.4840E-01  0.4840E-01  0.0000E+00  0.0000E+00  0.0000E+00  0.0000E+00  0.0000E+00
     18.222  0.3705E-01  0.4871E-01  0.4871E-01  0.4871E-01  0.0000E+00  0.0000E+00  0.0000E+00  0.0000E+00  0.0000E+00
     18.236  0.3716E-01  0.4889E-01  0.4889E-01  0.4889E-01  0.0000E+00  0.0000E+00  0.0000E+00  0.0000E+00  0.0000E+00
     18.250  0.3729E-01  0.4908E-01  0.4908E-01  0.4908E-01  0.0000E+00  0.0000E+00  0.0000E+00  0.0000E+00  0.0000E+00
     18.264  0.3744E-01  0.4928E-01  0.4928E-01  0.4928E-01  0.0000E+00  0.0000E+00  0.0000E+00  0.0000E+00  0.0000E+00
     18.278  0.3761E-01  0.4948E-01  0.4948E-01  0.4948E-01  0.0000E+00  0.0000E+00  0.0000E+00  0.0000E+00  0.0000E+00
     18.292  0.3780E-01  0.4968E-01  0.4968E-01  0.4968E-01  0.0000E+00  0.0000E+00  0.0000E+00  0.0000E+00  0.0000E+00
     18.306  0.3801E-01  0.4990E-01  0.4990E-01  0.4990E-01  0.0000E+00  0.0000E+00  0.0000E+00  0.0000E+00  0.0000E+00
     18.320  0.3825E-01  0.5014E-01  0.5014E-01  0.5014E-01  0.0000E+00  0.0000E+00  0.0000E+00  0.0000E+00  0.0000E+00
     18.334  0.3852E-01  0.5038E-01  0.5038E-01  0.5038E-01  0.0000E+00  0.0000E+00  0.0000E+00  0.0000E+00  0.0000E+00
     18.348  0.3885E-01  0.5065E-01  0.5065E-01  0.5065E-01  0.0000E+00  0.0000E+00  0.0000E+00  0.0000E+00  0.0000E+00
     18.362  0.3925E-01  0.5093E-01  0.5093E-01  0.5093E-01  0.0000E+00  0.0000E+00  0.0000E+00  0.0000E+00  0.0000E+00
     18.376  0.3971E-01  0.5122E-01  0.5122E-01  0.5122E-01  0.0000E+00  0.0000E+00  0.0000E+00  0.0000E+00  0.0000E+00
     18.390  0.4023E-01  0.5153E-01  0.5153E-01  0.5153E-01  0.0000E+00  0.0000E+00  0.0000E+00  0.0000E+00  0.0000E+00
     18.404  0.4082E-01  0.5186E-01  0.5186E-01  0.5186E-01  0.0000E+00  0.0000E+00  0.0000E+00  0.0000E+00  0.0000E+00
     18.418  0.4147E-01  0.5221E-01  0.5221E-01  0.5221E-01  0.0000E+00  0.0000E+00  0.0000E+00  0.0000E+00  0.0000E+00
     18.432  0.4215E-01  0.5256E-01  0.5256E-01  0.5256E-01  0.0000E+00  0.0000E+00  0.0000E+00  0.0000E+00  0.0000E+00
     18.446  0.4283E-01  0.5293E-01  0.5293E-01  0.5293E-01  0.0000E+00  0.0000E+00  0.0000E+00  0.0000E+00  0.0000E+00
     18.460  0.4353E-01  0.5331E-01  0.5331E-01  0.5331E-01  0.0000E+00  0.0000E+00  0.0000E+00  0.0000E+00  0.0000E+00
     18.474  0.4423E-01  0.5371E-01  0.5371E-01  0.5371E-01  0.0000E+00  0.0000E+00  0.0000E+00  0.0000E+00  0.0000E+00
     18.488  0.4494E-01  0.5411E-01  0.5411E-01  0.5411E-01  0.0000E+00  0.0000E+00  0.0000E+00  0.0000E+00  0.0000E+00
     18.502  0.4567E-01  0.5454E-01  0.5454E-01  0.5454E-01  0.0000E+00  0.0000E+00  0.0000E+00  0.0000E+00  0.0000E+00
     18.516  0.4642E-01  0.5498E-01  0.5498E-01  0.5498E-01  0.0000E+00  0.0000E+00  0.0000E+00  0.0000E+00  0.0000E+00
     18.530  0.4719E-01  0.5545E-01  0.5545E-01  0.5545E-01  0.0000E+00  0.0000E+00  0.0000E+00  0.0000E+00  0.0000E+00
     18.544  0.4798E-01  0.5595E-01  0.5595E-01  0.5595E-01  0.0000E+00  0.0000E+00  0.0000E+00  0.0000E+00  0.0000E+00
     18.558  0.4879E-01  0.5647E-01  0.5647E-01  0.5647E-01  0.0000E+00  0.0000E+00  0.0000E+00  0.0000E+00  0.0000E+00
     18.572  0.4967E-01  0.5709E-01  0.5709E-01  0.5709E-01  0.0000E+00  0.0000E+00  0.0000E+00  0.0000E+00  0.0000E+00
     18.586  0.5061E-01  0.5782E-01  0.5782E-01  0.5782E-01  0.0000E+00  0.0000E+00  0.0000E+00  0.0000E+00  0.0000E+00
     18.600  0.5161E-01  0.5866E-01  0.5866E-01  0.5866E-01  0.0000E+00  0.0000E+00  0.0000E+00  0.0000E+00  0.0000E+00
     18.614  0.5267E-01  0.5962E-01  0.5962E-01  0.5962E-01  0.0000E+00  0.0000E+00  0.0000E+00  0.0000E+00  0.0000E+00
     18.628  0.5380E-01  0.6068E-01  0.6068E-01  0.6068E-01  0.0000E+00  0.0000E+00  0.0000E+00  0.0000E+00  0.0000E+00
     18.642  0.5499E-01  0.6185E-01  0.6185E-01  0.6185E-01  0.0000E+00  0.0000E+00  0.0000E+00  0.0000E+00  0.0000E+00
     18.655  0.5624E-01  0.6313E-01  0.6313E-01  0.6313E-01  0.0000E+00  0.0000E+00  0.0000E+00  0.0000E+00  0.0000E+00
     18.669  0.5755E-01  0.6453E-01  0.6453E-01  0.6453E-01  0.0000E+00  0.0000E+00  0.0000E+00  0.0000E+00  0.0000E+00
     18.683  0.5892E-01  0.6603E-01  0.6603E-01  0.6603E-01  0.0000E+00  0.0000E+00  0.0000E+00  0.0000E+00  0.0000E+00
     18.697  0.6036E-01  0.6765E-01  0.6765E-01  0.6765E-01  0.0000E+00  0.0000E+00  0.0000E+00  0.0000E+00  0.0000E+00
     18.711  0.6185E-01  0.6938E-01  0.6938E-01  0.6938E-01  0.0000E+00  0.0000E+00  0.0000E+00  0.0000E+00  0.0000E+00
     18.725  0.6341E-01  0.7121E-01  0.7121E-01  0.7121E-01  0.0000E+00  0.0000E+00  0.0000E+00  0.0000E+00  0.0000E+00
     18.739  0.6502E-01  0.7316E-01  0.7316E-01  0.7316E-01  0.0000E+00  0.0000E+00  0.0000E+00  0.0000E+00  0.0000E+00
     18.753  0.6670E-01  0.7522E-01  0.7522E-01  0.7522E-01  0.0000E+00  0.0000E+00  0.0000E+00  0.0000E+00  0.0000E+00
     18.767  0.6838E-01  0.7729E-01  0.7729E-01  0.7729E-01  0.0000E+00  0.0000E+00  0.0000E+00  0.0000E+00  0.0000E+00
     18.781  0.6993E-01  0.7908E-01  0.7908E-01  0.7908E-01  0.0000E+00  0.0000E+00  0.0000E+00  0.0000E+00  0.0000E+00
     18.795  0.7133E-01  0.8060E-01  0.8060E-01  0.8060E-01  0.0000E+00  0.0000E+00  0.0000E+00  0.0000E+00  0.0000E+00
     18.809  0.7258E-01  0.8182E-01  0.8182E-01  0.8182E-01  0.0000E+00  0.0000E+00  0.0000E+00  0.0000E+00  0.0000E+00
     18.823  0.7368E-01  0.8277E-01  0.8277E-01  0.8277E-01  0.0000E+00  0.0000E+00  0.0000E+00  0.0000E+00  0.0000E+00
     18.837  0.7464E-01  0.8342E-01  0.8342E-01  0.8342E-01  0.0000E+00  0.0000E+00  0.0000E+00  0.0000E+00  0.0000E+00
     18.851  0.7545E-01  0.8379E-01  0.8379E-01  0.8379E-01  0.0000E+00  0.0000E+00  0.0000E+00  0.0000E+00  0.0000E+00
     18.865  0.7624E-01  0.8409E-01  0.8409E-01  0.8409E-01  0.0000E+00  0.0000E+00  0.0000E+00  0.0000E+00  0.0000E+00
     18.879  0.7695E-01  0.8418E-01  0.8418E-01  0.8418E-01  0.0000E+00  0.0000E+00  0.0000E+00  0.0000E+00  0.0000E+00
     18.893  0.7747E-01  0.8393E-01  0.8393E-01  0.8393E-01  0.0000E+00  0.0000E+00  0.0000E+00  0.0000E+00  0.0000E+00
     18.907  0.7783E-01  0.8334E-01  0.8334E-01  0.8334E-01  0.0000E+00  0.0000E+00  0.0000E+00  0.0000E+00  0.0000E+00
     18.921  0.7804E-01  0.8243E-01  0.8243E-01  0.8243E-01  0.0000E+00  0.0000E+00  0.0000E+00  0.0000E+00  0.0000E+00
     18.935  0.7822E-01  0.8127E-01  0.8127E-01  0.8127E-01  0.0000E+00  0.0000E+00  0.0000E+00  0.0000E+00  0.0000E+00
     18.949  0.7838E-01  0.7987E-01  0.7987E-01  0.7987E-01  0.0000E+00  0.0000E+00  0.0000E+00  0.0000E+00  0.0000E+00
     18.963  0.7852E-01  0.7823E-01  0.7823E-01  0.7823E-01  0.0000E+00  0.0000E+00  0.0000E+00  0.0000E+00  0.0000E+00
     18.977  0.7882E-01  0.7701E-01  0.7701E-01  0.7701E-01  0.0000E+00  0.0000E+00  0.0000E+00  0.0000E+00  0.0000E+00
     18.991  0.7933E-01  0.7662E-01  0.7662E-01  0.7662E-01  0.0000E+00  0.0000E+00  0.0000E+00  0.0000E+00  0.0000E+00
     19.005  0.8218E-01  0.8070E-01  0.8070E-01  0.8070E-01  0.0000E+00  0.0000E+00  0.0000E+00  0.0000E+00  0.0000E+00
     19.019  0.8397E-01  0.8302E-01  0.8302E-01  0.8302E-01  0.0000E+00  0.0000E+00  0.0000E+00  0.0000E+00  0.0000E+00
     19.033  0.8451E-01  0.8318E-01  0.8318E-01  0.8318E-01  0.0000E+00  0.0000E+00  0.0000E+00  0.0000E+00  0.0000E+00
     19.047  0.8387E-01  0.8120E-01  0.8120E-01  0.8120E-01  0.0000E+00  0.0000E+00  0.0000E+00  0.0000E+00  0.0000E+00
     19.061  0.8206E-01  0.7708E-01  0.7708E-01  0.7708E-01  0.0000E+00  0.0000E+00  0.0000E+00  0.0000E+00  0.0000E+00
     19.075  0.7909E-01  0.7082E-01  0.7082E-01  0.7082E-01  0.0000E+00  0.0000E+00  0.0000E+00  0.0000E+00  0.0000E+00
     19.089  0.7896E-01  0.6985E-01  0.6985E-01  0.6985E-01  0.0000E+00  0.0000E+00  0.0000E+00  0.0000E+00  0.0000E+00
     19.103  0.7912E-01  0.6949E-01  0.6949E-01  0.6949E-01  0.0000E+00  0.0000E+00  0.0000E+00  0.0000E+00  0.0000E+00
     19.117  0.7928E-01  0.6915E-01  0.6915E-01  0.6915E-01  0.0000E+00  0.0000E+00  0.0000E+00  0.0000E+00  0.0000E+00
     19.131  0.7943E-01  0.6884E-01  0.6884E-01  0.6884E-01  0.0000E+00  0.0000E+00  0.0000E+00  0.0000E+00  0.0000E+00
     19.145  0.7958E-01  0.6856E-01  0.6856E-01  0.6856E-01  0.0000E+00  0.0000E+00  0.0000E+00  0.0000E+00  0.0000E+00
     19.159  0.7972E-01  0.6831E-01  0.6831E-01  0.6831E-01  0.0000E+00  0.0000E+00  0.0000E+00  0.0000E+00  0.0000E+00
     19.173  0.7985E-01  0.6808E-01  0.6808E-01  0.6808E-01  0.0000E+00  0.0000E+00  0.0000E+00  0.0000E+00  0.0000E+00
     19.187  0.7903E-01  0.6696E-01  0.6696E-01  0.6696E-01  0.0000E+00  0.0000E+00  0.0000E+00  0.0000E+00  0.0000E+00
     19.201  0.7812E-01  0.6588E-01  0.6588E-01  0.6588E-01  0.0000E+00  0.0000E+00  0.0000E+00  0.0000E+00  0.0000E+00
     19.215  0.7729E-01  0.6500E-01  0.6500E-01  0.6500E-01  0.0000E+00  0.0000E+00  0.0000E+00  0.0000E+00  0.0000E+00
     19.229  0.7652E-01  0.6426E-01  0.6426E-01  0.6426E-01  0.0000E+00  0.0000E+00  0.0000E+00  0.0000E+00  0.0000E+00
     19.243  0.7577E-01  0.6358E-01  0.6358E-01  0.6358E-01  0.0000E+00  0.0000E+00  0.0000E+00  0.0000E+00  0.0000E+00
     19.256  0.7494E-01  0.6295E-01  0.6295E-01  0.6295E-01  0.0000E+00  0.0000E+00  0.0000E+00  0.0000E+00  0.0000E+00
     19.270  0.7392E-01  0.6238E-01  0.6238E-01  0.6238E-01  0.0000E+00  0.0000E+00  0.0000E+00  0.0000E+00  0.0000E+00
     19.284  0.7271E-01  0.6187E-01  0.6187E-01  0.6187E-01  0.0000E+00  0.0000E+00  0.0000E+00  0.0000E+00  0.0000E+00
     19.298  0.7132E-01  0.6140E-01  0.6140E-01  0.6140E-01  0.0000E+00  0.0000E+00  0.0000E+00  0.0000E+00  0.0000E+00
     19.312  0.6970E-01  0.6099E-01  0.6099E-01  0.6099E-01  0.0000E+00  0.0000E+00  0.0000E+00  0.0000E+00  0.0000E+00
     19.326  0.6761E-01  0.6063E-01  0.6063E-01  0.6063E-01  0.0000E+00  0.0000E+00  0.0000E+00  0.0000E+00  0.0000E+00
     19.340  0.6496E-01  0.6031E-01  0.6031E-01  0.6031E-01  0.0000E+00  0.0000E+00  0.0000E+00  0.0000E+00  0.0000E+00
     19.354  0.6177E-01  0.6003E-01  0.6003E-01  0.6003E-01  0.0000E+00  0.0000E+00  0.0000E+00  0.0000E+00  0.0000E+00
     19.368  0.5946E-01  0.5986E-01  0.5986E-01  0.5986E-01  0.0000E+00  0.0000E+00  0.0000E+00  0.0000E+00  0.0000E+00
     19.382  0.5951E-01  0.5984E-01  0.5984E-01  0.5984E-01  0.0000E+00  0.0000E+00  0.0000E+00  0.0000E+00  0.0000E+00
     19.396  0.5961E-01  0.5989E-01  0.5989E-01  0.5989E-01  0.0000E+00  0.0000E+00  0.0000E+00  0.0000E+00  0.0000E+00
     19.410  0.5971E-01  0.5996E-01  0.5996E-01  0.5996E-01  0.0000E+00  0.0000E+00  0.0000E+00  0.0000E+00  0.0000E+00
     19.424  0.5983E-01  0.6005E-01  0.6005E-01  0.6005E-01  0.0000E+00  0.0000E+00  0.0000E+00  0.0000E+00  0.0000E+00
     19.438  0.5995E-01  0.6017E-01  0.6017E-01  0.6017E-01  0.0000E+00  0.0000E+00  0.0000E+00  0.0000E+00  0.0000E+00
     19.452  0.6008E-01  0.6031E-01  0.6031E-01  0.6031E-01  0.0000E+00  0.0000E+00  0.0000E+00  0.0000E+00  0.0000E+00
     19.466  0.6021E-01  0.6044E-01  0.6044E-01  0.6044E-01  0.0000E+00  0.0000E+00  0.0000E+00  0.0000E+00  0.0000E+00
     19.480  0.6033E-01  0.6058E-01  0.6058E-01  0.6058E-01  0.0000E+00  0.0000E+00  0.0000E+00  0.0000E+00  0.0000E+00
     19.494  0.6043E-01  0.6070E-01  0.6070E-01  0.6070E-01  0.0000E+00  0.0000E+00  0.0000E+00  0.0000E+00  0.0000E+00
     19.508  0.6052E-01  0.6082E-01  0.6082E-01  0.6082E-01  0.0000E+00  0.0000E+00  0.0000E+00  0.0000E+00  0.0000E+00
     19.522  0.6060E-01  0.6093E-01  0.6093E-01  0.6093E-01  0.0000E+00  0.0000E+00  0.0000E+00  0.0000E+00  0.0000E+00
     19.536  0.6067E-01  0.6103E-01  0.6103E-01  0.6103E-01  0.0000E+00  0.0000E+00  0.0000E+00  0.0000E+00  0.0000E+00
     19.550  0.6072E-01  0.6112E-01  0.6112E-01  0.6112E-01  0.0000E+00  0.0000E+00  0.0000E+00  0.0000E+00  0.0000E+00
     19.564  0.6075E-01  0.6120E-01  0.6120E-01  0.6120E-01  0.0000E+00  0.0000E+00  0.0000E+00  0.0000E+00  0.0000E+00
     19.578  0.6077E-01  0.6126E-01  0.6126E-01  0.6126E-01  0.0000E+00  0.0000E+00  0.0000E+00  0.0000E+00  0.0000E+00
     19.592  0.6078E-01  0.6132E-01  0.6132E-01  0.6132E-01  0.0000E+00  0.0000E+00  0.0000E+00  0.0000E+00  0.0000E+00
     19.606  0.6077E-01  0.6137E-01  0.6137E-01  0.6137E-01  0.0000E+00  0.0000E+00  0.0000E+00  0.0000E+00  0.0000E+00
     19.620  0.6075E-01  0.6141E-01  0.6141E-01  0.6141E-01  0.0000E+00  0.0000E+00  0.0000E+00  0.0000E+00  0.0000E+00
     19.634  0.6071E-01  0.6143E-01  0.6143E-01  0.6143E-01  0.0000E+00  0.0000E+00  0.0000E+00  0.0000E+00  0.0000E+00
     19.648  0.6066E-01  0.6145E-01  0.6145E-01  0.6145E-01  0.0000E+00  0.0000E+00  0.0000E+00  0.0000E+00  0.0000E+00
     19.662  0.6060E-01  0.6146E-01  0.6146E-01  0.6146E-01  0.0000E+00  0.0000E+00  0.0000E+00  0.0000E+00  0.0000E+00
     19.676  0.6052E-01  0.6146E-01  0.6146E-01  0.6146E-01  0.0000E+00  0.0000E+00  0.0000E+00  0.0000E+00  0.0000E+00
     19.690  0.6042E-01  0.6145E-01  0.6145E-01  0.6145E-01  0.0000E+00  0.0000E+00  0.0000E+00  0.0000E+00  0.0000E+00
     19.704  0.6031E-01  0.6142E-01  0.6142E-01  0.6142E-01  0.0000E+00  0.0000E+00  0.0000E+00  0.0000E+00  0.0000E+00
     19.718  0.6018E-01  0.6139E-01  0.6139E-01  0.6139E-01  0.0000E+00  0.0000E+00  0.0000E+00  0.0000E+00  0.0000E+00
     19.732  0.6003E-01  0.6134E-01  0.6134E-01  0.6134E-01  0.0000E+00  0.0000E+00  0.0000E+00  0.0000E+00  0.0000E+00
     19.746  0.5987E-01  0.6128E-01  0.6128E-01  0.6128E-01  0.0000E+00  0.0000E+00  0.0000E+00  0.0000E+00  0.0000E+00
     19.760  0.5969E-01  0.6121E-01  0.6121E-01  0.6121E-01  0.0000E+00  0.0000E+00  0.0000E+00  0.0000E+00  0.0000E+00
     19.774  0.5949E-01  0.6114E-01  0.6114E-01  0.6114E-01  0.0000E+00  0.0000E+00  0.0000E+00  0.0000E+00  0.0000E+00
     19.788  0.5928E-01  0.6105E-01  0.6105E-01  0.6105E-01  0.0000E+00  0.0000E+00  0.0000E+00  0.0000E+00  0.0000E+00
     19.802  0.5905E-01  0.6095E-01  0.6095E-01  0.6095E-01  0.0000E+00  0.0000E+00  0.0000E+00  0.0000E+00  0.0000E+00
     19.816  0.5881E-01  0.6083E-01  0.6083E-01  0.6083E-01  0.0000E+00  0.0000E+00  0.0000E+00  0.0000E+00  0.0000E+00
     19.830  0.5855E-01  0.6071E-01  0.6071E-01  0.6071E-01  0.0000E+00  0.0000E+00  0.0000E+00  0.0000E+00  0.0000E+00
     19.844  0.5827E-01  0.6058E-01  0.6058E-01  0.6058E-01  0.0000E+00  0.0000E+00  0.0000E+00  0.0000E+00  0.0000E+00
     19.857  0.5798E-01  0.6043E-01  0.6043E-01  0.6043E-01  0.0000E+00  0.0000E+00  0.0000E+00  0.0000E+00  0.0000E+00
     19.871  0.5767E-01  0.6028E-01  0.6028E-01  0.6028E-01  0.0000E+00  0.0000E+00  0.0000E+00  0.0000E+00  0.0000E+00
     19.885  0.5734E-01  0.6011E-01  0.6011E-01  0.6011E-01  0.0000E+00  0.0000E+00  0.0000E+00  0.0000E+00  0.0000E+00
     19.899  0.5700E-01  0.5994E-01  0.5994E-01  0.5994E-01  0.0000E+00  0.0000E+00  0.0000E+00  0.0000E+00  0.0000E+00
     19.913  0.5668E-01  0.5979E-01  0.5979E-01  0.5979E-01  0.0000E+00  0.0000E+00  0.0000E+00  0.0000E+00  0.0000E+00
     19.927  0.5635E-01  0.5956E-01  0.5956E-01  0.5956E-01  0.0000E+00  0.0000E+00  0.0000E+00  0.0000E+00  0.0000E+00
     19.941  0.5601E-01  0.5931E-01  0.5931E-01  0.5931E-01  0.0000E+00  0.0000E+00  0.0000E+00  0.0000E+00  0.0000E+00
     19.955  0.5566E-01  0.5906E-01  0.5906E-01  0.5906E-01  0.0000E+00  0.0000E+00  0.0000E+00  0.0000E+00  0.0000E+00
     19.969  0.5531E-01  0.5880E-01  0.5880E-01  0.5880E-01  0.0000E+00  0.0000E+00  0.0000E+00  0.0000E+00  0.0000E+00
     19.983  0.5496E-01  0.5854E-01  0.5854E-01  0.5854E-01  0.0000E+00  0.0000E+00  0.0000E+00  0.0000E+00  0.0000E+00
     19.997  0.5460E-01  0.5827E-01  0.5827E-01  0.5827E-01  0.0000E+00  0.0000E+00  0.0000E+00  0.0000E+00  0.0000E+00
     20.011  0.5423E-01  0.5800E-01  0.5800E-01  0.5800E-01  0.0000E+00  0.0000E+00  0.0000E+00  0.0000E+00  0.0000E+00
     20.025  0.5386E-01  0.5772E-01  0.5772E-01  0.5772E-01  0.0000E+00  0.0000E+00  0.0000E+00  0.0000E+00  0.0000E+00
     20.039  0.5349E-01  0.5744E-01  0.5744E-01  0.5744E-01  0.0000E+00  0.0000E+00  0.0000E+00  0.0000E+00  0.0000E+00
     20.053  0.5311E-01  0.5715E-01  0.5715E-01  0.5715E-01  0.0000E+00  0.0000E+00  0.0000E+00  0.0000E+00  0.0000E+00
     20.067  0.5272E-01  0.5686E-01  0.5686E-01  0.5686E-01  0.0000E+00  0.0000E+00  0.0000E+00  0.0000E+00  0.0000E+00
     20.081  0.5234E-01  0.5657E-01  0.5657E-01  0.5657E-01  0.0000E+00  0.0000E+00  0.0000E+00  0.0000E+00  0.0000E+00
     20.095  0.5194E-01  0.5627E-01  0.5627E-01  0.5627E-01  0.0000E+00  0.0000E+00  0.0000E+00  0.0000E+00  0.0000E+00
     20.109  0.5155E-01  0.5597E-01  0.5597E-01  0.5597E-01  0.0000E+00  0.0000E+00  0.0000E+00  0.0000E+00  0.0000E+00
     20.123  0.5115E-01  0.5566E-01  0.5566E-01  0.5566E-01  0.0000E+00  0.0000E+00  0.0000E+00  0.0000E+00  0.0000E+00
     20.137  0.5074E-01  0.5534E-01  0.5534E-01  0.5534E-01  0.0000E+00  0.0000E+00  0.0000E+00  0.0000E+00  0.0000E+00
     20.151  0.5033E-01  0.5503E-01  0.5503E-01  0.5503E-01  0.0000E+00  0.0000E+00  0.0000E+00  0.0000E+00  0.0000E+00
     20.165  0.4995E-01  0.5472E-01  0.5472E-01  0.5472E-01  0.0000E+00  0.0000E+00  0.0000E+00  0.0000E+00  0.0000E+00
     20.179  0.4956E-01  0.5440E-01  0.5440E-01  0.5440E-01  0.0000E+00  0.0000E+00  0.0000E+00  0.0000E+00  0.0000E+00
     20.193  0.4915E-01  0.5407E-01  0.5407E-01  0.5407E-01  0.0000E+00  0.0000E+00  0.0000E+00  0.0000E+00  0.0000E+00
     20.207  0.4873E-01  0.5372E-01  0.5372E-01  0.5372E-01  0.0000E+00  0.0000E+00  0.0000E+00  0.0000E+00  0.0000E+00
     20.221  0.4829E-01  0.5336E-01  0.5336E-01  0.5336E-01  0.0000E+00  0.0000E+00  0.0000E+00  0.0000E+00  0.0000E+00
     20.235  0.4784E-01  0.5299E-01  0.5299E-01  0.5299E-01  0.0000E+00  0.0000E+00  0.0000E+00  0.0000E+00  0.0000E+00
     20.249  0.4738E-01  0.5260E-01  0.5260E-01  0.5260E-01  0.0000E+00  0.0000E+00  0.0000E+00  0.0000E+00  0.0000E+00
     20.263  0.4691E-01  0.5220E-01  0.5220E-01  0.5220E-01  0.0000E+00  0.0000E+00  0.0000E+00  0.0000E+00  0.0000E+00
     20.277  0.4642E-01  0.5178E-01  0.5178E-01  0.5178E-01  0.0000E+00  0.0000E+00  0.0000E+00  0.0000E+00  0.0000E+00
     20.291  0.4592E-01  0.5135E-01  0.5135E-01  0.5135E-01  0.0000E+00  0.0000E+00  0.0000E+00  0.0000E+00  0.0000E+00
     20.305  0.4540E-01  0.5090E-01  0.5090E-01  0.5090E-01  0.0000E+00  0.0000E+00  0.0000E+00  0.0000E+00  0.0000E+00
     20.319  0.4488E-01  0.5044E-01  0.5044E-01  0.5044E-01  0.0000E+00  0.0000E+00  0.0000E+00  0.0000E+00  0.0000E+00
     20.333  0.4434E-01  0.4996E-01  0.4996E-01  0.4996E-01  0.0000E+00  0.0000E+00  0.0000E+00  0.0000E+00  0.0000E+00
     20.347  0.4378E-01  0.4947E-01  0.4947E-01  0.4947E-01  0.0000E+00  0.0000E+00  0.0000E+00  0.0000E+00  0.0000E+00
     20.361  0.4321E-01  0.4897E-01  0.4897E-01  0.4897E-01  0.0000E+00  0.0000E+00  0.0000E+00  0.0000E+00  0.0000E+00
     20.375  0.4263E-01  0.4845E-01  0.4845E-01  0.4845E-01  0.0000E+00  0.0000E+00  0.0000E+00  0.0000E+00  0.0000E+00
     20.389  0.4204E-01  0.4792E-01  0.4792E-01  0.4792E-01  0.0000E+00  0.0000E+00  0.0000E+00  0.0000E+00  0.0000E+00
     20.403  0.4161E-01  0.4746E-01  0.4746E-01  0.4746E-01  0.0000E+00  0.0000E+00  0.0000E+00  0.0000E+00  0.0000E+00
     20.417  0.4119E-01  0.4699E-01  0.4699E-01  0.4699E-01  0.0000E+00  0.0000E+00  0.0000E+00  0.0000E+00  0.0000E+00
     20.431  0.4075E-01  0.4651E-01  0.4651E-01  0.4651E-01  0.0000E+00  0.0000E+00  0.0000E+00  0.0000E+00  0.0000E+00
     20.445  0.4032E-01  0.4602E-01  0.4602E-01  0.4602E-01  0.0000E+00  0.0000E+00  0.0000E+00  0.0000E+00  0.0000E+00
     20.458  0.3987E-01  0.4552E-01  0.4552E-01  0.4552E-01  0.0000E+00  0.0000E+00  0.0000E+00  0.0000E+00  0.0000E+00
     20.472  0.3943E-01  0.4500E-01  0.4500E-01  0.4500E-01  0.0000E+00  0.0000E+00  0.0000E+00  0.0000E+00  0.0000E+00
     20.486  0.3898E-01  0.4448E-01  0.4448E-01  0.4448E-01  0.0000E+00  0.0000E+00  0.0000E+00  0.0000E+00  0.0000E+00
     20.500  0.3852E-01  0.4394E-01  0.4394E-01  0.4394E-01  0.0000E+00  0.0000E+00  0.0000E+00  0.0000E+00  0.0000E+00
     20.514  0.3805E-01  0.4338E-01  0.4338E-01  0.4338E-01  0.0000E+00  0.0000E+00  0.0000E+00  0.0000E+00  0.0000E+00
     20.528  0.3758E-01  0.4282E-01  0.4282E-01  0.4282E-01  0.0000E+00  0.0000E+00  0.0000E+00  0.0000E+00  0.0000E+00
     20.542  0.3711E-01  0.4224E-01  0.4224E-01  0.4224E-01  0.0000E+00  0.0000E+00  0.0000E+00  0.0000E+00  0.0000E+00
     20.556  0.3663E-01  0.4165E-01  0.4165E-01  0.4165E-01  0.0000E+00  0.0000E+00  0.0000E+00  0.0000E+00  0.0000E+00
     20.570  0.3614E-01  0.4105E-01  0.4105E-01  0.4105E-01  0.0000E+00  0.0000E+00  0.0000E+00  0.0000E+00  0.0000E+00
     20.584  0.3565E-01  0.4044E-01  0.4044E-01  0.4044E-01  0.0000E+00  0.0000E+00  0.0000E+00  0.0000E+00  0.0000E+00
     20.598  0.3515E-01  0.3981E-01  0.3981E-01  0.3981E-01  0.0000E+00  0.0000E+00  0.0000E+00  0.0000E+00  0.0000E+00
     20.612  0.3472E-01  0.3926E-01  0.3926E-01  0.3926E-01  0.0000E+00  0.0000E+00  0.0000E+00  0.0000E+00  0.0000E+00
     20.626  0.3452E-01  0.3901E-01  0.3901E-01  0.3901E-01  0.0000E+00  0.0000E+00  0.0000E+00  0.0000E+00  0.0000E+00
     20.640  0.3433E-01  0.3877E-01  0.3877E-01  0.3877E-01  0.0000E+00  0.0000E+00  0.0000E+00  0.0000E+00  0.0000E+00
     20.654  0.3414E-01  0.3853E-01  0.3853E-01  0.3853E-01  0.0000E+00  0.0000E+00  0.0000E+00  0.0000E+00  0.0000E+00
     20.668  0.3396E-01  0.3829E-01  0.3829E-01  0.3829E-01  0.0000E+00  0.0000E+00  0.0000E+00  0.0000E+00  0.0000E+00
     20.682  0.3379E-01  0.3806E-01  0.3806E-01  0.3806E-01  0.0000E+00  0.0000E+00  0.0000E+00  0.0000E+00  0.0000E+00
     20.696  0.3362E-01  0.3782E-01  0.3782E-01  0.3782E-01  0.0000E+00  0.0000E+00  0.0000E+00  0.0000E+00  0.0000E+00
     20.710  0.3346E-01  0.3759E-01  0.3759E-01  0.3759E-01  0.0000E+00  0.0000E+00  0.0000E+00  0.0000E+00  0.0000E+00
     20.724  0.3330E-01  0.3736E-01  0.3736E-01  0.3736E-01  0.0000E+00  0.0000E+00  0.0000E+00  0.0000E+00  0.0000E+00
     20.738  0.3316E-01  0.3714E-01  0.3714E-01  0.3714E-01  0.0000E+00  0.0000E+00  0.0000E+00  0.0000E+00  0.0000E+00
     20.752  0.3301E-01  0.3691E-01  0.3691E-01  0.3691E-01  0.0000E+00  0.0000E+00  0.0000E+00  0.0000E+00  0.0000E+00
     20.766  0.3288E-01  0.3669E-01  0.3669E-01  0.3669E-01  0.0000E+00  0.0000E+00  0.0000E+00  0.0000E+00  0.0000E+00
     20.780  0.3275E-01  0.3647E-01  0.3647E-01  0.3647E-01  0.0000E+00  0.0000E+00  0.0000E+00  0.0000E+00  0.0000E+00
     20.794  0.3262E-01  0.3625E-01  0.3625E-01  0.3625E-01  0.0000E+00  0.0000E+00  0.0000E+00  0.0000E+00  0.0000E+00
     20.808  0.3251E-01  0.3603E-01  0.3603E-01  0.3603E-01  0.0000E+00  0.0000E+00  0.0000E+00  0.0000E+00  0.0000E+00
     20.822  0.3240E-01  0.3583E-01  0.3583E-01  0.3583E-01  0.0000E+00  0.0000E+00  0.0000E+00  0.0000E+00  0.0000E+00
     20.836  0.3234E-01  0.3568E-01  0.3568E-01  0.3568E-01  0.0000E+00  0.0000E+00  0.0000E+00  0.0000E+00  0.0000E+00
     20.850  0.3231E-01  0.3560E-01  0.3560E-01  0.3560E-01  0.0000E+00  0.0000E+00  0.0000E+00  0.0000E+00  0.0000E+00
     20.864  0.3232E-01  0.3558E-01  0.3558E-01  0.3558E-01  0.0000E+00  0.0000E+00  0.0000E+00  0.0000E+00  0.0000E+00
     20.878  0.3236E-01  0.3561E-01  0.3561E-01  0.3561E-01  0.0000E+00  0.0000E+00  0.0000E+00  0.0000E+00  0.0000E+00
     20.892  0.3242E-01  0.3565E-01  0.3565E-01  0.3565E-01  0.0000E+00  0.0000E+00  0.0000E+00  0.0000E+00  0.0000E+00
     20.906  0.3249E-01  0.3570E-01  0.3570E-01  0.3570E-01  0.0000E+00  0.0000E+00  0.0000E+00  0.0000E+00  0.0000E+00
     20.920  0.3268E-01  0.3592E-01  0.3592E-01  0.3592E-01  0.0000E+00  0.0000E+00  0.0000E+00  0.0000E+00  0.0000E+00
     20.934  0.3292E-01  0.3619E-01  0.3619E-01  0.3619E-01  0.0000E+00  0.0000E+00  0.0000E+00  0.0000E+00  0.0000E+00
     20.948  0.3318E-01  0.3648E-01  0.3648E-01  0.3648E-01  0.0000E+00  0.0000E+00  0.0000E+00  0.0000E+00  0.0000E+00
     20.962  0.3346E-01  0.3679E-01  0.3679E-01  0.3679E-01  0.0000E+00  0.0000E+00  0.0000E+00  0.0000E+00  0.0000E+00
     20.976  0.3376E-01  0.3710E-01  0.3710E-01  0.3710E-01  0.0000E+00  0.0000E+00  0.0000E+00  0.0000E+00  0.0000E+00
     20.990  0.3408E-01  0.3743E-01  0.3743E-01  0.3743E-01  0.0000E+00  0.0000E+00  0.0000E+00  0.0000E+00  0.0000E+00
     21.004  0.3441E-01  0.3777E-01  0.3777E-01  0.3777E-01  0.0000E+00  0.0000E+00  0.0000E+00  0.0000E+00  0.0000E+00
     21.018  0.3477E-01  0.3813E-01  0.3813E-01  0.3813E-01  0.0000E+00  0.0000E+00  0.0000E+00  0.0000E+00  0.0000E+00
     21.032  0.3514E-01  0.3850E-01  0.3850E-01  0.3850E-01  0.0000E+00  0.0000E+00  0.0000E+00  0.0000E+00  0.0000E+00
     21.046  0.3553E-01  0.3888E-01  0.3888E-01  0.3888E-01  0.0000E+00  0.0000E+00  0.0000E+00  0.0000E+00  0.0000E+00
     21.060  0.3594E-01  0.3927E-01  0.3927E-01  0.3927E-01  0.0000E+00  0.0000E+00  0.0000E+00  0.0000E+00  0.0000E+00
     21.073  0.3637E-01  0.3968E-01  0.3968E-01  0.3968E-01  0.0000E+00  0.0000E+00  0.0000E+00  0.0000E+00  0.0000E+00
     21.087  0.3682E-01  0.4010E-01  0.4010E-01  0.4010E-01  0.0000E+00  0.0000E+00  0.0000E+00  0.0000E+00  0.0000E+00
     21.101  0.3728E-01  0.4054E-01  0.4054E-01  0.4054E-01  0.0000E+00  0.0000E+00  0.0000E+00  0.0000E+00  0.0000E+00
     21.115  0.3777E-01  0.4099E-01  0.4099E-01  0.4099E-01  0.0000E+00  0.0000E+00  0.0000E+00  0.0000E+00  0.0000E+00
     21.129  0.3827E-01  0.4145E-01  0.4145E-01  0.4145E-01  0.0000E+00  0.0000E+00  0.0000E+00  0.0000E+00  0.0000E+00
     21.143  0.3879E-01  0.4192E-01  0.4192E-01  0.4192E-01  0.0000E+00  0.0000E+00  0.0000E+00  0.0000E+00  0.0000E+00
     21.157  0.3933E-01  0.4240E-01  0.4240E-01  0.4240E-01  0.0000E+00  0.0000E+00  0.0000E+00  0.0000E+00  0.0000E+00
     21.171  0.3988E-01  0.4289E-01  0.4289E-01  0.4289E-01  0.0000E+00  0.0000E+00  0.0000E+00  0.0000E+00  0.0000E+00
     21.185  0.4044E-01  0.4340E-01  0.4340E-01  0.4340E-01  0.0000E+00  0.0000E+00  0.0000E+00  0.0000E+00  0.0000E+00
     21.199  0.4102E-01  0.4391E-01  0.4391E-01  0.4391E-01  0.0000E+00  0.0000E+00  0.0000E+00  0.0000E+00  0.0000E+00
     21.213  0.4161E-01  0.4443E-01  0.4443E-01  0.4443E-01  0.0000E+00  0.0000E+00  0.0000E+00  0.0000E+00  0.0000E+00
     21.227  0.4222E-01  0.4496E-01  0.4496E-01  0.4496E-01  0.0000E+00  0.0000E+00  0.0000E+00  0.0000E+00  0.0000E+00
     21.241  0.4285E-01  0.4550E-01  0.4550E-01  0.4550E-01  0.0000E+00  0.0000E+00  0.0000E+00  0.0000E+00  0.0000E+00
     21.255  0.4348E-01  0.4605E-01  0.4605E-01  0.4605E-01  0.0000E+00  0.0000E+00  0.0000E+00  0.0000E+00  0.0000E+00
     21.269  0.4414E-01  0.4661E-01  0.4661E-01  0.4661E-01  0.0000E+00  0.0000E+00  0.0000E+00  0.0000E+00  0.0000E+00
     21.283  0.4480E-01  0.4718E-01  0.4718E-01  0.4718E-01  0.0000E+00  0.0000E+00  0.0000E+00  0.0000E+00  0.0000E+00
     21.297  0.4549E-01  0.4776E-01  0.4776E-01  0.4776E-01  0.0000E+00  0.0000E+00  0.0000E+00  0.0000E+00  0.0000E+00
     21.311  0.4616E-01  0.4833E-01  0.4833E-01  0.4833E-01  0.0000E+00  0.0000E+00  0.0000E+00  0.0000E+00  0.0000E+00
     21.325  0.4683E-01  0.4892E-01  0.4892E-01  0.4892E-01  0.0000E+00  0.0000E+00  0.0000E+00  0.0000E+00  0.0000E+00
     21.339  0.4802E-01  0.4982E-01  0.4982E-01  0.4982E-01  0.0000E+00  0.0000E+00  0.0000E+00  0.0000E+00  0.0000E+00
     21.353  0.5117E-01  0.5191E-01  0.5191E-01  0.5191E-01  0.0000E+00  0.0000E+00  0.0000E+00  0.0000E+00  0.0000E+00
     21.367  0.5753E-01  0.5598E-01  0.5598E-01  0.5598E-01  0.0000E+00  0.0000E+00  0.0000E+00  0.0000E+00  0.0000E+00
     21.381  0.6556E-01  0.6071E-01  0.6071E-01  0.6071E-01  0.0000E+00  0.0000E+00  0.0000E+00  0.0000E+00  0.0000E+00
     21.395  0.6357E-01  0.5672E-01  0.5672E-01  0.5672E-01  0.0000E+00  0.0000E+00  0.0000E+00  0.0000E+00  0.0000E+00
     21.409  0.6228E-01  0.5553E-01  0.5553E-01  0.5553E-01  0.0000E+00  0.0000E+00  0.0000E+00  0.0000E+00  0.0000E+00
     21.423  0.6111E-01  0.5450E-01  0.5450E-01  0.5450E-01  0.0000E+00  0.0000E+00  0.0000E+00  0.0000E+00  0.0000E+00
     21.437  0.6006E-01  0.5357E-01  0.5357E-01  0.5357E-01  0.0000E+00  0.0000E+00  0.0000E+00  0.0000E+00  0.0000E+00
     21.451  0.5911E-01  0.5274E-01  0.5274E-01  0.5274E-01  0.0000E+00  0.0000E+00  0.0000E+00  0.0000E+00  0.0000E+00
     21.465  0.5827E-01  0.5202E-01  0.5202E-01  0.5202E-01  0.0000E+00  0.0000E+00  0.0000E+00  0.0000E+00  0.0000E+00
     21.479  0.5754E-01  0.5140E-01  0.5140E-01  0.5140E-01  0.0000E+00  0.0000E+00  0.0000E+00  0.0000E+00  0.0000E+00
     21.493  0.5692E-01  0.5089E-01  0.5089E-01  0.5089E-01  0.0000E+00  0.0000E+00  0.0000E+00  0.0000E+00  0.0000E+00
     21.507  0.5642E-01  0.5048E-01  0.5048E-01  0.5048E-01  0.0000E+00  0.0000E+00  0.0000E+00  0.0000E+00  0.0000E+00
     21.521  0.5606E-01  0.5017E-01  0.5017E-01  0.5017E-01  0.0000E+00  0.0000E+00  0.0000E+00  0.0000E+00  0.0000E+00
     21.535  0.5583E-01  0.4996E-01  0.4996E-01  0.4996E-01  0.0000E+00  0.0000E+00  0.0000E+00  0.0000E+00  0.0000E+00
     21.549  0.5575E-01  0.4986E-01  0.4986E-01  0.4986E-01  0.0000E+00  0.0000E+00  0.0000E+00  0.0000E+00  0.0000E+00
     21.563  0.5581E-01  0.4987E-01  0.4987E-01  0.4987E-01  0.0000E+00  0.0000E+00  0.0000E+00  0.0000E+00  0.0000E+00
     21.577  0.5601E-01  0.4997E-01  0.4997E-01  0.4997E-01  0.0000E+00  0.0000E+00  0.0000E+00  0.0000E+00  0.0000E+00
     21.591  0.5634E-01  0.5018E-01  0.5018E-01  0.5018E-01  0.0000E+00  0.0000E+00  0.0000E+00  0.0000E+00  0.0000E+00
     21.605  0.5662E-01  0.5036E-01  0.5036E-01  0.5036E-01  0.0000E+00  0.0000E+00  0.0000E+00  0.0000E+00  0.0000E+00
     21.619  0.5659E-01  0.5033E-01  0.5033E-01  0.5033E-01  0.0000E+00  0.0000E+00  0.0000E+00  0.0000E+00  0.0000E+00
     21.633  0.5645E-01  0.5023E-01  0.5023E-01  0.5023E-01  0.0000E+00  0.0000E+00  0.0000E+00  0.0000E+00  0.0000E+00
     21.647  0.5631E-01  0.5013E-01  0.5013E-01  0.5013E-01  0.0000E+00  0.0000E+00  0.0000E+00  0.0000E+00  0.0000E+00
     21.661  0.5618E-01  0.5004E-01  0.5004E-01  0.5004E-01  0.0000E+00  0.0000E+00  0.0000E+00  0.0000E+00  0.0000E+00
     21.674  0.5606E-01  0.4996E-01  0.4996E-01  0.4996E-01  0.0000E+00  0.0000E+00  0.0000E+00  0.0000E+00  0.0000E+00
     21.688  0.5595E-01  0.4988E-01  0.4988E-01  0.4988E-01  0.0000E+00  0.0000E+00  0.0000E+00  0.0000E+00  0.0000E+00
     21.702  0.5584E-01  0.4982E-01  0.4982E-01  0.4982E-01  0.0000E+00  0.0000E+00  0.0000E+00  0.0000E+00  0.0000E+00
     21.716  0.5574E-01  0.4976E-01  0.4976E-01  0.4976E-01  0.0000E+00  0.0000E+00  0.0000E+00  0.0000E+00  0.0000E+00
     21.730  0.5565E-01  0.4970E-01  0.4970E-01  0.4970E-01  0.0000E+00  0.0000E+00  0.0000E+00  0.0000E+00  0.0000E+00
     21.744  0.5556E-01  0.4965E-01  0.4965E-01  0.4965E-01  0.0000E+00  0.0000E+00  0.0000E+00  0.0000E+00  0.0000E+00
     21.758  0.5548E-01  0.4961E-01  0.4961E-01  0.4961E-01  0.0000E+00  0.0000E+00  0.0000E+00  0.0000E+00  0.0000E+00
     21.772  0.5541E-01  0.4958E-01  0.4958E-01  0.4958E-01  0.0000E+00  0.0000E+00  0.0000E+00  0.0000E+00  0.0000E+00
     21.786  0.5535E-01  0.4955E-01  0.4955E-01  0.4955E-01  0.0000E+00  0.0000E+00  0.0000E+00  0.0000E+00  0.0000E+00
     21.800  0.5529E-01  0.4954E-01  0.4954E-01  0.4954E-01  0.0000E+00  0.0000E+00  0.0000E+00  0.0000E+00  0.0000E+00
     21.814  0.5524E-01  0.4952E-01  0.4952E-01  0.4952E-01  0.0000E+00  0.0000E+00  0.0000E+00  0.0000E+00  0.0000E+00
     21.828  0.5519E-01  0.4952E-01  0.4952E-01  0.4952E-01  0.0000E+00  0.0000E+00  0.0000E+00  0.0000E+00  0.0000E+00
     21.842  0.5516E-01  0.4952E-01  0.4952E-01  0.4952E-01  0.0000E+00  0.0000E+00  0.0000E+00  0.0000E+00  0.0000E+00
     21.856  0.5513E-01  0.4953E-01  0.4953E-01  0.4953E-01  0.0000E+00  0.0000E+00  0.0000E+00  0.0000E+00  0.0000E+00
     21.870  0.5511E-01  0.4955E-01  0.4955E-01  0.4955E-01  0.0000E+00  0.0000E+00  0.0000E+00  0.0000E+00  0.0000E+00
     21.884  0.5509E-01  0.4957E-01  0.4957E-01  0.4957E-01  0.0000E+00  0.0000E+00  0.0000E+00  0.0000E+00  0.0000E+00
     21.898  0.5509E-01  0.4960E-01  0.4960E-01  0.4960E-01  0.0000E+00  0.0000E+00  0.0000E+00  0.0000E+00  0.0000E+00
     21.912  0.5508E-01  0.4963E-01  0.4963E-01  0.4963E-01  0.0000E+00  0.0000E+00  0.0000E+00  0.0000E+00  0.0000E+00
     21.926  0.5508E-01  0.4965E-01  0.4965E-01  0.4965E-01  0.0000E+00  0.0000E+00  0.0000E+00  0.0000E+00  0.0000E+00
     21.940  0.5508E-01  0.4967E-01  0.4967E-01  0.4967E-01  0.0000E+00  0.0000E+00  0.0000E+00  0.0000E+00  0.0000E+00
     21.954  0.5508E-01  0.4968E-01  0.4968E-01  0.4968E-01  0.0000E+00  0.0000E+00  0.0000E+00  0.0000E+00  0.0000E+00
     21.968  0.5509E-01  0.4968E-01  0.4968E-01  0.4968E-01  0.0000E+00  0.0000E+00  0.0000E+00  0.0000E+00  0.0000E+00
     21.982  0.5509E-01  0.4967E-01  0.4967E-01  0.4967E-01  0.0000E+00  0.0000E+00  0.0000E+00  0.0000E+00  0.0000E+00
     21.996  0.5509E-01  0.4966E-01  0.4966E-01  0.4966E-01  0.0000E+00  0.0000E+00  0.0000E+00  0.0000E+00  0.0000E+00
     22.010  0.5510E-01  0.4963E-01  0.4963E-01  0.4963E-01  0.0000E+00  0.0000E+00  0.0000E+00  0.0000E+00  0.0000E+00
     22.024  0.5511E-01  0.4960E-01  0.4960E-01  0.4960E-01  0.0000E+00  0.0000E+00  0.0000E+00  0.0000E+00  0.0000E+00
     22.038  0.5512E-01  0.4956E-01  0.4956E-01  0.4956E-01  0.0000E+00  0.0000E+00  0.0000E+00  0.0000E+00  0.0000E+00
     22.052  0.5513E-01  0.4952E-01  0.4952E-01  0.4952E-01  0.0000E+00  0.0000E+00  0.0000E+00  0.0000E+00  0.0000E+00
     22.066  0.5514E-01  0.4946E-01  0.4946E-01  0.4946E-01  0.0000E+00  0.0000E+00  0.0000E+00  0.0000E+00  0.0000E+00
     22.080  0.5515E-01  0.4940E-01  0.4940E-01  0.4940E-01  0.0000E+00  0.0000E+00  0.0000E+00  0.0000E+00  0.0000E+00
     22.094  0.5516E-01  0.4933E-01  0.4933E-01  0.4933E-01  0.0000E+00  0.0000E+00  0.0000E+00  0.0000E+00  0.0000E+00
     22.108  0.5518E-01  0.4925E-01  0.4925E-01  0.4925E-01  0.0000E+00  0.0000E+00  0.0000E+00  0.0000E+00  0.0000E+00
     22.122  0.5520E-01  0.4916E-01  0.4916E-01  0.4916E-01  0.0000E+00  0.0000E+00  0.0000E+00  0.0000E+00  0.0000E+00
     22.136  0.5521E-01  0.4907E-01  0.4907E-01  0.4907E-01  0.0000E+00  0.0000E+00  0.0000E+00  0.0000E+00  0.0000E+00
     22.150  0.5523E-01  0.4896E-01  0.4896E-01  0.4896E-01  0.0000E+00  0.0000E+00  0.0000E+00  0.0000E+00  0.0000E+00
     22.164  0.5525E-01  0.4885E-01  0.4885E-01  0.4885E-01  0.0000E+00  0.0000E+00  0.0000E+00  0.0000E+00  0.0000E+00
     22.178  0.5537E-01  0.4897E-01  0.4897E-01  0.4897E-01  0.0000E+00  0.0000E+00  0.0000E+00  0.0000E+00  0.0000E+00
     22.192  0.5553E-01  0.4917E-01  0.4917E-01  0.4917E-01  0.0000E+00  0.0000E+00  0.0000E+00  0.0000E+00  0.0000E+00
     22.206  0.5569E-01  0.4937E-01  0.4937E-01  0.4937E-01  0.0000E+00  0.0000E+00  0.0000E+00  0.0000E+00  0.0000E+00
     22.220  0.5602E-01  0.4965E-01  0.4965E-01  0.4965E-01  0.0000E+00  0.0000E+00  0.0000E+00  0.0000E+00  0.0000E+00
     22.234  0.5679E-01  0.5013E-01  0.5013E-01  0.5013E-01  0.0000E+00  0.0000E+00  0.0000E+00  0.0000E+00  0.0000E+00
     22.248  0.5800E-01  0.5081E-01  0.5081E-01  0.5081E-01  0.0000E+00  0.0000E+00  0.0000E+00  0.0000E+00  0.0000E+00
     22.262  0.5966E-01  0.5169E-01  0.5169E-01  0.5169E-01  0.0000E+00  0.0000E+00  0.0000E+00  0.0000E+00  0.0000E+00
     22.275  0.6176E-01  0.5278E-01  0.5278E-01  0.5278E-01  0.0000E+00  0.0000E+00  0.0000E+00  0.0000E+00  0.0000E+00
     22.289  0.6431E-01  0.5407E-01  0.5407E-01  0.5407E-01  0.0000E+00  0.0000E+00  0.0000E+00  0.0000E+00  0.0000E+00
     22.303  0.6505E-01  0.5449E-01  0.5449E-01  0.5449E-01  0.0000E+00  0.0000E+00  0.0000E+00  0.0000E+00  0.0000E+00
     22.317  0.6526E-01  0.5466E-01  0.5466E-01  0.5466E-01  0.0000E+00  0.0000E+00  0.0000E+00  0.0000E+00  0.0000E+00
     22.331  0.6548E-01  0.5483E-01  0.5483E-01  0.5483E-01  0.0000E+00  0.0000E+00  0.0000E+00  0.0000E+00  0.0000E+00
     22.345  0.6572E-01  0.5501E-01  0.5501E-01  0.5501E-01  0.0000E+00  0.0000E+00  0.0000E+00  0.0000E+00  0.0000E+00
     22.359  0.6596E-01  0.5520E-01  0.5520E-01  0.5520E-01  0.0000E+00  0.0000E+00  0.0000E+00  0.0000E+00  0.0000E+00
     22.373  0.6623E-01  0.5540E-01  0.5540E-01  0.5540E-01  0.0000E+00  0.0000E+00  0.0000E+00  0.0000E+00  0.0000E+00
     22.387  0.6650E-01  0.5560E-01  0.5560E-01  0.5560E-01  0.0000E+00  0.0000E+00  0.0000E+00  0.0000E+00  0.0000E+00
     22.401  0.6679E-01  0.5581E-01  0.5581E-01  0.5581E-01  0.0000E+00  0.0000E+00  0.0000E+00  0.0000E+00  0.0000E+00
     22.415  0.6709E-01  0.5603E-01  0.5603E-01  0.5603E-01  0.0000E+00  0.0000E+00  0.0000E+00  0.0000E+00  0.0000E+00
     22.429  0.6741E-01  0.5625E-01  0.5625E-01  0.5625E-01  0.0000E+00  0.0000E+00  0.0000E+00  0.0000E+00  0.0000E+00
     22.443  0.6774E-01  0.5648E-01  0.5648E-01  0.5648E-01  0.0000E+00  0.0000E+00  0.0000E+00  0.0000E+00  0.0000E+00
     22.457  0.6808E-01  0.5671E-01  0.5671E-01  0.5671E-01  0.0000E+00  0.0000E+00  0.0000E+00  0.0000E+00  0.0000E+00
     22.471  0.6844E-01  0.5696E-01  0.5696E-01  0.5696E-01  0.0000E+00  0.0000E+00  0.0000E+00  0.0000E+00  0.0000E+00
     22.485  0.6881E-01  0.5721E-01  0.5721E-01  0.5721E-01  0.0000E+00  0.0000E+00  0.0000E+00  0.0000E+00  0.0000E+00
     22.499  0.6920E-01  0.5746E-01  0.5746E-01  0.5746E-01  0.0000E+00  0.0000E+00  0.0000E+00  0.0000E+00  0.0000E+00
     22.513  0.6960E-01  0.5773E-01  0.5773E-01  0.5773E-01  0.0000E+00  0.0000E+00  0.0000E+00  0.0000E+00  0.0000E+00
     22.527  0.7351E-01  0.6112E-01  0.6112E-01  0.6112E-01  0.0000E+00  0.0000E+00  0.0000E+00  0.0000E+00  0.0000E+00
     22.541  0.7900E-01  0.6636E-01  0.6636E-01  0.6636E-01  0.0000E+00  0.0000E+00  0.0000E+00  0.0000E+00  0.0000E+00
     22.555  0.8519E-01  0.7255E-01  0.7255E-01  0.7255E-01  0.0000E+00  0.0000E+00  0.0000E+00  0.0000E+00  0.0000E+00
     22.569  0.8971E-01  0.7737E-01  0.7737E-01  0.7737E-01  0.0000E+00  0.0000E+00  0.0000E+00  0.0000E+00  0.0000E+00
     22.583  0.9244E-01  0.8068E-01  0.8068E-01  0.8068E-01  0.0000E+00  0.0000E+00  0.0000E+00  0.0000E+00  0.0000E+00
     22.597  0.9317E-01  0.8219E-01  0.8219E-01  0.8219E-01  0.0000E+00  0.0000E+00  0.0000E+00  0.0000E+00  0.0000E+00
     22.611  0.9253E-01  0.8213E-01  0.8213E-01  0.8213E-01  0.0000E+00  0.0000E+00  0.0000E+00  0.0000E+00  0.0000E+00
     22.625  0.9188E-01  0.8205E-01  0.8205E-01  0.8205E-01  0.0000E+00  0.0000E+00  0.0000E+00  0.0000E+00  0.0000E+00
     22.639  0.9122E-01  0.8192E-01  0.8192E-01  0.8192E-01  0.0000E+00  0.0000E+00  0.0000E+00  0.0000E+00  0.0000E+00
     22.653  0.9055E-01  0.8176E-01  0.8176E-01  0.8176E-01  0.0000E+00  0.0000E+00  0.0000E+00  0.0000E+00  0.0000E+00
     22.667  0.8987E-01  0.8157E-01  0.8157E-01  0.8157E-01  0.0000E+00  0.0000E+00  0.0000E+00  0.0000E+00  0.0000E+00
     22.681  0.8918E-01  0.8133E-01  0.8133E-01  0.8133E-01  0.0000E+00  0.0000E+00  0.0000E+00  0.0000E+00  0.0000E+00
     22.695  0.8848E-01  0.8107E-01  0.8107E-01  0.8107E-01  0.0000E+00  0.0000E+00  0.0000E+00  0.0000E+00  0.0000E+00
     22.709  0.8777E-01  0.8078E-01  0.8078E-01  0.8078E-01  0.0000E+00  0.0000E+00  0.0000E+00  0.0000E+00  0.0000E+00
     22.723  0.8705E-01  0.8046E-01  0.8046E-01  0.8046E-01  0.0000E+00  0.0000E+00  0.0000E+00  0.0000E+00  0.0000E+00
     22.737  0.8632E-01  0.8009E-01  0.8009E-01  0.8009E-01  0.0000E+00  0.0000E+00  0.0000E+00  0.0000E+00  0.0000E+00
     22.751  0.8558E-01  0.7969E-01  0.7969E-01  0.7969E-01  0.0000E+00  0.0000E+00  0.0000E+00  0.0000E+00  0.0000E+00
     22.765  0.8482E-01  0.7925E-01  0.7925E-01  0.7925E-01  0.0000E+00  0.0000E+00  0.0000E+00  0.0000E+00  0.0000E+00
     22.779  0.8405E-01  0.7877E-01  0.7877E-01  0.7877E-01  0.0000E+00  0.0000E+00  0.0000E+00  0.0000E+00  0.0000E+00
     22.793  0.8327E-01  0.7826E-01  0.7826E-01  0.7826E-01  0.0000E+00  0.0000E+00  0.0000E+00  0.0000E+00  0.0000E+00
     22.807  0.8247E-01  0.7770E-01  0.7770E-01  0.7770E-01  0.0000E+00  0.0000E+00  0.0000E+00  0.0000E+00  0.0000E+00
     22.821  0.8223E-01  0.7753E-01  0.7753E-01  0.7753E-01  0.0000E+00  0.0000E+00  0.0000E+00  0.0000E+00  0.0000E+00
     22.835  0.8238E-01  0.7768E-01  0.7768E-01  0.7768E-01  0.0000E+00  0.0000E+00  0.0000E+00  0.0000E+00  0.0000E+00
     22.849  0.8252E-01  0.7776E-01  0.7776E-01  0.7776E-01  0.0000E+00  0.0000E+00  0.0000E+00  0.0000E+00  0.0000E+00
     22.863  0.8297E-01  0.7777E-01  0.7777E-01  0.7777E-01  0.0000E+00  0.0000E+00  0.0000E+00  0.0000E+00  0.0000E+00
     22.876  0.8386E-01  0.7773E-01  0.7773E-01  0.7773E-01  0.0000E+00  0.0000E+00  0.0000E+00  0.0000E+00  0.0000E+00
     22.890  0.8518E-01  0.7763E-01  0.7763E-01  0.7763E-01  0.0000E+00  0.0000E+00  0.0000E+00  0.0000E+00  0.0000E+00
     22.904  0.8693E-01  0.7747E-01  0.7747E-01  0.7747E-01  0.0000E+00  0.0000E+00  0.0000E+00  0.0000E+00  0.0000E+00
     22.918  0.8990E-01  0.7733E-01  0.7733E-01  0.7733E-01  0.0000E+00  0.0000E+00  0.0000E+00  0.0000E+00  0.0000E+00
     22.932  0.1000E+00  0.7772E-01  0.7772E-01  0.7772E-01  0.0000E+00  0.0000E+00  0.0000E+00  0.0000E+00  0.0000E+00
     22.946  0.1097E+00  0.7793E-01  0.7793E-01  0.7793E-01  0.0000E+00  0.0000E+00  0.0000E+00  0.0000E+00  0.0000E+00
     22.960  0.1190E+00  0.7797E-01  0.7797E-01  0.7797E-01  0.0000E+00  0.0000E+00  0.0000E+00  0.0000E+00  0.0000E+00
     22.974  0.1277E+00  0.7785E-01  0.7785E-01  0.7785E-01  0.0000E+00  0.0000E+00  0.0000E+00  0.0000E+00  0.0000E+00
     22.988  0.1346E+00  0.7759E-01  0.7759E-01  0.7759E-01  0.0000E+00  0.0000E+00  0.0000E+00  0.0000E+00  0.0000E+00
     23.002  0.1398E+00  0.7720E-01  0.7720E-01  0.7720E-01  0.0000E+00  0.0000E+00  0.0000E+00  0.0000E+00  0.0000E+00
     23.016  0.1432E+00  0.7667E-01  0.7667E-01  0.7667E-01  0.0000E+00  0.0000E+00  0.0000E+00  0.0000E+00  0.0000E+00
     23.030  0.1448E+00  0.7601E-01  0.7601E-01  0.7601E-01  0.0000E+00  0.0000E+00  0.0000E+00  0.0000E+00  0.0000E+00
     23.044  0.1446E+00  0.7519E-01  0.7519E-01  0.7519E-01  0.0000E+00  0.0000E+00  0.0000E+00  0.0000E+00  0.0000E+00
     23.058  0.1425E+00  0.7405E-01  0.7405E-01  0.7405E-01  0.0000E+00  0.0000E+00  0.0000E+00  0.0000E+00  0.0000E+00
     23.072  0.1387E+00  0.7294E-01  0.7294E-01  0.7294E-01  0.0000E+00  0.0000E+00  0.0000E+00  0.0000E+00  0.0000E+00
     23.086  0.1339E+00  0.7267E-01  0.7267E-01  0.7267E-01  0.0000E+00  0.0000E+00  0.0000E+00  0.0000E+00  0.0000E+00
     23.100  0.1269E+00  0.7215E-01  0.7215E-01  0.7215E-01  0.0000E+00  0.0000E+00  0.0000E+00  0.0000E+00  0.0000E+00
     23.114  0.1202E+00  0.7165E-01  0.7165E-01  0.7165E-01  0.0000E+00  0.0000E+00  0.0000E+00  0.0000E+00  0.0000E+00
     23.128  0.1141E+00  0.7120E-01  0.7120E-01  0.7120E-01  0.0000E+00  0.0000E+00  0.0000E+00  0.0000E+00  0.0000E+00
     23.142  0.1085E+00  0.7081E-01  0.7081E-01  0.7081E-01  0.0000E+00  0.0000E+00  0.0000E+00  0.0000E+00  0.0000E+00
     23.156  0.1034E+00  0.7047E-01  0.7047E-01  0.7047E-01  0.0000E+00  0.0000E+00  0.0000E+00  0.0000E+00  0.0000E+00
     23.170  0.9883E-01  0.7018E-01  0.7018E-01  0.7018E-01  0.0000E+00  0.0000E+00  0.0000E+00  0.0000E+00  0.0000E+00
     23.184  0.9479E-01  0.6994E-01  0.6994E-01  0.6994E-01  0.0000E+00  0.0000E+00  0.0000E+00  0.0000E+00  0.0000E+00
     23.198  0.9126E-01  0.6975E-01  0.6975E-01  0.6975E-01  0.0000E+00  0.0000E+00  0.0000E+00  0.0000E+00  0.0000E+00
     23.212  0.8825E-01  0.6961E-01  0.6961E-01  0.6961E-01  0.0000E+00  0.0000E+00  0.0000E+00  0.0000E+00  0.0000E+00
     23.226  0.8575E-01  0.6951E-01  0.6951E-01  0.6951E-01  0.0000E+00  0.0000E+00  0.0000E+00  0.0000E+00  0.0000E+00
     23.240  0.8375E-01  0.6947E-01  0.6947E-01  0.6947E-01  0.0000E+00  0.0000E+00  0.0000E+00  0.0000E+00  0.0000E+00
     23.254  0.8226E-01  0.6946E-01  0.6946E-01  0.6946E-01  0.0000E+00  0.0000E+00  0.0000E+00  0.0000E+00  0.0000E+00
     23.268  0.8126E-01  0.6950E-01  0.6950E-01  0.6950E-01  0.0000E+00  0.0000E+00  0.0000E+00  0.0000E+00  0.0000E+00
     23.282  0.8069E-01  0.6958E-01  0.6958E-01  0.6958E-01  0.0000E+00  0.0000E+00  0.0000E+00  0.0000E+00  0.0000E+00
     23.296  0.8012E-01  0.6966E-01  0.6966E-01  0.6966E-01  0.0000E+00  0.0000E+00  0.0000E+00  0.0000E+00  0.0000E+00
     23.310  0.7949E-01  0.6975E-01  0.6975E-01  0.6975E-01  0.0000E+00  0.0000E+00  0.0000E+00  0.0000E+00  0.0000E+00
     23.324  0.7880E-01  0.6985E-01  0.6985E-01  0.6985E-01  0.0000E+00  0.0000E+00  0.0000E+00  0.0000E+00  0.0000E+00
     23.338  0.7805E-01  0.6995E-01  0.6995E-01  0.6995E-01  0.0000E+00  0.0000E+00  0.0000E+00  0.0000E+00  0.0000E+00
     23.352  0.7723E-01  0.7006E-01  0.7006E-01  0.7006E-01  0.0000E+00  0.0000E+00  0.0000E+00  0.0000E+00  0.0000E+00
     23.366  0.7636E-01  0.7017E-01  0.7017E-01  0.7017E-01  0.0000E+00  0.0000E+00  0.0000E+00  0.0000E+00  0.0000E+00
     23.380  0.7542E-01  0.7029E-01  0.7029E-01  0.7029E-01  0.0000E+00  0.0000E+00  0.0000E+00  0.0000E+00  0.0000E+00
     23.394  0.7442E-01  0.7041E-01  0.7041E-01  0.7041E-01  0.0000E+00  0.0000E+00  0.0000E+00  0.0000E+00  0.0000E+00
     23.408  0.7336E-01  0.7054E-01  0.7054E-01  0.7054E-01  0.0000E+00  0.0000E+00  0.0000E+00  0.0000E+00  0.0000E+00
     23.422  0.7224E-01  0.7067E-01  0.7067E-01  0.7067E-01  0.0000E+00  0.0000E+00  0.0000E+00  0.0000E+00  0.0000E+00
     23.436  0.7105E-01  0.7081E-01  0.7081E-01  0.7081E-01  0.0000E+00  0.0000E+00  0.0000E+00  0.0000E+00  0.0000E+00
     23.450  0.6981E-01  0.7096E-01  0.7096E-01  0.7096E-01  0.0000E+00  0.0000E+00  0.0000E+00  0.0000E+00  0.0000E+00
     23.464  0.6850E-01  0.7111E-01  0.7111E-01  0.7111E-01  0.0000E+00  0.0000E+00  0.0000E+00  0.0000E+00  0.0000E+00
     23.477  0.6713E-01  0.7126E-01  0.7126E-01  0.7126E-01  0.0000E+00  0.0000E+00  0.0000E+00  0.0000E+00  0.0000E+00
     23.491  0.6570E-01  0.7142E-01  0.7142E-01  0.7142E-01  0.0000E+00  0.0000E+00  0.0000E+00  0.0000E+00  0.0000E+00
     23.505  0.6425E-01  0.7164E-01  0.7164E-01  0.7164E-01  0.0000E+00  0.0000E+00  0.0000E+00  0.0000E+00  0.0000E+00
     23.519  0.6274E-01  0.7188E-01  0.7188E-01  0.7188E-01  0.0000E+00  0.0000E+00  0.0000E+00  0.0000E+00  0.0000E+00
     23.533  0.6118E-01  0.7214E-01  0.7214E-01  0.7214E-01  0.0000E+00  0.0000E+00  0.0000E+00  0.0000E+00  0.0000E+00
     23.547  0.5955E-01  0.7241E-01  0.7241E-01  0.7241E-01  0.0000E+00  0.0000E+00  0.0000E+00  0.0000E+00  0.0000E+00
     23.561  0.5786E-01  0.7271E-01  0.7271E-01  0.7271E-01  0.0000E+00  0.0000E+00  0.0000E+00  0.0000E+00  0.0000E+00
     23.575  0.5635E-01  0.7307E-01  0.7307E-01  0.7307E-01  0.0000E+00  0.0000E+00  0.0000E+00  0.0000E+00  0.0000E+00
     23.589  0.5528E-01  0.7355E-01  0.7355E-01  0.7355E-01  0.0000E+00  0.0000E+00  0.0000E+00  0.0000E+00  0.0000E+00
     23.603  0.5430E-01  0.7408E-01  0.7408E-01  0.7408E-01  0.0000E+00  0.0000E+00  0.0000E+00  0.0000E+00  0.0000E+00
     23.617  0.5343E-01  0.7465E-01  0.7465E-01  0.7465E-01  0.0000E+00  0.0000E+00  0.0000E+00  0.0000E+00  0.0000E+00
     23.631  0.5265E-01  0.7526E-01  0.7526E-01  0.7526E-01  0.0000E+00  0.0000E+00  0.0000E+00  0.0000E+00  0.0000E+00
     23.645  0.5197E-01  0.7591E-01  0.7591E-01  0.7591E-01  0.0000E+00  0.0000E+00  0.0000E+00  0.0000E+00  0.0000E+00
     23.659  0.5135E-01  0.7665E-01  0.7665E-01  0.7665E-01  0.0000E+00  0.0000E+00  0.0000E+00  0.0000E+00  0.0000E+00
     23.673  0.5079E-01  0.7753E-01  0.7753E-01  0.7753E-01  0.0000E+00  0.0000E+00  0.0000E+00  0.0000E+00  0.0000E+00
     23.687  0.5033E-01  0.7844E-01  0.7844E-01  0.7844E-01  0.0000E+00  0.0000E+00  0.0000E+00  0.0000E+00  0.0000E+00
     23.701  0.4997E-01  0.7935E-01  0.7935E-01  0.7935E-01  0.0000E+00  0.0000E+00  0.0000E+00  0.0000E+00  0.0000E+00
     23.715  0.4970E-01  0.8026E-01  0.8026E-01  0.8026E-01  0.0000E+00  0.0000E+00  0.0000E+00  0.0000E+00  0.0000E+00
     23.729  0.4959E-01  0.8129E-01  0.8129E-01  0.8129E-01  0.0000E+00  0.0000E+00  0.0000E+00  0.0000E+00  0.0000E+00
     23.743  0.4965E-01  0.8250E-01  0.8250E-01  0.8250E-01  0.0000E+00  0.0000E+00  0.0000E+00  0.0000E+00  0.0000E+00
     23.757  0.4989E-01  0.8390E-01  0.8390E-01  0.8390E-01  0.0000E+00  0.0000E+00  0.0000E+00  0.0000E+00  0.0000E+00
     23.771  0.5030E-01  0.8547E-01  0.8547E-01  0.8547E-01  0.0000E+00  0.0000E+00  0.0000E+00  0.0000E+00  0.0000E+00
     23.785  0.5079E-01  0.8716E-01  0.8716E-01  0.8716E-01  0.0000E+00  0.0000E+00  0.0000E+00  0.0000E+00  0.0000E+00
     23.799  0.5126E-01  0.8876E-01  0.8876E-01  0.8876E-01  0.0000E+00  0.0000E+00  0.0000E+00  0.0000E+00  0.0000E+00
     23.813  0.5170E-01  0.9024E-01  0.9024E-01  0.9024E-01  0.0000E+00  0.0000E+00  0.0000E+00  0.0000E+00  0.0000E+00
     23.827  0.5210E-01  0.9160E-01  0.9160E-01  0.9160E-01  0.0000E+00  0.0000E+00  0.0000E+00  0.0000E+00  0.0000E+00
     23.841  0.5247E-01  0.9284E-01  0.9284E-01  0.9284E-01  0.0000E+00  0.0000E+00  0.0000E+00  0.0000E+00  0.0000E+00
     23.855  0.5280E-01  0.9396E-01  0.9396E-01  0.9396E-01  0.0000E+00  0.0000E+00  0.0000E+00  0.0000E+00  0.0000E+00
     23.869  0.5332E-01  0.9525E-01  0.9525E-01  0.9525E-01  0.0000E+00  0.0000E+00  0.0000E+00  0.0000E+00  0.0000E+00
     23.883  0.5421E-01  0.9691E-01  0.9691E-01  0.9691E-01  0.0000E+00  0.0000E+00  0.0000E+00  0.0000E+00  0.0000E+00
     23.897  0.5546E-01  0.9893E-01  0.9893E-01  0.9893E-01  0.0000E+00  0.0000E+00  0.0000E+00  0.0000E+00  0.0000E+00
     23.911  0.5709E-01  0.1013E+00  0.1013E+00  0.1013E+00  0.0000E+00  0.0000E+00  0.0000E+00  0.0000E+00  0.0000E+00
     23.925  0.5908E-01  0.1041E+00  0.1041E+00  0.1041E+00  0.0000E+00  0.0000E+00  0.0000E+00  0.0000E+00  0.0000E+00
     23.939  0.6143E-01  0.1072E+00  0.1072E+00  0.1072E+00  0.0000E+00  0.0000E+00  0.0000E+00  0.0000E+00  0.0000E+00
     23.953  0.6396E-01  0.1107E+00  0.1107E+00  0.1107E+00  0.0000E+00  0.0000E+00  0.0000E+00  0.0000E+00  0.0000E+00
     23.967  0.6650E-01  0.1141E+00  0.1141E+00  0.1141E+00  0.0000E+00  0.0000E+00  0.0000E+00  0.0000E+00  0.0000E+00
     23.981  0.6906E-01  0.1174E+00  0.1174E+00  0.1174E+00  0.0000E+00  0.0000E+00  0.0000E+00  0.0000E+00  0.0000E+00
     23.995  0.7164E-01  0.1207E+00  0.1207E+00  0.1207E+00  0.0000E+00  0.0000E+00  0.0000E+00  0.0000E+00  0.0000E+00
     24.009  0.7424E-01  0.1240E+00  0.1240E+00  0.1240E+00  0.0000E+00  0.0000E+00  0.0000E+00  0.0000E+00  0.0000E+00
     24.023  0.7640E-01  0.1267E+00  0.1267E+00  0.1267E+00  0.0000E+00  0.0000E+00  0.0000E+00  0.0000E+00  0.0000E+00
     24.037  0.7846E-01  0.1293E+00  0.1293E+00  0.1293E+00  0.0000E+00  0.0000E+00  0.0000E+00  0.0000E+00  0.0000E+00
     24.051  0.8092E-01  0.1322E+00  0.1322E+00  0.1322E+00  0.0000E+00  0.0000E+00  0.0000E+00  0.0000E+00  0.0000E+00
     24.065  0.8378E-01  0.1354E+00  0.1354E+00  0.1354E+00  0.0000E+00  0.0000E+00  0.0000E+00  0.0000E+00  0.0000E+00
     24.078  0.8470E-01  0.1364E+00  0.1364E+00  0.1364E+00  0.0000E+00  0.0000E+00  0.0000E+00  0.0000E+00  0.0000E+00
     24.092  0.8001E-01  0.1314E+00  0.1314E+00  0.1314E+00  0.0000E+00  0.0000E+00  0.0000E+00  0.0000E+00  0.0000E+00
     24.106  0.7153E-01  0.1226E+00  0.1226E+00  0.1226E+00  0.0000E+00  0.0000E+00  0.0000E+00  0.0000E+00  0.0000E+00
     24.120  0.6667E-01  0.1180E+00  0.1180E+00  0.1180E+00  0.0000E+00  0.0000E+00  0.0000E+00  0.0000E+00  0.0000E+00
     24.134  0.6218E-01  0.1138E+00  0.1138E+00  0.1138E+00  0.0000E+00  0.0000E+00  0.0000E+00  0.0000E+00  0.0000E+00
     24.148  0.5807E-01  0.1099E+00  0.1099E+00  0.1099E+00  0.0000E+00  0.0000E+00  0.0000E+00  0.0000E+00  0.0000E+00
     24.162  0.5470E-01  0.1066E+00  0.1066E+00  0.1066E+00  0.0000E+00  0.0000E+00  0.0000E+00  0.0000E+00  0.0000E+00
     24.176  0.5344E-01  0.1049E+00  0.1049E+00  0.1049E+00  0.0000E+00  0.0000E+00  0.0000E+00  0.0000E+00  0.0000E+00
     24.190  0.5220E-01  0.1032E+00  0.1032E+00  0.1032E+00  0.0000E+00  0.0000E+00  0.0000E+00  0.0000E+00  0.0000E+00
     24.204  0.5098E-01  0.1016E+00  0.1016E+00  0.1016E+00  0.0000E+00  0.0000E+00  0.0000E+00  0.0000E+00  0.0000E+00
     24.218  0.4978E-01  0.9997E-01  0.9997E-01  0.9997E-01  0.0000E+00  0.0000E+00  0.0000E+00  0.0000E+00  0.0000E+00
     24.232  0.4859E-01  0.9837E-01  0.9837E-01  0.9837E-01  0.0000E+00  0.0000E+00  0.0000E+00  0.0000E+00  0.0000E+00
     24.246  0.4742E-01  0.9680E-01  0.9680E-01  0.9680E-01  0.0000E+00  0.0000E+00  0.0000E+00  0.0000E+00  0.0000E+00
     24.260  0.4627E-01  0.9524E-01  0.9524E-01  0.9524E-01  0.0000E+00  0.0000E+00  0.0000E+00  0.0000E+00  0.0000E+00
     24.274  0.4514E-01  0.9371E-01  0.9371E-01  0.9371E-01  0.0000E+00  0.0000E+00  0.0000E+00  0.0000E+00  0.0000E+00
     24.288  0.4402E-01  0.9219E-01  0.9219E-01  0.9219E-01  0.0000E+00  0.0000E+00  0.0000E+00  0.0000E+00  0.0000E+00
     24.302  0.4293E-01  0.9070E-01  0.9070E-01  0.9070E-01  0.0000E+00  0.0000E+00  0.0000E+00  0.0000E+00  0.0000E+00
     24.316  0.4185E-01  0.8923E-01  0.8923E-01  0.8923E-01  0.0000E+00  0.0000E+00  0.0000E+00  0.0000E+00  0.0000E+00
     24.330  0.4079E-01  0.8777E-01  0.8777E-01  0.8777E-01  0.0000E+00  0.0000E+00  0.0000E+00  0.0000E+00  0.0000E+00
     24.344  0.3975E-01  0.8634E-01  0.8634E-01  0.8634E-01  0.0000E+00  0.0000E+00  0.0000E+00  0.0000E+00  0.0000E+00
     24.358  0.3874E-01  0.8492E-01  0.8492E-01  0.8492E-01  0.0000E+00  0.0000E+00  0.0000E+00  0.0000E+00  0.0000E+00
     24.372  0.3774E-01  0.8352E-01  0.8352E-01  0.8352E-01  0.0000E+00  0.0000E+00  0.0000E+00  0.0000E+00  0.0000E+00
     24.386  0.3676E-01  0.8214E-01  0.8214E-01  0.8214E-01  0.0000E+00  0.0000E+00  0.0000E+00  0.0000E+00  0.0000E+00
     24.400  0.3580E-01  0.8078E-01  0.8078E-01  0.8078E-01  0.0000E+00  0.0000E+00  0.0000E+00  0.0000E+00  0.0000E+00
     24.414  0.3487E-01  0.7943E-01  0.7943E-01  0.7943E-01  0.0000E+00  0.0000E+00  0.0000E+00  0.0000E+00  0.0000E+00
     24.428  0.3395E-01  0.7810E-01  0.7810E-01  0.7810E-01  0.0000E+00  0.0000E+00  0.0000E+00  0.0000E+00  0.0000E+00
     24.442  0.3306E-01  0.7679E-01  0.7679E-01  0.7679E-01  0.0000E+00  0.0000E+00  0.0000E+00  0.0000E+00  0.0000E+00
     24.456  0.3218E-01  0.7550E-01  0.7550E-01  0.7550E-01  0.0000E+00  0.0000E+00  0.0000E+00  0.0000E+00  0.0000E+00
     24.470  0.3132E-01  0.7423E-01  0.7423E-01  0.7423E-01  0.0000E+00  0.0000E+00  0.0000E+00  0.0000E+00  0.0000E+00
     24.484  0.3049E-01  0.7297E-01  0.7297E-01  0.7297E-01  0.0000E+00  0.0000E+00  0.0000E+00  0.0000E+00  0.0000E+00
     24.498  0.2967E-01  0.7173E-01  0.7173E-01  0.7173E-01  0.0000E+00  0.0000E+00  0.0000E+00  0.0000E+00  0.0000E+00
     24.512  0.2888E-01  0.7052E-01  0.7052E-01  0.7052E-01  0.0000E+00  0.0000E+00  0.0000E+00  0.0000E+00  0.0000E+00
     24.526  0.2811E-01  0.6931E-01  0.6931E-01  0.6931E-01  0.0000E+00  0.0000E+00  0.0000E+00  0.0000E+00  0.0000E+00
     24.540  0.2735E-01  0.6813E-01  0.6813E-01  0.6813E-01  0.0000E+00  0.0000E+00  0.0000E+00  0.0000E+00  0.0000E+00
     24.554  0.2662E-01  0.6697E-01  0.6697E-01  0.6697E-01  0.0000E+00  0.0000E+00  0.0000E+00  0.0000E+00  0.0000E+00
     24.568  0.2591E-01  0.6582E-01  0.6582E-01  0.6582E-01  0.0000E+00  0.0000E+00  0.0000E+00  0.0000E+00  0.0000E+00
     24.582  0.2521E-01  0.6469E-01  0.6469E-01  0.6469E-01  0.0000E+00  0.0000E+00  0.0000E+00  0.0000E+00  0.0000E+00
     24.596  0.2454E-01  0.6358E-01  0.6358E-01  0.6358E-01  0.0000E+00  0.0000E+00  0.0000E+00  0.0000E+00  0.0000E+00
     24.610  0.2389E-01  0.6249E-01  0.6249E-01  0.6249E-01  0.0000E+00  0.0000E+00  0.0000E+00  0.0000E+00  0.0000E+00
     24.624  0.2325E-01  0.6143E-01  0.6143E-01  0.6143E-01  0.0000E+00  0.0000E+00  0.0000E+00  0.0000E+00  0.0000E+00
     24.638  0.2264E-01  0.6039E-01  0.6039E-01  0.6039E-01  0.0000E+00  0.0000E+00  0.0000E+00  0.0000E+00  0.0000E+00
     24.652  0.2204E-01  0.5939E-01  0.5939E-01  0.5939E-01  0.0000E+00  0.0000E+00  0.0000E+00  0.0000E+00  0.0000E+00
     24.666  0.2146E-01  0.5840E-01  0.5840E-01  0.5840E-01  0.0000E+00  0.0000E+00  0.0000E+00  0.0000E+00  0.0000E+00
     24.679  0.2090E-01  0.5744E-01  0.5744E-01  0.5744E-01  0.0000E+00  0.0000E+00  0.0000E+00  0.0000E+00  0.0000E+00
     24.693  0.2035E-01  0.5649E-01  0.5649E-01  0.5649E-01  0.0000E+00  0.0000E+00  0.0000E+00  0.0000E+00  0.0000E+00
     24.707  0.1982E-01  0.5557E-01  0.5557E-01  0.5557E-01  0.0000E+00  0.0000E+00  0.0000E+00  0.0000E+00  0.0000E+00
     24.721  0.1930E-01  0.5466E-01  0.5466E-01  0.5466E-01  0.0000E+00  0.0000E+00  0.0000E+00  0.0000E+00  0.0000E+00
     24.735  0.1880E-01  0.5377E-01  0.5377E-01  0.5377E-01  0.0000E+00  0.0000E+00  0.0000E+00  0.0000E+00  0.0000E+00
     24.749  0.1831E-01  0.5291E-01  0.5291E-01  0.5291E-01  0.0000E+00  0.0000E+00  0.0000E+00  0.0000E+00  0.0000E+00
     24.763  0.1783E-01  0.5206E-01  0.5206E-01  0.5206E-01  0.0000E+00  0.0000E+00  0.0000E+00  0.0000E+00  0.0000E+00
     24.777  0.1737E-01  0.5123E-01  0.5123E-01  0.5123E-01  0.0000E+00  0.0000E+00  0.0000E+00  0.0000E+00  0.0000E+00
     24.791  0.1693E-01  0.5042E-01  0.5042E-01  0.5042E-01  0.0000E+00  0.0000E+00  0.0000E+00  0.0000E+00  0.0000E+00
     24.805  0.1650E-01  0.4963E-01  0.4963E-01  0.4963E-01  0.0000E+00  0.0000E+00  0.0000E+00  0.0000E+00  0.0000E+00
     24.819  0.1613E-01  0.4909E-01  0.4909E-01  0.4909E-01  0.0000E+00  0.0000E+00  0.0000E+00  0.0000E+00  0.0000E+00
     24.833  0.1586E-01  0.4898E-01  0.4898E-01  0.4898E-01  0.0000E+00  0.0000E+00  0.0000E+00  0.0000E+00  0.0000E+00
     24.847  0.1569E-01  0.4930E-01  0.4930E-01  0.4930E-01  0.0000E+00  0.0000E+00  0.0000E+00  0.0000E+00  0.0000E+00
     24.861  0.1559E-01  0.4991E-01  0.4991E-01  0.4991E-01  0.0000E+00  0.0000E+00  0.0000E+00  0.0000E+00  0.0000E+00
     24.875  0.1548E-01  0.5050E-01  0.5050E-01  0.5050E-01  0.0000E+00  0.0000E+00  0.0000E+00  0.0000E+00  0.0000E+00
     24.889  0.1537E-01  0.5105E-01  0.5105E-01  0.5105E-01  0.0000E+00  0.0000E+00  0.0000E+00  0.0000E+00  0.0000E+00
     24.903  0.1524E-01  0.5157E-01  0.5157E-01  0.5157E-01  0.0000E+00  0.0000E+00  0.0000E+00  0.0000E+00  0.0000E+00
     24.917  0.1511E-01  0.5205E-01  0.5205E-01  0.5205E-01  0.0000E+00  0.0000E+00  0.0000E+00  0.0000E+00  0.0000E+00
     24.931  0.1497E-01  0.5250E-01  0.5250E-01  0.5250E-01  0.0000E+00  0.0000E+00  0.0000E+00  0.0000E+00  0.0000E+00
     24.945  0.1482E-01  0.5291E-01  0.5291E-01  0.5291E-01  0.0000E+00  0.0000E+00  0.0000E+00  0.0000E+00  0.0000E+00
     24.959  0.1466E-01  0.5329E-01  0.5329E-01  0.5329E-01  0.0000E+00  0.0000E+00  0.0000E+00  0.0000E+00  0.0000E+00
     24.973  0.1450E-01  0.5364E-01  0.5364E-01  0.5364E-01  0.0000E+00  0.0000E+00  0.0000E+00  0.0000E+00  0.0000E+00
     24.987  0.1432E-01  0.5395E-01  0.5395E-01  0.5395E-01  0.0000E+00  0.0000E+00  0.0000E+00  0.0000E+00  0.0000E+00
     25.001  0.1414E-01  0.5422E-01  0.5422E-01  0.5422E-01  0.0000E+00  0.0000E+00  0.0000E+00  0.0000E+00  0.0000E+00
     25.015  0.1395E-01  0.5446E-01  0.5446E-01  0.5446E-01  0.0000E+00  0.0000E+00  0.0000E+00  0.0000E+00  0.0000E+00
     25.029  0.1375E-01  0.5467E-01  0.5467E-01  0.5467E-01  0.0000E+00  0.0000E+00  0.0000E+00  0.0000E+00  0.0000E+00
     25.043  0.1354E-01  0.5484E-01  0.5484E-01  0.5484E-01  0.0000E+00  0.0000E+00  0.0000E+00  0.0000E+00  0.0000E+00
     25.057  0.1332E-01  0.5498E-01  0.5498E-01  0.5498E-01  0.0000E+00  0.0000E+00  0.0000E+00  0.0000E+00  0.0000E+00
     25.071  0.1297E-01  0.5490E-01  0.5490E-01  0.5490E-01  0.0000E+00  0.0000E+00  0.0000E+00  0.0000E+00  0.0000E+00
     25.085  0.1225E-01  0.5449E-01  0.5449E-01  0.5449E-01  0.0000E+00  0.0000E+00  0.0000E+00  0.0000E+00  0.0000E+00
     25.099  0.1173E-01  0.5486E-01  0.5486E-01  0.5486E-01  0.0000E+00  0.0000E+00  0.0000E+00  0.0000E+00  0.0000E+00
     25.113  0.1141E-01  0.5601E-01  0.5601E-01  0.5601E-01  0.0000E+00  0.0000E+00  0.0000E+00  0.0000E+00  0.0000E+00
     25.127  0.1129E-01  0.5793E-01  0.5793E-01  0.5793E-01  0.0000E+00  0.0000E+00  0.0000E+00  0.0000E+00  0.0000E+00
     25.141  0.1128E-01  0.5980E-01  0.5980E-01  0.5980E-01  0.0000E+00  0.0000E+00  0.0000E+00  0.0000E+00  0.0000E+00
     25.155  0.1051E-01  0.5489E-01  0.5489E-01  0.5489E-01  0.0000E+00  0.0000E+00  0.0000E+00  0.0000E+00  0.0000E+00
     25.169  0.9767E-02  0.5000E-01  0.5000E-01  0.5000E-01  0.0000E+00  0.0000E+00  0.0000E+00  0.0000E+00  0.0000E+00
     25.183  0.9095E-02  0.4564E-01  0.4564E-01  0.4564E-01  0.0000E+00  0.0000E+00  0.0000E+00  0.0000E+00  0.0000E+00
     25.197  0.8495E-02  0.4179E-01  0.4179E-01  0.4179E-01  0.0000E+00  0.0000E+00  0.0000E+00  0.0000E+00  0.0000E+00
     25.211  0.7962E-02  0.3846E-01  0.3846E-01  0.3846E-01  0.0000E+00  0.0000E+00  0.0000E+00  0.0000E+00  0.0000E+00
     25.225  0.7494E-02  0.3562E-01  0.3562E-01  0.3562E-01  0.0000E+00  0.0000E+00  0.0000E+00  0.0000E+00  0.0000E+00
     25.239  0.7092E-02  0.3329E-01  0.3329E-01  0.3329E-01  0.0000E+00  0.0000E+00  0.0000E+00  0.0000E+00  0.0000E+00
     25.253  0.6755E-02  0.3146E-01  0.3146E-01  0.3146E-01  0.0000E+00  0.0000E+00  0.0000E+00  0.0000E+00  0.0000E+00
     25.267  0.6482E-02  0.3012E-01  0.3012E-01  0.3012E-01  0.0000E+00  0.0000E+00  0.0000E+00  0.0000E+00  0.0000E+00
     25.280  0.6273E-02  0.2927E-01  0.2927E-01  0.2927E-01  0.0000E+00  0.0000E+00  0.0000E+00  0.0000E+00  0.0000E+00
     25.294  0.6127E-02  0.2890E-01  0.2890E-01  0.2890E-01  0.0000E+00  0.0000E+00  0.0000E+00  0.0000E+00  0.0000E+00
     25.308  0.6027E-02  0.2888E-01  0.2888E-01  0.2888E-01  0.0000E+00  0.0000E+00  0.0000E+00  0.0000E+00  0.0000E+00
     25.322  0.5930E-02  0.2887E-01  0.2887E-01  0.2887E-01  0.0000E+00  0.0000E+00  0.0000E+00  0.0000E+00  0.0000E+00
     25.336  0.5832E-02  0.2886E-01  0.2886E-01  0.2886E-01  0.0000E+00  0.0000E+00  0.0000E+00  0.0000E+00  0.0000E+00
     25.350  0.5735E-02  0.2883E-01  0.2883E-01  0.2883E-01  0.0000E+00  0.0000E+00  0.0000E+00  0.0000E+00  0.0000E+00
     25.364  0.5637E-02  0.2881E-01  0.2881E-01  0.2881E-01  0.0000E+00  0.0000E+00  0.0000E+00  0.0000E+00  0.0000E+00
     25.378  0.5538E-02  0.2877E-01  0.2877E-01  0.2877E-01  0.0000E+00  0.0000E+00  0.0000E+00  0.0000E+00  0.0000E+00
     25.392  0.5440E-02  0.2873E-01  0.2873E-01  0.2873E-01  0.0000E+00  0.0000E+00  0.0000E+00  0.0000E+00  0.0000E+00
     25.406  0.5342E-02  0.2868E-01  0.2868E-01  0.2868E-01  0.0000E+00  0.0000E+00  0.0000E+00  0.0000E+00  0.0000E+00
     25.420  0.5243E-02  0.2862E-01  0.2862E-01  0.2862E-01  0.0000E+00  0.0000E+00  0.0000E+00  0.0000E+00  0.0000E+00
     25.434  0.5145E-02  0.2856E-01  0.2856E-01  0.2856E-01  0.0000E+00  0.0000E+00  0.0000E+00  0.0000E+00  0.0000E+00
     25.448  0.5046E-02  0.2849E-01  0.2849E-01  0.2849E-01  0.0000E+00  0.0000E+00  0.0000E+00  0.0000E+00  0.0000E+00
     25.462  0.4947E-02  0.2842E-01  0.2842E-01  0.2842E-01  0.0000E+00  0.0000E+00  0.0000E+00  0.0000E+00  0.0000E+00
     25.476  0.4847E-02  0.2833E-01  0.2833E-01  0.2833E-01  0.0000E+00  0.0000E+00  0.0000E+00  0.0000E+00  0.0000E+00
     25.490  0.4748E-02  0.2824E-01  0.2824E-01  0.2824E-01  0.0000E+00  0.0000E+00  0.0000E+00  0.0000E+00  0.0000E+00
     25.504  0.4649E-02  0.2815E-01  0.2815E-01  0.2815E-01  0.0000E+00  0.0000E+00  0.0000E+00  0.0000E+00  0.0000E+00
     25.518  0.4549E-02  0.2805E-01  0.2805E-01  0.2805E-01  0.0000E+00  0.0000E+00  0.0000E+00  0.0000E+00  0.0000E+00
     25.532  0.4449E-02  0.2794E-01  0.2794E-01  0.2794E-01  0.0000E+00  0.0000E+00  0.0000E+00  0.0000E+00  0.0000E+00
     25.546  0.4349E-02  0.2782E-01  0.2782E-01  0.2782E-01  0.0000E+00  0.0000E+00  0.0000E+00  0.0000E+00  0.0000E+00
     25.560  0.4250E-02  0.2771E-01  0.2771E-01  0.2771E-01  0.0000E+00  0.0000E+00  0.0000E+00  0.0000E+00  0.0000E+00
     25.574  0.4162E-02  0.2767E-01  0.2767E-01  0.2767E-01  0.0000E+00  0.0000E+00  0.0000E+00  0.0000E+00  0.0000E+00
     25.588  0.4088E-02  0.2773E-01  0.2773E-01  0.2773E-01  0.0000E+00  0.0000E+00  0.0000E+00  0.0000E+00  0.0000E+00
     25.602  0.4026E-02  0.2787E-01  0.2787E-01  0.2787E-01  0.0000E+00  0.0000E+00  0.0000E+00  0.0000E+00  0.0000E+00
     25.616  0.3957E-02  0.2964E-01  0.2964E-01  0.2964E-01  0.0000E+00  0.0000E+00  0.0000E+00  0.0000E+00  0.0000E+00
     25.630  0.3875E-02  0.3097E-01  0.3097E-01  0.3097E-01  0.0000E+00  0.0000E+00  0.0000E+00  0.0000E+00  0.0000E+00
     25.644  0.3783E-02  0.3042E-01  0.3042E-01  0.3042E-01  0.0000E+00  0.0000E+00  0.0000E+00  0.0000E+00  0.0000E+00
     25.658  0.3670E-02  0.2978E-01  0.2978E-01  0.2978E-01  0.0000E+00  0.0000E+00  0.0000E+00  0.0000E+00  0.0000E+00
     25.672  0.3536E-02  0.2905E-01  0.2905E-01  0.2905E-01  0.0000E+00  0.0000E+00  0.0000E+00  0.0000E+00  0.0000E+00
     25.686  0.3381E-02  0.2822E-01  0.2822E-01  0.2822E-01  0.0000E+00  0.0000E+00  0.0000E+00  0.0000E+00  0.0000E+00
     25.700  0.3206E-02  0.2731E-01  0.2731E-01  0.2731E-01  0.0000E+00  0.0000E+00  0.0000E+00  0.0000E+00  0.0000E+00
     25.714  0.3011E-02  0.2631E-01  0.2631E-01  0.2631E-01  0.0000E+00  0.0000E+00  0.0000E+00  0.0000E+00  0.0000E+00
     25.728  0.2795E-02  0.2522E-01  0.2522E-01  0.2522E-01  0.0000E+00  0.0000E+00  0.0000E+00  0.0000E+00  0.0000E+00
     25.742  0.2558E-02  0.2404E-01  0.2404E-01  0.2404E-01  0.0000E+00  0.0000E+00  0.0000E+00  0.0000E+00  0.0000E+00
     25.756  0.2301E-02  0.2277E-01  0.2277E-01  0.2277E-01  0.0000E+00  0.0000E+00  0.0000E+00  0.0000E+00  0.0000E+00
     25.770  0.2023E-02  0.2140E-01  0.2140E-01  0.2140E-01  0.0000E+00  0.0000E+00  0.0000E+00  0.0000E+00  0.0000E+00
     25.784  0.1724E-02  0.1995E-01  0.1995E-01  0.1995E-01  0.0000E+00  0.0000E+00  0.0000E+00  0.0000E+00  0.0000E+00
     25.798  0.1405E-02  0.1840E-01  0.1840E-01  0.1840E-01  0.0000E+00  0.0000E+00  0.0000E+00  0.0000E+00  0.0000E+00
     25.812  0.1196E-02  0.1713E-01  0.1713E-01  0.1713E-01  0.0000E+00  0.0000E+00  0.0000E+00  0.0000E+00  0.0000E+00
     25.826  0.1136E-02  0.1628E-01  0.1628E-01  0.1628E-01  0.0000E+00  0.0000E+00  0.0000E+00  0.0000E+00  0.0000E+00
     25.840  0.1078E-02  0.1545E-01  0.1545E-01  0.1545E-01  0.0000E+00  0.0000E+00  0.0000E+00  0.0000E+00  0.0000E+00
     25.854  0.1022E-02  0.1464E-01  0.1464E-01  0.1464E-01  0.0000E+00  0.0000E+00  0.0000E+00  0.0000E+00  0.0000E+00
     25.868  0.9666E-03  0.1385E-01  0.1385E-01  0.1385E-01  0.0000E+00  0.0000E+00  0.0000E+00  0.0000E+00  0.0000E+00
     25.881  0.9131E-03  0.1308E-01  0.1308E-01  0.1308E-01  0.0000E+00  0.0000E+00  0.0000E+00  0.0000E+00  0.0000E+00
     25.895  0.8611E-03  0.1234E-01  0.1234E-01  0.1234E-01  0.0000E+00  0.0000E+00  0.0000E+00  0.0000E+00  0.0000E+00
     25.909  0.8107E-03  0.1161E-01  0.1161E-01  0.1161E-01  0.0000E+00  0.0000E+00  0.0000E+00  0.0000E+00  0.0000E+00
     25.923  0.7617E-03  0.1091E-01  0.1091E-01  0.1091E-01  0.0000E+00  0.0000E+00  0.0000E+00  0.0000E+00  0.0000E+00
     25.937  0.7143E-03  0.1023E-01  0.1023E-01  0.1023E-01  0.0000E+00  0.0000E+00  0.0000E+00  0.0000E+00  0.0000E+00
     25.951  0.6685E-03  0.9577E-02  0.9577E-02  0.9577E-02  0.0000E+00  0.0000E+00  0.0000E+00  0.0000E+00  0.0000E+00
     25.965  0.6241E-03  0.8942E-02  0.8942E-02  0.8942E-02  0.0000E+00  0.0000E+00  0.0000E+00  0.0000E+00  0.0000E+00
     25.979  0.5813E-03  0.8328E-02  0.8328E-02  0.8328E-02  0.0000E+00  0.0000E+00  0.0000E+00  0.0000E+00  0.0000E+00
     25.993  0.5400E-03  0.7736E-02  0.7736E-02  0.7736E-02  0.0000E+00  0.0000E+00  0.0000E+00  0.0000E+00  0.0000E+00
     26.007  0.5002E-03  0.7166E-02  0.7166E-02  0.7166E-02  0.0000E+00  0.0000E+00  0.0000E+00  0.0000E+00  0.0000E+00
     26.021  0.4619E-03  0.6618E-02  0.6618E-02  0.6618E-02  0.0000E+00  0.0000E+00  0.0000E+00  0.0000E+00  0.0000E+00
     26.035  0.4252E-03  0.6092E-02  0.6092E-02  0.6092E-02  0.0000E+00  0.0000E+00  0.0000E+00  0.0000E+00  0.0000E+00
     26.049  0.3900E-03  0.5587E-02  0.5587E-02  0.5587E-02  0.0000E+00  0.0000E+00  0.0000E+00  0.0000E+00  0.0000E+00
     26.063  0.3563E-03  0.5104E-02  0.5104E-02  0.5104E-02  0.0000E+00  0.0000E+00  0.0000E+00  0.0000E+00  0.0000E+00
     26.077  0.3241E-03  0.4643E-02  0.4643E-02  0.4643E-02  0.0000E+00  0.0000E+00  0.0000E+00  0.0000E+00  0.0000E+00
     26.091  0.2935E-03  0.4204E-02  0.4204E-02  0.4204E-02  0.0000E+00  0.0000E+00  0.0000E+00  0.0000E+00  0.0000E+00
     26.105  0.2643E-03  0.3787E-02  0.3787E-02  0.3787E-02  0.0000E+00  0.0000E+00  0.0000E+00  0.0000E+00  0.0000E+00
     26.119  0.2367E-03  0.3391E-02  0.3391E-02  0.3391E-02  0.0000E+00  0.0000E+00  0.0000E+00  0.0000E+00  0.0000E+00
     26.133  0.2106E-03  0.3017E-02  0.3017E-02  0.3017E-02  0.0000E+00  0.0000E+00  0.0000E+00  0.0000E+00  0.0000E+00
     26.147  0.1861E-03  0.2666E-02  0.2666E-02  0.2666E-02  0.0000E+00  0.0000E+00  0.0000E+00  0.0000E+00  0.0000E+00
     26.161  0.1630E-03  0.2335E-02  0.2335E-02  0.2335E-02  0.0000E+00  0.0000E+00  0.0000E+00  0.0000E+00  0.0000E+00
     26.175  0.1415E-03  0.2027E-02  0.2027E-02  0.2027E-02  0.0000E+00  0.0000E+00  0.0000E+00  0.0000E+00  0.0000E+00
     26.189  0.1215E-03  0.1741E-02  0.1741E-02  0.1741E-02  0.0000E+00  0.0000E+00  0.0000E+00  0.0000E+00  0.0000E+00
     26.203  0.1030E-03  0.1476E-02  0.1476E-02  0.1476E-02  0.0000E+00  0.0000E+00  0.0000E+00  0.0000E+00  0.0000E+00
     26.217  0.8609E-04  0.1233E-02  0.1233E-02  0.1233E-02  0.0000E+00  0.0000E+00  0.0000E+00  0.0000E+00  0.0000E+00
     26.231  0.7066E-04  0.1012E-02  0.1012E-02  0.1012E-02  0.0000E+00  0.0000E+00  0.0000E+00  0.0000E+00  0.0000E+00
     26.245  0.5676E-04  0.8129E-03  0.8129E-03  0.8129E-03  0.0000E+00  0.0000E+00  0.0000E+00  0.0000E+00  0.0000E+00
     26.259  0.4437E-04  0.6355E-03  0.6355E-03  0.6355E-03  0.0000E+00  0.0000E+00  0.0000E+00  0.0000E+00  0.0000E+00
     26.273  0.3351E-04  0.4799E-03  0.4799E-03  0.4799E-03  0.0000E+00  0.0000E+00  0.0000E+00  0.0000E+00  0.0000E+00
     26.287  0.2417E-04  0.3461E-03  0.3461E-03  0.3461E-03  0.0000E+00  0.0000E+00  0.0000E+00  0.0000E+00  0.0000E+00
     26.301  0.1635E-04  0.2341E-03  0.2341E-03  0.2341E-03  0.0000E+00  0.0000E+00  0.0000E+00  0.0000E+00  0.0000E+00
     26.315  0.1006E-04  0.1440E-03  0.1440E-03  0.1440E-03  0.0000E+00  0.0000E+00  0.0000E+00  0.0000E+00  0.0000E+00
     26.329  0.5285E-05  0.7561E-04  0.7561E-04  0.7561E-04  0.0000E+00  0.0000E+00  0.0000E+00  0.0000E+00  0.0000E+00
     26.343  0.2035E-05  0.2908E-04  0.2908E-04  0.2908E-04  0.0000E+00  0.0000E+00  0.0000E+00  0.0000E+00  0.0000E+00
     26.357  0.3070E-06  0.4369E-05  0.4369E-05  0.4369E-05  0.0000E+00  0.0000E+00  0.0000E+00  0.0000E+00  0.0000E+00
     26.371  0.0000E+00  0.0000E+00  0.0000E+00  0.0000E+00  0.0000E+00  0.0000E+00  0.0000E+00  0.0000E+00  0.0000E+00
     26.385  0.0000E+00  0.0000E+00  0.0000E+00  0.0000E+00  0.0000E+00  0.0000E+00  0.0000E+00  0.0000E+00  0.0000E+00
     26.399  0.0000E+00  0.0000E+00  0.0000E+00  0.0000E+00  0.0000E+00  0.0000E+00  0.0000E+00  0.0000E+00  0.0000E+00
     26.413  0.0000E+00  0.0000E+00  0.0000E+00  0.0000E+00  0.0000E+00  0.0000E+00  0.0000E+00  0.0000E+00  0.0000E+00
     26.427  0.0000E+00  0.0000E+00  0.0000E+00  0.0000E+00  0.0000E+00  0.0000E+00  0.0000E+00  0.0000E+00  0.0000E+00
     26.441  0.0000E+00  0.0000E+00  0.0000E+00  0.0000E+00  0.0000E+00  0.0000E+00  0.0000E+00  0.0000E+00  0.0000E+00
     26.455  0.0000E+00  0.0000E+00  0.0000E+00  0.0000E+00  0.0000E+00  0.0000E+00  0.0000E+00  0.0000E+00  0.0000E+00
     26.469  0.0000E+00  0.0000E+00  0.0000E+00  0.0000E+00  0.0000E+00  0.0000E+00  0.0000E+00  0.0000E+00  0.0000E+00
     26.482  0.0000E+00  0.0000E+00  0.0000E+00  0.0000E+00  0.0000E+00  0.0000E+00  0.0000E+00  0.0000E+00  0.0000E+00
     26.496  0.0000E+00  0.0000E+00  0.0000E+00  0.0000E+00  0.0000E+00  0.0000E+00  0.0000E+00  0.0000E+00  0.0000E+00
     26.510  0.0000E+00  0.0000E+00  0.0000E+00  0.0000E+00  0.0000E+00  0.0000E+00  0.0000E+00  0.0000E+00  0.0000E+00
     26.524  0.0000E+00  0.0000E+00  0.0000E+00  0.0000E+00  0.0000E+00  0.0000E+00  0.0000E+00  0.0000E+00  0.0000E+00
     26.538  0.0000E+00  0.0000E+00  0.0000E+00  0.0000E+00  0.0000E+00  0.0000E+00  0.0000E+00  0.0000E+00  0.0000E+00
     26.552  0.0000E+00  0.0000E+00  0.0000E+00  0.0000E+00  0.0000E+00  0.0000E+00  0.0000E+00  0.0000E+00  0.0000E+00
     26.566  0.0000E+00  0.0000E+00  0.0000E+00  0.0000E+00  0.0000E+00  0.0000E+00  0.0000E+00  0.0000E+00  0.0000E+00
     26.580  0.0000E+00  0.0000E+00  0.0000E+00  0.0000E+00  0.0000E+00  0.0000E+00  0.0000E+00  0.0000E+00  0.0000E+00
     26.594  0.0000E+00  0.0000E+00  0.0000E+00  0.0000E+00  0.0000E+00  0.0000E+00  0.0000E+00  0.0000E+00  0.0000E+00
     26.608  0.0000E+00  0.0000E+00  0.0000E+00  0.0000E+00  0.0000E+00  0.0000E+00  0.0000E+00  0.0000E+00  0.0000E+00
     26.622  0.0000E+00  0.0000E+00  0.0000E+00  0.0000E+00  0.0000E+00  0.0000E+00  0.0000E+00  0.0000E+00  0.0000E+00
     26.636  0.0000E+00  0.0000E+00  0.0000E+00  0.0000E+00  0.0000E+00  0.0000E+00  0.0000E+00  0.0000E+00  0.0000E+00
     26.650  0.0000E+00  0.0000E+00  0.0000E+00  0.0000E+00  0.0000E+00  0.0000E+00  0.0000E+00  0.0000E+00  0.0000E+00
     26.664  0.0000E+00  0.0000E+00  0.0000E+00  0.0000E+00  0.0000E+00  0.0000E+00  0.0000E+00  0.0000E+00  0.0000E+00
     26.678  0.0000E+00  0.0000E+00  0.0000E+00  0.0000E+00  0.0000E+00  0.0000E+00  0.0000E+00  0.0000E+00  0.0000E+00
     26.692  0.0000E+00  0.0000E+00  0.0000E+00  0.0000E+00  0.0000E+00  0.0000E+00  0.0000E+00  0.0000E+00  0.0000E+00
     26.706  0.0000E+00  0.0000E+00  0.0000E+00  0.0000E+00  0.0000E+00  0.0000E+00  0.0000E+00  0.0000E+00  0.0000E+00
     26.720  0.0000E+00  0.0000E+00  0.0000E+00  0.0000E+00  0.0000E+00  0.0000E+00  0.0000E+00  0.0000E+00  0.0000E+00
     26.734  0.0000E+00  0.0000E+00  0.0000E+00  0.0000E+00  0.0000E+00  0.0000E+00  0.0000E+00  0.0000E+00  0.0000E+00
     26.748  0.0000E+00  0.0000E+00  0.0000E+00  0.0000E+00  0.0000E+00  0.0000E+00  0.0000E+00  0.0000E+00  0.0000E+00
     26.762  0.0000E+00  0.0000E+00  0.0000E+00  0.0000E+00  0.0000E+00  0.0000E+00  0.0000E+00  0.0000E+00  0.0000E+00
     26.776  0.0000E+00  0.0000E+00  0.0000E+00  0.0000E+00  0.0000E+00  0.0000E+00  0.0000E+00  0.0000E+00  0.0000E+00
     26.790  0.0000E+00  0.0000E+00  0.0000E+00  0.0000E+00  0.0000E+00  0.0000E+00  0.0000E+00  0.0000E+00  0.0000E+00
     26.804  0.0000E+00  0.0000E+00  0.0000E+00  0.0000E+00  0.0000E+00  0.0000E+00  0.0000E+00  0.0000E+00  0.0000E+00
     26.818  0.0000E+00  0.0000E+00  0.0000E+00  0.0000E+00  0.0000E+00  0.0000E+00  0.0000E+00  0.0000E+00  0.0000E+00
     26.832  0.0000E+00  0.0000E+00  0.0000E+00  0.0000E+00  0.0000E+00  0.0000E+00  0.0000E+00  0.0000E+00  0.0000E+00
     26.846  0.0000E+00  0.0000E+00  0.0000E+00  0.0000E+00  0.0000E+00  0.0000E+00  0.0000E+00  0.0000E+00  0.0000E+00
     26.860  0.0000E+00  0.0000E+00  0.0000E+00  0.0000E+00  0.0000E+00  0.0000E+00  0.0000E+00  0.0000E+00  0.0000E+00
     26.874  0.0000E+00  0.0000E+00  0.0000E+00  0.0000E+00  0.0000E+00  0.0000E+00  0.0000E+00  0.0000E+00  0.0000E+00
     26.888  0.0000E+00  0.0000E+00  0.0000E+00  0.0000E+00  0.0000E+00  0.0000E+00  0.0000E+00  0.0000E+00  0.0000E+00
     26.902  0.0000E+00  0.0000E+00  0.0000E+00  0.0000E+00  0.0000E+00  0.0000E+00  0.0000E+00  0.0000E+00  0.0000E+00
     26.916  0.0000E+00  0.0000E+00  0.0000E+00  0.0000E+00  0.0000E+00  0.0000E+00  0.0000E+00  0.0000E+00  0.0000E+00
     26.930  0.0000E+00  0.0000E+00  0.0000E+00  0.0000E+00  0.0000E+00  0.0000E+00  0.0000E+00  0.0000E+00  0.0000E+00
     26.944  0.0000E+00  0.0000E+00  0.0000E+00  0.0000E+00  0.0000E+00  0.0000E+00  0.0000E+00  0.0000E+00  0.0000E+00
     26.958  0.0000E+00  0.0000E+00  0.0000E+00  0.0000E+00  0.0000E+00  0.0000E+00  0.0000E+00  0.0000E+00  0.0000E+00
     26.972  0.0000E+00  0.0000E+00  0.0000E+00  0.0000E+00  0.0000E+00  0.0000E+00  0.0000E+00  0.0000E+00  0.0000E+00
     26.986  0.0000E+00  0.0000E+00  0.0000E+00  0.0000E+00  0.0000E+00  0.0000E+00  0.0000E+00  0.0000E+00  0.0000E+00
     27.000  0.0000E+00  0.0000E+00  0.0000E+00  0.0000E+00  0.0000E+00  0.0000E+00  0.0000E+00  0.0000E+00  0.0000E+00
     27.014  0.0000E+00  0.0000E+00  0.0000E+00  0.0000E+00  0.0000E+00  0.0000E+00  0.0000E+00  0.0000E+00  0.0000E+00
     27.028  0.0000E+00  0.0000E+00  0.0000E+00  0.0000E+00  0.0000E+00  0.0000E+00  0.0000E+00  0.0000E+00  0.0000E+00
     27.042  0.0000E+00  0.0000E+00  0.0000E+00  0.0000E+00  0.0000E+00  0.0000E+00  0.0000E+00  0.0000E+00  0.0000E+00
     27.056  0.0000E+00  0.0000E+00  0.0000E+00  0.0000E+00  0.0000E+00  0.0000E+00  0.0000E+00  0.0000E+00  0.0000E+00
     27.070  0.0000E+00  0.0000E+00  0.0000E+00  0.0000E+00  0.0000E+00  0.0000E+00  0.0000E+00  0.0000E+00  0.0000E+00
     27.083  0.0000E+00  0.0000E+00  0.0000E+00  0.0000E+00  0.0000E+00  0.0000E+00  0.0000E+00  0.0000E+00  0.0000E+00
     27.097  0.0000E+00  0.0000E+00  0.0000E+00  0.0000E+00  0.0000E+00  0.0000E+00  0.0000E+00  0.0000E+00  0.0000E+00
     27.111  0.0000E+00  0.0000E+00  0.0000E+00  0.0000E+00  0.0000E+00  0.0000E+00  0.0000E+00  0.0000E+00  0.0000E+00
     27.125  0.0000E+00  0.0000E+00  0.0000E+00  0.0000E+00  0.0000E+00  0.0000E+00  0.0000E+00  0.0000E+00  0.0000E+00
     27.139  0.0000E+00  0.0000E+00  0.0000E+00  0.0000E+00  0.0000E+00  0.0000E+00  0.0000E+00  0.0000E+00  0.0000E+00
     27.153  0.0000E+00  0.0000E+00  0.0000E+00  0.0000E+00  0.0000E+00  0.0000E+00  0.0000E+00  0.0000E+00  0.0000E+00
     27.167  0.0000E+00  0.0000E+00  0.0000E+00  0.0000E+00  0.0000E+00  0.0000E+00  0.0000E+00  0.0000E+00  0.0000E+00
     27.181  0.0000E+00  0.0000E+00  0.0000E+00  0.0000E+00  0.0000E+00  0.0000E+00  0.0000E+00  0.0000E+00  0.0000E+00
     27.195  0.0000E+00  0.0000E+00  0.0000E+00  0.0000E+00  0.0000E+00  0.0000E+00  0.0000E+00  0.0000E+00  0.0000E+00
     27.209  0.0000E+00  0.0000E+00  0.0000E+00  0.0000E+00  0.0000E+00  0.0000E+00  0.0000E+00  0.0000E+00  0.0000E+00
     27.223  0.0000E+00  0.0000E+00  0.0000E+00  0.0000E+00  0.0000E+00  0.0000E+00  0.0000E+00  0.0000E+00  0.0000E+00
     27.237  0.0000E+00  0.0000E+00  0.0000E+00  0.0000E+00  0.0000E+00  0.0000E+00  0.0000E+00  0.0000E+00  0.0000E+00
     27.251  0.0000E+00  0.0000E+00  0.0000E+00  0.0000E+00  0.0000E+00  0.0000E+00  0.0000E+00  0.0000E+00  0.0000E+00
     27.265  0.0000E+00  0.0000E+00  0.0000E+00  0.0000E+00  0.0000E+00  0.0000E+00  0.0000E+00  0.0000E+00  0.0000E+00
     27.279  0.0000E+00  0.0000E+00  0.0000E+00  0.0000E+00  0.0000E+00  0.0000E+00  0.0000E+00  0.0000E+00  0.0000E+00
     27.293  0.0000E+00  0.0000E+00  0.0000E+00  0.0000E+00  0.0000E+00  0.0000E+00  0.0000E+00  0.0000E+00  0.0000E+00
     27.307  0.0000E+00  0.0000E+00  0.0000E+00  0.0000E+00  0.0000E+00  0.0000E+00  0.0000E+00  0.0000E+00  0.0000E+00
     27.321  0.0000E+00  0.0000E+00  0.0000E+00  0.0000E+00  0.0000E+00  0.0000E+00  0.0000E+00  0.0000E+00  0.0000E+00
     27.335  0.0000E+00  0.0000E+00  0.0000E+00  0.0000E+00  0.0000E+00  0.0000E+00  0.0000E+00  0.0000E+00  0.0000E+00
     27.349  0.0000E+00  0.0000E+00  0.0000E+00  0.0000E+00  0.0000E+00  0.0000E+00  0.0000E+00  0.0000E+00  0.0000E+00
     27.363  0.0000E+00  0.0000E+00  0.0000E+00  0.0000E+00  0.0000E+00  0.0000E+00  0.0000E+00  0.0000E+00  0.0000E+00
     27.377  0.0000E+00  0.0000E+00  0.0000E+00  0.0000E+00  0.0000E+00  0.0000E+00  0.0000E+00  0.0000E+00  0.0000E+00
     27.391  0.0000E+00  0.0000E+00  0.0000E+00  0.0000E+00  0.0000E+00  0.0000E+00  0.0000E+00  0.0000E+00  0.0000E+00
     27.405  0.0000E+00  0.0000E+00  0.0000E+00  0.0000E+00  0.0000E+00  0.0000E+00  0.0000E+00  0.0000E+00  0.0000E+00
     27.419  0.0000E+00  0.0000E+00  0.0000E+00  0.0000E+00  0.0000E+00  0.0000E+00  0.0000E+00  0.0000E+00  0.0000E+00
     27.433  0.0000E+00  0.0000E+00  0.0000E+00  0.0000E+00  0.0000E+00  0.0000E+00  0.0000E+00  0.0000E+00  0.0000E+00
     27.447  0.0000E+00  0.0000E+00  0.0000E+00  0.0000E+00  0.0000E+00  0.0000E+00  0.0000E+00  0.0000E+00  0.0000E+00
     27.461  0.0000E+00  0.0000E+00  0.0000E+00  0.0000E+00  0.0000E+00  0.0000E+00  0.0000E+00  0.0000E+00  0.0000E+00
     27.475  0.0000E+00  0.0000E+00  0.0000E+00  0.0000E+00  0.0000E+00  0.0000E+00  0.0000E+00  0.0000E+00  0.0000E+00
     27.489  0.0000E+00  0.0000E+00  0.0000E+00  0.0000E+00  0.0000E+00  0.0000E+00  0.0000E+00  0.0000E+00  0.0000E+00
     27.503  0.0000E+00  0.0000E+00  0.0000E+00  0.0000E+00  0.0000E+00  0.0000E+00  0.0000E+00  0.0000E+00  0.0000E+00
     27.517  0.0000E+00  0.0000E+00  0.0000E+00  0.0000E+00  0.0000E+00  0.0000E+00  0.0000E+00  0.0000E+00  0.0000E+00
     27.531  0.0000E+00  0.0000E+00  0.0000E+00  0.0000E+00  0.0000E+00  0.0000E+00  0.0000E+00  0.0000E+00  0.0000E+00
     27.545  0.0000E+00  0.0000E+00  0.0000E+00  0.0000E+00  0.0000E+00  0.0000E+00  0.0000E+00  0.0000E+00  0.0000E+00
     27.559  0.0000E+00  0.0000E+00  0.0000E+00  0.0000E+00  0.0000E+00  0.0000E+00  0.0000E+00  0.0000E+00  0.0000E+00
     27.573  0.0000E+00  0.0000E+00  0.0000E+00  0.0000E+00  0.0000E+00  0.0000E+00  0.0000E+00  0.0000E+00  0.0000E+00
     27.587  0.0000E+00  0.0000E+00  0.0000E+00  0.0000E+00  0.0000E+00  0.0000E+00  0.0000E+00  0.0000E+00  0.0000E+00
     27.601  0.0000E+00  0.0000E+00  0.0000E+00  0.0000E+00  0.0000E+00  0.0000E+00  0.0000E+00  0.0000E+00  0.0000E+00
     27.615  0.0000E+00  0.0000E+00  0.0000E+00  0.0000E+00  0.0000E+00  0.0000E+00  0.0000E+00  0.0000E+00  0.0000E+00
     27.629  0.0000E+00  0.0000E+00  0.0000E+00  0.0000E+00  0.0000E+00  0.0000E+00  0.0000E+00  0.0000E+00  0.0000E+00
     27.643  0.0000E+00  0.0000E+00  0.0000E+00  0.0000E+00  0.0000E+00  0.0000E+00  0.0000E+00  0.0000E+00  0.0000E+00
     27.657  0.0000E+00  0.0000E+00  0.0000E+00  0.0000E+00  0.0000E+00  0.0000E+00  0.0000E+00  0.0000E+00  0.0000E+00
     27.671  0.0000E+00  0.0000E+00  0.0000E+00  0.0000E+00  0.0000E+00  0.0000E+00  0.0000E+00  0.0000E+00  0.0000E+00
     27.684  0.0000E+00  0.0000E+00  0.0000E+00  0.0000E+00  0.0000E+00  0.0000E+00  0.0000E+00  0.0000E+00  0.0000E+00
     27.698  0.0000E+00  0.0000E+00  0.0000E+00  0.0000E+00  0.0000E+00  0.0000E+00  0.0000E+00  0.0000E+00  0.0000E+00
     27.712  0.0000E+00  0.0000E+00  0.0000E+00  0.0000E+00  0.0000E+00  0.0000E+00  0.0000E+00  0.0000E+00  0.0000E+00
     27.726  0.0000E+00  0.0000E+00  0.0000E+00  0.0000E+00  0.0000E+00  0.0000E+00  0.0000E+00  0.0000E+00  0.0000E+00
     27.740  0.0000E+00  0.0000E+00  0.0000E+00  0.0000E+00  0.0000E+00  0.0000E+00  0.0000E+00  0.0000E+00  0.0000E+00
     27.754  0.0000E+00  0.0000E+00  0.0000E+00  0.0000E+00  0.0000E+00  0.0000E+00  0.0000E+00  0.0000E+00  0.0000E+00
     27.768  0.0000E+00  0.0000E+00  0.0000E+00  0.0000E+00  0.0000E+00  0.0000E+00  0.0000E+00  0.0000E+00  0.0000E+00
     27.782  0.0000E+00  0.0000E+00  0.0000E+00  0.0000E+00  0.0000E+00  0.0000E+00  0.0000E+00  0.0000E+00  0.0000E+00
     27.796  0.0000E+00  0.0000E+00  0.0000E+00  0.0000E+00  0.0000E+00  0.0000E+00  0.0000E+00  0.0000E+00  0.0000E+00
     27.810  0.0000E+00  0.0000E+00  0.0000E+00  0.0000E+00  0.0000E+00  0.0000E+00  0.0000E+00  0.0000E+00  0.0000E+00
     27.824  0.0000E+00  0.0000E+00  0.0000E+00  0.0000E+00  0.0000E+00  0.0000E+00  0.0000E+00  0.0000E+00  0.0000E+00
     27.838  0.0000E+00  0.0000E+00  0.0000E+00  0.0000E+00  0.0000E+00  0.0000E+00  0.0000E+00  0.0000E+00  0.0000E+00
     27.852  0.0000E+00  0.0000E+00  0.0000E+00  0.0000E+00  0.0000E+00  0.0000E+00  0.0000E+00  0.0000E+00  0.0000E+00
     27.866  0.0000E+00  0.0000E+00  0.0000E+00  0.0000E+00  0.0000E+00  0.0000E+00  0.0000E+00  0.0000E+00  0.0000E+00
     27.880  0.0000E+00  0.0000E+00  0.0000E+00  0.0000E+00  0.0000E+00  0.0000E+00  0.0000E+00  0.0000E+00  0.0000E+00
     27.894  0.0000E+00  0.0000E+00  0.0000E+00  0.0000E+00  0.0000E+00  0.0000E+00  0.0000E+00  0.0000E+00  0.0000E+00
     27.908  0.0000E+00  0.0000E+00  0.0000E+00  0.0000E+00  0.0000E+00  0.0000E+00  0.0000E+00  0.0000E+00  0.0000E+00
     27.922  0.0000E+00  0.0000E+00  0.0000E+00  0.0000E+00  0.0000E+00  0.0000E+00  0.0000E+00  0.0000E+00  0.0000E+00
     27.936  0.0000E+00  0.0000E+00  0.0000E+00  0.0000E+00  0.0000E+00  0.0000E+00  0.0000E+00  0.0000E+00  0.0000E+00
     27.950  0.0000E+00  0.0000E+00  0.0000E+00  0.0000E+00  0.0000E+00  0.0000E+00  0.0000E+00  0.0000E+00  0.0000E+00
     27.964  0.0000E+00  0.0000E+00  0.0000E+00  0.0000E+00  0.0000E+00  0.0000E+00  0.0000E+00  0.0000E+00  0.0000E+00
     27.978  0.0000E+00  0.0000E+00  0.0000E+00  0.0000E+00  0.0000E+00  0.0000E+00  0.0000E+00  0.0000E+00  0.0000E+00
     27.992  0.0000E+00  0.0000E+00  0.0000E+00  0.0000E+00  0.0000E+00  0.0000E+00  0.0000E+00  0.0000E+00  0.0000E+00
     28.006  0.0000E+00  0.0000E+00  0.0000E+00  0.0000E+00  0.0000E+00  0.0000E+00  0.0000E+00  0.0000E+00  0.0000E+00
     28.020  0.0000E+00  0.0000E+00  0.0000E+00  0.0000E+00  0.0000E+00  0.0000E+00  0.0000E+00  0.0000E+00  0.0000E+00
     28.034  0.0000E+00  0.0000E+00  0.0000E+00  0.0000E+00  0.0000E+00  0.0000E+00  0.0000E+00  0.0000E+00  0.0000E+00
     28.048  0.0000E+00  0.0000E+00  0.0000E+00  0.0000E+00  0.0000E+00  0.0000E+00  0.0000E+00  0.0000E+00  0.0000E+00
     28.062  0.0000E+00  0.0000E+00  0.0000E+00  0.0000E+00  0.0000E+00  0.0000E+00  0.0000E+00  0.0000E+00  0.0000E+00
     28.076  0.0000E+00  0.0000E+00  0.0000E+00  0.0000E+00  0.0000E+00  0.0000E+00  0.0000E+00  0.0000E+00  0.0000E+00
     28.090  0.0000E+00  0.0000E+00  0.0000E+00  0.0000E+00  0.0000E+00  0.0000E+00  0.0000E+00  0.0000E+00  0.0000E+00
     28.104  0.0000E+00  0.0000E+00  0.0000E+00  0.0000E+00  0.0000E+00  0.0000E+00  0.0000E+00  0.0000E+00  0.0000E+00
     28.118  0.0000E+00  0.0000E+00  0.0000E+00  0.0000E+00  0.0000E+00  0.0000E+00  0.0000E+00  0.0000E+00  0.0000E+00
     28.132  0.0000E+00  0.0000E+00  0.0000E+00  0.0000E+00  0.0000E+00  0.0000E+00  0.0000E+00  0.0000E+00  0.0000E+00
     28.146  0.0000E+00  0.0000E+00  0.0000E+00  0.0000E+00  0.0000E+00  0.0000E+00  0.0000E+00  0.0000E+00  0.0000E+00
     28.160  0.0000E+00  0.0000E+00  0.0000E+00  0.0000E+00  0.0000E+00  0.0000E+00  0.0000E+00  0.0000E+00  0.0000E+00
     28.174  0.0000E+00  0.0000E+00  0.0000E+00  0.0000E+00  0.0000E+00  0.0000E+00  0.0000E+00  0.0000E+00  0.0000E+00
     28.188  0.0000E+00  0.0000E+00  0.0000E+00  0.0000E+00  0.0000E+00  0.0000E+00  0.0000E+00  0.0000E+00  0.0000E+00
     28.202  0.0000E+00  0.0000E+00  0.0000E+00  0.0000E+00  0.0000E+00  0.0000E+00  0.0000E+00  0.0000E+00  0.0000E+00
     28.216  0.0000E+00  0.0000E+00  0.0000E+00  0.0000E+00  0.0000E+00  0.0000E+00  0.0000E+00  0.0000E+00  0.0000E+00
     28.230  0.0000E+00  0.0000E+00  0.0000E+00  0.0000E+00  0.0000E+00  0.0000E+00  0.0000E+00  0.0000E+00  0.0000E+00
     28.244  0.0000E+00  0.0000E+00  0.0000E+00  0.0000E+00  0.0000E+00  0.0000E+00  0.0000E+00  0.0000E+00  0.0000E+00
     28.258  0.0000E+00  0.0000E+00  0.0000E+00  0.0000E+00  0.0000E+00  0.0000E+00  0.0000E+00  0.0000E+00  0.0000E+00
     28.272  0.0000E+00  0.0000E+00  0.0000E+00  0.0000E+00  0.0000E+00  0.0000E+00  0.0000E+00  0.0000E+00  0.0000E+00
