PROCAR lm decomposed
# of k-points:   47         # of bands:    8         # of ions:    2

 k-point     1 :    0.00000000 0.00000000 0.00000000     weight = 0.00100000

band     1 # energy  -11.75288783 # occ.  2.00000000
 
ion      s     py     pz     px    dxy    dyz    dz2    dxz  x2-y2    tot
    1  0.276  0.000  0.000  0.000  0.000  0.000  0.000  0.000  0.000  0.276
    2  0.276  0.000  0.000  0.000  0.000  0.000  0.000  0.000  0.000  0.276
tot    0.552  0.000  0.000  0.000  0.000  0.000  0.000  0.000  0.000  0.552
 
band     2 # energy    9.64590951 # occ.  2.00000000
 
ion      s     py     pz     px    dxy    dyz    dz2    dxz  x2-y2    tot
    1  0.000  0.084  0.042  0.251  0.000  0.000  0.000  0.000  0.000  0.376
    2  0.000  0.084  0.042  0.251  0.000  0.000  0.000  0.000  0.000  0.376
tot    0.000  0.167  0.084  0.501  0.000  0.000  0.000  0.000  0.000  0.752
 
band     3 # energy    9.64596381 # occ.  2.00000000
 
ion      s     py     pz     px    dxy    dyz    dz2    dxz  x2-y2    tot
    1  0.000  0.281  0.000  0.095  0.000  0.000  0.000  0.000  0.000  0.376
    2  0.000  0.281  0.000  0.095  0.000  0.000  0.000  0.000  0.000  0.376
tot    0.000  0.562  0.000  0.190  0.000  0.000  0.000  0.000  0.000  0.752
 
band     4 # energy    9.64596382 # occ.  2.00000000
 
ion      s     py     pz     px    dxy    dyz    dz2    dxz  x2-y2    tot
    1  0.000  0.011  0.334  0.030  0.000  0.000  0.000  0.000  0.000  0.376
    2  0.000  0.011  0.334  0.030  0.000  0.000  0.000  0.000  0.000  0.376
tot    0.000  0.023  0.668  0.061  0.000  0.000  0.000  0.000  0.000  0.752
 
band     5 # energy   15.22043755 # occ.  0.00000000
 
ion      s     py     pz     px    dxy    dyz    dz2    dxz  x2-y2    tot
    1  0.000  0.066  0.033  0.197  0.000  0.000  0.000  0.000  0.000  0.296
    2  0.000  0.066  0.033  0.197  0.000  0.000  0.000  0.000  0.000  0.296
tot    0.000  0.132  0.066  0.395  0.000  0.000  0.000  0.000  0.000  0.592
 
band     6 # energy   15.22050993 # occ.  0.00000000
 
ion      s     py     pz     px    dxy    dyz    dz2    dxz  x2-y2    tot
    1  0.000  0.210  0.058  0.028  0.000  0.000  0.000  0.000  0.000  0.296
    2  0.000  0.210  0.058  0.028  0.000  0.000  0.000  0.000  0.000  0.296
tot    0.000  0.421  0.117  0.055  0.000  0.000  0.000  0.000  0.000  0.592
 
band     7 # energy   15.22050993 # occ.  0.00000000
 
ion      s     py     pz     px    dxy    dyz    dz2    dxz  x2-y2    tot
    1  0.000  0.020  0.205  0.071  0.000  0.000  0.000  0.000  0.000  0.296
    2  0.000  0.020  0.205  0.071  0.000  0.000  0.000  0.000  0.000  0.296
tot    0.000  0.040  0.410  0.142  0.000  0.000  0.000  0.000  0.000  0.592
 
band     8 # energy   22.84399802 # occ.  0.00000000
 
ion      s     py     pz     px    dxy    dyz    dz2    dxz  x2-y2    tot
    1  0.399  0.000  0.000  0.000  0.000  0.000  0.000  0.000  0.000  0.399
    2  0.399  0.000  0.000  0.000  0.000  0.000  0.000  0.000  0.000  0.399
tot    0.799  0.000  0.000  0.000  0.000  0.000  0.000  0.000  0.000  0.799
 

 k-point     2 :    0.10000000 0.00000000 0.00000000     weight = 0.00800000

band     1 # energy  -11.47727234 # occ.  2.00000000
 
ion      s     py     pz     px    dxy    dyz    dz2    dxz  x2-y2    tot
    1  0.273  0.001  0.000  0.002  0.000  0.000  0.000  0.000  0.000  0.277
    2  0.273  0.001  0.000  0.002  0.000  0.000  0.000  0.000  0.000  0.277
tot    0.547  0.002  0.001  0.005  0.000  0.000  0.000  0.000  0.000  0.554
 
band     2 # energy    7.97778337 # occ.  2.00000000
 
ion      s     py     pz     px    dxy    dyz    dz2    dxz  x2-y2    tot
    1  0.022  0.074  0.037  0.221  0.000  0.000  0.000  0.000  0.000  0.354
    2  0.022  0.074  0.037  0.221  0.000  0.000  0.000  0.000  0.000  0.354
tot    0.045  0.147  0.074  0.442  0.000  0.000  0.000  0.000  0.000  0.708
 
band     3 # energy    9.20227460 # occ.  2.00000000
 
ion      s     py     pz     px    dxy    dyz    dz2    dxz  x2-y2    tot
    1  0.000  0.164  0.082  0.123  0.000  0.000  0.000  0.000  0.000  0.370
    2  0.000  0.164  0.082  0.123  0.000  0.000  0.000  0.000  0.000  0.370
tot    0.000  0.329  0.164  0.247  0.000  0.000  0.000  0.000  0.000  0.740
 
band     4 # energy    9.20232138 # occ.  2.00000000
 
ion      s     py     pz     px    dxy    dyz    dz2    dxz  x2-y2    tot
    1  0.000  0.123  0.247  0.000  0.000  0.000  0.000  0.000  0.000  0.370
    2  0.000  0.123  0.247  0.000  0.000  0.000  0.000  0.000  0.000  0.370
tot    0.000  0.247  0.493  0.000  0.000  0.000  0.000  0.000  0.000  0.740
 
band     5 # energy   15.80277879 # occ.  0.00000000
 
ion      s     py     pz     px    dxy    dyz    dz2    dxz  x2-y2    tot
    1  0.000  0.135  0.068  0.101  0.000  0.000  0.000  0.000  0.000  0.304
    2  0.000  0.135  0.068  0.101  0.000  0.000  0.000  0.000  0.000  0.304
tot    0.000  0.270  0.135  0.202  0.000  0.000  0.000  0.000  0.000  0.607
 
band     6 # energy   15.80284753 # occ.  0.00000000
 
ion      s     py     pz     px    dxy    dyz    dz2    dxz  x2-y2    tot
    1  0.000  0.101  0.202  0.000  0.000  0.000  0.000  0.000  0.000  0.304
    2  0.000  0.101  0.202  0.000  0.000  0.000  0.000  0.000  0.000  0.304
tot    0.000  0.202  0.405  0.000  0.000  0.000  0.000  0.000  0.000  0.607
 
band     7 # energy   16.15407525 # occ.  0.00000000
 
ion      s     py     pz     px    dxy    dyz    dz2    dxz  x2-y2    tot
    1  0.023  0.063  0.032  0.190  0.000  0.000  0.000  0.000  0.000  0.308
    2  0.023  0.063  0.032  0.190  0.000  0.000  0.000  0.000  0.000  0.308
tot    0.047  0.127  0.063  0.380  0.000  0.000  0.000  0.000  0.000  0.616
 
band     8 # energy   23.08751119 # occ.  0.00000000
 
ion      s     py     pz     px    dxy    dyz    dz2    dxz  x2-y2    tot
    1  0.357  0.009  0.004  0.026  0.000  0.000  0.000  0.000  0.000  0.395
    2  0.357  0.009  0.004  0.026  0.000  0.000  0.000  0.000  0.000  0.395
tot    0.714  0.017  0.009  0.051  0.000  0.000  0.000  0.000  0.000  0.791
 

 k-point     3 :    0.20000000 0.00000000 0.00000000     weight = 0.00800000

band     1 # energy  -10.65513801 # occ.  2.00000000
 
ion      s     py     pz     px    dxy    dyz    dz2    dxz  x2-y2    tot
    1  0.267  0.003  0.002  0.010  0.000  0.000  0.000  0.000  0.000  0.281
    2  0.267  0.003  0.002  0.010  0.000  0.000  0.000  0.000  0.000  0.281
tot    0.533  0.006  0.003  0.019  0.000  0.000  0.000  0.000  0.000  0.562
 
band     2 # energy    4.78582309 # occ.  2.00000000
 
ion      s     py     pz     px    dxy    dyz    dz2    dxz  x2-y2    tot
    1  0.060  0.060  0.030  0.179  0.000  0.000  0.000  0.000  0.000  0.330
    2  0.060  0.060  0.030  0.179  0.000  0.000  0.000  0.000  0.000  0.330
tot    0.121  0.120  0.060  0.359  0.000  0.000  0.000  0.000  0.000  0.659
 
band     3 # energy    8.33097052 # occ.  2.00000000
 
ion      s     py     pz     px    dxy    dyz    dz2    dxz  x2-y2    tot
    1  0.000  0.162  0.081  0.121  0.000  0.000  0.000  0.000  0.000  0.364
    2  0.000  0.162  0.081  0.121  0.000  0.000  0.000  0.000  0.000  0.364
tot    0.000  0.323  0.162  0.242  0.000  0.000  0.000  0.000  0.000  0.727
 
band     4 # energy    8.33101374 # occ.  2.00000000
 
ion      s     py     pz     px    dxy    dyz    dz2    dxz  x2-y2    tot
    1  0.000  0.121  0.242  0.000  0.000  0.000  0.000  0.000  0.000  0.364
    2  0.000  0.121  0.242  0.000  0.000  0.000  0.000  0.000  0.000  0.364
tot    0.000  0.243  0.485  0.000  0.000  0.000  0.000  0.000  0.000  0.727
 
band     5 # energy   16.92766424 # occ.  0.00000000
 
ion      s     py     pz     px    dxy    dyz    dz2    dxz  x2-y2    tot
    1  0.000  0.137  0.069  0.103  0.000  0.000  0.000  0.000  0.000  0.308
    2  0.000  0.137  0.069  0.103  0.000  0.000  0.000  0.000  0.000  0.308
tot    0.000  0.274  0.137  0.206  0.000  0.000  0.000  0.000  0.000  0.617
 
band     6 # energy   16.92773858 # occ.  0.00000000
 
ion      s     py     pz     px    dxy    dyz    dz2    dxz  x2-y2    tot
    1  0.000  0.103  0.205  0.000  0.000  0.000  0.000  0.000  0.000  0.308
    2  0.000  0.103  0.205  0.000  0.000  0.000  0.000  0.000  0.000  0.308
tot    0.000  0.206  0.411  0.000  0.000  0.000  0.000  0.000  0.000  0.617
 
band     7 # energy   17.34247266 # occ.  0.00000000
 
ion      s     py     pz     px    dxy    dyz    dz2    dxz  x2-y2    tot
    1  0.108  0.045  0.023  0.136  0.000  0.000  0.000  0.000  0.000  0.311
    2  0.108  0.045  0.023  0.136  0.000  0.000  0.000  0.000  0.000  0.311
tot    0.216  0.090  0.045  0.271  0.000  0.000  0.000  0.000  0.000  0.623
 
band     8 # energy   23.76371639 # occ.  0.00000000
 
ion      s     py     pz     px    dxy    dyz    dz2    dxz  x2-y2    tot
    1  0.239  0.031  0.015  0.092  0.000  0.000  0.000  0.000  0.000  0.378
    2  0.239  0.031  0.015  0.092  0.000  0.000  0.000  0.000  0.000  0.378
tot    0.479  0.062  0.031  0.185  0.000  0.000  0.000  0.000  0.000  0.756
 

 k-point     4 :    0.30000000 0.00000000 0.00000000     weight = 0.00800000

band     1 # energy   -9.30698976 # occ.  2.00000000
 
ion      s     py     pz     px    dxy    dyz    dz2    dxz  x2-y2    tot
    1  0.257  0.007  0.003  0.020  0.000  0.000  0.000  0.000  0.000  0.287
    2  0.257  0.007  0.003  0.020  0.000  0.000  0.000  0.000  0.000  0.287
tot    0.514  0.013  0.007  0.040  0.000  0.000  0.000  0.000  0.000  0.575
 
band     2 # energy    1.40138018 # occ.  2.00000000
 
ion      s     py     pz     px    dxy    dyz    dz2    dxz  x2-y2    tot
    1  0.095  0.048  0.024  0.144  0.000  0.000  0.000  0.000  0.000  0.311
    2  0.095  0.048  0.024  0.144  0.000  0.000  0.000  0.000  0.000  0.311
tot    0.189  0.096  0.048  0.288  0.000  0.000  0.000  0.000  0.000  0.621
 
band     3 # energy    7.54429240 # occ.  2.00000000
 
ion      s     py     pz     px    dxy    dyz    dz2    dxz  x2-y2    tot
    1  0.000  0.161  0.080  0.121  0.000  0.000  0.000  0.000  0.000  0.362
    2  0.000  0.161  0.080  0.121  0.000  0.000  0.000  0.000  0.000  0.362
tot    0.000  0.322  0.161  0.241  0.000  0.000  0.000  0.000  0.000  0.724
 
band     4 # energy    7.54433251 # occ.  2.00000000
 
ion      s     py     pz     px    dxy    dyz    dz2    dxz  x2-y2    tot
    1  0.000  0.121  0.241  0.000  0.000  0.000  0.000  0.000  0.000  0.362
    2  0.000  0.121  0.241  0.000  0.000  0.000  0.000  0.000  0.000  0.362
tot    0.000  0.241  0.483  0.000  0.000  0.000  0.000  0.000  0.000  0.724
 
band     5 # energy   17.74904573 # occ.  0.00000000
 
ion      s     py     pz     px    dxy    dyz    dz2    dxz  x2-y2    tot
    1  0.000  0.131  0.065  0.098  0.000  0.000  0.000  0.000  0.000  0.294
    2  0.000  0.131  0.065  0.098  0.000  0.000  0.000  0.000  0.000  0.294
tot    0.000  0.262  0.131  0.196  0.000  0.000  0.000  0.000  0.000  0.589
 
band     6 # energy   17.74912149 # occ.  0.00000000
 
ion      s     py     pz     px    dxy    dyz    dz2    dxz  x2-y2    tot
    1  0.000  0.098  0.196  0.000  0.000  0.000  0.000  0.000  0.000  0.294
    2  0.000  0.098  0.196  0.000  0.000  0.000  0.000  0.000  0.000  0.294
tot    0.000  0.196  0.392  0.000  0.000  0.000  0.000  0.000  0.000  0.589
 
band     7 # energy   18.01379425 # occ.  0.00000000
 
ion      s     py     pz     px    dxy    dyz    dz2    dxz  x2-y2    tot
    1  0.207  0.023  0.012  0.069  0.000  0.000  0.000  0.000  0.000  0.311
    2  0.207  0.023  0.012  0.069  0.000  0.000  0.000  0.000  0.000  0.311
tot    0.414  0.046  0.023  0.139  0.000  0.000  0.000  0.000  0.000  0.622
 
band     8 # energy   24.59250254 # occ.  0.00000000
 
ion      s     py     pz     px    dxy    dyz    dz2    dxz  x2-y2    tot
    1  0.105  0.051  0.026  0.154  0.000  0.000  0.000  0.000  0.000  0.336
    2  0.105  0.051  0.026  0.154  0.000  0.000  0.000  0.000  0.000  0.336
tot    0.209  0.103  0.051  0.309  0.000  0.000  0.000  0.000  0.000  0.672
 

 k-point     5 :    0.40000000 0.00000000 0.00000000     weight = 0.00800000

band     1 # energy   -7.50597052 # occ.  2.00000000
 
ion      s     py     pz     px    dxy    dyz    dz2    dxz  x2-y2    tot
    1  0.254  0.010  0.005  0.030  0.000  0.000  0.000  0.000  0.000  0.300
    2  0.254  0.010  0.005  0.030  0.000  0.000  0.000  0.000  0.000  0.300
tot    0.508  0.020  0.010  0.061  0.000  0.000  0.000  0.000  0.000  0.599
 
band     2 # energy   -1.71492712 # occ.  2.00000000
 
ion      s     py     pz     px    dxy    dyz    dz2    dxz  x2-y2    tot
    1  0.113  0.040  0.020  0.120  0.000  0.000  0.000  0.000  0.000  0.292
    2  0.113  0.040  0.020  0.120  0.000  0.000  0.000  0.000  0.000  0.292
tot    0.226  0.080  0.040  0.239  0.000  0.000  0.000  0.000  0.000  0.585
 
band     3 # energy    7.03484776 # occ.  2.00000000
 
ion      s     py     pz     px    dxy    dyz    dz2    dxz  x2-y2    tot
    1  0.000  0.161  0.080  0.121  0.000  0.000  0.000  0.000  0.000  0.362
    2  0.000  0.161  0.080  0.121  0.000  0.000  0.000  0.000  0.000  0.362
tot    0.000  0.322  0.161  0.241  0.000  0.000  0.000  0.000  0.000  0.724
 
band     4 # energy    7.03488564 # occ.  2.00000000
 
ion      s     py     pz     px    dxy    dyz    dz2    dxz  x2-y2    tot
    1  0.000  0.121  0.241  0.000  0.000  0.000  0.000  0.000  0.000  0.362
    2  0.000  0.121  0.241  0.000  0.000  0.000  0.000  0.000  0.000  0.362
tot    0.000  0.241  0.483  0.000  0.000  0.000  0.000  0.000  0.000  0.724
 
band     5 # energy   18.04159113 # occ.  0.00000000
 
ion      s     py     pz     px    dxy    dyz    dz2    dxz  x2-y2    tot
    1  0.000  0.121  0.060  0.090  0.000  0.000  0.000  0.000  0.000  0.271
    2  0.000  0.121  0.060  0.090  0.000  0.000  0.000  0.000  0.000  0.271
tot    0.000  0.241  0.121  0.181  0.000  0.000  0.000  0.000  0.000  0.543
 
band     6 # energy   18.04166065 # occ.  0.00000000
 
ion      s     py     pz     px    dxy    dyz    dz2    dxz  x2-y2    tot
    1  0.000  0.091  0.181  0.000  0.000  0.000  0.000  0.000  0.000  0.271
    2  0.000  0.091  0.181  0.000  0.000  0.000  0.000  0.000  0.000  0.271
tot    0.000  0.181  0.362  0.000  0.000  0.000  0.000  0.000  0.000  0.543
 
band     7 # energy   18.32391080 # occ.  0.00000000
 
ion      s     py     pz     px    dxy    dyz    dz2    dxz  x2-y2    tot
    1  0.273  0.009  0.004  0.026  0.000  0.000  0.000  0.000  0.000  0.312
    2  0.273  0.009  0.004  0.026  0.000  0.000  0.000  0.000  0.000  0.312
tot    0.545  0.017  0.009  0.052  0.000  0.000  0.000  0.000  0.000  0.624
 
band     8 # energy   25.14431745 # occ.  0.00000000
 
ion      s     py     pz     px    dxy    dyz    dz2    dxz  x2-y2    tot
    1  0.022  0.057  0.029  0.172  0.000  0.000  0.000  0.000  0.000  0.279
    2  0.022  0.057  0.029  0.172  0.000  0.000  0.000  0.000  0.000  0.279
tot    0.043  0.114  0.057  0.343  0.000  0.000  0.000  0.000  0.000  0.558
 

 k-point     6 :    0.50000000 0.00000000 0.00000000     weight = 0.00400000

band     1 # energy   -6.01059561 # occ.  2.00000000
 
ion      s     py     pz     px    dxy    dyz    dz2    dxz  x2-y2    tot
    1  0.293  0.007  0.003  0.021  0.000  0.000  0.000  0.000  0.000  0.324
    2  0.293  0.007  0.003  0.021  0.000  0.000  0.000  0.000  0.000  0.324
tot    0.585  0.014  0.007  0.042  0.000  0.000  0.000  0.000  0.000  0.648
 
band     2 # energy   -3.66166606 # occ.  2.00000000
 
ion      s     py     pz     px    dxy    dyz    dz2    dxz  x2-y2    tot
    1  0.080  0.041  0.021  0.124  0.000  0.000  0.000  0.000  0.000  0.266
    2  0.080  0.041  0.021  0.124  0.000  0.000  0.000  0.000  0.000  0.266
tot    0.159  0.083  0.041  0.249  0.000  0.000  0.000  0.000  0.000  0.532
 
band     3 # energy    6.86094391 # occ.  2.00000000
 
ion      s     py     pz     px    dxy    dyz    dz2    dxz  x2-y2    tot
    1  0.000  0.161  0.081  0.121  0.000  0.000  0.000  0.000  0.000  0.362
    2  0.000  0.161  0.081  0.121  0.000  0.000  0.000  0.000  0.000  0.362
tot    0.000  0.322  0.161  0.242  0.000  0.000  0.000  0.000  0.000  0.725
 
band     4 # energy    6.86098055 # occ.  2.00000000
 
ion      s     py     pz     px    dxy    dyz    dz2    dxz  x2-y2    tot
    1  0.000  0.121  0.242  0.000  0.000  0.000  0.000  0.000  0.000  0.362
    2  0.000  0.121  0.242  0.000  0.000  0.000  0.000  0.000  0.000  0.362
tot    0.000  0.242  0.483  0.000  0.000  0.000  0.000  0.000  0.000  0.725
 
band     5 # energy   18.08088328 # occ.  0.00000000
 
ion      s     py     pz     px    dxy    dyz    dz2    dxz  x2-y2    tot
    1  0.000  0.116  0.058  0.087  0.000  0.000  0.000  0.000  0.000  0.261
    2  0.000  0.116  0.058  0.087  0.000  0.000  0.000  0.000  0.000  0.261
tot    0.000  0.232  0.116  0.174  0.000  0.000  0.000  0.000  0.000  0.522
 
band     6 # energy   18.08095171 # occ.  0.00000000
 
ion      s     py     pz     px    dxy    dyz    dz2    dxz  x2-y2    tot
    1  0.000  0.087  0.174  0.000  0.000  0.000  0.000  0.000  0.000  0.261
    2  0.000  0.087  0.174  0.000  0.000  0.000  0.000  0.000  0.000  0.261
tot    0.000  0.174  0.348  0.000  0.000  0.000  0.000  0.000  0.000  0.522
 
band     7 # energy   18.41460668 # occ.  0.00000000
 
ion      s     py     pz     px    dxy    dyz    dz2    dxz  x2-y2    tot
    1  0.294  0.004  0.002  0.012  0.000  0.000  0.000  0.000  0.000  0.312
    2  0.294  0.004  0.002  0.012  0.000  0.000  0.000  0.000  0.000  0.312
tot    0.588  0.008  0.004  0.024  0.000  0.000  0.000  0.000  0.000  0.624
 
band     8 # energy   25.29809013 # occ.  0.00000000
 
ion      s     py     pz     px    dxy    dyz    dz2    dxz  x2-y2    tot
    1  0.001  0.056  0.028  0.168  0.000  0.000  0.000  0.000  0.000  0.252
    2  0.001  0.056  0.028  0.168  0.000  0.000  0.000  0.000  0.000  0.252
tot    0.002  0.112  0.056  0.335  0.000  0.000  0.000  0.000  0.000  0.505
 

 k-point     7 :    0.10000000 0.10000000 0.00000000     weight = 0.00600000

band     1 # energy  -11.38548654 # occ.  2.00000000
 
ion      s     py     pz     px    dxy    dyz    dz2    dxz  x2-y2    tot
    1  0.272  0.001  0.002  0.002  0.000  0.000  0.000  0.000  0.000  0.277
    2  0.272  0.001  0.002  0.002  0.000  0.000  0.000  0.000  0.000  0.277
tot    0.545  0.002  0.003  0.005  0.000  0.000  0.000  0.000  0.000  0.555
 
band     2 # energy    8.42763542 # occ.  2.00000000
 
ion      s     py     pz     px    dxy    dyz    dz2    dxz  x2-y2    tot
    1  0.000  0.030  0.238  0.089  0.000  0.000  0.000  0.000  0.000  0.357
    2  0.000  0.030  0.238  0.089  0.000  0.000  0.000  0.000  0.000  0.357
tot    0.000  0.059  0.476  0.178  0.000  0.000  0.000  0.000  0.000  0.714
 
band     3 # energy    8.42766845 # occ.  2.00000000
 
ion      s     py     pz     px    dxy    dyz    dz2    dxz  x2-y2    tot
    1  0.000  0.268  0.000  0.089  0.000  0.000  0.000  0.000  0.000  0.357
    2  0.000  0.268  0.000  0.089  0.000  0.000  0.000  0.000  0.000  0.357
tot    0.000  0.535  0.000  0.178  0.000  0.000  0.000  0.000  0.000  0.714
 
band     4 # energy    8.77431860 # occ.  2.00000000
 
ion      s     py     pz     px    dxy    dyz    dz2    dxz  x2-y2    tot
    1  0.034  0.057  0.114  0.170  0.000  0.000  0.000  0.000  0.000  0.375
    2  0.034  0.057  0.114  0.170  0.000  0.000  0.000  0.000  0.000  0.375
tot    0.068  0.114  0.227  0.341  0.000  0.000  0.000  0.000  0.000  0.749
 
band     5 # energy   14.94472934 # occ.  0.00000000
 
ion      s     py     pz     px    dxy    dyz    dz2    dxz  x2-y2    tot
    1  0.019  0.044  0.088  0.132  0.000  0.000  0.000  0.000  0.000  0.284
    2  0.019  0.044  0.088  0.132  0.000  0.000  0.000  0.000  0.000  0.284
tot    0.039  0.088  0.176  0.264  0.000  0.000  0.000  0.000  0.000  0.567
 
band     6 # energy   16.75195176 # occ.  0.00000000
 
ion      s     py     pz     px    dxy    dyz    dz2    dxz  x2-y2    tot
    1  0.000  0.027  0.212  0.080  0.000  0.000  0.000  0.000  0.000  0.318
    2  0.000  0.027  0.212  0.080  0.000  0.000  0.000  0.000  0.000  0.318
tot    0.000  0.053  0.424  0.159  0.000  0.000  0.000  0.000  0.000  0.637
 
band     7 # energy   16.75200842 # occ.  0.00000000
 
ion      s     py     pz     px    dxy    dyz    dz2    dxz  x2-y2    tot
    1  0.000  0.239  0.000  0.080  0.000  0.000  0.000  0.000  0.000  0.318
    2  0.000  0.239  0.000  0.080  0.000  0.000  0.000  0.000  0.000  0.318
tot    0.000  0.477  0.000  0.159  0.000  0.000  0.000  0.000  0.000  0.637
 
band     8 # energy   22.96532576 # occ.  0.00000000
 
ion      s     py     pz     px    dxy    dyz    dz2    dxz  x2-y2    tot
    1  0.340  0.007  0.014  0.021  0.000  0.000  0.000  0.000  0.000  0.382
    2  0.340  0.007  0.014  0.021  0.000  0.000  0.000  0.000  0.000  0.382
tot    0.680  0.014  0.028  0.041  0.000  0.000  0.000  0.000  0.000  0.763
 

 k-point     8 :    0.20000000 0.10000000 0.00000000     weight = 0.02400000

band     1 # energy  -10.74561039 # occ.  2.00000000
 
ion      s     py     pz     px    dxy    dyz    dz2    dxz  x2-y2    tot
    1  0.267  0.000  0.004  0.010  0.000  0.000  0.000  0.000  0.000  0.280
    2  0.267  0.000  0.004  0.010  0.000  0.000  0.000  0.000  0.000  0.280
tot    0.534  0.000  0.007  0.019  0.000  0.000  0.000  0.000  0.000  0.561
 
band     2 # energy    5.89570944 # occ.  2.00000000
 
ion      s     py     pz     px    dxy    dyz    dz2    dxz  x2-y2    tot
    1  0.047  0.080  0.028  0.185  0.000  0.000  0.000  0.000  0.000  0.340
    2  0.047  0.080  0.028  0.185  0.000  0.000  0.000  0.000  0.000  0.340
tot    0.094  0.161  0.056  0.370  0.000  0.000  0.000  0.000  0.000  0.680
 
band     3 # energy    7.46586807 # occ.  2.00000000
 
ion      s     py     pz     px    dxy    dyz    dz2    dxz  x2-y2    tot
    1  0.000  0.029  0.233  0.087  0.000  0.000  0.000  0.000  0.000  0.349
    2  0.000  0.029  0.233  0.087  0.000  0.000  0.000  0.000  0.000  0.349
tot    0.000  0.058  0.466  0.175  0.000  0.000  0.000  0.000  0.000  0.699
 
band     4 # energy    8.31299840 # occ.  2.00000000
 
ion      s     py     pz     px    dxy    dyz    dz2    dxz  x2-y2    tot
    1  0.024  0.225  0.079  0.041  0.000  0.000  0.000  0.000  0.000  0.369
    2  0.024  0.225  0.079  0.041  0.000  0.000  0.000  0.000  0.000  0.369
tot    0.048  0.450  0.158  0.081  0.000  0.000  0.000  0.000  0.000  0.737
 
band     5 # energy   15.36717154 # occ.  0.00000000
 
ion      s     py     pz     px    dxy    dyz    dz2    dxz  x2-y2    tot
    1  0.029  0.112  0.073  0.068  0.000  0.000  0.000  0.000  0.000  0.282
    2  0.029  0.112  0.073  0.068  0.000  0.000  0.000  0.000  0.000  0.282
tot    0.057  0.224  0.146  0.137  0.000  0.000  0.000  0.000  0.000  0.564
 
band     6 # energy   18.03503809 # occ.  0.00000000
 
ion      s     py     pz     px    dxy    dyz    dz2    dxz  x2-y2    tot
    1  0.039  0.200  0.001  0.087  0.000  0.000  0.000  0.000  0.000  0.326
    2  0.039  0.200  0.001  0.087  0.000  0.000  0.000  0.000  0.000  0.326
tot    0.077  0.399  0.002  0.174  0.000  0.000  0.000  0.000  0.000  0.652
 
band     7 # energy   18.06722779 # occ.  0.00000000
 
ion      s     py     pz     px    dxy    dyz    dz2    dxz  x2-y2    tot
    1  0.000  0.027  0.218  0.082  0.000  0.000  0.000  0.000  0.000  0.327
    2  0.000  0.027  0.218  0.082  0.000  0.000  0.000  0.000  0.000  0.327
tot    0.000  0.055  0.436  0.164  0.000  0.000  0.000  0.000  0.000  0.654
 
band     8 # energy   22.91701846 # occ.  0.00000000
 
ion      s     py     pz     px    dxy    dyz    dz2    dxz  x2-y2    tot
    1  0.239  0.001  0.022  0.069  0.000  0.000  0.000  0.000  0.000  0.330
    2  0.239  0.001  0.022  0.069  0.000  0.000  0.000  0.000  0.000  0.330
tot    0.478  0.003  0.044  0.137  0.000  0.000  0.000  0.000  0.000  0.661
 

 k-point     9 :    0.30000000 0.10000000 0.00000000     weight = 0.02400000

band     1 # energy   -9.57221290 # occ.  2.00000000
 
ion      s     py     pz     px    dxy    dyz    dz2    dxz  x2-y2    tot
    1  0.258  0.001  0.006  0.021  0.000  0.000  0.000  0.000  0.000  0.286
    2  0.258  0.001  0.006  0.021  0.000  0.000  0.000  0.000  0.000  0.286
tot    0.516  0.002  0.012  0.041  0.000  0.000  0.000  0.000  0.000  0.572
 
band     2 # energy    2.63741004 # occ.  2.00000000
 
ion      s     py     pz     px    dxy    dyz    dz2    dxz  x2-y2    tot
    1  0.084  0.066  0.021  0.148  0.000  0.000  0.000  0.000  0.000  0.320
    2  0.084  0.066  0.021  0.148  0.000  0.000  0.000  0.000  0.000  0.320
tot    0.168  0.132  0.043  0.296  0.000  0.000  0.000  0.000  0.000  0.640
 
band     3 # energy    6.72389868 # occ.  2.00000000
 
ion      s     py     pz     px    dxy    dyz    dz2    dxz  x2-y2    tot
    1  0.000  0.029  0.232  0.087  0.000  0.000  0.000  0.000  0.000  0.348
    2  0.000  0.029  0.232  0.087  0.000  0.000  0.000  0.000  0.000  0.348
tot    0.000  0.058  0.464  0.174  0.000  0.000  0.000  0.000  0.000  0.696
 
band     4 # energy    7.45061676 # occ.  2.00000000
 
ion      s     py     pz     px    dxy    dyz    dz2    dxz  x2-y2    tot
    1  0.025  0.218  0.079  0.039  0.000  0.000  0.000  0.000  0.000  0.362
    2  0.025  0.218  0.079  0.039  0.000  0.000  0.000  0.000  0.000  0.362
tot    0.051  0.437  0.158  0.079  0.000  0.000  0.000  0.000  0.000  0.725
 
band     5 # energy   16.39938734 # occ.  0.00000000
 
ion      s     py     pz     px    dxy    dyz    dz2    dxz  x2-y2    tot
    1  0.034  0.143  0.061  0.039  0.000  0.000  0.000  0.000  0.000  0.278
    2  0.034  0.143  0.061  0.039  0.000  0.000  0.000  0.000  0.000  0.278
tot    0.068  0.287  0.123  0.078  0.000  0.000  0.000  0.000  0.000  0.556
 
band     6 # energy   18.86097784 # occ.  0.00000000
 
ion      s     py     pz     px    dxy    dyz    dz2    dxz  x2-y2    tot
    1  0.122  0.155  0.001  0.048  0.000  0.000  0.000  0.000  0.000  0.325
    2  0.122  0.155  0.001  0.048  0.000  0.000  0.000  0.000  0.000  0.325
tot    0.243  0.311  0.001  0.096  0.000  0.000  0.000  0.000  0.000  0.651
 
band     7 # energy   18.99146802 # occ.  0.00000000
 
ion      s     py     pz     px    dxy    dyz    dz2    dxz  x2-y2    tot
    1  0.000  0.027  0.212  0.080  0.000  0.000  0.000  0.000  0.000  0.318
    2  0.000  0.027  0.212  0.080  0.000  0.000  0.000  0.000  0.000  0.318
tot    0.000  0.053  0.424  0.159  0.000  0.000  0.000  0.000  0.000  0.636
 
band     8 # energy   23.15527722 # occ.  0.00000000
 
ion      s     py     pz     px    dxy    dyz    dz2    dxz  x2-y2    tot
    1  0.124  0.025  0.023  0.108  0.000  0.000  0.000  0.000  0.000  0.279
    2  0.124  0.025  0.023  0.108  0.000  0.000  0.000  0.000  0.000  0.279
tot    0.249  0.049  0.045  0.215  0.000  0.000  0.000  0.000  0.000  0.559
 

 k-point    10 :    0.40000000 0.10000000 0.00000000     weight = 0.02400000

band     1 # energy   -7.91130964 # occ.  2.00000000
 
ion      s     py     pz     px    dxy    dyz    dz2    dxz  x2-y2    tot
    1  0.251  0.003  0.009  0.033  0.000  0.000  0.000  0.000  0.000  0.296
    2  0.251  0.003  0.009  0.033  0.000  0.000  0.000  0.000  0.000  0.296
tot    0.502  0.005  0.018  0.066  0.000  0.000  0.000  0.000  0.000  0.591
 
band     2 # energy   -0.54608007 # occ.  2.00000000
 
ion      s     py     pz     px    dxy    dyz    dz2    dxz  x2-y2    tot
    1  0.110  0.055  0.017  0.119  0.000  0.000  0.000  0.000  0.000  0.301
    2  0.110  0.055  0.017  0.119  0.000  0.000  0.000  0.000  0.000  0.301
tot    0.220  0.111  0.033  0.239  0.000  0.000  0.000  0.000  0.000  0.603
 
band     3 # energy    6.34917653 # occ.  2.00000000
 
ion      s     py     pz     px    dxy    dyz    dz2    dxz  x2-y2    tot
    1  0.000  0.029  0.234  0.088  0.000  0.000  0.000  0.000  0.000  0.351
    2  0.000  0.029  0.234  0.088  0.000  0.000  0.000  0.000  0.000  0.351
tot    0.000  0.058  0.467  0.175  0.000  0.000  0.000  0.000  0.000  0.701
 
band     4 # energy    6.58643527 # occ.  2.00000000
 
ion      s     py     pz     px    dxy    dyz    dz2    dxz  x2-y2    tot
    1  0.026  0.219  0.077  0.035  0.000  0.000  0.000  0.000  0.000  0.357
    2  0.026  0.219  0.077  0.035  0.000  0.000  0.000  0.000  0.000  0.357
tot    0.053  0.437  0.154  0.070  0.000  0.000  0.000  0.000  0.000  0.714
 
band     5 # energy   17.11489106 # occ.  0.00000000
 
ion      s     py     pz     px    dxy    dyz    dz2    dxz  x2-y2    tot
    1  0.042  0.134  0.053  0.028  0.000  0.000  0.000  0.000  0.000  0.257
    2  0.042  0.134  0.053  0.028  0.000  0.000  0.000  0.000  0.000  0.257
tot    0.085  0.268  0.107  0.055  0.000  0.000  0.000  0.000  0.000  0.514
 
band     6 # energy   19.21309864 # occ.  0.00000000
 
ion      s     py     pz     px    dxy    dyz    dz2    dxz  x2-y2    tot
    1  0.000  0.025  0.196  0.074  0.000  0.000  0.000  0.000  0.000  0.294
    2  0.000  0.025  0.196  0.074  0.000  0.000  0.000  0.000  0.000  0.294
tot    0.000  0.049  0.392  0.147  0.000  0.000  0.000  0.000  0.000  0.589
 
band     7 # energy   19.24249718 # occ.  0.00000000
 
ion      s     py     pz     px    dxy    dyz    dz2    dxz  x2-y2    tot
    1  0.190  0.115  0.002  0.016  0.000  0.000  0.000  0.000  0.000  0.322
    2  0.190  0.115  0.002  0.016  0.000  0.000  0.000  0.000  0.000  0.322
tot    0.379  0.229  0.004  0.031  0.000  0.000  0.000  0.000  0.000  0.643
 
band     8 # energy   24.06256854 # occ.  0.00000000
 
ion      s     py     pz     px    dxy    dyz    dz2    dxz  x2-y2    tot
    1  0.050  0.068  0.025  0.133  0.000  0.000  0.000  0.000  0.000  0.277
    2  0.050  0.068  0.025  0.133  0.000  0.000  0.000  0.000  0.000  0.277
tot    0.099  0.136  0.051  0.267  0.000  0.000  0.000  0.000  0.000  0.553
 

 k-point    11 :    0.50000000 0.10000000 0.00000000     weight = 0.02400000

band     1 # energy   -6.06062877 # occ.  2.00000000
 
ion      s     py     pz     px    dxy    dyz    dz2    dxz  x2-y2    tot
    1  0.274  0.005  0.008  0.031  0.000  0.000  0.000  0.000  0.000  0.317
    2  0.274  0.005  0.008  0.031  0.000  0.000  0.000  0.000  0.000  0.317
tot    0.548  0.010  0.016  0.061  0.000  0.000  0.000  0.000  0.000  0.635
 
band     2 # energy   -3.12272075 # occ.  2.00000000
 
ion      s     py     pz     px    dxy    dyz    dz2    dxz  x2-y2    tot
    1  0.096  0.048  0.017  0.115  0.000  0.000  0.000  0.000  0.000  0.276
    2  0.096  0.048  0.017  0.115  0.000  0.000  0.000  0.000  0.000  0.276
tot    0.192  0.095  0.034  0.231  0.000  0.000  0.000  0.000  0.000  0.552
 
band     3 # energy    5.95652658 # occ.  2.00000000
 
ion      s     py     pz     px    dxy    dyz    dz2    dxz  x2-y2    tot
    1  0.026  0.222  0.073  0.030  0.000  0.000  0.000  0.000  0.000  0.352
    2  0.026  0.222  0.073  0.030  0.000  0.000  0.000  0.000  0.000  0.352
tot    0.053  0.444  0.147  0.060  0.000  0.000  0.000  0.000  0.000  0.704
 
band     4 # energy    6.37672497 # occ.  2.00000000
 
ion      s     py     pz     px    dxy    dyz    dz2    dxz  x2-y2    tot
    1  0.000  0.030  0.237  0.089  0.000  0.000  0.000  0.000  0.000  0.355
    2  0.000  0.030  0.237  0.089  0.000  0.000  0.000  0.000  0.000  0.355
tot    0.000  0.059  0.473  0.177  0.000  0.000  0.000  0.000  0.000  0.710
 
band     5 # energy   17.51900312 # occ.  0.00000000
 
ion      s     py     pz     px    dxy    dyz    dz2    dxz  x2-y2    tot
    1  0.046  0.122  0.049  0.028  0.000  0.000  0.000  0.000  0.000  0.244
    2  0.046  0.122  0.049  0.028  0.000  0.000  0.000  0.000  0.000  0.244
tot    0.092  0.243  0.097  0.055  0.000  0.000  0.000  0.000  0.000  0.488
 
band     6 # energy   18.97124649 # occ.  0.00000000
 
ion      s     py     pz     px    dxy    dyz    dz2    dxz  x2-y2    tot
    1  0.000  0.023  0.184  0.069  0.000  0.000  0.000  0.000  0.000  0.277
    2  0.000  0.023  0.184  0.069  0.000  0.000  0.000  0.000  0.000  0.277
tot    0.000  0.046  0.369  0.138  0.000  0.000  0.000  0.000  0.000  0.553
 
band     7 # energy   19.36320694 # occ.  0.00000000
 
ion      s     py     pz     px    dxy    dyz    dz2    dxz  x2-y2    tot
    1  0.223  0.084  0.007  0.004  0.000  0.000  0.000  0.000  0.000  0.318
    2  0.223  0.084  0.007  0.004  0.000  0.000  0.000  0.000  0.000  0.318
tot    0.446  0.168  0.014  0.008  0.000  0.000  0.000  0.000  0.000  0.635
 
band     8 # energy   25.06801749 # occ.  0.00000000
 
ion      s     py     pz     px    dxy    dyz    dz2    dxz  x2-y2    tot
    1  0.010  0.088  0.034  0.157  0.000  0.000  0.000  0.000  0.000  0.289
    2  0.010  0.088  0.034  0.157  0.000  0.000  0.000  0.000  0.000  0.289
tot    0.020  0.175  0.068  0.314  0.000  0.000  0.000  0.000  0.000  0.578
 

 k-point    12 :   -0.40000000 0.10000000 0.00000000     weight = 0.02400000

band     1 # energy   -6.63358915 # occ.  2.00000000
 
ion      s     py     pz     px    dxy    dyz    dz2    dxz  x2-y2    tot
    1  0.258  0.021  0.003  0.026  0.000  0.000  0.000  0.000  0.000  0.308
    2  0.258  0.021  0.003  0.026  0.000  0.000  0.000  0.000  0.000  0.308
tot    0.516  0.042  0.005  0.051  0.000  0.000  0.000  0.000  0.000  0.615
 
band     2 # energy   -2.39970685 # occ.  2.00000000
 
ion      s     py     pz     px    dxy    dyz    dz2    dxz  x2-y2    tot
    1  0.110  0.029  0.024  0.124  0.000  0.000  0.000  0.000  0.000  0.286
    2  0.110  0.029  0.024  0.124  0.000  0.000  0.000  0.000  0.000  0.286
tot    0.219  0.057  0.048  0.248  0.000  0.000  0.000  0.000  0.000  0.573
 
band     3 # energy    5.66547054 # occ.  2.00000000
 
ion      s     py     pz     px    dxy    dyz    dz2    dxz  x2-y2    tot
    1  0.026  0.227  0.069  0.025  0.000  0.000  0.000  0.000  0.000  0.347
    2  0.026  0.227  0.069  0.025  0.000  0.000  0.000  0.000  0.000  0.347
tot    0.051  0.453  0.139  0.050  0.000  0.000  0.000  0.000  0.000  0.694
 
band     4 # energy    6.78608756 # occ.  2.00000000
 
ion      s     py     pz     px    dxy    dyz    dz2    dxz  x2-y2    tot
    1  0.000  0.030  0.240  0.090  0.000  0.000  0.000  0.000  0.000  0.360
    2  0.000  0.030  0.240  0.090  0.000  0.000  0.000  0.000  0.000  0.360
tot    0.000  0.060  0.480  0.180  0.000  0.000  0.000  0.000  0.000  0.720
 
band     5 # energy   17.90994171 # occ.  0.00000000
 
ion      s     py     pz     px    dxy    dyz    dz2    dxz  x2-y2    tot
    1  0.052  0.117  0.049  0.035  0.000  0.000  0.000  0.000  0.000  0.254
    2  0.052  0.117  0.049  0.035  0.000  0.000  0.000  0.000  0.000  0.254
tot    0.105  0.234  0.098  0.071  0.000  0.000  0.000  0.000  0.000  0.508
 
band     6 # energy   18.55412044 # occ.  0.00000000
 
ion      s     py     pz     px    dxy    dyz    dz2    dxz  x2-y2    tot
    1  0.000  0.023  0.185  0.069  0.000  0.000  0.000  0.000  0.000  0.277
    2  0.000  0.023  0.185  0.069  0.000  0.000  0.000  0.000  0.000  0.277
tot    0.000  0.046  0.369  0.139  0.000  0.000  0.000  0.000  0.000  0.554
 
band     7 # energy   19.30708218 # occ.  0.00000000
 
ion      s     py     pz     px    dxy    dyz    dz2    dxz  x2-y2    tot
    1  0.210  0.071  0.017  0.014  0.000  0.000  0.000  0.000  0.000  0.312
    2  0.210  0.071  0.017  0.014  0.000  0.000  0.000  0.000  0.000  0.312
tot    0.420  0.141  0.035  0.029  0.000  0.000  0.000  0.000  0.000  0.625
 
band     8 # energy   25.13610199 # occ.  0.00000000
 
ion      s     py     pz     px    dxy    dyz    dz2    dxz  x2-y2    tot
    1  0.018  0.072  0.040  0.172  0.000  0.000  0.000  0.000  0.000  0.302
    2  0.018  0.072  0.040  0.172  0.000  0.000  0.000  0.000  0.000  0.302
tot    0.037  0.144  0.080  0.343  0.000  0.000  0.000  0.000  0.000  0.604
 

 k-point    13 :   -0.30000000 0.10000000 0.00000000     weight = 0.02400000

band     1 # energy   -8.51386203 # occ.  2.00000000
 
ion      s     py     pz     px    dxy    dyz    dz2    dxz  x2-y2    tot
    1  0.253  0.018  0.001  0.019  0.000  0.000  0.000  0.000  0.000  0.292
    2  0.253  0.018  0.001  0.019  0.000  0.000  0.000  0.000  0.000  0.292
tot    0.505  0.037  0.003  0.039  0.000  0.000  0.000  0.000  0.000  0.583
 
band     2 # energy    0.49246167 # occ.  2.00000000
 
ion      s     py     pz     px    dxy    dyz    dz2    dxz  x2-y2    tot
    1  0.103  0.033  0.028  0.143  0.000  0.000  0.000  0.000  0.000  0.307
    2  0.103  0.033  0.028  0.143  0.000  0.000  0.000  0.000  0.000  0.307
tot    0.207  0.065  0.057  0.286  0.000  0.000  0.000  0.000  0.000  0.615
 
band     3 # energy    5.76571720 # occ.  2.00000000
 
ion      s     py     pz     px    dxy    dyz    dz2    dxz  x2-y2    tot
    1  0.024  0.231  0.066  0.022  0.000  0.000  0.000  0.000  0.000  0.342
    2  0.024  0.231  0.066  0.022  0.000  0.000  0.000  0.000  0.000  0.342
tot    0.048  0.462  0.132  0.043  0.000  0.000  0.000  0.000  0.000  0.685
 
band     4 # energy    7.51216636 # occ.  2.00000000
 
ion      s     py     pz     px    dxy    dyz    dz2    dxz  x2-y2    tot
    1  0.000  0.030  0.244  0.091  0.000  0.000  0.000  0.000  0.000  0.365
    2  0.000  0.030  0.244  0.091  0.000  0.000  0.000  0.000  0.000  0.365
tot    0.000  0.061  0.487  0.183  0.000  0.000  0.000  0.000  0.000  0.731
 
band     5 # energy   17.93960884 # occ.  0.00000000
 
ion      s     py     pz     px    dxy    dyz    dz2    dxz  x2-y2    tot
    1  0.000  0.024  0.195  0.073  0.000  0.000  0.000  0.000  0.000  0.292
    2  0.000  0.024  0.195  0.073  0.000  0.000  0.000  0.000  0.000  0.292
tot    0.000  0.049  0.389  0.146  0.000  0.000  0.000  0.000  0.000  0.584
 
band     6 # energy   18.22195720 # occ.  0.00000000
 
ion      s     py     pz     px    dxy    dyz    dz2    dxz  x2-y2    tot
    1  0.068  0.106  0.054  0.057  0.000  0.000  0.000  0.000  0.000  0.285
    2  0.068  0.106  0.054  0.057  0.000  0.000  0.000  0.000  0.000  0.285
tot    0.135  0.213  0.109  0.113  0.000  0.000  0.000  0.000  0.000  0.570
 
band     7 # energy   19.02968627 # occ.  0.00000000
 
ion      s     py     pz     px    dxy    dyz    dz2    dxz  x2-y2    tot
    1  0.142  0.085  0.035  0.046  0.000  0.000  0.000  0.000  0.000  0.308
    2  0.142  0.085  0.035  0.046  0.000  0.000  0.000  0.000  0.000  0.308
tot    0.285  0.169  0.070  0.092  0.000  0.000  0.000  0.000  0.000  0.615
 
band     8 # energy   24.30518876 # occ.  0.00000000
 
ion      s     py     pz     px    dxy    dyz    dz2    dxz  x2-y2    tot
    1  0.084  0.062  0.027  0.144  0.000  0.000  0.000  0.000  0.000  0.316
    2  0.084  0.062  0.027  0.144  0.000  0.000  0.000  0.000  0.000  0.316
tot    0.168  0.123  0.054  0.287  0.000  0.000  0.000  0.000  0.000  0.632
 

 k-point    14 :   -0.20000000 0.10000000 0.00000000     weight = 0.02400000

band     1 # energy  -10.02133657 # occ.  2.00000000
 
ion      s     py     pz     px    dxy    dyz    dz2    dxz  x2-y2    tot
    1  0.262  0.013  0.000  0.009  0.000  0.000  0.000  0.000  0.000  0.284
    2  0.262  0.013  0.000  0.009  0.000  0.000  0.000  0.000  0.000  0.284
tot    0.523  0.025  0.001  0.019  0.000  0.000  0.000  0.000  0.000  0.568
 
band     2 # energy    3.74964155 # occ.  2.00000000
 
ion      s     py     pz     px    dxy    dyz    dz2    dxz  x2-y2    tot
    1  0.074  0.047  0.033  0.172  0.000  0.000  0.000  0.000  0.000  0.327
    2  0.074  0.047  0.033  0.172  0.000  0.000  0.000  0.000  0.000  0.327
tot    0.148  0.095  0.066  0.345  0.000  0.000  0.000  0.000  0.000  0.654
 
band     3 # energy    6.27566074 # occ.  2.00000000
 
ion      s     py     pz     px    dxy    dyz    dz2    dxz  x2-y2    tot
    1  0.020  0.231  0.065  0.024  0.000  0.000  0.000  0.000  0.000  0.340
    2  0.020  0.231  0.065  0.024  0.000  0.000  0.000  0.000  0.000  0.340
tot    0.041  0.461  0.130  0.048  0.000  0.000  0.000  0.000  0.000  0.680
 
band     4 # energy    8.41632141 # occ.  2.00000000
 
ion      s     py     pz     px    dxy    dyz    dz2    dxz  x2-y2    tot
    1  0.000  0.031  0.248  0.093  0.000  0.000  0.000  0.000  0.000  0.371
    2  0.000  0.031  0.248  0.093  0.000  0.000  0.000  0.000  0.000  0.371
tot    0.000  0.062  0.495  0.186  0.000  0.000  0.000  0.000  0.000  0.743
 
band     5 # energy   16.96972028 # occ.  0.00000000
 
ion      s     py     pz     px    dxy    dyz    dz2    dxz  x2-y2    tot
    1  0.000  0.025  0.201  0.076  0.000  0.000  0.000  0.000  0.000  0.302
    2  0.000  0.025  0.201  0.076  0.000  0.000  0.000  0.000  0.000  0.302
tot    0.000  0.050  0.403  0.151  0.000  0.000  0.000  0.000  0.000  0.604
 
band     6 # energy   18.08897981 # occ.  0.00000000
 
ion      s     py     pz     px    dxy    dyz    dz2    dxz  x2-y2    tot
    1  0.067  0.086  0.063  0.098  0.000  0.000  0.000  0.000  0.000  0.314
    2  0.067  0.086  0.063  0.098  0.000  0.000  0.000  0.000  0.000  0.314
tot    0.134  0.172  0.127  0.196  0.000  0.000  0.000  0.000  0.000  0.628
 
band     7 # energy   18.26724121 # occ.  0.00000000
 
ion      s     py     pz     px    dxy    dyz    dz2    dxz  x2-y2    tot
    1  0.061  0.117  0.050  0.083  0.000  0.000  0.000  0.000  0.000  0.311
    2  0.061  0.117  0.050  0.083  0.000  0.000  0.000  0.000  0.000  0.311
tot    0.122  0.233  0.101  0.165  0.000  0.000  0.000  0.000  0.000  0.621
 
band     8 # energy   23.57003692 # occ.  0.00000000
 
ion      s     py     pz     px    dxy    dyz    dz2    dxz  x2-y2    tot
    1  0.185  0.069  0.006  0.078  0.000  0.000  0.000  0.000  0.000  0.338
    2  0.185  0.069  0.006  0.078  0.000  0.000  0.000  0.000  0.000  0.338
tot    0.370  0.137  0.013  0.155  0.000  0.000  0.000  0.000  0.000  0.676
 

 k-point    15 :   -0.10000000 0.10000000 0.00000000     weight = 0.01200000

band     1 # energy  -11.01940293 # occ.  2.00000000
 
ion      s     py     pz     px    dxy    dyz    dz2    dxz  x2-y2    tot
    1  0.269  0.007  0.000  0.002  0.000  0.000  0.000  0.000  0.000  0.279
    2  0.269  0.007  0.000  0.002  0.000  0.000  0.000  0.000  0.000  0.279
tot    0.539  0.015  0.000  0.005  0.000  0.000  0.000  0.000  0.000  0.558
 
band     2 # energy    6.72423943 # occ.  2.00000000
 
ion      s     py     pz     px    dxy    dyz    dz2    dxz  x2-y2    tot
    1  0.046  0.191  0.021  0.092  0.000  0.000  0.000  0.000  0.000  0.351
    2  0.046  0.191  0.021  0.092  0.000  0.000  0.000  0.000  0.000  0.351
tot    0.092  0.382  0.043  0.185  0.000  0.000  0.000  0.000  0.000  0.701
 
band     3 # energy    7.33092045 # occ.  2.00000000
 
ion      s     py     pz     px    dxy    dyz    dz2    dxz  x2-y2    tot
    1  0.007  0.102  0.085  0.147  0.000  0.000  0.000  0.000  0.000  0.341
    2  0.007  0.102  0.085  0.147  0.000  0.000  0.000  0.000  0.000  0.341
tot    0.015  0.204  0.170  0.294  0.000  0.000  0.000  0.000  0.000  0.682
 
band     4 # energy    9.17301242 # occ.  2.00000000
 
ion      s     py     pz     px    dxy    dyz    dz2    dxz  x2-y2    tot
    1  0.000  0.031  0.251  0.094  0.000  0.000  0.000  0.000  0.000  0.376
    2  0.000  0.031  0.251  0.094  0.000  0.000  0.000  0.000  0.000  0.376
tot    0.000  0.063  0.501  0.188  0.000  0.000  0.000  0.000  0.000  0.752
 
band     5 # energy   15.96124462 # occ.  0.00000000
 
ion      s     py     pz     px    dxy    dyz    dz2    dxz  x2-y2    tot
    1  0.000  0.025  0.200  0.075  0.000  0.000  0.000  0.000  0.000  0.299
    2  0.000  0.025  0.200  0.075  0.000  0.000  0.000  0.000  0.000  0.299
tot    0.000  0.050  0.399  0.150  0.000  0.000  0.000  0.000  0.000  0.599
 
band     6 # energy   16.96748257 # occ.  0.00000000
 
ion      s     py     pz     px    dxy    dyz    dz2    dxz  x2-y2    tot
    1  0.027  0.140  0.042  0.102  0.000  0.000  0.000  0.000  0.000  0.311
    2  0.027  0.140  0.042  0.102  0.000  0.000  0.000  0.000  0.000  0.311
tot    0.054  0.280  0.083  0.205  0.000  0.000  0.000  0.000  0.000  0.622
 
band     7 # energy   17.27742035 # occ.  0.00000000
 
ion      s     py     pz     px    dxy    dyz    dz2    dxz  x2-y2    tot
    1  0.030  0.086  0.075  0.129  0.000  0.000  0.000  0.000  0.000  0.320
    2  0.030  0.086  0.075  0.129  0.000  0.000  0.000  0.000  0.000  0.320
tot    0.060  0.171  0.151  0.258  0.000  0.000  0.000  0.000  0.000  0.640
 
band     8 # energy   23.27461354 # occ.  0.00000000
 
ion      s     py     pz     px    dxy    dyz    dz2    dxz  x2-y2    tot
    1  0.291  0.064  0.000  0.021  0.000  0.000  0.000  0.000  0.000  0.377
    2  0.291  0.064  0.000  0.021  0.000  0.000  0.000  0.000  0.000  0.377
tot    0.582  0.128  0.000  0.043  0.000  0.000  0.000  0.000  0.000  0.753
 

 k-point    16 :    0.20000000 0.20000000 0.00000000     weight = 0.00600000

band     1 # energy  -10.29039690 # occ.  2.00000000
 
ion      s     py     pz     px    dxy    dyz    dz2    dxz  x2-y2    tot
    1  0.263  0.003  0.006  0.010  0.000  0.000  0.000  0.000  0.000  0.282
    2  0.263  0.003  0.006  0.010  0.000  0.000  0.000  0.000  0.000  0.282
tot    0.526  0.006  0.013  0.019  0.000  0.000  0.000  0.000  0.000  0.565
 
band     2 # energy    6.43987177 # occ.  2.00000000
 
ion      s     py     pz     px    dxy    dyz    dz2    dxz  x2-y2    tot
    1  0.000  0.028  0.227  0.085  0.000  0.000  0.000  0.000  0.000  0.341
    2  0.000  0.028  0.227  0.085  0.000  0.000  0.000  0.000  0.000  0.341
tot    0.000  0.057  0.454  0.170  0.000  0.000  0.000  0.000  0.000  0.682
 
band     3 # energy    6.43989954 # occ.  2.00000000
 
ion      s     py     pz     px    dxy    dyz    dz2    dxz  x2-y2    tot
    1  0.000  0.256  0.000  0.085  0.000  0.000  0.000  0.000  0.000  0.341
    2  0.000  0.256  0.000  0.085  0.000  0.000  0.000  0.000  0.000  0.341
tot    0.000  0.511  0.000  0.170  0.000  0.000  0.000  0.000  0.000  0.682
 
band     4 # energy    6.56019624 # occ.  2.00000000
 
ion      s     py     pz     px    dxy    dyz    dz2    dxz  x2-y2    tot
    1  0.096  0.046  0.091  0.137  0.000  0.000  0.000  0.000  0.000  0.370
    2  0.096  0.046  0.091  0.137  0.000  0.000  0.000  0.000  0.000  0.370
tot    0.192  0.091  0.183  0.274  0.000  0.000  0.000  0.000  0.000  0.740
 
band     5 # energy   14.35394938 # occ.  0.00000000
 
ion      s     py     pz     px    dxy    dyz    dz2    dxz  x2-y2    tot
    1  0.059  0.033  0.066  0.099  0.000  0.000  0.000  0.000  0.000  0.256
    2  0.059  0.033  0.066  0.099  0.000  0.000  0.000  0.000  0.000  0.256
tot    0.118  0.066  0.131  0.197  0.000  0.000  0.000  0.000  0.000  0.513
 
band     6 # energy   19.64592405 # occ.  0.00000000
 
ion      s     py     pz     px    dxy    dyz    dz2    dxz  x2-y2    tot
    1  0.000  0.029  0.229  0.086  0.000  0.000  0.000  0.000  0.000  0.343
    2  0.000  0.029  0.229  0.086  0.000  0.000  0.000  0.000  0.000  0.343
tot    0.000  0.057  0.458  0.172  0.000  0.000  0.000  0.000  0.000  0.686
 
band     7 # energy   19.64599594 # occ.  0.00000000
 
ion      s     py     pz     px    dxy    dyz    dz2    dxz  x2-y2    tot
    1  0.000  0.257  0.000  0.086  0.000  0.000  0.000  0.000  0.000  0.343
    2  0.000  0.257  0.000  0.086  0.000  0.000  0.000  0.000  0.000  0.343
tot    0.000  0.515  0.000  0.172  0.000  0.000  0.000  0.000  0.000  0.686
 
band     8 # energy   21.41643576 # occ.  0.00000000
 
ion      s     py     pz     px    dxy    dyz    dz2    dxz  x2-y2    tot
    1  0.174  0.010  0.021  0.031  0.000  0.000  0.000  0.000  0.000  0.236
    2  0.174  0.010  0.021  0.031  0.000  0.000  0.000  0.000  0.000  0.236
tot    0.349  0.021  0.041  0.062  0.000  0.000  0.000  0.000  0.000  0.473
 

 k-point    17 :    0.30000000 0.20000000 0.00000000     weight = 0.02400000

band     1 # energy   -9.29948928 # occ.  2.00000000
 
ion      s     py     pz     px    dxy    dyz    dz2    dxz  x2-y2    tot
    1  0.255  0.001  0.010  0.021  0.000  0.000  0.000  0.000  0.000  0.287
    2  0.255  0.001  0.010  0.021  0.000  0.000  0.000  0.000  0.000  0.287
tot    0.510  0.002  0.020  0.042  0.000  0.000  0.000  0.000  0.000  0.574
 
band     2 # energy    3.83695974 # occ.  2.00000000
 
ion      s     py     pz     px    dxy    dyz    dz2    dxz  x2-y2    tot
    1  0.083  0.065  0.029  0.161  0.000  0.000  0.000  0.000  0.000  0.339
    2  0.083  0.065  0.029  0.161  0.000  0.000  0.000  0.000  0.000  0.339
tot    0.166  0.130  0.058  0.323  0.000  0.000  0.000  0.000  0.000  0.677
 
band     3 # energy    5.65468629 # occ.  2.00000000
 
ion      s     py     pz     px    dxy    dyz    dz2    dxz  x2-y2    tot
    1  0.000  0.028  0.225  0.084  0.000  0.000  0.000  0.000  0.000  0.338
    2  0.000  0.028  0.225  0.084  0.000  0.000  0.000  0.000  0.000  0.338
tot    0.000  0.056  0.450  0.169  0.000  0.000  0.000  0.000  0.000  0.676
 
band     4 # energy    6.01301806 # occ.  2.00000000
 
ion      s     py     pz     px    dxy    dyz    dz2    dxz  x2-y2    tot
    1  0.049  0.214  0.055  0.032  0.000  0.000  0.000  0.000  0.000  0.350
    2  0.049  0.214  0.055  0.032  0.000  0.000  0.000  0.000  0.000  0.350
tot    0.098  0.428  0.111  0.064  0.000  0.000  0.000  0.000  0.000  0.701
 
band     5 # energy   14.77859233 # occ.  0.00000000
 
ion      s     py     pz     px    dxy    dyz    dz2    dxz  x2-y2    tot
    1  0.067  0.083  0.052  0.048  0.000  0.000  0.000  0.000  0.000  0.251
    2  0.067  0.083  0.052  0.048  0.000  0.000  0.000  0.000  0.000  0.251
tot    0.135  0.167  0.105  0.095  0.000  0.000  0.000  0.000  0.000  0.502
 
band     6 # energy   20.38872905 # occ.  0.00000000
 
ion      s     py     pz     px    dxy    dyz    dz2    dxz  x2-y2    tot
    1  0.135  0.008  0.017  0.040  0.000  0.000  0.000  0.000  0.000  0.200
    2  0.135  0.008  0.017  0.040  0.000  0.000  0.000  0.000  0.000  0.200
tot    0.269  0.016  0.034  0.081  0.000  0.000  0.000  0.000  0.000  0.401
 
band     7 # energy   20.86899873 # occ.  0.00000000
 
ion      s     py     pz     px    dxy    dyz    dz2    dxz  x2-y2    tot
    1  0.020  0.246  0.000  0.073  0.000  0.000  0.000  0.000  0.000  0.338
    2  0.020  0.246  0.000  0.073  0.000  0.000  0.000  0.000  0.000  0.338
tot    0.039  0.492  0.001  0.145  0.000  0.000  0.000  0.000  0.000  0.677
 
band     8 # energy   20.90914113 # occ.  0.00000000
 
ion      s     py     pz     px    dxy    dyz    dz2    dxz  x2-y2    tot
    1  0.000  0.029  0.231  0.087  0.000  0.000  0.000  0.000  0.000  0.346
    2  0.000  0.029  0.231  0.087  0.000  0.000  0.000  0.000  0.000  0.346
tot    0.000  0.058  0.462  0.173  0.000  0.000  0.000  0.000  0.000  0.692
 

 k-point    18 :    0.40000000 0.20000000 0.00000000     weight = 0.02400000

band     1 # energy   -7.80608938 # occ.  2.00000000
 
ion      s     py     pz     px    dxy    dyz    dz2    dxz  x2-y2    tot
    1  0.246  0.000  0.014  0.035  0.000  0.000  0.000  0.000  0.000  0.295
    2  0.246  0.000  0.014  0.035  0.000  0.000  0.000  0.000  0.000  0.295
tot    0.493  0.001  0.027  0.070  0.000  0.000  0.000  0.000  0.000  0.590
 
band     2 # energy    0.88809063 # occ.  2.00000000
 
ion      s     py     pz     px    dxy    dyz    dz2    dxz  x2-y2    tot
    1  0.111  0.064  0.018  0.125  0.000  0.000  0.000  0.000  0.000  0.318
    2  0.111  0.064  0.018  0.125  0.000  0.000  0.000  0.000  0.000  0.318
tot    0.221  0.129  0.035  0.251  0.000  0.000  0.000  0.000  0.000  0.636
 
band     3 # energy    4.96245243 # occ.  2.00000000
 
ion      s     py     pz     px    dxy    dyz    dz2    dxz  x2-y2    tot
    1  0.056  0.190  0.061  0.033  0.000  0.000  0.000  0.000  0.000  0.340
    2  0.056  0.190  0.061  0.033  0.000  0.000  0.000  0.000  0.000  0.340
tot    0.112  0.379  0.121  0.066  0.000  0.000  0.000  0.000  0.000  0.679
 
band     4 # energy    5.27070747 # occ.  2.00000000
 
ion      s     py     pz     px    dxy    dyz    dz2    dxz  x2-y2    tot
    1  0.000  0.028  0.226  0.085  0.000  0.000  0.000  0.000  0.000  0.339
    2  0.000  0.028  0.226  0.085  0.000  0.000  0.000  0.000  0.000  0.339
tot    0.000  0.056  0.452  0.169  0.000  0.000  0.000  0.000  0.000  0.678
 
band     5 # energy   15.72299358 # occ.  0.00000000
 
ion      s     py     pz     px    dxy    dyz    dz2    dxz  x2-y2    tot
    1  0.072  0.097  0.042  0.024  0.000  0.000  0.000  0.000  0.000  0.235
    2  0.072  0.097  0.042  0.024  0.000  0.000  0.000  0.000  0.000  0.235
tot    0.144  0.195  0.083  0.048  0.000  0.000  0.000  0.000  0.000  0.469
 
band     6 # energy   20.83376249 # occ.  0.00000000
 
ion      s     py     pz     px    dxy    dyz    dz2    dxz  x2-y2    tot
    1  0.096  0.043  0.018  0.065  0.000  0.000  0.000  0.000  0.000  0.223
    2  0.096  0.043  0.018  0.065  0.000  0.000  0.000  0.000  0.000  0.223
tot    0.192  0.087  0.037  0.130  0.000  0.000  0.000  0.000  0.000  0.446
 
band     7 # energy   21.38389740 # occ.  0.00000000
 
ion      s     py     pz     px    dxy    dyz    dz2    dxz  x2-y2    tot
    1  0.000  0.028  0.221  0.083  0.000  0.000  0.000  0.000  0.000  0.331
    2  0.000  0.028  0.221  0.083  0.000  0.000  0.000  0.000  0.000  0.331
tot    0.000  0.055  0.441  0.165  0.000  0.000  0.000  0.000  0.000  0.662
 
band     8 # energy   21.44912207 # occ.  0.00000000
 
ion      s     py     pz     px    dxy    dyz    dz2    dxz  x2-y2    tot
    1  0.081  0.214  0.002  0.035  0.000  0.000  0.000  0.000  0.000  0.332
    2  0.081  0.214  0.002  0.035  0.000  0.000  0.000  0.000  0.000  0.332
tot    0.161  0.427  0.005  0.070  0.000  0.000  0.000  0.000  0.000  0.663
 

 k-point    19 :    0.50000000 0.20000000 0.00000000     weight = 0.02400000

band     1 # energy   -5.95439543 # occ.  2.00000000
 
ion      s     py     pz     px    dxy    dyz    dz2    dxz  x2-y2    tot
    1  0.251  0.003  0.015  0.042  0.000  0.000  0.000  0.000  0.000  0.311
    2  0.251  0.003  0.015  0.042  0.000  0.000  0.000  0.000  0.000  0.311
tot    0.501  0.005  0.031  0.084  0.000  0.000  0.000  0.000  0.000  0.622
 
band     2 # energy   -1.83327274 # occ.  2.00000000
 
ion      s     py     pz     px    dxy    dyz    dz2    dxz  x2-y2    tot
    1  0.116  0.058  0.014  0.108  0.000  0.000  0.000  0.000  0.000  0.295
    2  0.116  0.058  0.014  0.108  0.000  0.000  0.000  0.000  0.000  0.295
tot    0.232  0.116  0.027  0.215  0.000  0.000  0.000  0.000  0.000  0.590
 
band     3 # energy    3.96972728 # occ.  2.00000000
 
ion      s     py     pz     px    dxy    dyz    dz2    dxz  x2-y2    tot
    1  0.060  0.182  0.060  0.029  0.000  0.000  0.000  0.000  0.000  0.331
    2  0.060  0.182  0.060  0.029  0.000  0.000  0.000  0.000  0.000  0.331
tot    0.120  0.364  0.120  0.058  0.000  0.000  0.000  0.000  0.000  0.662
 
band     4 # energy    5.33429965 # occ.  2.00000000
 
ion      s     py     pz     px    dxy    dyz    dz2    dxz  x2-y2    tot
    1  0.000  0.029  0.228  0.086  0.000  0.000  0.000  0.000  0.000  0.343
    2  0.000  0.029  0.228  0.086  0.000  0.000  0.000  0.000  0.000  0.343
tot    0.000  0.057  0.457  0.171  0.000  0.000  0.000  0.000  0.000  0.685
 
band     5 # energy   16.30199263 # occ.  0.00000000
 
ion      s     py     pz     px    dxy    dyz    dz2    dxz  x2-y2    tot
    1  0.077  0.080  0.034  0.022  0.000  0.000  0.000  0.000  0.000  0.214
    2  0.077  0.080  0.034  0.022  0.000  0.000  0.000  0.000  0.000  0.214
tot    0.153  0.160  0.069  0.045  0.000  0.000  0.000  0.000  0.000  0.427
 
band     6 # energy   21.13172509 # occ.  0.00000000
 
ion      s     py     pz     px    dxy    dyz    dz2    dxz  x2-y2    tot
    1  0.000  0.026  0.209  0.078  0.000  0.000  0.000  0.000  0.000  0.313
    2  0.000  0.026  0.209  0.078  0.000  0.000  0.000  0.000  0.000  0.313
tot    0.000  0.052  0.417  0.156  0.000  0.000  0.000  0.000  0.000  0.626
 
band     7 # energy   21.61666868 # occ.  0.00000000
 
ion      s     py     pz     px    dxy    dyz    dz2    dxz  x2-y2    tot
    1  0.155  0.171  0.015  0.008  0.000  0.000  0.000  0.000  0.000  0.348
    2  0.155  0.171  0.015  0.008  0.000  0.000  0.000  0.000  0.000  0.348
tot    0.309  0.342  0.029  0.016  0.000  0.000  0.000  0.000  0.000  0.696
 
band     8 # energy   22.85937692 # occ.  0.00000000
 
ion      s     py     pz     px    dxy    dyz    dz2    dxz  x2-y2    tot
    1  0.035  0.104  0.021  0.096  0.000  0.000  0.000  0.000  0.000  0.256
    2  0.035  0.104  0.021  0.096  0.000  0.000  0.000  0.000  0.000  0.256
tot    0.070  0.207  0.042  0.193  0.000  0.000  0.000  0.000  0.000  0.512
 

 k-point    20 :   -0.40000000 0.20000000 0.00000000     weight = 0.02400000

band     1 # energy   -5.41476443 # occ.  2.00000000
 
ion      s     py     pz     px    dxy    dyz    dz2    dxz  x2-y2    tot
    1  0.265  0.031  0.003  0.021  0.000  0.000  0.000  0.000  0.000  0.321
    2  0.265  0.031  0.003  0.021  0.000  0.000  0.000  0.000  0.000  0.321
tot    0.531  0.062  0.007  0.042  0.000  0.000  0.000  0.000  0.000  0.641
 
band     2 # energy   -2.47979934 # occ.  2.00000000
 
ion      s     py     pz     px    dxy    dyz    dz2    dxz  x2-y2    tot
    1  0.102  0.025  0.027  0.129  0.000  0.000  0.000  0.000  0.000  0.284
    2  0.102  0.025  0.027  0.129  0.000  0.000  0.000  0.000  0.000  0.284
tot    0.205  0.050  0.054  0.258  0.000  0.000  0.000  0.000  0.000  0.567
 
band     3 # energy    3.30335498 # occ.  2.00000000
 
ion      s     py     pz     px    dxy    dyz    dz2    dxz  x2-y2    tot
    1  0.060  0.183  0.057  0.024  0.000  0.000  0.000  0.000  0.000  0.324
    2  0.060  0.183  0.057  0.024  0.000  0.000  0.000  0.000  0.000  0.324
tot    0.120  0.366  0.113  0.048  0.000  0.000  0.000  0.000  0.000  0.648
 
band     4 # energy    5.82776740 # occ.  2.00000000
 
ion      s     py     pz     px    dxy    dyz    dz2    dxz  x2-y2    tot
    1  0.000  0.029  0.232  0.087  0.000  0.000  0.000  0.000  0.000  0.348
    2  0.000  0.029  0.232  0.087  0.000  0.000  0.000  0.000  0.000  0.348
tot    0.000  0.058  0.464  0.174  0.000  0.000  0.000  0.000  0.000  0.697
 
band     5 # energy   16.86911766 # occ.  0.00000000
 
ion      s     py     pz     px    dxy    dyz    dz2    dxz  x2-y2    tot
    1  0.076  0.074  0.033  0.033  0.000  0.000  0.000  0.000  0.000  0.216
    2  0.076  0.074  0.033  0.033  0.000  0.000  0.000  0.000  0.000  0.216
tot    0.152  0.148  0.066  0.065  0.000  0.000  0.000  0.000  0.000  0.431
 
band     6 # energy   20.45526762 # occ.  0.00000000
 
ion      s     py     pz     px    dxy    dyz    dz2    dxz  x2-y2    tot
    1  0.000  0.026  0.205  0.077  0.000  0.000  0.000  0.000  0.000  0.308
    2  0.000  0.026  0.205  0.077  0.000  0.000  0.000  0.000  0.000  0.308
tot    0.000  0.051  0.411  0.154  0.000  0.000  0.000  0.000  0.000  0.616
 
band     7 # energy   21.59142180 # occ.  0.00000000
 
ion      s     py     pz     px    dxy    dyz    dz2    dxz  x2-y2    tot
    1  0.160  0.135  0.027  0.013  0.000  0.000  0.000  0.000  0.000  0.335
    2  0.160  0.135  0.027  0.013  0.000  0.000  0.000  0.000  0.000  0.335
tot    0.319  0.270  0.054  0.026  0.000  0.000  0.000  0.000  0.000  0.669
 
band     8 # energy   24.80473555 # occ.  0.00000000
 
ion      s     py     pz     px    dxy    dyz    dz2    dxz  x2-y2    tot
    1  0.031  0.116  0.043  0.150  0.000  0.000  0.000  0.000  0.000  0.340
    2  0.031  0.116  0.043  0.150  0.000  0.000  0.000  0.000  0.000  0.340
tot    0.062  0.232  0.087  0.299  0.000  0.000  0.000  0.000  0.000  0.680
 

 k-point    21 :   -0.30000000 0.20000000 0.00000000     weight = 0.02400000

band     1 # energy   -7.22483003 # occ.  2.00000000
 
ion      s     py     pz     px    dxy    dyz    dz2    dxz  x2-y2    tot
    1  0.246  0.034  0.001  0.018  0.000  0.000  0.000  0.000  0.000  0.299
    2  0.246  0.034  0.001  0.018  0.000  0.000  0.000  0.000  0.000  0.299
tot    0.492  0.068  0.002  0.037  0.000  0.000  0.000  0.000  0.000  0.599
 
band     2 # energy    0.00692916 # occ.  2.00000000
 
ion      s     py     pz     px    dxy    dyz    dz2    dxz  x2-y2    tot
    1  0.116  0.022  0.033  0.140  0.000  0.000  0.000  0.000  0.000  0.310
    2  0.116  0.022  0.033  0.140  0.000  0.000  0.000  0.000  0.000  0.310
tot    0.231  0.045  0.065  0.279  0.000  0.000  0.000  0.000  0.000  0.621
 
band     3 # energy    3.08587329 # occ.  2.00000000
 
ion      s     py     pz     px    dxy    dyz    dz2    dxz  x2-y2    tot
    1  0.055  0.186  0.053  0.023  0.000  0.000  0.000  0.000  0.000  0.317
    2  0.055  0.186  0.053  0.023  0.000  0.000  0.000  0.000  0.000  0.317
tot    0.110  0.371  0.107  0.047  0.000  0.000  0.000  0.000  0.000  0.634
 
band     4 # energy    6.67021695 # occ.  2.00000000
 
ion      s     py     pz     px    dxy    dyz    dz2    dxz  x2-y2    tot
    1  0.000  0.030  0.237  0.089  0.000  0.000  0.000  0.000  0.000  0.356
    2  0.000  0.030  0.237  0.089  0.000  0.000  0.000  0.000  0.000  0.356
tot    0.000  0.059  0.475  0.178  0.000  0.000  0.000  0.000  0.000  0.712
 
band     5 # energy   17.59523123 # occ.  0.00000000
 
ion      s     py     pz     px    dxy    dyz    dz2    dxz  x2-y2    tot
    1  0.076  0.072  0.038  0.053  0.000  0.000  0.000  0.000  0.000  0.240
    2  0.076  0.072  0.038  0.053  0.000  0.000  0.000  0.000  0.000  0.240
tot    0.152  0.145  0.077  0.107  0.000  0.000  0.000  0.000  0.000  0.480
 
band     6 # energy   19.44019206 # occ.  0.00000000
 
ion      s     py     pz     px    dxy    dyz    dz2    dxz  x2-y2    tot
    1  0.000  0.026  0.209  0.078  0.000  0.000  0.000  0.000  0.000  0.313
    2  0.000  0.026  0.209  0.078  0.000  0.000  0.000  0.000  0.000  0.313
tot    0.000  0.052  0.418  0.157  0.000  0.000  0.000  0.000  0.000  0.626
 
band     7 # energy   21.30135048 # occ.  0.00000000
 
ion      s     py     pz     px    dxy    dyz    dz2    dxz  x2-y2    tot
    1  0.112  0.106  0.052  0.052  0.000  0.000  0.000  0.000  0.000  0.321
    2  0.112  0.106  0.052  0.052  0.000  0.000  0.000  0.000  0.000  0.321
tot    0.225  0.211  0.103  0.104  0.000  0.000  0.000  0.000  0.000  0.643
 
band     8 # energy   24.01536471 # occ.  0.00000000
 
ion      s     py     pz     px    dxy    dyz    dz2    dxz  x2-y2    tot
    1  0.100  0.072  0.031  0.135  0.000  0.000  0.000  0.000  0.000  0.339
    2  0.100  0.072  0.031  0.135  0.000  0.000  0.000  0.000  0.000  0.339
tot    0.200  0.144  0.063  0.271  0.000  0.000  0.000  0.000  0.000  0.677
 

 k-point    22 :   -0.20000000 0.20000000 0.00000000     weight = 0.01200000

band     1 # energy   -8.86094548 # occ.  2.00000000
 
ion      s     py     pz     px    dxy    dyz    dz2    dxz  x2-y2    tot
    1  0.253  0.027  0.000  0.009  0.000  0.000  0.000  0.000  0.000  0.289
    2  0.253  0.027  0.000  0.009  0.000  0.000  0.000  0.000  0.000  0.289
tot    0.506  0.054  0.000  0.018  0.000  0.000  0.000  0.000  0.000  0.579
 
band     2 # energy    2.69184081 # occ.  2.00000000
 
ion      s     py     pz     px    dxy    dyz    dz2    dxz  x2-y2    tot
    1  0.109  0.117  0.030  0.080  0.000  0.000  0.000  0.000  0.000  0.336
    2  0.109  0.117  0.030  0.080  0.000  0.000  0.000  0.000  0.000  0.336
tot    0.218  0.234  0.061  0.159  0.000  0.000  0.000  0.000  0.000  0.673
 
band     3 # energy    3.67516220 # occ.  2.00000000
 
ion      s     py     pz     px    dxy    dyz    dz2    dxz  x2-y2    tot
    1  0.030  0.105  0.059  0.114  0.000  0.000  0.000  0.000  0.000  0.308
    2  0.030  0.105  0.059  0.114  0.000  0.000  0.000  0.000  0.000  0.308
tot    0.060  0.210  0.118  0.228  0.000  0.000  0.000  0.000  0.000  0.616
 
band     4 # energy    7.67129500 # occ.  2.00000000
 
ion      s     py     pz     px    dxy    dyz    dz2    dxz  x2-y2    tot
    1  0.000  0.030  0.244  0.091  0.000  0.000  0.000  0.000  0.000  0.365
    2  0.000  0.030  0.244  0.091  0.000  0.000  0.000  0.000  0.000  0.365
tot    0.000  0.061  0.487  0.183  0.000  0.000  0.000  0.000  0.000  0.731
 
band     5 # energy   18.10251203 # occ.  0.00000000
 
ion      s     py     pz     px    dxy    dyz    dz2    dxz  x2-y2    tot
    1  0.000  0.026  0.207  0.078  0.000  0.000  0.000  0.000  0.000  0.311
    2  0.000  0.026  0.207  0.078  0.000  0.000  0.000  0.000  0.000  0.311
tot    0.000  0.052  0.414  0.156  0.000  0.000  0.000  0.000  0.000  0.622
 
band     6 # energy   18.18656412 # occ.  0.00000000
 
ion      s     py     pz     px    dxy    dyz    dz2    dxz  x2-y2    tot
    1  0.076  0.066  0.051  0.090  0.000  0.000  0.000  0.000  0.000  0.283
    2  0.076  0.066  0.051  0.090  0.000  0.000  0.000  0.000  0.000  0.283
tot    0.152  0.132  0.102  0.180  0.000  0.000  0.000  0.000  0.000  0.566
 
band     7 # energy   20.08727964 # occ.  0.00000000
 
ion      s     py     pz     px    dxy    dyz    dz2    dxz  x2-y2    tot
    1  0.055  0.076  0.067  0.115  0.000  0.000  0.000  0.000  0.000  0.314
    2  0.055  0.076  0.067  0.115  0.000  0.000  0.000  0.000  0.000  0.314
tot    0.109  0.153  0.135  0.231  0.000  0.000  0.000  0.000  0.000  0.628
 
band     8 # energy   23.22326858 # occ.  0.00000000
 
ion      s     py     pz     px    dxy    dyz    dz2    dxz  x2-y2    tot
    1  0.166  0.107  0.004  0.041  0.000  0.000  0.000  0.000  0.000  0.318
    2  0.166  0.107  0.004  0.041  0.000  0.000  0.000  0.000  0.000  0.318
tot    0.332  0.215  0.008  0.082  0.000  0.000  0.000  0.000  0.000  0.636
 

 k-point    23 :    0.30000000 0.30000000 0.00000000     weight = 0.00600000

band     1 # energy   -8.49414122 # occ.  2.00000000
 
ion      s     py     pz     px    dxy    dyz    dz2    dxz  x2-y2    tot
    1  0.248  0.007  0.014  0.021  0.000  0.000  0.000  0.000  0.000  0.291
    2  0.248  0.007  0.014  0.021  0.000  0.000  0.000  0.000  0.000  0.291
tot    0.497  0.014  0.028  0.042  0.000  0.000  0.000  0.000  0.000  0.581
 
band     2 # energy    3.57726256 # occ.  2.00000000
 
ion      s     py     pz     px    dxy    dyz    dz2    dxz  x2-y2    tot
    1  0.147  0.035  0.070  0.106  0.000  0.000  0.000  0.000  0.000  0.358
    2  0.147  0.035  0.070  0.106  0.000  0.000  0.000  0.000  0.000  0.358
tot    0.294  0.070  0.141  0.211  0.000  0.000  0.000  0.000  0.000  0.716
 
band     3 # energy    4.78818115 # occ.  2.00000000
 
ion      s     py     pz     px    dxy    dyz    dz2    dxz  x2-y2    tot
    1  0.000  0.028  0.222  0.083  0.000  0.000  0.000  0.000  0.000  0.333
    2  0.000  0.028  0.222  0.083  0.000  0.000  0.000  0.000  0.000  0.333
tot    0.000  0.056  0.444  0.167  0.000  0.000  0.000  0.000  0.000  0.666
 
band     4 # energy    4.78820542 # occ.  2.00000000
 
ion      s     py     pz     px    dxy    dyz    dz2    dxz  x2-y2    tot
    1  0.000  0.250  0.000  0.083  0.000  0.000  0.000  0.000  0.000  0.333
    2  0.000  0.250  0.000  0.083  0.000  0.000  0.000  0.000  0.000  0.333
tot    0.000  0.500  0.000  0.167  0.000  0.000  0.000  0.000  0.000  0.666
 
band     5 # energy   13.86633895 # occ.  0.00000000
 
ion      s     py     pz     px    dxy    dyz    dz2    dxz  x2-y2    tot
    1  0.094  0.022  0.044  0.066  0.000  0.000  0.000  0.000  0.000  0.226
    2  0.094  0.022  0.044  0.066  0.000  0.000  0.000  0.000  0.000  0.226
tot    0.189  0.044  0.088  0.132  0.000  0.000  0.000  0.000  0.000  0.453
 
band     6 # energy   18.29837367 # occ.  0.00000000
 
ion      s     py     pz     px    dxy    dyz    dz2    dxz  x2-y2    tot
    1  0.113  0.007  0.014  0.021  0.000  0.000  0.000  0.000  0.000  0.155
    2  0.113  0.007  0.014  0.021  0.000  0.000  0.000  0.000  0.000  0.155
tot    0.225  0.014  0.028  0.042  0.000  0.000  0.000  0.000  0.000  0.310
 
band     7 # energy   22.67950351 # occ.  0.00000000
 
ion      s     py     pz     px    dxy    dyz    dz2    dxz  x2-y2    tot
    1  0.000  0.031  0.245  0.092  0.000  0.000  0.000  0.000  0.000  0.367
    2  0.000  0.031  0.245  0.092  0.000  0.000  0.000  0.000  0.000  0.367
tot    0.000  0.061  0.490  0.184  0.000  0.000  0.000  0.000  0.000  0.735
 
band     8 # energy   22.67959580 # occ.  0.00000000
 
ion      s     py     pz     px    dxy    dyz    dz2    dxz  x2-y2    tot
    1  0.000  0.276  0.000  0.092  0.000  0.000  0.000  0.000  0.000  0.367
    2  0.000  0.276  0.000  0.092  0.000  0.000  0.000  0.000  0.000  0.367
tot    0.000  0.551  0.000  0.184  0.000  0.000  0.000  0.000  0.000  0.735
 

 k-point    24 :    0.40000000 0.30000000 0.00000000     weight = 0.02400000

band     1 # energy   -7.18144362 # occ.  2.00000000
 
ion      s     py     pz     px    dxy    dyz    dz2    dxz  x2-y2    tot
    1  0.239  0.004  0.019  0.036  0.000  0.000  0.000  0.000  0.000  0.297
    2  0.239  0.004  0.019  0.036  0.000  0.000  0.000  0.000  0.000  0.297
tot    0.478  0.008  0.037  0.071  0.000  0.000  0.000  0.000  0.000  0.594
 
band     2 # energy    1.61226204 # occ.  2.00000000
 
ion      s     py     pz     px    dxy    dyz    dz2    dxz  x2-y2    tot
    1  0.160  0.021  0.046  0.120  0.000  0.000  0.000  0.000  0.000  0.347
    2  0.160  0.021  0.046  0.120  0.000  0.000  0.000  0.000  0.000  0.347
tot    0.319  0.042  0.092  0.240  0.000  0.000  0.000  0.000  0.000  0.694
 
band     3 # energy    3.69655315 # occ.  2.00000000
 
ion      s     py     pz     px    dxy    dyz    dz2    dxz  x2-y2    tot
    1  0.017  0.241  0.018  0.042  0.000  0.000  0.000  0.000  0.000  0.318
    2  0.017  0.241  0.018  0.042  0.000  0.000  0.000  0.000  0.000  0.318
tot    0.035  0.483  0.035  0.084  0.000  0.000  0.000  0.000  0.000  0.636
 
band     4 # energy    4.31955780 # occ.  2.00000000
 
ion      s     py     pz     px    dxy    dyz    dz2    dxz  x2-y2    tot
    1  0.000  0.028  0.221  0.083  0.000  0.000  0.000  0.000  0.000  0.332
    2  0.000  0.028  0.221  0.083  0.000  0.000  0.000  0.000  0.000  0.332
tot    0.000  0.055  0.443  0.166  0.000  0.000  0.000  0.000  0.000  0.664
 
band     5 # energy   14.42183916 # occ.  0.00000000
 
ion      s     py     pz     px    dxy    dyz    dz2    dxz  x2-y2    tot
    1  0.097  0.060  0.034  0.027  0.000  0.000  0.000  0.000  0.000  0.218
    2  0.097  0.060  0.034  0.027  0.000  0.000  0.000  0.000  0.000  0.218
tot    0.194  0.120  0.068  0.054  0.000  0.000  0.000  0.000  0.000  0.436
 
band     6 # energy   17.64120580 # occ.  0.00000000
 
ion      s     py     pz     px    dxy    dyz    dz2    dxz  x2-y2    tot
    1  0.101  0.008  0.013  0.041  0.000  0.000  0.000  0.000  0.000  0.163
    2  0.101  0.008  0.013  0.041  0.000  0.000  0.000  0.000  0.000  0.163
tot    0.202  0.015  0.026  0.083  0.000  0.000  0.000  0.000  0.000  0.326
 
band     7 # energy   23.66274202 # occ.  0.00000000
 
ion      s     py     pz     px    dxy    dyz    dz2    dxz  x2-y2    tot
    1  0.000  0.031  0.247  0.093  0.000  0.000  0.000  0.000  0.000  0.371
    2  0.000  0.031  0.247  0.093  0.000  0.000  0.000  0.000  0.000  0.371
tot    0.000  0.062  0.494  0.185  0.000  0.000  0.000  0.000  0.000  0.741
 
band     8 # energy   23.71241480 # occ.  0.00000000
 
ion      s     py     pz     px    dxy    dyz    dz2    dxz  x2-y2    tot
    1  0.027  0.287  0.002  0.057  0.000  0.000  0.000  0.000  0.000  0.374
    2  0.027  0.287  0.002  0.057  0.000  0.000  0.000  0.000  0.000  0.374
tot    0.054  0.574  0.005  0.115  0.000  0.000  0.000  0.000  0.000  0.748
 

 k-point    25 :    0.50000000 0.30000000 0.00000000     weight = 0.02400000

band     1 # energy   -5.44855585 # occ.  2.00000000
 
ion      s     py     pz     px    dxy    dyz    dz2    dxz  x2-y2    tot
    1  0.234  0.004  0.023  0.048  0.000  0.000  0.000  0.000  0.000  0.309
    2  0.234  0.004  0.023  0.048  0.000  0.000  0.000  0.000  0.000  0.309
tot    0.469  0.008  0.045  0.097  0.000  0.000  0.000  0.000  0.000  0.619
 
band     2 # energy   -0.55499870 # occ.  2.00000000
 
ion      s     py     pz     px    dxy    dyz    dz2    dxz  x2-y2    tot
    1  0.165  0.037  0.024  0.104  0.000  0.000  0.000  0.000  0.000  0.329
    2  0.165  0.037  0.024  0.104  0.000  0.000  0.000  0.000  0.000  0.329
tot    0.329  0.074  0.047  0.207  0.000  0.000  0.000  0.000  0.000  0.658
 
band     3 # energy    2.16767744 # occ.  2.00000000
 
ion      s     py     pz     px    dxy    dyz    dz2    dxz  x2-y2    tot
    1  0.038  0.196  0.035  0.031  0.000  0.000  0.000  0.000  0.000  0.300
    2  0.038  0.196  0.035  0.031  0.000  0.000  0.000  0.000  0.000  0.300
tot    0.076  0.392  0.070  0.062  0.000  0.000  0.000  0.000  0.000  0.600
 
band     4 # energy    4.31543212 # occ.  2.00000000
 
ion      s     py     pz     px    dxy    dyz    dz2    dxz  x2-y2    tot
    1  0.000  0.028  0.223  0.084  0.000  0.000  0.000  0.000  0.000  0.334
    2  0.000  0.028  0.223  0.084  0.000  0.000  0.000  0.000  0.000  0.334
tot    0.000  0.056  0.446  0.167  0.000  0.000  0.000  0.000  0.000  0.668
 
band     5 # energy   15.18673816 # occ.  0.00000000
 
ion      s     py     pz     px    dxy    dyz    dz2    dxz  x2-y2    tot
    1  0.099  0.052  0.026  0.018  0.000  0.000  0.000  0.000  0.000  0.195
    2  0.099  0.052  0.026  0.018  0.000  0.000  0.000  0.000  0.000  0.195
tot    0.197  0.104  0.051  0.037  0.000  0.000  0.000  0.000  0.000  0.389
 
band     6 # energy   19.16459423 # occ.  0.00000000
 
ion      s     py     pz     px    dxy    dyz    dz2    dxz  x2-y2    tot
    1  0.075  0.067  0.016  0.060  0.000  0.000  0.000  0.000  0.000  0.218
    2  0.075  0.067  0.016  0.060  0.000  0.000  0.000  0.000  0.000  0.218
tot    0.150  0.134  0.033  0.119  0.000  0.000  0.000  0.000  0.000  0.437
 
band     7 # energy   23.64268470 # occ.  0.00000000
 
ion      s     py     pz     px    dxy    dyz    dz2    dxz  x2-y2    tot
    1  0.000  0.030  0.240  0.090  0.000  0.000  0.000  0.000  0.000  0.359
    2  0.000  0.030  0.240  0.090  0.000  0.000  0.000  0.000  0.000  0.359
tot    0.000  0.060  0.479  0.180  0.000  0.000  0.000  0.000  0.000  0.719
 
band     8 # energy   24.08086517 # occ.  0.00000000
 
ion      s     py     pz     px    dxy    dyz    dz2    dxz  x2-y2    tot
    1  0.072  0.256  0.009  0.032  0.000  0.000  0.000  0.000  0.000  0.369
    2  0.072  0.256  0.009  0.032  0.000  0.000  0.000  0.000  0.000  0.369
tot    0.145  0.512  0.018  0.063  0.000  0.000  0.000  0.000  0.000  0.738
 

 k-point    26 :   -0.40000000 0.30000000 0.00000000     weight = 0.02400000

band     1 # energy   -4.11221820 # occ.  2.00000000
 
ion      s     py     pz     px    dxy    dyz    dz2    dxz  x2-y2    tot
    1  0.263  0.030  0.013  0.026  0.000  0.000  0.000  0.000  0.000  0.332
    2  0.263  0.030  0.013  0.026  0.000  0.000  0.000  0.000  0.000  0.332
tot    0.526  0.060  0.026  0.053  0.000  0.000  0.000  0.000  0.000  0.665
 
band     2 # energy   -1.97053350 # occ.  2.00000000
 
ion      s     py     pz     px    dxy    dyz    dz2    dxz  x2-y2    tot
    1  0.133  0.024  0.026  0.118  0.000  0.000  0.000  0.000  0.000  0.301
    2  0.133  0.024  0.026  0.118  0.000  0.000  0.000  0.000  0.000  0.301
tot    0.266  0.047  0.052  0.237  0.000  0.000  0.000  0.000  0.000  0.602
 
band     3 # energy    1.02478215 # occ.  2.00000000
 
ion      s     py     pz     px    dxy    dyz    dz2    dxz  x2-y2    tot
    1  0.049  0.168  0.042  0.031  0.000  0.000  0.000  0.000  0.000  0.291
    2  0.049  0.168  0.042  0.031  0.000  0.000  0.000  0.000  0.000  0.291
tot    0.098  0.337  0.085  0.063  0.000  0.000  0.000  0.000  0.000  0.582
 
band     4 # energy    4.77207648 # occ.  2.00000000
 
ion      s     py     pz     px    dxy    dyz    dz2    dxz  x2-y2    tot
    1  0.000  0.028  0.226  0.085  0.000  0.000  0.000  0.000  0.000  0.339
    2  0.000  0.028  0.226  0.085  0.000  0.000  0.000  0.000  0.000  0.339
tot    0.000  0.056  0.451  0.169  0.000  0.000  0.000  0.000  0.000  0.677
 
band     5 # energy   15.76424059 # occ.  0.00000000
 
ion      s     py     pz     px    dxy    dyz    dz2    dxz  x2-y2    tot
    1  0.095  0.042  0.024  0.030  0.000  0.000  0.000  0.000  0.000  0.191
    2  0.095  0.042  0.024  0.030  0.000  0.000  0.000  0.000  0.000  0.191
tot    0.189  0.085  0.047  0.060  0.000  0.000  0.000  0.000  0.000  0.381
 
band     6 # energy   22.16733266 # occ.  0.00000000
 
ion      s     py     pz     px    dxy    dyz    dz2    dxz  x2-y2    tot
    1  0.060  0.123  0.027  0.080  0.000  0.000  0.000  0.000  0.000  0.290
    2  0.060  0.123  0.027  0.080  0.000  0.000  0.000  0.000  0.000  0.290
tot    0.121  0.246  0.055  0.160  0.000  0.000  0.000  0.000  0.000  0.581
 
band     7 # energy   22.81064348 # occ.  0.00000000
 
ion      s     py     pz     px    dxy    dyz    dz2    dxz  x2-y2    tot
    1  0.000  0.029  0.233  0.087  0.000  0.000  0.000  0.000  0.000  0.350
    2  0.000  0.029  0.233  0.087  0.000  0.000  0.000  0.000  0.000  0.350
tot    0.000  0.058  0.466  0.175  0.000  0.000  0.000  0.000  0.000  0.699
 
band     8 # energy   24.16022018 # occ.  0.00000000
 
ion      s     py     pz     px    dxy    dyz    dz2    dxz  x2-y2    tot
    1  0.098  0.214  0.014  0.026  0.000  0.000  0.000  0.000  0.000  0.352
    2  0.098  0.214  0.014  0.026  0.000  0.000  0.000  0.000  0.000  0.352
tot    0.197  0.428  0.028  0.052  0.000  0.000  0.000  0.000  0.000  0.705
 

 k-point    27 :   -0.30000000 0.30000000 0.00000000     weight = 0.01200000

band     1 # energy   -5.53409222 # occ.  2.00000000
 
ion      s     py     pz     px    dxy    dyz    dz2    dxz  x2-y2    tot
    1  0.244  0.048  0.002  0.019  0.000  0.000  0.000  0.000  0.000  0.313
    2  0.244  0.048  0.002  0.019  0.000  0.000  0.000  0.000  0.000  0.313
tot    0.487  0.096  0.004  0.038  0.000  0.000  0.000  0.000  0.000  0.625
 
band     2 # energy   -0.46261821 # occ.  2.00000000
 
ion      s     py     pz     px    dxy    dyz    dz2    dxz  x2-y2    tot
    1  0.162  0.064  0.034  0.067  0.000  0.000  0.000  0.000  0.000  0.327
    2  0.162  0.064  0.034  0.067  0.000  0.000  0.000  0.000  0.000  0.327
tot    0.324  0.128  0.069  0.134  0.000  0.000  0.000  0.000  0.000  0.655
 
band     3 # energy    0.83263836 # occ.  2.00000000
 
ion      s     py     pz     px    dxy    dyz    dz2    dxz  x2-y2    tot
    1  0.033  0.105  0.046  0.097  0.000  0.000  0.000  0.000  0.000  0.281
    2  0.033  0.105  0.046  0.097  0.000  0.000  0.000  0.000  0.000  0.281
tot    0.066  0.210  0.092  0.193  0.000  0.000  0.000  0.000  0.000  0.562
 
band     4 # energy    5.61870577 # occ.  2.00000000
 
ion      s     py     pz     px    dxy    dyz    dz2    dxz  x2-y2    tot
    1  0.000  0.029  0.231  0.086  0.000  0.000  0.000  0.000  0.000  0.346
    2  0.000  0.029  0.231  0.086  0.000  0.000  0.000  0.000  0.000  0.346
tot    0.000  0.058  0.461  0.173  0.000  0.000  0.000  0.000  0.000  0.692
 
band     5 # energy   16.59951506 # occ.  0.00000000
 
ion      s     py     pz     px    dxy    dyz    dz2    dxz  x2-y2    tot
    1  0.086  0.042  0.028  0.051  0.000  0.000  0.000  0.000  0.000  0.206
    2  0.086  0.042  0.028  0.051  0.000  0.000  0.000  0.000  0.000  0.206
tot    0.171  0.084  0.055  0.102  0.000  0.000  0.000  0.000  0.000  0.412
 
band     6 # energy   21.32061435 # occ.  0.00000000
 
ion      s     py     pz     px    dxy    dyz    dz2    dxz  x2-y2    tot
    1  0.000  0.028  0.225  0.084  0.000  0.000  0.000  0.000  0.000  0.337
    2  0.000  0.028  0.225  0.084  0.000  0.000  0.000  0.000  0.000  0.337
tot    0.000  0.056  0.450  0.169  0.000  0.000  0.000  0.000  0.000  0.675
 
band     7 # energy   23.68413675 # occ.  0.00000000
 
ion      s     py     pz     px    dxy    dyz    dz2    dxz  x2-y2    tot
    1  0.072  0.091  0.079  0.135  0.000  0.000  0.000  0.000  0.000  0.377
    2  0.072  0.090  0.079  0.135  0.000  0.000  0.000  0.000  0.000  0.377
tot    0.144  0.181  0.158  0.271  0.000  0.000  0.000  0.000  0.000  0.753
 
band     8 # energy   24.06616199 # occ.  0.00000000
 
ion      s     py     pz     px    dxy    dyz    dz2    dxz  x2-y2    tot
    1  0.129  0.152  0.013  0.068  0.000  0.000  0.000  0.000  0.000  0.363
    2  0.129  0.152  0.013  0.068  0.000  0.000  0.000  0.000  0.000  0.363
tot    0.259  0.305  0.026  0.136  0.000  0.000  0.000  0.000  0.000  0.726
 

 k-point    28 :    0.40000000 0.40000000 0.00000000     weight = 0.00600000

band     1 # energy   -6.05322171 # occ.  2.00000000
 
ion      s     py     pz     px    dxy    dyz    dz2    dxz  x2-y2    tot
    1  0.229  0.012  0.024  0.037  0.000  0.000  0.000  0.000  0.000  0.303
    2  0.229  0.012  0.024  0.037  0.000  0.000  0.000  0.000  0.000  0.303
tot    0.459  0.024  0.049  0.073  0.000  0.000  0.000  0.000  0.000  0.605
 
band     2 # energy    0.23786599 # occ.  2.00000000
 
ion      s     py     pz     px    dxy    dyz    dz2    dxz  x2-y2    tot
    1  0.182  0.026  0.052  0.078  0.000  0.000  0.000  0.000  0.000  0.339
    2  0.182  0.026  0.052  0.078  0.000  0.000  0.000  0.000  0.000  0.339
tot    0.364  0.052  0.105  0.157  0.000  0.000  0.000  0.000  0.000  0.678
 
band     3 # energy    3.74004338 # occ.  2.00000000
 
ion      s     py     pz     px    dxy    dyz    dz2    dxz  x2-y2    tot
    1  0.000  0.027  0.220  0.082  0.000  0.000  0.000  0.000  0.000  0.330
    2  0.000  0.027  0.220  0.082  0.000  0.000  0.000  0.000  0.000  0.330
tot    0.000  0.055  0.439  0.165  0.000  0.000  0.000  0.000  0.000  0.659
 
band     4 # energy    3.74006553 # occ.  2.00000000
 
ion      s     py     pz     px    dxy    dyz    dz2    dxz  x2-y2    tot
    1  0.000  0.247  0.000  0.082  0.000  0.000  0.000  0.000  0.000  0.330
    2  0.000  0.247  0.000  0.082  0.000  0.000  0.000  0.000  0.000  0.330
tot    0.000  0.494  0.000  0.165  0.000  0.000  0.000  0.000  0.000  0.659
 
band     5 # energy   13.80248560 # occ.  0.00000000
 
ion      s     py     pz     px    dxy    dyz    dz2    dxz  x2-y2    tot
    1  0.115  0.014  0.028  0.041  0.000  0.000  0.000  0.000  0.000  0.197
    2  0.115  0.014  0.028  0.041  0.000  0.000  0.000  0.000  0.000  0.197
tot    0.229  0.028  0.055  0.083  0.000  0.000  0.000  0.000  0.000  0.395
 
band     6 # energy   15.83961404 # occ.  0.00000000
 
ion      s     py     pz     px    dxy    dyz    dz2    dxz  x2-y2    tot
    1  0.112  0.007  0.013  0.020  0.000  0.000  0.000  0.000  0.000  0.152
    2  0.112  0.007  0.013  0.020  0.000  0.000  0.000  0.000  0.000  0.152
tot    0.225  0.013  0.026  0.039  0.000  0.000  0.000  0.000  0.000  0.303
 
band     7 # energy   25.24930714 # occ.  0.00000000
 
ion      s     py     pz     px    dxy    dyz    dz2    dxz  x2-y2    tot
    1  0.000  0.033  0.266  0.100  0.000  0.000  0.000  0.000  0.000  0.399
    2  0.000  0.033  0.266  0.100  0.000  0.000  0.000  0.000  0.000  0.399
tot    0.000  0.066  0.531  0.199  0.000  0.000  0.000  0.000  0.000  0.797
 
band     8 # energy   25.24942366 # occ.  0.00000000
 
ion      s     py     pz     px    dxy    dyz    dz2    dxz  x2-y2    tot
    1  0.000  0.299  0.000  0.100  0.000  0.000  0.000  0.000  0.000  0.399
    2  0.000  0.299  0.000  0.100  0.000  0.000  0.000  0.000  0.000  0.399
tot    0.000  0.598  0.000  0.199  0.000  0.000  0.000  0.000  0.000  0.797
 

 k-point    29 :    0.50000000 0.40000000 0.00000000     weight = 0.02400000

band     1 # energy   -4.48124701 # occ.  2.00000000
 
ion      s     py     pz     px    dxy    dyz    dz2    dxz  x2-y2    tot
    1  0.221  0.010  0.030  0.052  0.000  0.000  0.000  0.000  0.000  0.312
    2  0.221  0.010  0.030  0.052  0.000  0.000  0.000  0.000  0.000  0.312
tot    0.441  0.019  0.060  0.104  0.000  0.000  0.000  0.000  0.000  0.624
 
band     2 # energy   -1.38844681 # occ.  2.00000000
 
ion      s     py     pz     px    dxy    dyz    dz2    dxz  x2-y2    tot
    1  0.200  0.023  0.042  0.066  0.000  0.000  0.000  0.000  0.000  0.332
    2  0.200  0.023  0.042  0.066  0.000  0.000  0.000  0.000  0.000  0.332
tot    0.399  0.047  0.085  0.132  0.000  0.000  0.000  0.000  0.000  0.663
 
band     3 # energy    2.63829086 # occ.  2.00000000
 
ion      s     py     pz     px    dxy    dyz    dz2    dxz  x2-y2    tot
    1  0.007  0.227  0.004  0.071  0.000  0.000  0.000  0.000  0.000  0.309
    2  0.007  0.227  0.004  0.071  0.000  0.000  0.000  0.000  0.000  0.309
tot    0.014  0.454  0.008  0.142  0.000  0.000  0.000  0.000  0.000  0.618
 
band     4 # energy    3.62423191 # occ.  2.00000000
 
ion      s     py     pz     px    dxy    dyz    dz2    dxz  x2-y2    tot
    1  0.000  0.027  0.220  0.082  0.000  0.000  0.000  0.000  0.000  0.330
    2  0.000  0.027  0.220  0.082  0.000  0.000  0.000  0.000  0.000  0.330
tot    0.000  0.055  0.440  0.165  0.000  0.000  0.000  0.000  0.000  0.660
 
band     5 # energy   14.47317341 # occ.  0.00000000
 
ion      s     py     pz     px    dxy    dyz    dz2    dxz  x2-y2    tot
    1  0.113  0.033  0.021  0.017  0.000  0.000  0.000  0.000  0.000  0.184
    2  0.113  0.033  0.021  0.017  0.000  0.000  0.000  0.000  0.000  0.184
tot    0.226  0.065  0.042  0.035  0.000  0.000  0.000  0.000  0.000  0.367
 
band     6 # energy   15.93566915 # occ.  0.00000000
 
ion      s     py     pz     px    dxy    dyz    dz2    dxz  x2-y2    tot
    1  0.102  0.022  0.015  0.043  0.000  0.000  0.000  0.000  0.000  0.182
    2  0.102  0.022  0.015  0.043  0.000  0.000  0.000  0.000  0.000  0.182
tot    0.205  0.043  0.030  0.085  0.000  0.000  0.000  0.000  0.000  0.364
 
band     7 # energy   25.62139863 # occ.  0.00000000
 
ion      s     py     pz     px    dxy    dyz    dz2    dxz  x2-y2    tot
    1  0.000  0.034  0.268  0.101  0.000  0.000  0.000  0.000  0.000  0.402
    2  0.000  0.034  0.268  0.101  0.000  0.000  0.000  0.000  0.000  0.402
tot    0.000  0.067  0.536  0.201  0.000  0.000  0.000  0.000  0.000  0.804
 
band     8 # energy   25.80519612 # occ.  0.00000000
 
ion      s     py     pz     px    dxy    dyz    dz2    dxz  x2-y2    tot
    1  0.018  0.306  0.003  0.079  0.000  0.000  0.000  0.000  0.000  0.406
    2  0.018  0.306  0.003  0.079  0.000  0.000  0.000  0.000  0.000  0.406
tot    0.037  0.612  0.006  0.157  0.000  0.000  0.000  0.000  0.000  0.812
 

 k-point    30 :   -0.40000000 0.40000000 0.00000000     weight = 0.01200000

band     1 # energy   -3.03404736 # occ.  2.00000000
 
ion      s     py     pz     px    dxy    dyz    dz2    dxz  x2-y2    tot
    1  0.245  0.021  0.027  0.043  0.000  0.000  0.000  0.000  0.000  0.335
    2  0.245  0.021  0.027  0.043  0.000  0.000  0.000  0.000  0.000  0.335
tot    0.489  0.042  0.054  0.086  0.000  0.000  0.000  0.000  0.000  0.671
 
band     2 # energy   -2.41686738 # occ.  2.00000000
 
ion      s     py     pz     px    dxy    dyz    dz2    dxz  x2-y2    tot
    1  0.196  0.030  0.036  0.059  0.000  0.000  0.000  0.000  0.000  0.321
    2  0.196  0.030  0.036  0.059  0.000  0.000  0.000  0.000  0.000  0.321
tot    0.392  0.060  0.073  0.117  0.000  0.000  0.000  0.000  0.000  0.643
 
band     3 # energy    0.92492369 # occ.  2.00000000
 
ion      s     py     pz     px    dxy    dyz    dz2    dxz  x2-y2    tot
    1  0.003  0.178  0.015  0.079  0.000  0.000  0.000  0.000  0.000  0.276
    2  0.003  0.178  0.015  0.079  0.000  0.000  0.000  0.000  0.000  0.276
tot    0.006  0.357  0.030  0.159  0.000  0.000  0.000  0.000  0.000  0.551
 
band     4 # energy    3.98565443 # occ.  2.00000000
 
ion      s     py     pz     px    dxy    dyz    dz2    dxz  x2-y2    tot
    1  0.000  0.028  0.222  0.083  0.000  0.000  0.000  0.000  0.000  0.333
    2  0.000  0.028  0.222  0.083  0.000  0.000  0.000  0.000  0.000  0.333
tot    0.000  0.055  0.444  0.166  0.000  0.000  0.000  0.000  0.000  0.665
 
band     5 # energy   14.98324103 # occ.  0.00000000
 
ion      s     py     pz     px    dxy    dyz    dz2    dxz  x2-y2    tot
    1  0.108  0.018  0.019  0.032  0.000  0.000  0.000  0.000  0.000  0.178
    2  0.108  0.018  0.019  0.032  0.000  0.000  0.000  0.000  0.000  0.178
tot    0.216  0.037  0.039  0.064  0.000  0.000  0.000  0.000  0.000  0.356
 
band     6 # energy   18.60981964 # occ.  0.00000000
 
ion      s     py     pz     px    dxy    dyz    dz2    dxz  x2-y2    tot
    1  0.076  0.084  0.017  0.051  0.000  0.000  0.000  0.000  0.000  0.228
    2  0.076  0.084  0.017  0.051  0.000  0.000  0.000  0.000  0.000  0.228
tot    0.151  0.169  0.034  0.102  0.000  0.000  0.000  0.000  0.000  0.456
 
band     7 # energy   24.72766713 # occ.  0.00000000
 
ion      s     py     pz     px    dxy    dyz    dz2    dxz  x2-y2    tot
    1  0.000  0.032  0.257  0.096  0.000  0.000  0.000  0.000  0.000  0.385
    2  0.000  0.032  0.257  0.096  0.000  0.000  0.000  0.000  0.000  0.385
tot    0.000  0.064  0.513  0.192  0.000  0.000  0.000  0.000  0.000  0.770
 
band     8 # energy   25.55408976 # occ.  0.00000000
 
ion      s     py     pz     px    dxy    dyz    dz2    dxz  x2-y2    tot
    1  0.053  0.246  0.008  0.093  0.000  0.000  0.000  0.000  0.000  0.400
    2  0.053  0.246  0.008  0.093  0.000  0.000  0.000  0.000  0.000  0.400
tot    0.107  0.492  0.016  0.186  0.000  0.000  0.000  0.000  0.000  0.801
 

 k-point    31 :    0.50000000 0.50000000 0.00000000     weight = 0.00300000

band     1 # energy   -3.07643262 # occ.  2.00000000
 
ion      s     py     pz     px    dxy    dyz    dz2    dxz  x2-y2    tot
    1  0.216  0.018  0.036  0.053  0.000  0.000  0.000  0.000  0.000  0.323
    2  0.199  0.019  0.039  0.058  0.000  0.000  0.000  0.000  0.000  0.315
tot    0.415  0.037  0.074  0.111  0.000  0.000  0.000  0.000  0.000  0.638
 
band     2 # energy   -3.07643206 # occ.  2.00000000
 
ion      s     py     pz     px    dxy    dyz    dz2    dxz  x2-y2    tot
    1  0.199  0.019  0.039  0.058  0.000  0.000  0.000  0.000  0.000  0.315
    2  0.216  0.018  0.036  0.053  0.000  0.000  0.000  0.000  0.000  0.323
tot    0.415  0.037  0.074  0.111  0.000  0.000  0.000  0.000  0.000  0.638
 
band     3 # energy    3.38302812 # occ.  2.00000000
 
ion      s     py     pz     px    dxy    dyz    dz2    dxz  x2-y2    tot
    1  0.000  0.027  0.219  0.082  0.000  0.000  0.000  0.000  0.000  0.329
    2  0.000  0.027  0.219  0.082  0.000  0.000  0.000  0.000  0.000  0.329
tot    0.000  0.055  0.438  0.164  0.000  0.000  0.000  0.000  0.000  0.657
 
band     4 # energy    3.38304960 # occ.  2.00000000
 
ion      s     py     pz     px    dxy    dyz    dz2    dxz  x2-y2    tot
    1  0.000  0.246  0.000  0.082  0.000  0.000  0.000  0.000  0.000  0.329
    2  0.000  0.246  0.000  0.082  0.000  0.000  0.000  0.000  0.000  0.329
tot    0.000  0.493  0.000  0.164  0.000  0.000  0.000  0.000  0.000  0.657
 
band     5 # energy   14.39187487 # occ.  0.00000000
 
ion      s     py     pz     px    dxy    dyz    dz2    dxz  x2-y2    tot
    1  0.095  0.010  0.021  0.031  0.000  0.000  0.000  0.000  0.000  0.158
    2  0.142  0.007  0.014  0.021  0.000  0.000  0.000  0.000  0.000  0.184
tot    0.238  0.017  0.035  0.052  0.000  0.000  0.000  0.000  0.000  0.343
 
band     6 # energy   14.39187520 # occ.  0.00000000
 
ion      s     py     pz     px    dxy    dyz    dz2    dxz  x2-y2    tot
    1  0.142  0.007  0.014  0.021  0.000  0.000  0.000  0.000  0.000  0.184
    2  0.095  0.010  0.021  0.031  0.000  0.000  0.000  0.000  0.000  0.158
tot    0.238  0.017  0.035  0.052  0.000  0.000  0.000  0.000  0.000  0.343
 
band     7 # energy   26.36546153 # occ.  0.00000000
 
ion      s     py     pz     px    dxy    dyz    dz2    dxz  x2-y2    tot
    1  0.000  0.035  0.280  0.105  0.000  0.000  0.000  0.000  0.000  0.419
    2  0.000  0.035  0.280  0.105  0.000  0.000  0.000  0.000  0.000  0.419
tot    0.000  0.070  0.559  0.210  0.000  0.000  0.000  0.000  0.000  0.839
 
band     8 # energy   26.36559297 # occ.  0.00000000
 
ion      s     py     pz     px    dxy    dyz    dz2    dxz  x2-y2    tot
    1  0.000  0.315  0.000  0.105  0.000  0.000  0.000  0.000  0.000  0.419
    2  0.000  0.315  0.000  0.105  0.000  0.000  0.000  0.000  0.000  0.419
tot    0.000  0.629  0.000  0.210  0.000  0.000  0.000  0.000  0.000  0.839
 

 k-point    32 :    0.30000000 0.20000000 0.10000000     weight = 0.02400000

band     1 # energy   -9.92995141 # occ.  2.00000000
 
ion      s     py     pz     px    dxy    dyz    dz2    dxz  x2-y2    tot
    1  0.260  0.001  0.002  0.021  0.000  0.000  0.000  0.000  0.000  0.284
    2  0.260  0.001  0.002  0.021  0.000  0.000  0.000  0.000  0.000  0.284
tot    0.521  0.002  0.003  0.042  0.000  0.000  0.000  0.000  0.000  0.568
 
band     2 # energy    4.62843134 # occ.  2.00000000
 
ion      s     py     pz     px    dxy    dyz    dz2    dxz  x2-y2    tot
    1  0.079  0.052  0.026  0.187  0.000  0.000  0.000  0.000  0.000  0.344
    2  0.079  0.052  0.026  0.187  0.000  0.000  0.000  0.000  0.000  0.344
tot    0.158  0.104  0.052  0.374  0.000  0.000  0.000  0.000  0.000  0.688
 
band     3 # energy    5.44885347 # occ.  2.00000000
 
ion      s     py     pz     px    dxy    dyz    dz2    dxz  x2-y2    tot
    1  0.014  0.142  0.075  0.094  0.000  0.000  0.000  0.000  0.000  0.325
    2  0.014  0.142  0.075  0.094  0.000  0.000  0.000  0.000  0.000  0.325
tot    0.029  0.284  0.150  0.187  0.000  0.000  0.000  0.000  0.000  0.651
 
band     4 # energy    7.75299572 # occ.  2.00000000
 
ion      s     py     pz     px    dxy    dyz    dz2    dxz  x2-y2    tot
    1  0.017  0.121  0.226  0.001  0.000  0.000  0.000  0.000  0.000  0.365
    2  0.017  0.121  0.226  0.001  0.000  0.000  0.000  0.000  0.000  0.365
tot    0.033  0.243  0.452  0.001  0.000  0.000  0.000  0.000  0.000  0.729
 
band     5 # energy   15.75552115 # occ.  0.00000000
 
ion      s     py     pz     px    dxy    dyz    dz2    dxz  x2-y2    tot
    1  0.038  0.078  0.135  0.028  0.000  0.000  0.000  0.000  0.000  0.278
    2  0.038  0.078  0.135  0.028  0.000  0.000  0.000  0.000  0.000  0.278
tot    0.075  0.155  0.270  0.056  0.000  0.000  0.000  0.000  0.000  0.556
 
band     6 # energy   18.99842971 # occ.  0.00000000
 
ion      s     py     pz     px    dxy    dyz    dz2    dxz  x2-y2    tot
    1  0.044  0.136  0.086  0.060  0.000  0.000  0.000  0.000  0.000  0.327
    2  0.044  0.136  0.086  0.060  0.000  0.000  0.000  0.000  0.000  0.327
tot    0.089  0.272  0.173  0.120  0.000  0.000  0.000  0.000  0.000  0.653
 
band     7 # energy   19.59005536 # occ.  0.00000000
 
ion      s     py     pz     px    dxy    dyz    dz2    dxz  x2-y2    tot
    1  0.015  0.132  0.111  0.076  0.000  0.000  0.000  0.000  0.000  0.334
    2  0.015  0.132  0.111  0.076  0.000  0.000  0.000  0.000  0.000  0.334
tot    0.030  0.265  0.221  0.152  0.000  0.000  0.000  0.000  0.000  0.668
 
band     8 # energy   22.20745855 # occ.  0.00000000
 
ion      s     py     pz     px    dxy    dyz    dz2    dxz  x2-y2    tot
    1  0.164  0.001  0.002  0.093  0.000  0.000  0.000  0.000  0.000  0.260
    2  0.164  0.001  0.002  0.093  0.000  0.000  0.000  0.000  0.000  0.260
tot    0.327  0.003  0.004  0.186  0.000  0.000  0.000  0.000  0.000  0.520
 

 k-point    33 :    0.40000000 0.20000000 0.10000000     weight = 0.04800000

band     1 # energy   -8.59500665 # occ.  2.00000000
 
ion      s     py     pz     px    dxy    dyz    dz2    dxz  x2-y2    tot
    1  0.251  0.000  0.004  0.036  0.000  0.000  0.000  0.000  0.000  0.291
    2  0.251  0.000  0.004  0.036  0.000  0.000  0.000  0.000  0.000  0.291
tot    0.503  0.001  0.007  0.071  0.000  0.000  0.000  0.000  0.000  0.582
 
band     2 # energy    1.81676559 # occ.  2.00000000
 
ion      s     py     pz     px    dxy    dyz    dz2    dxz  x2-y2    tot
    1  0.099  0.071  0.026  0.125  0.000  0.000  0.000  0.000  0.000  0.321
    2  0.099  0.071  0.026  0.125  0.000  0.000  0.000  0.000  0.000  0.321
tot    0.198  0.142  0.052  0.250  0.000  0.000  0.000  0.000  0.000  0.642
 
band     3 # energy    4.57798451 # occ.  2.00000000
 
ion      s     py     pz     px    dxy    dyz    dz2    dxz  x2-y2    tot
    1  0.037  0.116  0.062  0.115  0.000  0.000  0.000  0.000  0.000  0.329
    2  0.037  0.116  0.062  0.115  0.000  0.000  0.000  0.000  0.000  0.329
tot    0.073  0.232  0.124  0.230  0.000  0.000  0.000  0.000  0.000  0.659
 
band     4 # energy    6.86620298 # occ.  2.00000000
 
ion      s     py     pz     px    dxy    dyz    dz2    dxz  x2-y2    tot
    1  0.013  0.106  0.236  0.000  0.000  0.000  0.000  0.000  0.000  0.355
    2  0.013  0.106  0.236  0.000  0.000  0.000  0.000  0.000  0.000  0.355
tot    0.026  0.212  0.472  0.000  0.000  0.000  0.000  0.000  0.000  0.710
 
band     5 # energy   16.87588120 # occ.  0.00000000
 
ion      s     py     pz     px    dxy    dyz    dz2    dxz  x2-y2    tot
    1  0.039  0.111  0.110  0.014  0.000  0.000  0.000  0.000  0.000  0.274
    2  0.039  0.111  0.110  0.014  0.000  0.000  0.000  0.000  0.000  0.274
tot    0.079  0.221  0.221  0.028  0.000  0.000  0.000  0.000  0.000  0.548
 
band     6 # energy   19.17484567 # occ.  0.00000000
 
ion      s     py     pz     px    dxy    dyz    dz2    dxz  x2-y2    tot
    1  0.060  0.096  0.086  0.055  0.000  0.000  0.000  0.000  0.000  0.297
    2  0.060  0.096  0.086  0.055  0.000  0.000  0.000  0.000  0.000  0.297
tot    0.120  0.192  0.173  0.109  0.000  0.000  0.000  0.000  0.000  0.594
 
band     7 # energy   20.81247795 # occ.  0.00000000
 
ion      s     py     pz     px    dxy    dyz    dz2    dxz  x2-y2    tot
    1  0.057  0.123  0.100  0.057  0.000  0.000  0.000  0.000  0.000  0.336
    2  0.057  0.123  0.100  0.057  0.000  0.000  0.000  0.000  0.000  0.336
tot    0.114  0.246  0.199  0.114  0.000  0.000  0.000  0.000  0.000  0.673
 
band     8 # energy   22.29240166 # occ.  0.00000000
 
ion      s     py     pz     px    dxy    dyz    dz2    dxz  x2-y2    tot
    1  0.106  0.033  0.021  0.094  0.000  0.000  0.000  0.000  0.000  0.255
    2  0.106  0.033  0.021  0.094  0.000  0.000  0.000  0.000  0.000  0.255
tot    0.212  0.067  0.042  0.189  0.000  0.000  0.000  0.000  0.000  0.510
 

 k-point    34 :    0.50000000 0.20000000 0.10000000     weight = 0.04800000

band     1 # energy   -6.81941506 # occ.  2.00000000
 
ion      s     py     pz     px    dxy    dyz    dz2    dxz  x2-y2    tot
    1  0.248  0.002  0.005  0.048  0.000  0.000  0.000  0.000  0.000  0.303
    2  0.248  0.002  0.005  0.048  0.000  0.000  0.000  0.000  0.000  0.303
tot    0.496  0.003  0.011  0.096  0.000  0.000  0.000  0.000  0.000  0.606
 
band     2 # energy   -1.13406024 # occ.  2.00000000
 
ion      s     py     pz     px    dxy    dyz    dz2    dxz  x2-y2    tot
    1  0.115  0.063  0.022  0.100  0.000  0.000  0.000  0.000  0.000  0.300
    2  0.115  0.063  0.022  0.100  0.000  0.000  0.000  0.000  0.000  0.300
tot    0.231  0.126  0.043  0.200  0.000  0.000  0.000  0.000  0.000  0.600
 
band     3 # energy    4.33882343 # occ.  2.00000000
 
ion      s     py     pz     px    dxy    dyz    dz2    dxz  x2-y2    tot
    1  0.048  0.146  0.036  0.105  0.000  0.000  0.000  0.000  0.000  0.334
    2  0.048  0.146  0.036  0.105  0.000  0.000  0.000  0.000  0.000  0.334
tot    0.096  0.291  0.072  0.210  0.000  0.000  0.000  0.000  0.000  0.669
 
band     4 # energy    6.00648348 # occ.  2.00000000
 
ion      s     py     pz     px    dxy    dyz    dz2    dxz  x2-y2    tot
    1  0.007  0.074  0.261  0.003  0.000  0.000  0.000  0.000  0.000  0.346
    2  0.007  0.074  0.261  0.003  0.000  0.000  0.000  0.000  0.000  0.346
tot    0.014  0.148  0.523  0.007  0.000  0.000  0.000  0.000  0.000  0.692
 
band     5 # energy   17.62094173 # occ.  0.00000000
 
ion      s     py     pz     px    dxy    dyz    dz2    dxz  x2-y2    tot
    1  0.032  0.117  0.064  0.032  0.000  0.000  0.000  0.000  0.000  0.245
    2  0.032  0.117  0.064  0.032  0.000  0.000  0.000  0.000  0.000  0.245
tot    0.064  0.233  0.128  0.064  0.000  0.000  0.000  0.000  0.000  0.489
 
band     6 # energy   18.91200856 # occ.  0.00000000
 
ion      s     py     pz     px    dxy    dyz    dz2    dxz  x2-y2    tot
    1  0.090  0.040  0.123  0.028  0.000  0.000  0.000  0.000  0.000  0.281
    2  0.090  0.040  0.123  0.028  0.000  0.000  0.000  0.000  0.000  0.281
tot    0.179  0.080  0.246  0.056  0.000  0.000  0.000  0.000  0.000  0.561
 
band     7 # energy   21.33907691 # occ.  0.00000000
 
ion      s     py     pz     px    dxy    dyz    dz2    dxz  x2-y2    tot
    1  0.102  0.104  0.080  0.057  0.000  0.000  0.000  0.000  0.000  0.343
    2  0.102  0.104  0.080  0.057  0.000  0.000  0.000  0.000  0.000  0.343
tot    0.205  0.207  0.161  0.113  0.000  0.000  0.000  0.000  0.000  0.685
 
band     8 # energy   23.71252059 # occ.  0.00000000
 
ion      s     py     pz     px    dxy    dyz    dz2    dxz  x2-y2    tot
    1  0.047  0.103  0.030  0.108  0.000  0.000  0.000  0.000  0.000  0.288
    2  0.047  0.104  0.030  0.108  0.000  0.000  0.000  0.000  0.000  0.288
tot    0.094  0.207  0.060  0.216  0.000  0.000  0.000  0.000  0.000  0.576
 

 k-point    35 :   -0.40000000 0.20000000 0.10000000     weight = 0.02400000

band     1 # energy   -5.36291936 # occ.  2.00000000
 
ion      s     py     pz     px    dxy    dyz    dz2    dxz  x2-y2    tot
    1  0.281  0.017  0.004  0.024  0.000  0.000  0.000  0.000  0.000  0.326
    2  0.281  0.017  0.004  0.024  0.000  0.000  0.000  0.000  0.000  0.326
tot    0.563  0.034  0.009  0.047  0.000  0.000  0.000  0.000  0.000  0.653
 
band     2 # energy   -3.00506588 # occ.  2.00000000
 
ion      s     py     pz     px    dxy    dyz    dz2    dxz  x2-y2    tot
    1  0.087  0.041  0.022  0.124  0.000  0.000  0.000  0.000  0.000  0.274
    2  0.087  0.041  0.022  0.124  0.000  0.000  0.000  0.000  0.000  0.274
tot    0.173  0.083  0.043  0.248  0.000  0.000  0.000  0.000  0.000  0.547
 
band     3 # energy    4.33023967 # occ.  2.00000000
 
ion      s     py     pz     px    dxy    dyz    dz2    dxz  x2-y2    tot
    1  0.055  0.199  0.009  0.074  0.000  0.000  0.000  0.000  0.000  0.338
    2  0.055  0.199  0.009  0.074  0.000  0.000  0.000  0.000  0.000  0.338
tot    0.110  0.398  0.019  0.148  0.000  0.000  0.000  0.000  0.000  0.676
 
band     4 # energy    5.62697399 # occ.  2.00000000
 
ion      s     py     pz     px    dxy    dyz    dz2    dxz  x2-y2    tot
    1  0.001  0.025  0.288  0.027  0.000  0.000  0.000  0.000  0.000  0.341
    2  0.001  0.025  0.288  0.027  0.000  0.000  0.000  0.000  0.000  0.341
tot    0.002  0.050  0.576  0.053  0.000  0.000  0.000  0.000  0.000  0.682
 
band     5 # energy   17.82003678 # occ.  0.00000000
 
ion      s     py     pz     px    dxy    dyz    dz2    dxz  x2-y2    tot
    1  0.013  0.120  0.025  0.064  0.000  0.000  0.000  0.000  0.000  0.223
    2  0.013  0.120  0.025  0.064  0.000  0.000  0.000  0.000  0.000  0.223
tot    0.027  0.240  0.051  0.128  0.000  0.000  0.000  0.000  0.000  0.445
 
band     6 # energy   18.75726576 # occ.  0.00000000
 
ion      s     py     pz     px    dxy    dyz    dz2    dxz  x2-y2    tot
    1  0.120  0.005  0.157  0.004  0.000  0.000  0.000  0.000  0.000  0.285
    2  0.120  0.005  0.157  0.004  0.000  0.000  0.000  0.000  0.000  0.285
tot    0.240  0.010  0.314  0.007  0.000  0.000  0.000  0.000  0.000  0.571
 
band     7 # energy   21.49326897 # occ.  0.00000000
 
ion      s     py     pz     px    dxy    dyz    dz2    dxz  x2-y2    tot
    1  0.111  0.088  0.078  0.067  0.000  0.000  0.000  0.000  0.000  0.344
    2  0.111  0.088  0.078  0.067  0.000  0.000  0.000  0.000  0.000  0.344
tot    0.222  0.176  0.156  0.133  0.000  0.000  0.000  0.000  0.000  0.688
 
band     8 # energy   24.84995917 # occ.  0.00000000
 
ion      s     py     pz     px    dxy    dyz    dz2    dxz  x2-y2    tot
    1  0.022  0.113  0.031  0.162  0.000  0.000  0.000  0.000  0.000  0.328
    2  0.022  0.113  0.031  0.162  0.000  0.000  0.000  0.000  0.000  0.328
tot    0.044  0.226  0.061  0.324  0.000  0.000  0.000  0.000  0.000  0.655
 

 k-point    36 :    0.40000000 0.30000000 0.10000000     weight = 0.02400000

band     1 # energy   -8.14715756 # occ.  2.00000000
 
ion      s     py     pz     px    dxy    dyz    dz2    dxz  x2-y2    tot
    1  0.247  0.003  0.007  0.036  0.000  0.000  0.000  0.000  0.000  0.293
    2  0.247  0.003  0.007  0.036  0.000  0.000  0.000  0.000  0.000  0.293
tot    0.493  0.007  0.013  0.072  0.000  0.000  0.000  0.000  0.000  0.585
 
band     2 # energy    2.59468268 # occ.  2.00000000
 
ion      s     py     pz     px    dxy    dyz    dz2    dxz  x2-y2    tot
    1  0.130  0.045  0.026  0.146  0.000  0.000  0.000  0.000  0.000  0.347
    2  0.130  0.045  0.026  0.146  0.000  0.000  0.000  0.000  0.000  0.347
tot    0.261  0.090  0.052  0.291  0.000  0.000  0.000  0.000  0.000  0.694
 
band     3 # energy    3.86904994 # occ.  2.00000000
 
ion      s     py     pz     px    dxy    dyz    dz2    dxz  x2-y2    tot
    1  0.017  0.129  0.075  0.096  0.000  0.000  0.000  0.000  0.000  0.317
    2  0.017  0.129  0.075  0.096  0.000  0.000  0.000  0.000  0.000  0.317
tot    0.034  0.258  0.150  0.193  0.000  0.000  0.000  0.000  0.000  0.634
 
band     4 # energy    5.33343450 # occ.  2.00000000
 
ion      s     py     pz     px    dxy    dyz    dz2    dxz  x2-y2    tot
    1  0.019  0.124  0.192  0.002  0.000  0.000  0.000  0.000  0.000  0.336
    2  0.019  0.124  0.192  0.002  0.000  0.000  0.000  0.000  0.000  0.336
tot    0.037  0.248  0.383  0.004  0.000  0.000  0.000  0.000  0.000  0.673
 
band     5 # energy   15.32666679 # occ.  0.00000000
 
ion      s     py     pz     px    dxy    dyz    dz2    dxz  x2-y2    tot
    1  0.072  0.060  0.101  0.015  0.000  0.000  0.000  0.000  0.000  0.248
    2  0.072  0.060  0.101  0.015  0.000  0.000  0.000  0.000  0.000  0.248
tot    0.144  0.119  0.202  0.031  0.000  0.000  0.000  0.000  0.000  0.496
 
band     6 # energy   19.38722393 # occ.  0.00000000
 
ion      s     py     pz     px    dxy    dyz    dz2    dxz  x2-y2    tot
    1  0.090  0.000  0.000  0.081  0.000  0.000  0.000  0.000  0.000  0.171
    2  0.090  0.000  0.000  0.081  0.000  0.000  0.000  0.000  0.000  0.171
tot    0.179  0.001  0.000  0.161  0.000  0.000  0.000  0.000  0.000  0.342
 
band     7 # energy   21.39693950 # occ.  0.00000000
 
ion      s     py     pz     px    dxy    dyz    dz2    dxz  x2-y2    tot
    1  0.057  0.137  0.115  0.037  0.000  0.000  0.000  0.000  0.000  0.345
    2  0.057  0.137  0.115  0.037  0.000  0.000  0.000  0.000  0.000  0.345
tot    0.113  0.273  0.229  0.074  0.000  0.000  0.000  0.000  0.000  0.690
 
band     8 # energy   22.70779025 # occ.  0.00000000
 
ion      s     py     pz     px    dxy    dyz    dz2    dxz  x2-y2    tot
    1  0.008  0.159  0.130  0.067  0.000  0.000  0.000  0.000  0.000  0.364
    2  0.008  0.159  0.130  0.067  0.000  0.000  0.000  0.000  0.000  0.364
tot    0.016  0.319  0.261  0.134  0.000  0.000  0.000  0.000  0.000  0.729
 

 k-point    37 :    0.50000000 0.30000000 0.10000000     weight = 0.04800000

band     1 # energy   -6.52668016 # occ.  2.00000000
 
ion      s     py     pz     px    dxy    dyz    dz2    dxz  x2-y2    tot
    1  0.239  0.003  0.010  0.051  0.000  0.000  0.000  0.000  0.000  0.302
    2  0.239  0.003  0.010  0.051  0.000  0.000  0.000  0.000  0.000  0.302
tot    0.479  0.005  0.020  0.102  0.000  0.000  0.000  0.000  0.000  0.605
 
band     2 # energy    0.27197285 # occ.  2.00000000
 
ion      s     py     pz     px    dxy    dyz    dz2    dxz  x2-y2    tot
    1  0.138  0.059  0.026  0.103  0.000  0.000  0.000  0.000  0.000  0.325
    2  0.138  0.059  0.026  0.103  0.000  0.000  0.000  0.000  0.000  0.325
tot    0.275  0.119  0.051  0.206  0.000  0.000  0.000  0.000  0.000  0.651
 
band     3 # energy    2.98083004 # occ.  2.00000000
 
ion      s     py     pz     px    dxy    dyz    dz2    dxz  x2-y2    tot
    1  0.053  0.158  0.016  0.092  0.000  0.000  0.000  0.000  0.000  0.319
    2  0.053  0.158  0.016  0.092  0.000  0.000  0.000  0.000  0.000  0.319
tot    0.105  0.316  0.032  0.183  0.000  0.000  0.000  0.000  0.000  0.638
 
band     4 # energy    4.50299879 # occ.  2.00000000
 
ion      s     py     pz     px    dxy    dyz    dz2    dxz  x2-y2    tot
    1  0.007  0.055  0.248  0.014  0.000  0.000  0.000  0.000  0.000  0.323
    2  0.007  0.055  0.248  0.014  0.000  0.000  0.000  0.000  0.000  0.323
tot    0.014  0.110  0.496  0.027  0.000  0.000  0.000  0.000  0.000  0.646
 
band     5 # energy   16.45796315 # occ.  0.00000000
 
ion      s     py     pz     px    dxy    dyz    dz2    dxz  x2-y2    tot
    1  0.071  0.070  0.081  0.013  0.000  0.000  0.000  0.000  0.000  0.234
    2  0.071  0.070  0.081  0.013  0.000  0.000  0.000  0.000  0.000  0.234
tot    0.141  0.140  0.162  0.026  0.000  0.000  0.000  0.000  0.000  0.469
 
band     6 # energy   19.90825371 # occ.  0.00000000
 
ion      s     py     pz     px    dxy    dyz    dz2    dxz  x2-y2    tot
    1  0.038  0.026  0.021  0.112  0.000  0.000  0.000  0.000  0.000  0.196
    2  0.038  0.026  0.021  0.112  0.000  0.000  0.000  0.000  0.000  0.196
tot    0.075  0.051  0.042  0.224  0.000  0.000  0.000  0.000  0.000  0.393
 
band     7 # energy   21.37476382 # occ.  0.00000000
 
ion      s     py     pz     px    dxy    dyz    dz2    dxz  x2-y2    tot
    1  0.112  0.119  0.106  0.004  0.000  0.000  0.000  0.000  0.000  0.341
    2  0.112  0.119  0.106  0.004  0.000  0.000  0.000  0.000  0.000  0.341
tot    0.224  0.237  0.213  0.009  0.000  0.000  0.000  0.000  0.000  0.682
 
band     8 # energy   23.77690527 # occ.  0.00000000
 
ion      s     py     pz     px    dxy    dyz    dz2    dxz  x2-y2    tot
    1  0.024  0.166  0.114  0.067  0.000  0.000  0.000  0.000  0.000  0.371
    2  0.024  0.166  0.114  0.067  0.000  0.000  0.000  0.000  0.000  0.371
tot    0.048  0.332  0.227  0.133  0.000  0.000  0.000  0.000  0.000  0.742
 

 k-point    38 :   -0.40000000 0.30000000 0.10000000     weight = 0.04800000

band     1 # energy   -4.75404330 # occ.  2.00000000
 
ion      s     py     pz     px    dxy    dyz    dz2    dxz  x2-y2    tot
    1  0.257  0.012  0.010  0.044  0.000  0.000  0.000  0.000  0.000  0.324
    2  0.257  0.012  0.010  0.044  0.000  0.000  0.000  0.000  0.000  0.324
tot    0.513  0.025  0.020  0.089  0.000  0.000  0.000  0.000  0.000  0.647
 
band     2 # energy   -1.97365807 # occ.  2.00000000
 
ion      s     py     pz     px    dxy    dyz    dz2    dxz  x2-y2    tot
    1  0.120  0.052  0.022  0.102  0.000  0.000  0.000  0.000  0.000  0.296
    2  0.120  0.052  0.022  0.102  0.000  0.000  0.000  0.000  0.000  0.296
tot    0.240  0.104  0.044  0.204  0.000  0.000  0.000  0.000  0.000  0.592
 
band     3 # energy    2.33898362 # occ.  2.00000000
 
ion      s     py     pz     px    dxy    dyz    dz2    dxz  x2-y2    tot
    1  0.069  0.175  0.018  0.054  0.000  0.000  0.000  0.000  0.000  0.316
    2  0.069  0.175  0.018  0.054  0.000  0.000  0.000  0.000  0.000  0.316
tot    0.138  0.350  0.036  0.108  0.000  0.000  0.000  0.000  0.000  0.632
 
band     4 # energy    4.33954311 # occ.  2.00000000
 
ion      s     py     pz     px    dxy    dyz    dz2    dxz  x2-y2    tot
    1  0.003  0.023  0.249  0.048  0.000  0.000  0.000  0.000  0.000  0.323
    2  0.003  0.023  0.249  0.048  0.000  0.000  0.000  0.000  0.000  0.323
tot    0.006  0.045  0.499  0.096  0.000  0.000  0.000  0.000  0.000  0.646
 
band     5 # energy   17.07091877 # occ.  0.00000000
 
ion      s     py     pz     px    dxy    dyz    dz2    dxz  x2-y2    tot
    1  0.066  0.051  0.057  0.040  0.000  0.000  0.000  0.000  0.000  0.214
    2  0.066  0.051  0.057  0.040  0.000  0.000  0.000  0.000  0.000  0.214
tot    0.131  0.103  0.115  0.080  0.000  0.000  0.000  0.000  0.000  0.428
 
band     6 # energy   20.60915854 # occ.  0.00000000
 
ion      s     py     pz     px    dxy    dyz    dz2    dxz  x2-y2    tot
    1  0.049  0.041  0.150  0.040  0.000  0.000  0.000  0.000  0.000  0.280
    2  0.049  0.041  0.150  0.040  0.000  0.000  0.000  0.000  0.000  0.280
tot    0.097  0.082  0.300  0.080  0.000  0.000  0.000  0.000  0.000  0.559
 
band     7 # energy   22.51323693 # occ.  0.00000000
 
ion      s     py     pz     px    dxy    dyz    dz2    dxz  x2-y2    tot
    1  0.093  0.122  0.025  0.089  0.000  0.000  0.000  0.000  0.000  0.328
    2  0.093  0.122  0.025  0.089  0.000  0.000  0.000  0.000  0.000  0.328
tot    0.186  0.243  0.049  0.177  0.000  0.000  0.000  0.000  0.000  0.655
 
band     8 # energy   23.93905621 # occ.  0.00000000
 
ion      s     py     pz     px    dxy    dyz    dz2    dxz  x2-y2    tot
    1  0.050  0.163  0.064  0.081  0.000  0.000  0.000  0.000  0.000  0.359
    2  0.050  0.163  0.064  0.081  0.000  0.000  0.000  0.000  0.000  0.359
tot    0.101  0.326  0.129  0.163  0.000  0.000  0.000  0.000  0.000  0.718
 

 k-point    39 :   -0.30000000 0.30000000 0.10000000     weight = 0.04800000

band     1 # energy   -5.32174490 # occ.  2.00000000
 
ion      s     py     pz     px    dxy    dyz    dz2    dxz  x2-y2    tot
    1  0.247  0.049  0.004  0.015  0.000  0.000  0.000  0.000  0.000  0.315
    2  0.247  0.049  0.004  0.015  0.000  0.000  0.000  0.000  0.000  0.315
tot    0.493  0.098  0.009  0.030  0.000  0.000  0.000  0.000  0.000  0.631
 
band     2 # energy   -1.25808333 # occ.  2.00000000
 
ion      s     py     pz     px    dxy    dyz    dz2    dxz  x2-y2    tot
    1  0.130  0.017  0.028  0.131  0.000  0.000  0.000  0.000  0.000  0.306
    2  0.130  0.017  0.028  0.131  0.000  0.000  0.000  0.000  0.000  0.306
tot    0.259  0.034  0.056  0.262  0.000  0.000  0.000  0.000  0.000  0.612
 
band     3 # energy    1.87660188 # occ.  2.00000000
 
ion      s     py     pz     px    dxy    dyz    dz2    dxz  x2-y2    tot
    1  0.063  0.167  0.040  0.038  0.000  0.000  0.000  0.000  0.000  0.308
    2  0.063  0.167  0.040  0.038  0.000  0.000  0.000  0.000  0.000  0.308
tot    0.125  0.334  0.080  0.076  0.000  0.000  0.000  0.000  0.000  0.616
 
band     4 # energy    4.90693844 # occ.  2.00000000
 
ion      s     py     pz     px    dxy    dyz    dz2    dxz  x2-y2    tot
    1  0.007  0.026  0.229  0.068  0.000  0.000  0.000  0.000  0.000  0.331
    2  0.007  0.026  0.229  0.068  0.000  0.000  0.000  0.000  0.000  0.331
tot    0.014  0.053  0.458  0.137  0.000  0.000  0.000  0.000  0.000  0.661
 
band     5 # energy   17.71109625 # occ.  0.00000000
 
ion      s     py     pz     px    dxy    dyz    dz2    dxz  x2-y2    tot
    1  0.055  0.049  0.046  0.068  0.000  0.000  0.000  0.000  0.000  0.218
    2  0.055  0.049  0.046  0.068  0.000  0.000  0.000  0.000  0.000  0.218
tot    0.111  0.097  0.093  0.136  0.000  0.000  0.000  0.000  0.000  0.437
 
band     6 # energy   19.91882136 # occ.  0.00000000
 
ion      s     py     pz     px    dxy    dyz    dz2    dxz  x2-y2    tot
    1  0.052  0.028  0.178  0.036  0.000  0.000  0.000  0.000  0.000  0.293
    2  0.052  0.028  0.178  0.036  0.000  0.000  0.000  0.000  0.000  0.293
tot    0.103  0.056  0.356  0.072  0.000  0.000  0.000  0.000  0.000  0.587
 
band     7 # energy   23.04299909 # occ.  0.00000000
 
ion      s     py     pz     px    dxy    dyz    dz2    dxz  x2-y2    tot
    1  0.112  0.130  0.017  0.092  0.000  0.000  0.000  0.000  0.000  0.350
    2  0.112  0.130  0.017  0.092  0.000  0.000  0.000  0.000  0.000  0.350
tot    0.224  0.259  0.033  0.184  0.000  0.000  0.000  0.000  0.000  0.701
 
band     8 # energy   24.10288179 # occ.  0.00000000
 
ion      s     py     pz     px    dxy    dyz    dz2    dxz  x2-y2    tot
    1  0.049  0.075  0.076  0.166  0.000  0.000  0.000  0.000  0.000  0.366
    2  0.049  0.075  0.076  0.166  0.000  0.000  0.000  0.000  0.000  0.366
tot    0.097  0.149  0.153  0.332  0.000  0.000  0.000  0.000  0.000  0.731
 

 k-point    40 :   -0.20000000 0.30000000 0.10000000     weight = 0.02400000

band     1 # energy   -7.12848863 # occ.  2.00000000
 
ion      s     py     pz     px    dxy    dyz    dz2    dxz  x2-y2    tot
    1  0.243  0.045  0.002  0.009  0.000  0.000  0.000  0.000  0.000  0.299
    2  0.243  0.045  0.002  0.009  0.000  0.000  0.000  0.000  0.000  0.299
tot    0.487  0.090  0.004  0.017  0.000  0.000  0.000  0.000  0.000  0.599
 
band     2 # energy    0.99829257 # occ.  2.00000000
 
ion      s     py     pz     px    dxy    dyz    dz2    dxz  x2-y2    tot
    1  0.142  0.093  0.031  0.068  0.000  0.000  0.000  0.000  0.000  0.335
    2  0.142  0.093  0.031  0.068  0.000  0.000  0.000  0.000  0.000  0.335
tot    0.285  0.186  0.063  0.136  0.000  0.000  0.000  0.000  0.000  0.670
 
band     3 # energy    2.18887675 # occ.  2.00000000
 
ion      s     py     pz     px    dxy    dyz    dz2    dxz  x2-y2    tot
    1  0.034  0.093  0.055  0.114  0.000  0.000  0.000  0.000  0.000  0.297
    2  0.034  0.093  0.055  0.114  0.000  0.000  0.000  0.000  0.000  0.297
tot    0.068  0.186  0.110  0.229  0.000  0.000  0.000  0.000  0.000  0.593
 
band     4 # energy    5.88301330 # occ.  2.00000000
 
ion      s     py     pz     px    dxy    dyz    dz2    dxz  x2-y2    tot
    1  0.009  0.031  0.217  0.084  0.000  0.000  0.000  0.000  0.000  0.342
    2  0.009  0.031  0.217  0.084  0.000  0.000  0.000  0.000  0.000  0.342
tot    0.019  0.063  0.434  0.168  0.000  0.000  0.000  0.000  0.000  0.684
 
band     5 # energy   18.48359833 # occ.  0.00000000
 
ion      s     py     pz     px    dxy    dyz    dz2    dxz  x2-y2    tot
    1  0.033  0.036  0.160  0.060  0.000  0.000  0.000  0.000  0.000  0.289
    2  0.033  0.036  0.160  0.060  0.000  0.000  0.000  0.000  0.000  0.289
tot    0.067  0.073  0.320  0.119  0.000  0.000  0.000  0.000  0.000  0.579
 
band     6 # energy   18.54449911 # occ.  0.00000000
 
ion      s     py     pz     px    dxy    dyz    dz2    dxz  x2-y2    tot
    1  0.051  0.040  0.057  0.096  0.000  0.000  0.000  0.000  0.000  0.244
    2  0.051  0.040  0.057  0.096  0.000  0.000  0.000  0.000  0.000  0.244
tot    0.101  0.081  0.114  0.192  0.000  0.000  0.000  0.000  0.000  0.489
 
band     7 # energy   22.17946240 # occ.  0.00000000
 
ion      s     py     pz     px    dxy    dyz    dz2    dxz  x2-y2    tot
    1  0.145  0.088  0.014  0.042  0.000  0.000  0.000  0.000  0.000  0.289
    2  0.145  0.088  0.014  0.042  0.000  0.000  0.000  0.000  0.000  0.289
tot    0.291  0.176  0.027  0.084  0.000  0.000  0.000  0.000  0.000  0.577
 
band     8 # energy   22.87503631 # occ.  0.00000000
 
ion      s     py     pz     px    dxy    dyz    dz2    dxz  x2-y2    tot
    1  0.034  0.045  0.117  0.160  0.000  0.000  0.000  0.000  0.000  0.355
    2  0.034  0.045  0.117  0.160  0.000  0.000  0.000  0.000  0.000  0.355
tot    0.067  0.090  0.233  0.320  0.000  0.000  0.000  0.000  0.000  0.710
 

 k-point    41 :    0.50000000 0.40000000 0.10000000     weight = 0.02400000

band     1 # energy   -5.73859853 # occ.  2.00000000
 
ion      s     py     pz     px    dxy    dyz    dz2    dxz  x2-y2    tot
    1  0.230  0.008  0.015  0.052  0.000  0.000  0.000  0.000  0.000  0.306
    2  0.230  0.008  0.015  0.052  0.000  0.000  0.000  0.000  0.000  0.306
tot    0.461  0.016  0.031  0.103  0.000  0.000  0.000  0.000  0.000  0.611
 
band     2 # energy    0.14497447 # occ.  2.00000000
 
ion      s     py     pz     px    dxy    dyz    dz2    dxz  x2-y2    tot
    1  0.189  0.030  0.038  0.087  0.000  0.000  0.000  0.000  0.000  0.344
    2  0.189  0.030  0.038  0.087  0.000  0.000  0.000  0.000  0.000  0.344
tot    0.379  0.059  0.077  0.174  0.000  0.000  0.000  0.000  0.000  0.688
 
band     3 # energy    2.89929260 # occ.  2.00000000
 
ion      s     py     pz     px    dxy    dyz    dz2    dxz  x2-y2    tot
    1  0.015  0.121  0.077  0.100  0.000  0.000  0.000  0.000  0.000  0.312
    2  0.015  0.121  0.077  0.100  0.000  0.000  0.000  0.000  0.000  0.312
tot    0.029  0.242  0.153  0.201  0.000  0.000  0.000  0.000  0.000  0.625
 
band     4 # energy    3.39236065 # occ.  2.00000000
 
ion      s     py     pz     px    dxy    dyz    dz2    dxz  x2-y2    tot
    1  0.000  0.134  0.151  0.027  0.000  0.000  0.000  0.000  0.000  0.312
    2  0.000  0.134  0.151  0.027  0.000  0.000  0.000  0.000  0.000  0.312
tot    0.000  0.269  0.302  0.053  0.000  0.000  0.000  0.000  0.000  0.624
 
band     5 # energy   15.26144277 # occ.  0.00000000
 
ion      s     py     pz     px    dxy    dyz    dz2    dxz  x2-y2    tot
    1  0.093  0.045  0.076  0.005  0.000  0.000  0.000  0.000  0.000  0.219
    2  0.093  0.045  0.076  0.005  0.000  0.000  0.000  0.000  0.000  0.219
tot    0.185  0.090  0.152  0.011  0.000  0.000  0.000  0.000  0.000  0.438
 
band     6 # energy   17.12847312 # occ.  0.00000000
 
ion      s     py     pz     px    dxy    dyz    dz2    dxz  x2-y2    tot
    1  0.095  0.004  0.002  0.071  0.000  0.000  0.000  0.000  0.000  0.172
    2  0.095  0.004  0.002  0.071  0.000  0.000  0.000  0.000  0.000  0.172
tot    0.190  0.007  0.004  0.142  0.000  0.000  0.000  0.000  0.000  0.343
 
band     7 # energy   23.84530033 # occ.  0.00000000
 
ion      s     py     pz     px    dxy    dyz    dz2    dxz  x2-y2    tot
    1  0.036  0.147  0.141  0.039  0.000  0.000  0.000  0.000  0.000  0.363
    2  0.036  0.147  0.141  0.039  0.000  0.000  0.000  0.000  0.000  0.363
tot    0.072  0.294  0.281  0.079  0.000  0.000  0.000  0.000  0.000  0.726
 
band     8 # energy   25.18893328 # occ.  0.00000000
 
ion      s     py     pz     px    dxy    dyz    dz2    dxz  x2-y2    tot
    1  0.007  0.169  0.128  0.096  0.000  0.000  0.000  0.000  0.000  0.400
    2  0.007  0.169  0.128  0.096  0.000  0.000  0.000  0.000  0.000  0.400
tot    0.014  0.338  0.256  0.192  0.000  0.000  0.000  0.000  0.000  0.800
 

 k-point    42 :   -0.40000000 0.40000000 0.10000000     weight = 0.04800000

band     1 # energy   -3.98101770 # occ.  2.00000000
 
ion      s     py     pz     px    dxy    dyz    dz2    dxz  x2-y2    tot
    1  0.231  0.013  0.019  0.058  0.000  0.000  0.000  0.000  0.000  0.321
    2  0.231  0.013  0.019  0.058  0.000  0.000  0.000  0.000  0.000  0.321
tot    0.462  0.026  0.039  0.116  0.000  0.000  0.000  0.000  0.000  0.642
 
band     2 # energy   -1.38716184 # occ.  2.00000000
 
ion      s     py     pz     px    dxy    dyz    dz2    dxz  x2-y2    tot
    1  0.204  0.028  0.037  0.067  0.000  0.000  0.000  0.000  0.000  0.336
    2  0.204  0.028  0.037  0.067  0.000  0.000  0.000  0.000  0.000  0.336
tot    0.408  0.055  0.074  0.134  0.000  0.000  0.000  0.000  0.000  0.672
 
band     3 # energy    1.35250689 # occ.  2.00000000
 
ion      s     py     pz     px    dxy    dyz    dz2    dxz  x2-y2    tot
    1  0.013  0.197  0.008  0.065  0.000  0.000  0.000  0.000  0.000  0.283
    2  0.013  0.197  0.008  0.065  0.000  0.000  0.000  0.000  0.000  0.283
tot    0.025  0.393  0.017  0.131  0.000  0.000  0.000  0.000  0.000  0.566
 
band     4 # energy    3.26786011 # occ.  2.00000000
 
ion      s     py     pz     px    dxy    dyz    dz2    dxz  x2-y2    tot
    1  0.006  0.027  0.219  0.062  0.000  0.000  0.000  0.000  0.000  0.314
    2  0.006  0.027  0.219  0.062  0.000  0.000  0.000  0.000  0.000  0.314
tot    0.011  0.055  0.437  0.124  0.000  0.000  0.000  0.000  0.000  0.627
 
band     5 # energy   16.23053714 # occ.  0.00000000
 
ion      s     py     pz     px    dxy    dyz    dz2    dxz  x2-y2    tot
    1  0.088  0.027  0.056  0.031  0.000  0.000  0.000  0.000  0.000  0.202
    2  0.088  0.027  0.056  0.031  0.000  0.000  0.000  0.000  0.000  0.202
tot    0.175  0.053  0.112  0.062  0.000  0.000  0.000  0.000  0.000  0.404
 
band     6 # energy   18.85624635 # occ.  0.00000000
 
ion      s     py     pz     px    dxy    dyz    dz2    dxz  x2-y2    tot
    1  0.068  0.062  0.015  0.078  0.000  0.000  0.000  0.000  0.000  0.223
    2  0.068  0.062  0.015  0.078  0.000  0.000  0.000  0.000  0.000  0.223
tot    0.137  0.124  0.030  0.156  0.000  0.000  0.000  0.000  0.000  0.446
 
band     7 # energy   23.49267829 # occ.  0.00000000
 
ion      s     py     pz     px    dxy    dyz    dz2    dxz  x2-y2    tot
    1  0.049  0.097  0.181  0.024  0.000  0.000  0.000  0.000  0.000  0.351
    2  0.049  0.097  0.181  0.024  0.000  0.000  0.000  0.000  0.000  0.351
tot    0.098  0.194  0.362  0.048  0.000  0.000  0.000  0.000  0.000  0.702
 
band     8 # energy   25.06830677 # occ.  0.00000000
 
ion      s     py     pz     px    dxy    dyz    dz2    dxz  x2-y2    tot
    1  0.036  0.177  0.050  0.128  0.000  0.000  0.000  0.000  0.000  0.392
    2  0.036  0.177  0.050  0.128  0.000  0.000  0.000  0.000  0.000  0.392
tot    0.072  0.354  0.101  0.256  0.000  0.000  0.000  0.000  0.000  0.784
 

 k-point    43 :   -0.30000000 0.40000000 0.10000000     weight = 0.02400000

band     1 # energy   -3.69296700 # occ.  2.00000000
 
ion      s     py     pz     px    dxy    dyz    dz2    dxz  x2-y2    tot
    1  0.253  0.048  0.012  0.020  0.000  0.000  0.000  0.000  0.000  0.333
    2  0.253  0.048  0.012  0.020  0.000  0.000  0.000  0.000  0.000  0.333
tot    0.506  0.096  0.024  0.041  0.000  0.000  0.000  0.000  0.000  0.666
 
band     2 # energy   -1.55286682 # occ.  2.00000000
 
ion      s     py     pz     px    dxy    dyz    dz2    dxz  x2-y2    tot
    1  0.189  0.047  0.034  0.058  0.000  0.000  0.000  0.000  0.000  0.328
    2  0.189  0.047  0.034  0.058  0.000  0.000  0.000  0.000  0.000  0.328
tot    0.378  0.094  0.069  0.116  0.000  0.000  0.000  0.000  0.000  0.656
 
band     3 # energy    0.38809524 # occ.  2.00000000
 
ion      s     py     pz     px    dxy    dyz    dz2    dxz  x2-y2    tot
    1  0.009  0.125  0.036  0.098  0.000  0.000  0.000  0.000  0.000  0.268
    2  0.009  0.125  0.036  0.098  0.000  0.000  0.000  0.000  0.000  0.268
tot    0.018  0.250  0.072  0.195  0.000  0.000  0.000  0.000  0.000  0.536
 
band     4 # energy    3.87941726 # occ.  2.00000000
 
ion      s     py     pz     px    dxy    dyz    dz2    dxz  x2-y2    tot
    1  0.007  0.030  0.205  0.079  0.000  0.000  0.000  0.000  0.000  0.320
    2  0.007  0.030  0.205  0.079  0.000  0.000  0.000  0.000  0.000  0.320
tot    0.015  0.059  0.409  0.157  0.000  0.000  0.000  0.000  0.000  0.640
 
band     5 # energy   16.85002907 # occ.  0.00000000
 
ion      s     py     pz     px    dxy    dyz    dz2    dxz  x2-y2    tot
    1  0.077  0.018  0.046  0.064  0.000  0.000  0.000  0.000  0.000  0.204
    2  0.077  0.018  0.046  0.064  0.000  0.000  0.000  0.000  0.000  0.204
tot    0.153  0.036  0.092  0.127  0.000  0.000  0.000  0.000  0.000  0.408
 
band     6 # energy   21.90120030 # occ.  0.00000000
 
ion      s     py     pz     px    dxy    dyz    dz2    dxz  x2-y2    tot
    1  0.007  0.025  0.106  0.126  0.000  0.000  0.000  0.000  0.000  0.264
    2  0.007  0.025  0.106  0.126  0.000  0.000  0.000  0.000  0.000  0.264
tot    0.014  0.049  0.212  0.253  0.000  0.000  0.000  0.000  0.000  0.527
 
band     7 # energy   22.54496171 # occ.  0.00000000
 
ion      s     py     pz     px    dxy    dyz    dz2    dxz  x2-y2    tot
    1  0.074  0.114  0.119  0.049  0.000  0.000  0.000  0.000  0.000  0.355
    2  0.074  0.114  0.119  0.049  0.000  0.000  0.000  0.000  0.000  0.355
tot    0.147  0.228  0.237  0.098  0.000  0.000  0.000  0.000  0.000  0.710
 
band     8 # energy   23.85388673 # occ.  0.00000000
 
ion      s     py     pz     px    dxy    dyz    dz2    dxz  x2-y2    tot
    1  0.097  0.164  0.014  0.073  0.000  0.000  0.000  0.000  0.000  0.349
    2  0.097  0.164  0.014  0.073  0.000  0.000  0.000  0.000  0.000  0.349
tot    0.194  0.329  0.028  0.147  0.000  0.000  0.000  0.000  0.000  0.697
 

 k-point    44 :   -0.40000000 0.50000000 0.10000000     weight = 0.01200000

band     1 # energy   -2.85390783 # occ.  2.00000000
 
ion      s     py     pz     px    dxy    dyz    dz2    dxz  x2-y2    tot
    1  0.217  0.018  0.031  0.060  0.000  0.000  0.000  0.000  0.000  0.326
    2  0.209  0.019  0.032  0.062  0.000  0.000  0.000  0.000  0.000  0.322
tot    0.426  0.037  0.063  0.121  0.000  0.000  0.000  0.000  0.000  0.648
 
band     2 # energy   -2.85390707 # occ.  2.00000000
 
ion      s     py     pz     px    dxy    dyz    dz2    dxz  x2-y2    tot
    1  0.209  0.023  0.043  0.047  0.000  0.000  0.000  0.000  0.000  0.322
    2  0.217  0.022  0.042  0.045  0.000  0.000  0.000  0.000  0.000  0.326
tot    0.426  0.044  0.085  0.092  0.000  0.000  0.000  0.000  0.000  0.648
 
band     3 # energy    2.67829962 # occ.  2.00000000
 
ion      s     py     pz     px    dxy    dyz    dz2    dxz  x2-y2    tot
    1  0.007  0.027  0.190  0.086  0.000  0.000  0.000  0.000  0.000  0.310
    2  0.007  0.027  0.190  0.086  0.000  0.000  0.000  0.000  0.000  0.310
tot    0.014  0.054  0.380  0.172  0.000  0.000  0.000  0.000  0.000  0.620
 
band     4 # energy    2.67831751 # occ.  2.00000000
 
ion      s     py     pz     px    dxy    dyz    dz2    dxz  x2-y2    tot
    1  0.007  0.222  0.012  0.068  0.000  0.000  0.000  0.000  0.000  0.310
    2  0.007  0.222  0.012  0.068  0.000  0.000  0.000  0.000  0.000  0.310
tot    0.014  0.445  0.024  0.137  0.000  0.000  0.000  0.000  0.000  0.620
 
band     5 # energy   15.79744672 # occ.  0.00000000
 
ion      s     py     pz     px    dxy    dyz    dz2    dxz  x2-y2    tot
    1  0.099  0.003  0.014  0.077  0.000  0.000  0.000  0.000  0.000  0.192
    2  0.099  0.003  0.014  0.077  0.000  0.000  0.000  0.000  0.000  0.193
tot    0.198  0.005  0.028  0.153  0.000  0.000  0.000  0.000  0.000  0.385
 
band     6 # energy   15.79746075 # occ.  0.00000000
 
ion      s     py     pz     px    dxy    dyz    dz2    dxz  x2-y2    tot
    1  0.099  0.038  0.048  0.007  0.000  0.000  0.000  0.000  0.000  0.193
    2  0.099  0.038  0.048  0.007  0.000  0.000  0.000  0.000  0.000  0.192
tot    0.198  0.077  0.096  0.014  0.000  0.000  0.000  0.000  0.000  0.385
 
band     7 # energy   25.60245418 # occ.  0.00000000
 
ion      s     py     pz     px    dxy    dyz    dz2    dxz  x2-y2    tot
    1  0.018  0.032  0.238  0.110  0.000  0.000  0.000  0.000  0.000  0.398
    2  0.018  0.032  0.238  0.111  0.000  0.000  0.000  0.000  0.000  0.399
tot    0.036  0.064  0.476  0.221  0.000  0.000  0.000  0.000  0.000  0.797
 
band     8 # energy   25.60256623 # occ.  0.00000000
 
ion      s     py     pz     px    dxy    dyz    dz2    dxz  x2-y2    tot
    1  0.018  0.277  0.016  0.087  0.000  0.000  0.000  0.000  0.000  0.399
    2  0.018  0.278  0.016  0.087  0.000  0.000  0.000  0.000  0.000  0.398
tot    0.036  0.555  0.031  0.174  0.000  0.000  0.000  0.000  0.000  0.797
 

 k-point    45 :   -0.40000000 0.40000000 0.20000000     weight = 0.02400000

band     1 # energy   -4.85353552 # occ.  2.00000000
 
ion      s     py     pz     px    dxy    dyz    dz2    dxz  x2-y2    tot
    1  0.236  0.008  0.010  0.062  0.000  0.000  0.000  0.000  0.000  0.315
    2  0.236  0.008  0.010  0.062  0.000  0.000  0.000  0.000  0.000  0.315
tot    0.472  0.015  0.019  0.124  0.000  0.000  0.000  0.000  0.000  0.631
 
band     2 # energy   -0.49005046 # occ.  2.00000000
 
ion      s     py     pz     px    dxy    dyz    dz2    dxz  x2-y2    tot
    1  0.191  0.052  0.031  0.067  0.000  0.000  0.000  0.000  0.000  0.341
    2  0.191  0.052  0.031  0.067  0.000  0.000  0.000  0.000  0.000  0.341
tot    0.382  0.104  0.061  0.135  0.000  0.000  0.000  0.000  0.000  0.682
 
band     3 # energy    1.37336230 # occ.  2.00000000
 
ion      s     py     pz     px    dxy    dyz    dz2    dxz  x2-y2    tot
    1  0.025  0.097  0.053  0.112  0.000  0.000  0.000  0.000  0.000  0.288
    2  0.025  0.097  0.053  0.112  0.000  0.000  0.000  0.000  0.000  0.288
tot    0.050  0.194  0.107  0.225  0.000  0.000  0.000  0.000  0.000  0.576
 
band     4 # energy    3.30343171 # occ.  2.00000000
 
ion      s     py     pz     px    dxy    dyz    dz2    dxz  x2-y2    tot
    1  0.007  0.115  0.180  0.001  0.000  0.000  0.000  0.000  0.000  0.303
    2  0.007  0.115  0.180  0.001  0.000  0.000  0.000  0.000  0.000  0.303
tot    0.014  0.230  0.360  0.002  0.000  0.000  0.000  0.000  0.000  0.606
 
band     5 # energy   18.56651974 # occ.  0.00000000
 
ion      s     py     pz     px    dxy    dyz    dz2    dxz  x2-y2    tot
    1  0.055  0.076  0.128  0.000  0.000  0.000  0.000  0.000  0.000  0.259
    2  0.055  0.076  0.128  0.000  0.000  0.000  0.000  0.000  0.000  0.259
tot    0.109  0.153  0.255  0.000  0.000  0.000  0.000  0.000  0.000  0.518
 
band     6 # energy   19.48721591 # occ.  0.00000000
 
ion      s     py     pz     px    dxy    dyz    dz2    dxz  x2-y2    tot
    1  0.002  0.023  0.037  0.127  0.000  0.000  0.000  0.000  0.000  0.190
    2  0.002  0.023  0.037  0.127  0.000  0.000  0.000  0.000  0.000  0.190
tot    0.004  0.046  0.074  0.255  0.000  0.000  0.000  0.000  0.000  0.379
 
band     7 # energy   21.32141746 # occ.  0.00000000
 
ion      s     py     pz     px    dxy    dyz    dz2    dxz  x2-y2    tot
    1  0.155  0.092  0.069  0.018  0.000  0.000  0.000  0.000  0.000  0.334
    2  0.155  0.092  0.069  0.018  0.000  0.000  0.000  0.000  0.000  0.334
tot    0.310  0.185  0.139  0.035  0.000  0.000  0.000  0.000  0.000  0.669
 
band     8 # energy   24.65974697 # occ.  0.00000000
 
ion      s     py     pz     px    dxy    dyz    dz2    dxz  x2-y2    tot
    1  0.036  0.137  0.090  0.129  0.000  0.000  0.000  0.000  0.000  0.391
    2  0.036  0.137  0.090  0.129  0.000  0.000  0.000  0.000  0.000  0.391
tot    0.071  0.275  0.179  0.258  0.000  0.000  0.000  0.000  0.000  0.783
 

 k-point    46 :   -0.30000000 0.40000000 0.20000000     weight = 0.02400000

band     1 # energy   -3.49784754 # occ.  2.00000000
 
ion      s     py     pz     px    dxy    dyz    dz2    dxz  x2-y2    tot
    1  0.254  0.041  0.012  0.029  0.000  0.000  0.000  0.000  0.000  0.335
    2  0.254  0.041  0.012  0.029  0.000  0.000  0.000  0.000  0.000  0.335
tot    0.507  0.081  0.024  0.058  0.000  0.000  0.000  0.000  0.000  0.670
 
band     2 # energy   -1.68417997 # occ.  2.00000000
 
ion      s     py     pz     px    dxy    dyz    dz2    dxz  x2-y2    tot
    1  0.174  0.035  0.033  0.079  0.000  0.000  0.000  0.000  0.000  0.321
    2  0.174  0.035  0.033  0.079  0.000  0.000  0.000  0.000  0.000  0.321
tot    0.348  0.070  0.066  0.159  0.000  0.000  0.000  0.000  0.000  0.642
 
band     3 # energy    1.05863724 # occ.  2.00000000
 
ion      s     py     pz     px    dxy    dyz    dz2    dxz  x2-y2    tot
    1  0.037  0.139  0.003  0.110  0.000  0.000  0.000  0.000  0.000  0.288
    2  0.037  0.139  0.003  0.110  0.000  0.000  0.000  0.000  0.000  0.288
tot    0.073  0.277  0.006  0.220  0.000  0.000  0.000  0.000  0.000  0.576
 
band     4 # energy    2.72667476 # occ.  2.00000000
 
ion      s     py     pz     px    dxy    dyz    dz2    dxz  x2-y2    tot
    1  0.003  0.043  0.225  0.024  0.000  0.000  0.000  0.000  0.000  0.295
    2  0.003  0.043  0.225  0.024  0.000  0.000  0.000  0.000  0.000  0.295
tot    0.006  0.086  0.450  0.047  0.000  0.000  0.000  0.000  0.000  0.590
 
band     5 # energy   19.07594111 # occ.  0.00000000
 
ion      s     py     pz     px    dxy    dyz    dz2    dxz  x2-y2    tot
    1  0.013  0.056  0.062  0.079  0.000  0.000  0.000  0.000  0.000  0.210
    2  0.013  0.056  0.062  0.079  0.000  0.000  0.000  0.000  0.000  0.210
tot    0.027  0.111  0.125  0.158  0.000  0.000  0.000  0.000  0.000  0.421
 
band     6 # energy   20.15236367 # occ.  0.00000000
 
ion      s     py     pz     px    dxy    dyz    dz2    dxz  x2-y2    tot
    1  0.070  0.016  0.171  0.016  0.000  0.000  0.000  0.000  0.000  0.273
    2  0.070  0.016  0.171  0.016  0.000  0.000  0.000  0.000  0.000  0.273
tot    0.140  0.033  0.343  0.031  0.000  0.000  0.000  0.000  0.000  0.546
 
band     7 # energy   22.59361678 # occ.  0.00000000
 
ion      s     py     pz     px    dxy    dyz    dz2    dxz  x2-y2    tot
    1  0.086  0.099  0.003  0.129  0.000  0.000  0.000  0.000  0.000  0.317
    2  0.086  0.099  0.003  0.129  0.000  0.000  0.000  0.000  0.000  0.317
tot    0.173  0.197  0.006  0.257  0.000  0.000  0.000  0.000  0.000  0.633
 
band     8 # energy   22.81238385 # occ.  0.00000000
 
ion      s     py     pz     px    dxy    dyz    dz2    dxz  x2-y2    tot
    1  0.084  0.108  0.037  0.113  0.000  0.000  0.000  0.000  0.000  0.342
    2  0.084  0.108  0.037  0.113  0.000  0.000  0.000  0.000  0.000  0.342
tot    0.168  0.215  0.073  0.226  0.000  0.000  0.000  0.000  0.000  0.683
 

 k-point    47 :   -0.30000000 0.50000000 0.20000000     weight = 0.01200000

band     1 # energy   -2.39375009 # occ.  2.00000000
 
ion      s     py     pz     px    dxy    dyz    dz2    dxz  x2-y2    tot
    1  0.238  0.029  0.029  0.045  0.000  0.000  0.000  0.000  0.000  0.341
    2  0.223  0.031  0.032  0.047  0.000  0.000  0.000  0.000  0.000  0.333
tot    0.461  0.059  0.061  0.092  0.000  0.000  0.000  0.000  0.000  0.674
 
band     2 # energy   -2.39374933 # occ.  2.00000000
 
ion      s     py     pz     px    dxy    dyz    dz2    dxz  x2-y2    tot
    1  0.223  0.033  0.042  0.035  0.000  0.000  0.000  0.000  0.000  0.333
    2  0.238  0.031  0.039  0.032  0.000  0.000  0.000  0.000  0.000  0.341
tot    0.461  0.065  0.081  0.067  0.000  0.000  0.000  0.000  0.000  0.674
 
band     3 # energy    1.57117046 # occ.  2.00000000
 
ion      s     py     pz     px    dxy    dyz    dz2    dxz  x2-y2    tot
    1  0.004  0.022  0.132  0.124  0.000  0.000  0.000  0.000  0.000  0.282
    2  0.004  0.022  0.132  0.124  0.000  0.000  0.000  0.000  0.000  0.282
tot    0.007  0.044  0.264  0.248  0.000  0.000  0.000  0.000  0.000  0.564
 
band     4 # energy    1.57118407 # occ.  2.00000000
 
ion      s     py     pz     px    dxy    dyz    dz2    dxz  x2-y2    tot
    1  0.004  0.180  0.053  0.045  0.000  0.000  0.000  0.000  0.000  0.282
    2  0.004  0.180  0.053  0.045  0.000  0.000  0.000  0.000  0.000  0.282
tot    0.007  0.360  0.107  0.090  0.000  0.000  0.000  0.000  0.000  0.564
 
band     5 # energy   18.99190404 # occ.  0.00000000
 
ion      s     py     pz     px    dxy    dyz    dz2    dxz  x2-y2    tot
    1  0.053  0.001  0.029  0.143  0.000  0.000  0.000  0.000  0.000  0.226
    2  0.052  0.001  0.028  0.143  0.000  0.000  0.000  0.000  0.000  0.224
tot    0.105  0.002  0.057  0.286  0.000  0.000  0.000  0.000  0.000  0.450
 
band     6 # energy   18.99193688 # occ.  0.00000000
 
ion      s     py     pz     px    dxy    dyz    dz2    dxz  x2-y2    tot
    1  0.052  0.068  0.087  0.018  0.000  0.000  0.000  0.000  0.000  0.224
    2  0.053  0.068  0.087  0.018  0.000  0.000  0.000  0.000  0.000  0.226
tot    0.105  0.136  0.173  0.036  0.000  0.000  0.000  0.000  0.000  0.450
 
band     7 # energy   23.06948269 # occ.  0.00000000
 
ion      s     py     pz     px    dxy    dyz    dz2    dxz  x2-y2    tot
    1  0.072  0.037  0.121  0.110  0.000  0.000  0.000  0.000  0.000  0.340
    2  0.072  0.036  0.120  0.111  0.000  0.000  0.000  0.000  0.000  0.339
tot    0.144  0.073  0.241  0.221  0.000  0.000  0.000  0.000  0.000  0.679
 
band     8 # energy   23.06954916 # occ.  0.00000000
 
ion      s     py     pz     px    dxy    dyz    dz2    dxz  x2-y2    tot
    1  0.072  0.179  0.058  0.031  0.000  0.000  0.000  0.000  0.000  0.340
    2  0.072  0.180  0.058  0.030  0.000  0.000  0.000  0.000  0.000  0.340
tot    0.144  0.358  0.116  0.061  0.000  0.000  0.000  0.000  0.000  0.679
 
