real-time non-blocking time  (microseconds, -R) unlimited
core file size              (blocks, -c) unlimited
data seg size               (kbytes, -d) unlimited
scheduling priority                 (-e) 0
file size                   (blocks, -f) unlimited
pending signals                     (-i) 505933
max locked memory           (kbytes, -l) unlimited
max memory size             (kbytes, -m) 117440512
open files                          (-n) 1024
pipe size                (512 bytes, -p) 8
POSIX message queues         (bytes, -q) 819200
real-time priority                  (-r) 0
stack size                  (kbytes, -s) unlimited
cpu time                   (seconds, -t) unlimited
max user processes                  (-u) 125621
virtual memory              (kbytes, -v) unlimited
file locks                          (-x) unlimited
 running   28 mpi-ranks, with    1 threads/rank, on    1 nodes
 distrk:  each k-point on   28 cores,    1 groups
 distr:  one band on    7 cores,    4 groups
 vasp.6.5.1 10Mar25 (build Feb 13 2026 23:13:13) complex                        
  
 POSCAR found type information on POSCAR C 
 POSCAR found :  1 types and       2 ions
 scaLAPACK will be used
 LDA part: xc-table for (Slater+PW92), standard interpolation
 WARNING: stress and forces are not correct
 POSCAR, INCAR and KPOINTS ok, starting setup
 FFT: planning ... GRIDC
 FFT: planning ... GRID_SOFT
 FFT: planning ... GRID
 WAVECAR not read
 charge-density read from file: unknown                                 
 entering main loop
       N       E                     dE             d eps       ncg     rms          rms(c)
DAV:   1     0.125924322077E+01    0.12592E+01   -0.48735E+03   768   0.958E+02
DAV:   2    -0.180626604579E+02   -0.19322E+02   -0.19111E+02  1152   0.114E+02
DAV:   3    -0.181858192322E+02   -0.12316E+00   -0.12316E+00   816   0.116E+01
DAV:   4    -0.181859805254E+02   -0.16129E-03   -0.16129E-03  1088   0.421E-01
DAV:   5    -0.181859805900E+02   -0.64655E-07   -0.64655E-07   808   0.594E-03
DAV:   6    -0.181859805901E+02   -0.12346E-09   -0.12358E-09  1048   0.192E-04
   1 F= -.18185981E+02 E0= -.18185981E+02  d E =0.000000E+00
