unknown system                          
   1.00000000000000     
     2.517300    0.000000    0.000000
     1.258650    2.180046    0.000000
     1.258650    0.726682    2.055367
   C 
     2
Direct
   0.250000  0.250000  0.250000
   0.000000  0.000000  0.000000
 
   28   28   28
 0.15163384373E+02 0.15941364675E+02 0.17711504577E+02 0.19229552772E+02 0.19490281013E+02
 0.18310398225E+02 0.16199506702E+02 0.13829208535E+02 0.11629291573E+02 0.97829948883E+01
 0.83719922185E+01 0.73616791385E+01 0.66823448850E+01 0.62850967952E+01 0.61532082440E+01
 0.62850831561E+01 0.66823431763E+01 0.73616980727E+01 0.83720120381E+01 0.97830038169E+01
 0.11629303516E+02 0.13829230869E+02 0.16199516095E+02 0.18310369661E+02 0.19490226510E+02
 0.19229510667E+02 0.17711495223E+02 0.15941372421E+02 0.15941364675E+02 0.17360200301E+02
 0.19202574496E+02 0.20242435396E+02 0.19850544169E+02 0.18223426847E+02 0.15999788775E+02
 0.13749671621E+02 0.11758154237E+02 0.10165985139E+02 0.89884483279E+01 0.81631357120E+01
 0.76301195130E+01 0.73641928593E+01 0.73641756022E+01 0.76300916021E+01 0.81631285032E+01
 0.89884524765E+01 0.10165979293E+02 0.11758152647E+02 0.13749695750E+02 0.15999807573E+02
 0.18223378570E+02 0.19850423813E+02 0.20242318591E+02 0.19202535097E+02 0.17360228357E+02
 0.15941387773E+02 0.17711504577E+02 0.19202574496E+02 0.20465830043E+02 0.20642438654E+02
 0.19574241727E+02 0.17695541905E+02 0.15581330037E+02 0.13604006704E+02 0.11947415782E+02
 0.10680930501E+02 0.97620777634E+01 0.91269636271E+01 0.87435499510E+01 0.86135935092E+01
 0.87435216573E+01 0.91269384288E+01 0.97620640218E+01 0.10680907158E+02 0.11947385442E+02
 0.13604004295E+02 0.15581360130E+02 0.17695550235E+02 0.19574177077E+02 0.20642316673E+02
 0.20465712196E+02 0.19202502702E+02 0.17711477171E+02 0.17054204451E+02 0.19229552773E+02
 0.20242435396E+02 0.20642438654E+02 0.20048015707E+02 0.18628982224E+02 0.16835495058E+02
 0.15051761633E+02 0.13489017832E+02 0.12256091183E+02 0.11334848299E+02 0.10662417515E+02
 0.10201868183E+02 0.99605382556E+01 0.99605252099E+01 0.10201843848E+02 0.10662398357E+02
 0.11334823437E+02 0.12256050559E+02 0.13488985516E+02 0.15051768786E+02 0.16835534293E+02
 0.18629013135E+02 0.20048001550E+02 0.20642362419E+02 0.20242306278E+02 0.19229421544E+02
 0.18396343598E+02 0.18396400272E+02 0.19490281013E+02 0.19850544169E+02 0.19574241727E+02
 0.18628982224E+02 0.17282752670E+02 0.15851506931E+02 0.14544597353E+02 0.13489012510E+02
 0.12684959134E+02 0.12069500959E+02 0.11598598325E+02 0.11285422041E+02 0.11173506674E+02
 0.11285394725E+02 0.11598564267E+02 0.12069469185E+02 0.12684921873E+02 0.13488972484E+02
 0.14544574040E+02 0.15851513669E+02 0.17282787614E+02 0.18629035658E+02 0.19574289404E+02
 0.19850547225E+02 0.19490227822E+02 0.18903350580E+02 0.18625586936E+02 0.18903409933E+02
 0.18310398225E+02 0.18223426847E+02 0.17695541904E+02 0.16835495058E+02 0.15851506931E+02
 0.14920952689E+02 0.14169516560E+02 0.13604003175E+02 0.13155623379E+02 0.12768788378E+02
 0.12454515348E+02 0.12270527368E+02 0.12270505807E+02 0.12454464622E+02 0.12768732884E+02
 0.13155574141E+02 0.13603960724E+02 0.14169482488E+02 0.14920926470E+02 0.15851486418E+02
 0.16835493092E+02 0.17695586406E+02 0.18223527431E+02 0.18310522919E+02 0.18077342839E+02
 0.17829545241E+02 0.17829509358E+02 0.18077245202E+02 0.16199506702E+02 0.15999788775E+02
 0.15581330037E+02 0.15051761633E+02 0.14544597353E+02 0.14169516560E+02 0.13930662946E+02
 0.13749682238E+02 0.13552781219E+02 0.13331715604E+02 0.13142510689E+02 0.13066582783E+02
 0.13142483131E+02 0.13331667664E+02 0.13552723530E+02 0.13749626308E+02 0.13930617887E+02
 0.14169481219E+02 0.14544557932E+02 0.15051709103E+02 0.15581285587E+02 0.15999800845E+02
 0.16199605939E+02 0.16169468412E+02 0.16031066127E+02 0.15957685933E+02 0.16030950622E+02
 0.16169315913E+02 0.13829208535E+02 0.13749671621E+02 0.13604006704E+02 0.13489017832E+02
 0.13489012510E+02 0.13604003175E+02 0.13749682238E+02 0.13829220429E+02 0.13802348303E+02
 0.13699837141E+02 0.13609913787E+02 0.13609926176E+02 0.13699853738E+02 0.13802334793E+02
 0.13829171007E+02 0.13749620493E+02 0.13603950985E+02 0.13488972131E+02 0.13488978313E+02
 0.13603957272E+02 0.13749614772E+02 0.13829165806E+02 0.13802342209E+02 0.13699860603E+02
 0.13609919140E+02 0.13609904632E+02 0.13699838418E+02 0.13802348553E+02 0.11629291573E+02
 0.11758154237E+02 0.11947415782E+02 0.12256091183E+02 0.12684959134E+02 0.13155623379E+02
 0.13552781219E+02 0.13802348303E+02 0.13890830243E+02 0.13879783216E+02 0.13861488986E+02
 0.13879855815E+02 0.13890898391E+02 0.13802351874E+02 0.13552731173E+02 0.13155560821E+02
 0.12684905812E+02 0.12256053928E+02 0.11947399164E+02 0.11758144024E+02 0.11629251615E+02
 0.11496555716E+02 0.11346619054E+02 0.11219084728E+02 0.11168213257E+02 0.11219161368E+02
 0.11346730433E+02 0.11496645245E+02 0.97829948883E+01 0.10165985139E+02 0.10680930501E+02
 0.11334848299E+02 0.12069500959E+02 0.12768788378E+02 0.13331715604E+02 0.13699837141E+02
 0.13879783216E+02 0.13937691254E+02 0.13937748405E+02 0.13879896451E+02 0.13699906243E+02
 0.13331711197E+02 0.12768751057E+02 0.12069463918E+02 0.11334814970E+02 0.10680910502E+02
 0.10165995117E+02 0.97830190383E+01 0.94904030161E+01 0.92529402353E+01 0.90681758631E+01
 0.89624968815E+01 0.89625337401E+01 0.90682568040E+01 0.92530030844E+01 0.94904114241E+01
 0.83719922185E+01 0.89884483279E+01 0.97620777634E+01 0.10662417515E+02 0.11598598325E+02
 0.12454515348E+02 0.13142510689E+02 0.13609913787E+02 0.13861488986E+02 0.13937748405E+02
 0.13861580463E+02 0.13610012137E+02 0.13142550365E+02 0.12454509825E+02 0.11598591589E+02
 0.10662422896E+02 0.97620854315E+01 0.89884578936E+01 0.83720102186E+01 0.78980085674E+01
 0.75366727479E+01 0.72695799688E+01 0.70993566172E+01 0.70400721060E+01 0.70993490414E+01
 0.72695667224E+01 0.75366535135E+01 0.78979856510E+01 0.73616791385E+01 0.81631357120E+01
 0.91269636271E+01 0.10201868183E+02 0.11285422041E+02 0.12270527368E+02 0.13066582783E+02
 0.13609926176E+02 0.13879855815E+02 0.13879896451E+02 0.13610012137E+02 0.13066646445E+02
 0.12270538077E+02 0.11285403831E+02 0.10201863593E+02 0.91269945835E+01 0.81631900374E+01
 0.73617230956E+01 0.67271683263E+01 0.62398595803E+01 0.58786671221E+01 0.56342159843E+01
 0.55091403391E+01 0.55091202401E+01 0.56341801353E+01 0.58786527157E+01 0.62398638690E+01
 0.67271566755E+01 0.66823448850E+01 0.76301195130E+01 0.87435499510E+01 0.99605382556E+01
 0.11173506674E+02 0.12270505807E+02 0.13142483131E+02 0.13699853738E+02 0.13890898391E+02
 0.13699906243E+02 0.13142550365E+02 0.12270538077E+02 0.11173478142E+02 0.99604709374E+01
 0.87435036723E+01 0.76301420997E+01 0.66824222532E+01 0.59156142498E+01 0.53167998911E+01
 0.48653562109E+01 0.45462992150E+01 0.43541945038E+01 0.42897729802E+01 0.43541940150E+01
 0.45463163046E+01 0.48653805982E+01 0.53167875941E+01 0.59155468428E+01 0.62850967952E+01
 0.73641928593E+01 0.86135935092E+01 0.99605252099E+01 0.11285394725E+02 0.12454464622E+02
 0.13331667664E+02 0.13802334793E+02 0.13802351874E+02 0.13331711197E+02 0.12454509825E+02
 0.11285403831E+02 0.99604709374E+01 0.86134913331E+01 0.73641030505E+01 0.62850764955E+01
 0.54001703404E+01 0.47006410982E+01 0.41654183603E+01 0.37753295335E+01 0.35187795073E+01
 0.33910570777E+01 0.33910687031E+01 0.35188057434E+01 0.37753440793E+01 0.41653921199E+01
 0.47005781421E+01 0.54001216002E+01 0.61532082440E+01 0.73641756022E+01 0.87435216573E+01
 0.10201843848E+02 0.11598564267E+02 0.12768732884E+02 0.13552723530E+02 0.13829171007E+02
 0.13552731173E+02 0.12768751057E+02 0.11598591589E+02 0.10201863593E+02 0.87435036723E+01
 0.73641030505E+01 0.61531053408E+01 0.51469247993E+01 0.43436202765E+01 0.37228237891E+01
 0.32615449752E+01 0.29421836742E+01 0.27540539114E+01 0.26918666705E+01 0.27540558445E+01
 0.29421691901E+01 0.32615079598E+01 0.37227925420E+01 0.43436378866E+01 0.51470036689E+01
 0.62850831561E+01 0.76300916021E+01 0.91269384288E+01 0.10662398357E+02 0.12069469185E+02
 0.13155574141E+02 0.13749626308E+02 0.13749620493E+02 0.13155560821E+02 0.12069463918E+02
 0.10662422896E+02 0.91269945835E+01 0.76301420997E+01 0.62850764955E+01 0.51469247993E+01
 0.42258706128E+01 0.35065885259E+01 0.29649960539E+01 0.25784593166E+01 0.23298861771E+01
 0.22082761657E+01 0.22082648555E+01 0.23298558212E+01 0.25784286408E+01 0.29650011349E+01
 0.35066535946E+01 0.42259724216E+01 0.51470015559E+01 0.66823431763E+01 0.81631285032E+01
 0.97620640218E+01 0.11334823437E+02 0.12684921873E+02 0.13603960724E+02 0.13930617887E+02
 0.13603950985E+02 0.12684905812E+02 0.11334814970E+02 0.97620854315E+01 0.81631900374E+01
 0.66824222532E+01 0.54001703404E+01 0.43436202765E+01 0.35065885259E+01 0.28675862366E+01
 0.24016315799E+01 0.20862982454E+01 0.19043393375E+01 0.18449123744E+01 0.19043189107E+01
 0.20862843346E+01 0.24016539494E+01 0.28676457912E+01 0.35066477092E+01 0.43436318765E+01
 0.54001205799E+01 0.73616980727E+01 0.89884524765E+01 0.10680907158E+02 0.12256050559E+02
 0.13488972484E+02 0.14169482488E+02 0.14169481219E+02 0.13488972131E+02 0.12256053928E+02
 0.10680910502E+02 0.89884578936E+01 0.73617230956E+01 0.59156142498E+01 0.47006410982E+01
 0.37228237891E+01 0.29649960539E+01 0.24016315799E+01 0.20067119771E+01 0.17576006417E+01
 0.16375228508E+01 0.16375184463E+01 0.17575993605E+01 0.20067296232E+01 0.24016563937E+01
 0.29649928408E+01 0.37227736754E+01 0.47005665426E+01 0.59155558075E+01 0.83720120381E+01
 0.10165979293E+02 0.11947385442E+02 0.13488985516E+02 0.14544574040E+02 0.14920926470E+02
 0.14544557932E+02 0.13488978313E+02 0.11947399164E+02 0.10165995117E+02 0.83720102186E+01
 0.67271683263E+01 0.53167998911E+01 0.41654183603E+01 0.32615449752E+01 0.25784593166E+01
 0.20862982454E+01 0.17576006417E+01 0.15701653605E+01 0.15093918931E+01 0.15701685574E+01
 0.17576073904E+01 0.20862972528E+01 0.25784324958E+01 0.32614930265E+01 0.41653700175E+01
 0.53167826543E+01 0.67271756468E+01 0.97830038169E+01 0.11758152647E+02 0.13604004295E+02
 0.15051768786E+02 0.15851513669E+02 0.15851486418E+02 0.15051709103E+02 0.13603957272E+02
 0.11758144024E+02 0.97830190383E+01 0.78980085674E+01 0.62398595803E+01 0.48653562109E+01
 0.37753295335E+01 0.29421836742E+01 0.23298861771E+01 0.19043393375E+01 0.16375228508E+01
 0.15093918931E+01 0.15093953759E+01 0.16375272014E+01 0.19043334464E+01 0.23298689443E+01
 0.29421702169E+01 0.37753368501E+01 0.48653810797E+01 0.62398778729E+01 0.78980030367E+01
 0.11629303516E+02 0.13749695750E+02 0.15581360130E+02 0.16835534293E+02 0.17282787614E+02
 0.16835493092E+02 0.15581285587E+02 0.13749614772E+02 0.11629251615E+02 0.94904030161E+01
 0.75366727479E+01 0.58786671221E+01 0.45462992150E+01 0.35187795073E+01 0.27540539114E+01
 0.22082761657E+01 0.18449123744E+01 0.16375184463E+01 0.15701685574E+01 0.16375272014E+01
 0.18449160686E+01 0.22082712444E+01 0.27540569118E+01 0.35188039652E+01 0.45463320991E+01
 0.58786832076E+01 0.75366714073E+01 0.94904151847E+01 0.13829230869E+02 0.15999807573E+02
 0.17695550235E+02 0.18629013135E+02 0.18629035658E+02 0.17695586406E+02 0.15999800845E+02
 0.13829165806E+02 0.11496555716E+02 0.92529402353E+01 0.72695799688E+01 0.56342159843E+01
 0.43541945038E+01 0.33910570777E+01 0.26918666705E+01 0.22082648555E+01 0.19043189107E+01
 0.17575993605E+01 0.17576073904E+01 0.19043334464E+01 0.22082712444E+01 0.26918639912E+01
 0.33910525978E+01 0.43541888897E+01 0.56342101819E+01 0.72695918246E+01 0.92529922462E+01
 0.11496638452E+02 0.16199516095E+02 0.18223378570E+02 0.19574177077E+02 0.20048001549E+02
 0.19574289404E+02 0.18223527431E+02 0.16199605939E+02 0.13802342209E+02 0.11346619054E+02
 0.90681758631E+01 0.70993566172E+01 0.55091403391E+01 0.42897729802E+01 0.33910687031E+01
 0.27540558445E+01 0.23298558212E+01 0.20862843346E+01 0.20067296232E+01 0.20862972528E+01
 0.23298689443E+01 0.27540569118E+01 0.33910525978E+01 0.42897424134E+01 0.55091135445E+01
 0.70993663471E+01 0.90682367255E+01 0.11346691987E+02 0.13802353341E+02 0.18310369661E+02
 0.19850423813E+02 0.20642316673E+02 0.20642362419E+02 0.19850547225E+02 0.18310522919E+02
 0.16169468412E+02 0.13699860603E+02 0.11219084728E+02 0.89624968815E+01 0.70400721060E+01
 0.55091202401E+01 0.43541940150E+01 0.35188057434E+01 0.29421691901E+01 0.25784286408E+01
 0.24016539494E+01 0.24016563937E+01 0.25784324958E+01 0.29421702169E+01 0.35188039652E+01
 0.43541888897E+01 0.55091135445E+01 0.70400773424E+01 0.89625242065E+01 0.11219108680E+02
 0.13699827835E+02 0.16169355224E+02 0.19490226510E+02 0.20242318591E+02 0.20465712196E+02
 0.20242306278E+02 0.19490227822E+02 0.18077342839E+02 0.16031066127E+02 0.13609919140E+02
 0.11168213257E+02 0.89625337401E+01 0.70993490414E+01 0.56341801353E+01 0.45463163046E+01
 0.37753440793E+01 0.32615079598E+01 0.29650011349E+01 0.28676457912E+01 0.29649928408E+01
 0.32614930265E+01 0.37753368501E+01 0.45463320991E+01 0.56342101819E+01 0.70993663471E+01
 0.89625242065E+01 0.11168183507E+02 0.13609878433E+02 0.16031022784E+02 0.18077314023E+02
 0.19229510667E+02 0.19202535097E+02 0.19202502702E+02 0.19229421544E+02 0.18903350580E+02
 0.17829545241E+02 0.15957685934E+02 0.13609904632E+02 0.11219161368E+02 0.90682568040E+01
 0.72695667224E+01 0.58786527157E+01 0.48653805982E+01 0.41653921199E+01 0.37227925420E+01
 0.35066535946E+01 0.35066477092E+01 0.37227736754E+01 0.41653700175E+01 0.48653810797E+01
 0.58786832076E+01 0.72695918246E+01 0.90682367255E+01 0.11219108680E+02 0.13609878433E+02
 0.15957730272E+02 0.17829650140E+02 0.18903470065E+02 0.17711495223E+02 0.17360228357E+02
 0.17711477171E+02 0.18396343598E+02 0.18625586936E+02 0.17829509358E+02 0.16030950622E+02
 0.13699838418E+02 0.11346730433E+02 0.92530030844E+01 0.75366535135E+01 0.62398638690E+01
 0.53167875941E+01 0.47005781421E+01 0.43436378866E+01 0.42259724216E+01 0.43436318765E+01
 0.47005665426E+01 0.53167826543E+01 0.62398778729E+01 0.75366714073E+01 0.92529922462E+01
 0.11346691987E+02 0.13699827835E+02 0.16031022784E+02 0.17829650140E+02 0.18625721985E+02
 0.18396415954E+02 0.15941372421E+02 0.15941387773E+02 0.17054204451E+02 0.18396400272E+02
 0.18903409933E+02 0.18077245202E+02 0.16169315913E+02 0.13802348553E+02 0.11496645245E+02
 0.94904114241E+01 0.78979856510E+01 0.67271566755E+01 0.59155468428E+01 0.54001216002E+01
 0.51470036689E+01 0.51470015559E+01 0.54001205799E+01 0.59155558075E+01 0.67271756468E+01
 0.78980030367E+01 0.94904151847E+01 0.11496638452E+02 0.13802353341E+02 0.16169355224E+02
 0.18077314023E+02 0.18903470065E+02 0.18396415954E+02 0.17054183215E+02 0.15941367022E+02
 0.17360207130E+02 0.19202580956E+02 0.20242439960E+02 0.19850550101E+02 0.18223434245E+02
 0.15999793054E+02 0.13749671395E+02 0.11758153023E+02 0.10165983945E+02 0.89884443229E+01
 0.81631295643E+01 0.76301160957E+01 0.73641931009E+01 0.73641752425E+01 0.76300893662E+01
 0.81631278293E+01 0.89884539216E+01 0.10165979124E+02 0.11758150350E+02 0.13749695079E+02
 0.15999808703E+02 0.18223377001E+02 0.19850418588E+02 0.20242313987E+02 0.19202532873E+02
 0.17360226021E+02 0.15941385718E+02 0.17360207130E+02 0.19079663681E+02 0.20600954023E+02
 0.20968152047E+02 0.19985508717E+02 0.18107924297E+02 0.15954247792E+02 0.13930657615E+02
 0.12230461034E+02 0.10929725120E+02 0.99867869548E+01 0.93356446054E+01 0.89426955745E+01
 0.88094992302E+01 0.89426625390E+01 0.93356122354E+01 0.99867656892E+01 0.10929696331E+02
 0.12230431383E+02 0.13930661990E+02 0.15954279249E+02 0.18107912559E+02 0.19985402583E+02
 0.20967991938E+02 0.20600830120E+02 0.19079619279E+02 0.17360209670E+02 0.16611208605E+02
 0.19202580956E+02 0.20600954023E+02 0.21339695283E+02 0.20931106261E+02 0.19542749382E+02
 0.17687864536E+02 0.15817592689E+02 0.14169525889E+02 0.12864856224E+02 0.11890145611E+02
 0.11179113373E+02 0.10691808391E+02 0.10436108964E+02 0.10436106789E+02 0.10691802962E+02
 0.11179097270E+02 0.11890102819E+02 0.12864794567E+02 0.14169487541E+02 0.15817605998E+02
 0.17687900634E+02 0.19542749305E+02 0.20931038285E+02 0.21339570207E+02 0.20600805989E+02
 0.19202457157E+02 0.18109909217E+02 0.18109958314E+02 0.20242439960E+02 0.20968152047E+02
 0.20931106261E+02 0.20052105614E+02 0.18647610795E+02 0.17112139284E+02 0.15697215872E+02
 0.14544607253E+02 0.13663650044E+02 0.12986733707E+02 0.12466963236E+02 0.12121162178E+02
 0.11997476478E+02 0.12121197146E+02 0.12466996449E+02 0.12986724305E+02 0.13663593563E+02
 0.14544542585E+02 0.15697187578E+02 0.17112160146E+02 0.18647662674E+02 0.20052154404E+02
 0.20931103234E+02 0.20968053890E+02 0.20242267094E+02 0.19315409523E+02 0.18898423391E+02
 0.19315550633E+02 0.19850550101E+02 0.19985508717E+02 0.19542749382E+02 0.18647610795E+02
 0.17574240599E+02 0.16543707885E+02 0.15697211824E+02 0.15051762168E+02 0.14531627046E+02
 0.14081164481E+02 0.13712828173E+02 0.13495694969E+02 0.13495724109E+02 0.13712886974E+02
 0.14081197227E+02 0.14531606590E+02 0.15051709064E+02 0.15697163567E+02 0.16543686003E+02
 0.17574252648E+02 0.18647661263E+02 0.19542824014E+02 0.19985560462E+02 0.19850536295E+02
 0.19335200113E+02 0.18888608759E+02 0.18888642410E+02 0.19335259915E+02 0.18223434245E+02
 0.18107924297E+02 0.17687864536E+02 0.17112139284E+02 0.16543707885E+02 0.16108600968E+02
 0.15817590866E+02 0.15581334128E+02 0.15322607724E+02 0.15028807805E+02 0.14774644971E+02
 0.14672111426E+02 0.14774698492E+02 0.15028864912E+02 0.15322623539E+02 0.15581307826E+02
 0.15817548649E+02 0.16108560882E+02 0.16543674516E+02 0.17112121533E+02 0.17687881140E+02
 0.18107988499E+02 0.18223537057E+02 0.18032386690E+02 0.17730833549E+02 0.17588365702E+02
 0.17730764014E+02 0.18032278649E+02 0.15999793054E+02 0.15954247792E+02 0.15817592689E+02
 0.15697215872E+02 0.15697211824E+02 0.15817590866E+02 0.15954258314E+02 0.15999804878E+02
 0.15896724274E+02 0.15693989996E+02 0.15531282336E+02 0.15531326416E+02 0.15694082937E+02
 0.15896793245E+02 0.15999816090E+02 0.15954227900E+02 0.15817545312E+02 0.15697163729E+02
 0.15697168881E+02 0.15817550578E+02 0.15954223257E+02 0.15999812043E+02 0.15896799828E+02
 0.15694088966E+02 0.15531320481E+02 0.15531274044E+02 0.15693989770E+02 0.15896722722E+02
 0.13749671395E+02 0.13930657615E+02 0.14169525889E+02 0.14544607253E+02 0.15051762168E+02
 0.15581334128E+02 0.15999804878E+02 0.16199519879E+02 0.16169315152E+02 0.16030948324E+02
 0.15957691557E+02 0.16031067425E+02 0.16169457736E+02 0.16199598129E+02 0.15999805761E+02
 0.15581289446E+02 0.15051701921E+02 0.14544552770E+02 0.14169487449E+02 0.13930622319E+02
 0.13749619759E+02 0.13552719173E+02 0.13331673961E+02 0.13142485456E+02 0.13066571069E+02
 0.13142498765E+02 0.13331714294E+02 0.13552779019E+02 0.11758153023E+02 0.12230461034E+02
 0.12864856224E+02 0.13663650044E+02 0.14531627046E+02 0.15322607724E+02 0.15896724274E+02
 0.16169315152E+02 0.16191260759E+02 0.16128318823E+02 0.16128395652E+02 0.16191427981E+02
 0.16169456337E+02 0.15896783742E+02 0.15322601014E+02 0.14531582155E+02 0.13663589954E+02
 0.12864812840E+02 0.12230451140E+02 0.11758145827E+02 0.11391542956E+02 0.11082248247E+02
 0.10832804429E+02 0.10687920517E+02 0.10687960751E+02 0.10832902791E+02 0.11082348597E+02
 0.11391595278E+02 0.10165983945E+02 0.10929725120E+02 0.11890145611E+02 0.12986733707E+02
 0.14081164481E+02 0.15028807805E+02 0.15693989996E+02 0.16030948324E+02 0.16128318823E+02
 0.16136337275E+02 0.16128425654E+02 0.16031084368E+02 0.15694088444E+02 0.15028860248E+02
 0.14081183242E+02 0.12986720294E+02 0.11890113018E+02 0.10929707134E+02 0.10165995346E+02
 0.95842468798E+01 0.91415436051E+01 0.88100179105E+01 0.85945398068E+01 0.85184981327E+01
 0.85945761294E+01 0.88100620300E+01 0.91415611893E+01 0.95842335621E+01 0.89884443229E+01
 0.99867869548E+01 0.11179113373E+02 0.12466963236E+02 0.13712828173E+02 0.14774644971E+02
 0.15531282336E+02 0.15957691557E+02 0.16128395652E+02 0.16128425654E+02 0.15957763567E+02
 0.15531363567E+02 0.14774717997E+02 0.13712889250E+02 0.12467007344E+02 0.11179138094E+02
 0.99868004949E+01 0.89884554738E+01 0.82047726448E+01 0.76103964676E+01 0.71721982849E+01
 0.68741243554E+01 0.67202365996E+01 0.67202234481E+01 0.68740980426E+01 0.71721790867E+01
 0.76103866682E+01 0.82047633837E+01 0.81631295643E+01 0.93356446054E+01 0.10691808391E+02
 0.12121162178E+02 0.13495694969E+02 0.14672111426E+02 0.15531326416E+02 0.16031067425E+02
 0.16191427981E+02 0.16031084368E+02 0.15531363567E+02 0.14672160485E+02 0.13495734800E+02
 0.12121182800E+02 0.10691828522E+02 0.93356888240E+01 0.81631891494E+01 0.72163808251E+01
 0.64851775414E+01 0.59398472988E+01 0.55558056210E+01 0.53237715352E+01 0.52456063694E+01
 0.53237499433E+01 0.55557953466E+01 0.59398592609E+01 0.64851794187E+01 0.72163436791E+01
 0.76301160957E+01 0.89426955745E+01 0.10436108964E+02 0.11997476478E+02 0.13495724109E+02
 0.14774698492E+02 0.15694082937E+02 0.16169457735E+02 0.16169456337E+02 0.15694088443E+02
 0.14774717997E+02 0.13495734800E+02 0.11997447517E+02 0.10436051305E+02 0.89426647660E+01
 0.76301511268E+01 0.65510077160E+01 0.57037679707E+01 0.50617083425E+01 0.45965377616E+01
 0.42905594352E+01 0.41376855585E+01 0.41376918702E+01 0.42905806683E+01 0.45965645295E+01
 0.50617072819E+01 0.57037157162E+01 0.65509331362E+01 0.73641931009E+01 0.88094992302E+01
 0.10436106789E+02 0.12121197146E+02 0.13712886974E+02 0.15028864912E+02 0.15896793244E+02
 0.16199598129E+02 0.15896783742E+02 0.15028860248E+02 0.13712889250E+02 0.12121182800E+02
 0.10436051305E+02 0.88094132417E+01 0.73641228841E+01 0.61615181112E+01 0.52065447724E+01
 0.44740380547E+01 0.39324809910E+01 0.35576046669E+01 0.33360051884E+01 0.32625141530E+01
 0.33360247993E+01 0.35576179928E+01 0.39324616958E+01 0.44739898222E+01 0.52065065483E+01
 0.61615321133E+01 0.73641752425E+01 0.89426625390E+01 0.10691802962E+02 0.12466996449E+02
 0.14081197227E+02 0.15322623539E+02 0.15999816090E+02 0.15999805761E+02 0.15322601014E+02
 0.14081183242E+02 0.12467007344E+02 0.10691828522E+02 0.89426647660E+01 0.73641228841E+01
 0.60321295504E+01 0.49620605002E+01 0.41330111544E+01 0.35117659968E+01 0.30683068350E+01
 0.27819494166E+01 0.26411817176E+01 0.26411800428E+01 0.27819351268E+01 0.30682734464E+01
 0.35117388128E+01 0.41330318417E+01 0.49621382000E+01 0.60322218612E+01 0.76300893662E+01
 0.93356122354E+01 0.11179097270E+02 0.12986724305E+02 0.14531606590E+02 0.15581307826E+02
 0.15954227900E+02 0.15581289446E+02 0.14531582155E+02 0.12986720294E+02 0.11179138094E+02
 0.93356888240E+01 0.76301511268E+01 0.61615181112E+01 0.49620605002E+01 0.40205056691E+01
 0.33061478854E+01 0.27858373199E+01 0.24324899744E+01 0.22274964340E+01 0.21602914048E+01
 0.22274732556E+01 0.24324600127E+01 0.27858335917E+01 0.33061980947E+01 0.40205966215E+01
 0.49621351628E+01 0.61615235800E+01 0.81631278293E+01 0.99867656892E+01 0.11890102819E+02
 0.13663593563E+02 0.15051709064E+02 0.15817548649E+02 0.15817545312E+02 0.15051701921E+02
 0.13663589954E+02 0.11890113018E+02 0.99868004949E+01 0.81631891494E+01 0.65510077160E+01
 0.52065447724E+01 0.41330111544E+01 0.33061478854E+01 0.26931215643E+01 0.22628605303E+01
 0.19904264936E+01 0.18586000771E+01 0.18585897748E+01 0.19904109973E+01 0.22628684705E+01
 0.26931604104E+01 0.33061900937E+01 0.41330178299E+01 0.52065024203E+01 0.65509386680E+01
 0.89884539216E+01 0.10929696331E+02 0.12864794567E+02 0.14544542585E+02 0.15697163567E+02
 0.16108560882E+02 0.15697163729E+02 0.14544552770E+02 0.12864812840E+02 0.10929707134E+02
 0.89884554738E+01 0.72163808251E+01 0.57037679707E+01 0.44740380547E+01 0.35117659968E+01
 0.27858373199E+01 0.22628605303E+01 0.19131341556E+01 0.17133420123E+01 0.16484744434E+01
 0.17133386441E+01 0.19131410349E+01 0.22628754204E+01 0.27858323534E+01 0.35117201077E+01
 0.44739691038E+01 0.57037165327E+01 0.72163643207E+01 0.10165979124E+02 0.12230431383E+02
 0.14169487541E+02 0.15697187578E+02 0.16543686003E+02 0.16543674516E+02 0.15697168881E+02
 0.14169487449E+02 0.12230451140E+02 0.10165995346E+02 0.82047726448E+01 0.64851775414E+01
 0.50617083425E+01 0.39324809910E+01 0.30683068350E+01 0.24324899744E+01 0.19904264936E+01
 0.17133420123E+01 0.15803488683E+01 0.15803502778E+01 0.17133457507E+01 0.19904268707E+01
 0.24324754894E+01 0.30682744720E+01 0.39324473412E+01 0.50616946227E+01 0.64851830133E+01
 0.82047744355E+01 0.11758150350E+02 0.13930661990E+02 0.15817605998E+02 0.17112160146E+02
 0.17574252648E+02 0.17112121533E+02 0.15817550578E+02 0.13930622319E+02 0.11758145827E+02
 0.95842468798E+01 0.76103964676E+01 0.59398472988E+01 0.45965377616E+01 0.35576046669E+01
 0.27819494166E+01 0.22274964340E+01 0.18586000771E+01 0.16484744434E+01 0.15803502778E+01
 0.16484802718E+01 0.18586003024E+01 0.22274875589E+01 0.27819462942E+01 0.35576234746E+01
 0.45965713299E+01 0.59398681941E+01 0.76103891240E+01 0.95842289815E+01 0.13749695079E+02
 0.15954279249E+02 0.17687900634E+02 0.18647662674E+02 0.18647661263E+02 0.17687881140E+02
 0.15954223257E+02 0.13749619759E+02 0.11391542956E+02 0.91415436051E+01 0.71721982849E+01
 0.55558056210E+01 0.42905594352E+01 0.33360051884E+01 0.26411817176E+01 0.21602914048E+01
 0.18585897748E+01 0.17133386441E+01 0.17133457507E+01 0.18586003024E+01 0.21602912903E+01
 0.26411785407E+01 0.33360177039E+01 0.42905865261E+01 0.55558257159E+01 0.71722047637E+01
 0.91415618624E+01 0.11391597307E+02 0.15999808703E+02 0.18107912559E+02 0.19542749305E+02
 0.20052154404E+02 0.19542824014E+02 0.18107988499E+02 0.15999812043E+02 0.13552719173E+02
 0.11082248247E+02 0.88100179105E+01 0.68741243554E+01 0.53237715352E+01 0.41376855585E+01
 0.32625141530E+01 0.26411800428E+01 0.22274732556E+01 0.19904109973E+01 0.19131410349E+01
 0.19904268707E+01 0.22274875589E+01 0.26411785407E+01 0.32624969512E+01 0.41376603188E+01
 0.53237509992E+01 0.68741321811E+01 0.88100762833E+01 0.11082344119E+02 0.13552794193E+02
 0.18223377001E+02 0.19985402583E+02 0.20931038285E+02 0.20931103234E+02 0.19985560462E+02
 0.18223537057E+02 0.15896799828E+02 0.13331673961E+02 0.10832804429E+02 0.85945398068E+01
 0.67202365996E+01 0.52456063694E+01 0.41376918702E+01 0.33360247993E+01 0.27819351268E+01
 0.24324600127E+01 0.22628684705E+01 0.22628754204E+01 0.24324754894E+01 0.27819462942E+01
 0.33360177039E+01 0.41376603188E+01 0.52455655967E+01 0.67202247368E+01 0.85945847620E+01
 0.10832879523E+02 0.13331703124E+02 0.15896724630E+02 0.19850418588E+02 0.20967991938E+02
 0.21339570207E+02 0.20968053890E+02 0.19850536295E+02 0.18032386690E+02 0.15694088966E+02
 0.13142485456E+02 0.10687920517E+02 0.85184981327E+01 0.67202234481E+01 0.53237499433E+01
 0.42905806683E+01 0.35576179928E+01 0.30682734464E+01 0.27858335917E+01 0.26931604104E+01
 0.27858323534E+01 0.30682744720E+01 0.35576234746E+01 0.42905865261E+01 0.53237509992E+01
 0.67202247368E+01 0.85185085071E+01 0.10687927045E+02 0.13142450023E+02 0.15693988717E+02
 0.18032249461E+02 0.20242313987E+02 0.20600830121E+02 0.20600805989E+02 0.20242267094E+02
 0.19335200113E+02 0.17730833549E+02 0.15531320481E+02 0.13066571069E+02 0.10687960751E+02
 0.85945761294E+01 0.68740980426E+01 0.55557953466E+01 0.45965645295E+01 0.39324616958E+01
 0.35117388128E+01 0.33061980947E+01 0.33061900937E+01 0.35117201077E+01 0.39324473412E+01
 0.45965713299E+01 0.55558257159E+01 0.68741321811E+01 0.85945847620E+01 0.10687927045E+02
 0.13066503470E+02 0.15531250844E+02 0.17730800465E+02 0.19335219947E+02 0.19202532873E+02
 0.19079619279E+02 0.19202457157E+02 0.19315409523E+02 0.18888608759E+02 0.17588365702E+02
 0.15531274044E+02 0.13142498765E+02 0.10832902791E+02 0.88100620300E+01 0.71721790867E+01
 0.59398592609E+01 0.50617072819E+01 0.44739898222E+01 0.41330318417E+01 0.40205966215E+01
 0.41330178299E+01 0.44739691038E+01 0.50616946227E+01 0.59398681941E+01 0.71722047637E+01
 0.88100762833E+01 0.10832879523E+02 0.13142450023E+02 0.15531250844E+02 0.17588412313E+02
 0.18888718532E+02 0.19315530370E+02 0.17360226021E+02 0.17360209670E+02 0.18109909217E+02
 0.18898423391E+02 0.18888642410E+02 0.17730764014E+02 0.15693989770E+02 0.13331714295E+02
 0.11082348597E+02 0.91415611893E+01 0.76103866682E+01 0.64851794187E+01 0.57037157162E+01
 0.52065065483E+01 0.49621382000E+01 0.49621351628E+01 0.52065024203E+01 0.57037165327E+01
 0.64851830133E+01 0.76103891240E+01 0.91415618624E+01 0.11082344119E+02 0.13331703124E+02
 0.15693988717E+02 0.17730800465E+02 0.18888718532E+02 0.18898505197E+02 0.18109961966E+02
 0.15941385718E+02 0.16611208605E+02 0.18109958314E+02 0.19315550633E+02 0.19335259915E+02
 0.18032278649E+02 0.15896722722E+02 0.13552779019E+02 0.11391595278E+02 0.95842335621E+01
 0.82047633837E+01 0.72163436791E+01 0.65509331362E+01 0.61615321133E+01 0.60322218612E+01
 0.61615235800E+01 0.65509386680E+01 0.72163643207E+01 0.82047744355E+01 0.95842289815E+01
 0.11391597307E+02 0.13552794193E+02 0.15896724630E+02 0.18032249461E+02 0.19335219947E+02
 0.19315530370E+02 0.18109961966E+02 0.16611218177E+02 0.17711513479E+02 0.19202587748E+02
 0.20465838735E+02 0.20642442017E+02 0.19574246631E+02 0.17695547710E+02 0.15581328857E+02
 0.13603998571E+02 0.11947408805E+02 0.10680926132E+02 0.97620705481E+01 0.91269551163E+01
 0.87435478189E+01 0.86135968613E+01 0.87435219558E+01 0.91269349450E+01 0.97620638555E+01
 0.10680910349E+02 0.11947384894E+02 0.13604000162E+02 0.15581359367E+02 0.17695552067E+02
 0.19574173839E+02 0.20642309058E+02 0.20465708994E+02 0.19202505496E+02 0.17711479797E+02
 0.17054207105E+02 0.19202587748E+02 0.20600960741E+02 0.21339697732E+02 0.20931105146E+02
 0.19542748355E+02 0.17687862862E+02 0.15817587025E+02 0.14169517709E+02 0.12864850248E+02
 0.11890142325E+02 0.11179110089E+02 0.10691805982E+02 0.10436110280E+02 0.10436109978E+02
 0.10691803650E+02 0.11179095998E+02 0.11890103327E+02 0.12864796348E+02 0.14169487161E+02
 0.15817604123E+02 0.17687900529E+02 0.19542750011E+02 0.20931036560E+02 0.21339567716E+02
 0.20600807346E+02 0.19202462222E+02 0.18109914265E+02 0.18109963157E+02 0.20465838735E+02
 0.21339697732E+02 0.21402680949E+02 0.20556106978E+02 0.19134264663E+02 0.17561862590E+02
 0.16108605914E+02 0.14920965225E+02 0.14011870878E+02 0.13312292468E+02 0.12774956857E+02
 0.12417435121E+02 0.12289515729E+02 0.12417501051E+02 0.12775023055E+02 0.13312296002E+02
 0.14011812070E+02 0.14920898196E+02 0.16108581641E+02 0.17561892565E+02 0.19134326509E+02
 0.20556156363E+02 0.21402657045E+02 0.21339557858E+02 0.20465620689E+02 0.19402541600E+02
 0.18930017040E+02 0.19402710857E+02 0.20642442017E+02 0.20931105146E+02 0.20556106978E+02
 0.19650635731E+02 0.18528956490E+02 0.17443839290E+02 0.16543711748E+02 0.15851516865E+02
 0.15290057103E+02 0.14803212482E+02 0.14403389965E+02 0.14166747979E+02 0.14166813905E+02
 0.14403528924E+02 0.14803312673E+02 0.15290065238E+02 0.15851466056E+02 0.16543661266E+02
 0.17443825082E+02 0.18528994386E+02 0.19650722666E+02 0.20556193381E+02 0.20931102579E+02
 0.20642307646E+02 0.19938308588E+02 0.19360555778E+02 0.19360644062E+02 0.19938495798E+02
 0.19574246631E+02 0.19542748354E+02 0.19134264663E+02 0.18528956490E+02 0.17921248208E+02
 0.17443834965E+02 0.17112134733E+02 0.16835495287E+02 0.16529546039E+02 0.16178122175E+02
 0.15871872821E+02 0.15747930137E+02 0.15871983281E+02 0.16178257950E+02 0.16529627343E+02
 0.16835509873E+02 0.17112112760E+02 0.17443804194E+02 0.17921231932E+02 0.18528981470E+02
 0.19134336743E+02 0.19542830095E+02 0.19574286076E+02 0.19237543437E+02 0.18793002535E+02
 0.18590678162E+02 0.18793032770E+02 0.19237558574E+02 0.17695547710E+02 0.17687862862E+02
 0.17561862590E+02 0.17443839290E+02 0.17443834965E+02 0.17561856279E+02 0.17687861367E+02
 0.17695544927E+02 0.17511000001E+02 0.17203879597E+02 0.16966275283E+02 0.16966320798E+02
 0.17203983821E+02 0.17511102496E+02 0.17695612202E+02 0.17687890626E+02 0.17561851090E+02
 0.17443804863E+02 0.17443808219E+02 0.17561854338E+02 0.17687886786E+02 0.17695607809E+02
 0.17511104530E+02 0.17203986408E+02 0.16966318264E+02 0.16966274974E+02 0.17203888069E+02
 0.17511009633E+02 0.15581328857E+02 0.15817587025E+02 0.16108605914E+02 0.16543711748E+02
 0.17112134733E+02 0.17687861367E+02 0.18107929692E+02 0.18223438227E+02 0.18032273879E+02
 0.17730760381E+02 0.17588370540E+02 0.17730837038E+02 0.18032381601E+02 0.18223533311E+02
 0.18107993390E+02 0.17687884767E+02 0.17112116585E+02 0.16543670863E+02 0.16108565814E+02
 0.15817552292E+02 0.15581302902E+02 0.15322619932E+02 0.15028869886E+02 0.14774702122E+02
 0.14672106380E+02 0.14774641108E+02 0.15028812428E+02 0.15322611001E+02 0.13603998571E+02
 0.14169517709E+02 0.14920965225E+02 0.15851516865E+02 0.16835495287E+02 0.17695544927E+02
 0.18223438227E+02 0.18310403862E+02 0.18077238160E+02 0.17829503147E+02 0.17829547418E+02
 0.18077341642E+02 0.18310512997E+02 0.18223522322E+02 0.17695592211E+02 0.16835495986E+02
 0.15851479469E+02 0.14920922739E+02 0.14169488570E+02 0.13603963593E+02 0.13155567243E+02
 0.12768728931E+02 0.12454469415E+02 0.12270505785E+02 0.12270516389E+02 0.12454507637E+02
 0.12768791771E+02 0.13155625808E+02 0.11947408805E+02 0.12864850248E+02 0.14011870878E+02
 0.15290057103E+02 0.16529546039E+02 0.17511000001E+02 0.18032273879E+02 0.18077238160E+02
 0.17878091253E+02 0.17760785634E+02 0.17878143194E+02 0.18077314446E+02 0.18032353731E+02
 0.17511074779E+02 0.16529595145E+02 0.15290057348E+02 0.14011834988E+02 0.12864820335E+02
 0.11947401021E+02 0.11250225336E+02 0.10718720401E+02 0.10315906961E+02 0.10049881893E+02
 0.99550457237E+01 0.10049932975E+02 0.10315978429E+02 0.10718770693E+02 0.11250240261E+02
 0.10680926132E+02 0.11890142325E+02 0.13312292468E+02 0.14803212482E+02 0.16178122175E+02
 0.17203879597E+02 0.17730760381E+02 0.17829503147E+02 0.17760785634E+02 0.17760781449E+02
 0.17829502255E+02 0.17730789659E+02 0.17203955407E+02 0.16178223587E+02 0.14803290556E+02
 0.13312316793E+02 0.11890129546E+02 0.10680913524E+02 0.97339926696E+01 0.90221754165E+01
 0.84999909076E+01 0.81436016496E+01 0.79583318261E+01 0.79583361281E+01 0.81436101067E+01
 0.84999938462E+01 0.90221696669E+01 0.97339901289E+01 0.97620705481E+01 0.11179110089E+02
 0.12774956857E+02 0.14403389965E+02 0.15871872821E+02 0.16966275283E+02 0.17588370540E+02
 0.17829547418E+02 0.17878143194E+02 0.17829502255E+02 0.17588338967E+02 0.16966308758E+02
 0.15871964465E+02 0.14403492754E+02 0.12775034795E+02 0.11179157647E+02 0.97620941957E+01
 0.86121466758E+01 0.77311488200E+01 0.70812414481E+01 0.66261162326E+01 0.63507998308E+01
 0.62577682756E+01 0.63507757338E+01 0.66260921390E+01 0.70812351864E+01 0.77311529510E+01
 0.86121422823E+01 0.91269551163E+01 0.10691805982E+02 0.12417435121E+02 0.14166747979E+02
 0.15747930137E+02 0.16966320798E+02 0.17730837038E+02 0.18077341642E+02 0.18077314446E+02
 0.17730789659E+02 0.16966308758E+02 0.15747959592E+02 0.14166782758E+02 0.12417459469E+02
 0.10691842212E+02 0.91270162577E+01 0.78240304088E+01 0.68039532712E+01 0.60386832754E+01
 0.54892603539E+01 0.51289969919E+01 0.49487345804E+01 0.49487311030E+01 0.51289970222E+01
 0.54892748023E+01 0.60386951829E+01 0.68039312818E+01 0.78239716591E+01 0.87435478189E+01
 0.10436110280E+02 0.12289515729E+02 0.14166813905E+02 0.15871983281E+02 0.17203983821E+02
 0.18032381601E+02 0.18310512997E+02 0.18032353731E+02 0.17203955407E+02 0.15871964465E+02
 0.14166782758E+02 0.12289459304E+02 0.10436057494E+02 0.87435417520E+01 0.73139778075E+01
 0.61775513475E+01 0.53118278365E+01 0.46771033430E+01 0.42397457339E+01 0.39811509717E+01
 0.38952284862E+01 0.39811732771E+01 0.42397725104E+01 0.46771074992E+01 0.53117919328E+01
 0.61774884142E+01 0.73139306249E+01 0.86135968613E+01 0.10436109978E+02 0.12417501051E+02
 0.14403528924E+02 0.16178257950E+02 0.17511102496E+02 0.18223533311E+02 0.18223522322E+02
 0.17511074779E+02 0.16178223587E+02 0.14403492754E+02 0.12417459469E+02 0.10436057494E+02
 0.86135372599E+01 0.70592387749E+01 0.58100961088E+01 0.48476987763E+01 0.41313987023E+01
 0.36220688511E+01 0.32930357455E+01 0.31308563143E+01 0.31308653889E+01 0.32930457432E+01
 0.36220531367E+01 0.41313608109E+01 0.48476723788E+01 0.58101085549E+01 0.70592865291E+01
 0.87435219558E+01 0.10691803650E+02 0.12775023055E+02 0.14803312673E+02 0.16529627343E+02
 0.17695612202E+02 0.18107993390E+02 0.17695592211E+02 0.16529595145E+02 0.14803290556E+02
 0.12775034795E+02 0.10691842212E+02 0.87435417520E+01 0.70592387749E+01 0.56879612235E+01
 0.46191836762E+01 0.38140649866E+01 0.32298356177E+01 0.28327485676E+01 0.26015275554E+01
 0.25254904460E+01 0.26015151835E+01 0.28327193718E+01 0.32298088046E+01 0.38140808975E+01
 0.46192557920E+01 0.56880470538E+01 0.70592787177E+01 0.91269349450E+01 0.11179095998E+02
 0.13312296002E+02 0.15290065238E+02 0.16835509873E+02 0.17687890626E+02 0.17687884767E+02
 0.16835495986E+02 0.15290057348E+02 0.13312316793E+02 0.11179157647E+02 0.91270162577E+01
 0.73139778075E+01 0.58100961088E+01 0.46191836762E+01 0.37093530908E+01 0.30381222172E+01
 0.25671093904E+01 0.22678476272E+01 0.21224441498E+01 0.21224321811E+01 0.22678221188E+01
 0.25670978830E+01 0.30381519322E+01 0.37094219380E+01 0.46192498836E+01 0.58101093933E+01
 0.73139257329E+01 0.97620638555E+01 0.11890103327E+02 0.14011812070E+02 0.15851466056E+02
 0.17112112760E+02 0.17561851090E+02 0.17112116585E+02 0.15851479469E+02 0.14011834988E+02
 0.11890129546E+02 0.97620941957E+01 0.78240304088E+01 0.61775513475E+01 0.48476987763E+01
 0.38140649866E+01 0.30381222172E+01 0.24800293736E+01 0.21062326368E+01 0.18920188193E+01
 0.18223002298E+01 0.18920067075E+01 0.21062306976E+01 0.24800498936E+01 0.30381462287E+01
 0.38140613848E+01 0.48476596989E+01 0.61774985334E+01 0.78239873778E+01 0.10680910349E+02
 0.12864796348E+02 0.14920898196E+02 0.16543661266E+02 0.17443804194E+02 0.17443804863E+02
 0.16543670863E+02 0.14920922739E+02 0.12864820335E+02 0.10680913524E+02 0.86121466758E+01
 0.68039532712E+01 0.53118278365E+01 0.41313987023E+01 0.32298356177E+01 0.25671093904E+01
 0.21062326368E+01 0.18170661200E+01 0.16781205425E+01 0.16781185140E+01 0.18170668240E+01
 0.21062405704E+01 0.25671074978E+01 0.32298014785E+01 0.41313392561E+01 0.53117799107E+01
 0.68039419146E+01 0.86121560418E+01 0.11947384894E+02 0.14169487161E+02 0.16108581641E+02
 0.17443825082E+02 0.17921231932E+02 0.17443808219E+02 0.16108565814E+02 0.14169488570E+02
 0.11947401021E+02 0.97339926696E+01 0.77311488200E+01 0.60386832754E+01 0.46771033430E+01
 0.36220688511E+01 0.28327485676E+01 0.22678476272E+01 0.18920188193E+01 0.16781205425E+01
 0.16088214574E+01 0.16781230599E+01 0.18920200478E+01 0.22678426184E+01 0.28327372096E+01
 0.36220587598E+01 0.46771022923E+01 0.60386880804E+01 0.77311470313E+01 0.97339783731E+01
 0.13604000162E+02 0.15817604123E+02 0.17561892565E+02 0.18528994386E+02 0.18528981470E+02
 0.17561854338E+02 0.15817552292E+02 0.13603963593E+02 0.11250225336E+02 0.90221754165E+01
 0.70812414481E+01 0.54892603539E+01 0.42397457339E+01 0.32930357455E+01 0.26015275554E+01
 0.21224441498E+01 0.18223002298E+01 0.16781185140E+01 0.16781230599E+01 0.18223053444E+01
 0.21224402750E+01 0.26015260085E+01 0.32930578723E+01 0.42397895138E+01 0.54892940615E+01
 0.70812406223E+01 0.90221559016E+01 0.11250225854E+02 0.15581359367E+02 0.17687900529E+02
 0.19134326509E+02 0.19650722666E+02 0.19134336743E+02 0.17687886786E+02 0.15581302902E+02
 0.13155567243E+02 0.10718720401E+02 0.84999909076E+01 0.66261162326E+01 0.51289969919E+01
 0.39811509717E+01 0.31308563143E+01 0.25254904460E+01 0.21224321811E+01 0.18920067075E+01
 0.18170668240E+01 0.18920200478E+01 0.21224402750E+01 0.25254845222E+01 0.31308499312E+01
 0.39811581365E+01 0.51290124878E+01 0.66261307885E+01 0.85000152608E+01 0.10718773656E+02
 0.13155641249E+02 0.17695552067E+02 0.19542750011E+02 0.20556156363E+02 0.20556193381E+02
 0.19542830095E+02 0.17695607809E+02 0.15322619932E+02 0.12768728931E+02 0.10315906961E+02
 0.81436016496E+01 0.63507998308E+01 0.49487345804E+01 0.38952284862E+01 0.31308653889E+01
 0.26015151835E+01 0.22678221188E+01 0.21062306976E+01 0.21062405704E+01 0.22678426184E+01
 0.26015260085E+01 0.31308499312E+01 0.38951864629E+01 0.49486875063E+01 0.63507839642E+01
 0.81436434832E+01 0.10315994323E+02 0.12768808810E+02 0.15322636766E+02 0.19574173838E+02
 0.20931036560E+02 0.21402657045E+02 0.20931102579E+02 0.19574286076E+02 0.17511104530E+02
 0.15028869886E+02 0.12454469415E+02 0.10049881893E+02 0.79583318261E+01 0.62577682756E+01
 0.49487311030E+01 0.39811732771E+01 0.32930457432E+01 0.28327193718E+01 0.25670978830E+01
 0.24800498936E+01 0.25671074978E+01 0.28327372096E+01 0.32930578723E+01 0.39811581365E+01
 0.49486875063E+01 0.62577301112E+01 0.79583363747E+01 0.10049920507E+02 0.12454485798E+02
 0.15028817258E+02 0.17510994588E+02 0.20642309058E+02 0.21339567716E+02 0.21339557858E+02
 0.20642307646E+02 0.19237543437E+02 0.17203986408E+02 0.14774702122E+02 0.12270505785E+02
 0.99550457237E+01 0.79583361281E+01 0.63507757338E+01 0.51289970222E+01 0.42397725104E+01
 0.36220531367E+01 0.32298088046E+01 0.30381519322E+01 0.30381462287E+01 0.32298014785E+01
 0.36220587598E+01 0.42397895138E+01 0.51290124878E+01 0.63507839642E+01 0.79583363747E+01
 0.99550231571E+01 0.12270436523E+02 0.14774589694E+02 0.17203878277E+02 0.19237490316E+02
 0.20465708994E+02 0.20600807346E+02 0.20465620689E+02 0.19938308588E+02 0.18793002535E+02
 0.16966318264E+02 0.14672106380E+02 0.12270516389E+02 0.10049932975E+02 0.81436101067E+01
 0.66260921390E+01 0.54892748023E+01 0.46771074992E+01 0.41313608109E+01 0.38140808975E+01
 0.37094219380E+01 0.38140613848E+01 0.41313392561E+01 0.46771022923E+01 0.54892940615E+01
 0.66261307885E+01 0.81436434832E+01 0.10049920507E+02 0.12270436523E+02 0.14671995061E+02
 0.16966253791E+02 0.18793036278E+02 0.19938412722E+02 0.19202505496E+02 0.19202462222E+02
 0.19402541600E+02 0.19360555778E+02 0.18590678162E+02 0.16966274974E+02 0.14774641108E+02
 0.12454507637E+02 0.10315978429E+02 0.84999938462E+01 0.70812351864E+01 0.60386951829E+01
 0.53117919328E+01 0.48476723788E+01 0.46192557920E+01 0.46192498836E+01 0.48476596989E+01
 0.53117799107E+01 0.60386880804E+01 0.70812406223E+01 0.85000152608E+01 0.10315994323E+02
 0.12454485798E+02 0.14774589694E+02 0.16966253791E+02 0.18590736248E+02 0.19360673752E+02
 0.19402651387E+02 0.17711479797E+02 0.18109914265E+02 0.18930017040E+02 0.19360644062E+02
 0.18793032770E+02 0.17203888069E+02 0.15028812428E+02 0.12768791771E+02 0.10718770693E+02
 0.90221696669E+01 0.77311529510E+01 0.68039312818E+01 0.61774884142E+01 0.58101085549E+01
 0.56880470538E+01 0.58101093933E+01 0.61774985334E+01 0.68039419146E+01 0.77311470313E+01
 0.90221559016E+01 0.10718773656E+02 0.12768808810E+02 0.15028817258E+02 0.17203878278E+02
 0.18793036278E+02 0.19360673752E+02 0.18930052772E+02 0.18109934324E+02 0.17054207105E+02
 0.18109963157E+02 0.19402710857E+02 0.19938495798E+02 0.19237558574E+02 0.17511009633E+02
 0.15322611001E+02 0.13155625808E+02 0.11250240261E+02 0.97339901289E+01 0.86121422823E+01
 0.78239716591E+01 0.73139306249E+01 0.70592865291E+01 0.70592787177E+01 0.73139257329E+01
 0.78239873778E+01 0.86121560418E+01 0.97339783731E+01 0.11250225854E+02 0.13155641249E+02
 0.15322636766E+02 0.17510994588E+02 0.19237490316E+02 0.19938412722E+02 0.19402651387E+02
 0.18109934324E+02 0.17054199245E+02 0.19229559770E+02 0.20242445130E+02 0.20642440509E+02
 0.20048011439E+02 0.18628981957E+02 0.16835496980E+02 0.15051755831E+02 0.13489006718E+02
 0.12256085913E+02 0.11334848324E+02 0.10662413684E+02 0.10201862434E+02 0.99605399753E+01
 0.99605315609E+01 0.10201843981E+02 0.10662393824E+02 0.11334824451E+02 0.12256055579E+02
 0.13488984619E+02 0.15051763666E+02 0.16835534714E+02 0.18629017122E+02 0.20047999357E+02
 0.20642356701E+02 0.20242308097E+02 0.19229429709E+02 0.18396347898E+02 0.18396401567E+02
 0.20242445130E+02 0.20968155521E+02 0.20931101936E+02 0.20052096717E+02 0.18647604385E+02
 0.17112133485E+02 0.15697205245E+02 0.14544595746E+02 0.13663645614E+02 0.12986734827E+02
 0.12466963358E+02 0.12121162546E+02 0.11997481752E+02 0.12121203477E+02 0.12466997000E+02
 0.12986721927E+02 0.13663595268E+02 0.14544546271E+02 0.15697186843E+02 0.17112157213E+02
 0.18647663750E+02 0.20052157304E+02 0.20931102506E+02 0.20968053210E+02 0.20242273527E+02
 0.19315420156E+02 0.18898430313E+02 0.19315554316E+02 0.20642440509E+02 0.20931101936E+02
 0.20556100069E+02 0.19650627686E+02 0.18528950841E+02 0.17443834930E+02 0.16543706564E+02
 0.15851513391E+02 0.15290058656E+02 0.14803217000E+02 0.14403393473E+02 0.14166750833E+02
 0.14166817963E+02 0.14403532154E+02 0.14803312544E+02 0.15290064101E+02 0.15851467268E+02
 0.16543663215E+02 0.17443824723E+02 0.18528993294E+02 0.19650723853E+02 0.20556195605E+02
 0.20931103571E+02 0.20642309465E+02 0.19938313775E+02 0.19360561535E+02 0.19360646103E+02
 0.19938494767E+02 0.20048011439E+02 0.20052096717E+02 0.19650627686E+02 0.19035418927E+02
 0.18413957369E+02 0.17921244877E+02 0.17574236796E+02 0.17282755132E+02 0.16958812947E+02
 0.16585104817E+02 0.16258637514E+02 0.16126376899E+02 0.16258764104E+02 0.16585261457E+02
 0.16958911740E+02 0.17282784074E+02 0.17574226379E+02 0.17921222313E+02 0.18413952648E+02
 0.19035467881E+02 0.19650728888E+02 0.20052186576E+02 0.20048018987E+02 0.19652012118E+02
 0.19150064253E+02 0.18923832018E+02 0.19150140345E+02 0.19652085778E+02 0.18628981957E+02
 0.18647604385E+02 0.18528950841E+02 0.18413957369E+02 0.18413955153E+02 0.18528946485E+02
 0.18647600361E+02 0.18628976635E+02 0.18389955676E+02 0.18014345179E+02 0.17728013301E+02
 0.17728043026E+02 0.18014417913E+02 0.18390042621E+02 0.18629060621E+02 0.18647666143E+02
 0.18528973657E+02 0.18413944744E+02 0.18413945905E+02 0.18528974706E+02 0.18647664482E+02
 0.18629058379E+02 0.18390042390E+02 0.18014418235E+02 0.17728042663E+02 0.17728015247E+02
 0.18014351624E+02 0.18389963387E+02 0.16835496980E+02 0.17112133485E+02 0.17443834930E+02
 0.17921244877E+02 0.18528946485E+02 0.19134253693E+02 0.19542741345E+02 0.19574239970E+02
 0.19237549963E+02 0.18793028396E+02 0.18590681881E+02 0.18793007973E+02 0.19237544882E+02
 0.19574287265E+02 0.19542834498E+02 0.19134339558E+02 0.18528979359E+02 0.17921230432E+02
 0.17443807265E+02 0.17112114995E+02 0.16835507118E+02 0.16529625017E+02 0.16178260935E+02
 0.15871987629E+02 0.15747932601E+02 0.15871878175E+02 0.16178132923E+02 0.16529555070E+02
 0.15051755831E+02 0.15697205245E+02 0.16543706564E+02 0.17574236796E+02 0.18647600361E+02
 0.19542741345E+02 0.19985508534E+02 0.19850550157E+02 0.19335256031E+02 0.18888642813E+02
 0.18888617120E+02 0.19335206614E+02 0.19850535206E+02 0.19985559913E+02 0.19542829010E+02
 0.18647663930E+02 0.17574248758E+02 0.16543684151E+02 0.15697168296E+02 0.15051711754E+02
 0.14531602665E+02 0.14081195617E+02 0.13712892968E+02 0.13495729563E+02 0.13495694874E+02
 0.13712829984E+02 0.14081171560E+02 0.14531629897E+02 0.13489006718E+02 0.14544595746E+02
 0.15851513391E+02 0.17282755132E+02 0.18628976635E+02 0.19574239970E+02 0.19850550157E+02
 0.19490282808E+02 0.18903403660E+02 0.18625584649E+02 0.18903356298E+02 0.19490229621E+02
 0.19850541163E+02 0.19574287418E+02 0.18629041655E+02 0.17282789597E+02 0.15851507682E+02
 0.14544572052E+02 0.13488978453E+02 0.12684923838E+02 0.12069463193E+02 0.11598562260E+02
 0.11285400620E+02 0.11173508493E+02 0.11285415857E+02 0.11598596150E+02 0.12069506810E+02
 0.12684961116E+02 0.12256085913E+02 0.13663645614E+02 0.15290058656E+02 0.16958812947E+02
 0.18389955676E+02 0.19237549963E+02 0.19335256031E+02 0.18903403660E+02 0.18465512576E+02
 0.18465472385E+02 0.18903314998E+02 0.19335188621E+02 0.19237553952E+02 0.18390021407E+02
 0.16958885006E+02 0.15290090010E+02 0.13663635614E+02 0.12256065620E+02 0.11150826269E+02
 0.10323782916E+02 0.97190782636E+01 0.93054714553E+01 0.90894105354E+01 0.90894241282E+01
 0.93054997774E+01 0.97190991678E+01 0.10323791111E+02 0.11150836485E+02 0.11334848324E+02
 0.12986734827E+02 0.14803217000E+02 0.16585104817E+02 0.18014345179E+02 0.18793028396E+02
 0.18888642813E+02 0.18625584649E+02 0.18465472385E+02 0.18625490975E+02 0.18888538807E+02
 0.18792998773E+02 0.18014405963E+02 0.16585208662E+02 0.14803304357E+02 0.12986773909E+02
 0.11334845058E+02 0.99795389943E+01 0.89448304812E+01 0.81879954115E+01 0.76609896160E+01
 0.73422721884E+01 0.72343851815E+01 0.73422634555E+01 0.76609722932E+01 0.81879798968E+01
 0.89448316851E+01 0.99795545257E+01 0.10662413684E+02 0.12466963358E+02 0.14403393473E+02
 0.16258637514E+02 0.17728013301E+02 0.18590681881E+02 0.18888617120E+02 0.18903356298E+02
 0.18903314998E+02 0.18888538807E+02 0.18590646571E+02 0.17728047127E+02 0.16258708168E+02
 0.14403467639E+02 0.12467030063E+02 0.10662463089E+02 0.91274476727E+01 0.79227735970E+01
 0.70259862388E+01 0.63880667016E+01 0.59717396849E+01 0.57634412973E+01 0.57634330193E+01
 0.59717228740E+01 0.63880583405E+01 0.70259932762E+01 0.79227797800E+01 0.91274286536E+01
 0.10201862434E+02 0.12121162546E+02 0.14166750833E+02 0.16126376899E+02 0.17728043026E+02
 0.18793007973E+02 0.19335206614E+02 0.19490229621E+02 0.19335188621E+02 0.18792998773E+02
 0.17728047127E+02 0.16126368656E+02 0.14166724697E+02 0.12121153627E+02 0.10201898909E+02
 0.85368311433E+01 0.72012027922E+01 0.61875926232E+01 0.54510034120E+01 0.49469650136E+01
 0.46495534348E+01 0.45506644338E+01 0.46495646677E+01 0.49469831531E+01 0.54510172847E+01
 0.61875831874E+01 0.72011577544E+01 0.85367690536E+01 0.99605399753E+01 0.11997481752E+02
 0.14166817963E+02 0.16258764104E+02 0.18014417913E+02 0.19237544882E+02 0.19850535206E+02
 0.19850541163E+02 0.19237553952E+02 0.18014405963E+02 0.16258708167E+02 0.14166724697E+02
 0.11997392511E+02 0.99604966433E+01 0.81799005331E+01 0.67324907508E+01 0.56179514069E+01
 0.47938288007E+01 0.42116813085E+01 0.38366441093E+01 0.36516730911E+01 0.36516866604E+01
 0.38366686555E+01 0.42116874410E+01 0.47938040660E+01 0.56179061887E+01 0.67324481736E+01
 0.81798897663E+01 0.99605315609E+01 0.12121203477E+02 0.14403532154E+02 0.16585261457E+02
 0.18390042621E+02 0.19574287265E+02 0.19985559913E+02 0.19574287418E+02 0.18390021407E+02
 0.16585208662E+02 0.14403467639E+02 0.12121153627E+02 0.99604966433E+01 0.80589350962E+01
 0.64981368470E+01 0.52827834754E+01 0.43722925239E+01 0.37152457251E+01 0.32696671439E+01
 0.30098894795E+01 0.29242970628E+01 0.30098939418E+01 0.32696545852E+01 0.37152147424E+01
 0.43722743222E+01 0.52828019385E+01 0.64981782951E+01 0.80589734078E+01 0.10201843981E+02
 0.12466997000E+02 0.14803312544E+02 0.16958911740E+02 0.18629060621E+02 0.19542834498E+02
 0.19542829010E+02 0.18629041655E+02 0.16958885006E+02 0.14803304357E+02 0.12467030063E+02
 0.10201898909E+02 0.81799005331E+01 0.64981368470E+01 0.51713163210E+01 0.41644604104E+01
 0.34260050569E+01 0.29089695364E+01 0.25799060661E+01 0.24195085575E+01 0.24195005980E+01
 0.25798823921E+01 0.29089435339E+01 0.34260106151E+01 0.41645189676E+01 0.51713987633E+01
 0.64981819428E+01 0.81798789645E+01 0.10662393824E+02 0.12986721927E+02 0.15290064101E+02
 0.17282784074E+02 0.18647666143E+02 0.19134339558E+02 0.18647663930E+02 0.17282789597E+02
 0.15290090010E+02 0.12986773909E+02 0.10662463089E+02 0.85368311433E+01 0.67324907508E+01
 0.52827834754E+01 0.41644604104E+01 0.33305803960E+01 0.27327931969E+01 0.23320740606E+01
 0.21016769931E+01 0.20264840349E+01 0.21016587626E+01 0.23320585707E+01 0.27328043725E+01
 0.33306219592E+01 0.41645080416E+01 0.52828023228E+01 0.67324632241E+01 0.85367686977E+01
 0.11334824451E+02 0.13663595268E+02 0.15851467268E+02 0.17574226379E+02 0.18528973657E+02
 0.18528979359E+02 0.17574248758E+02 0.15851507682E+02 0.13663635614E+02 0.11334845058E+02
 0.91274476727E+01 0.72012027922E+01 0.56179514069E+01 0.43722925239E+01 0.34260050569E+01
 0.27327931969E+01 0.22509889013E+01 0.19481588748E+01 0.18023063162E+01 0.18023001461E+01
 0.19481520656E+01 0.22509966189E+01 0.27328050821E+01 0.34259937725E+01 0.43722512947E+01
 0.56179063766E+01 0.72011797674E+01 0.91274392655E+01 0.12256055579E+02 0.14544546271E+02
 0.16543663215E+02 0.17921222313E+02 0.18413944744E+02 0.17921230432E+02 0.16543684151E+02
 0.14544572052E+02 0.12256065620E+02 0.99795389943E+01 0.79227735970E+01 0.61875926232E+01
 0.47938288007E+01 0.37152457251E+01 0.29089695364E+01 0.23320740606E+01 0.19481588748E+01
 0.17295394685E+01 0.16586783008E+01 0.17295377592E+01 0.19481614880E+01 0.23320761692E+01
 0.29089537854E+01 0.37152062205E+01 0.47937872475E+01 0.61875775938E+01 0.79227861842E+01
 0.99795514416E+01 0.13488984619E+02 0.15697186843E+02 0.17443824723E+02 0.18413952648E+02
 0.18413945905E+02 0.17443807265E+02 0.15697168296E+02 0.13488978453E+02 0.11150826269E+02
 0.89448304812E+01 0.70259862388E+01 0.54510034120E+01 0.42116813085E+01 0.32696671439E+01
 0.25799060661E+01 0.21016769931E+01 0.18023063162E+01 0.16586783008E+01 0.16586798174E+01
 0.18023076415E+01 0.21016748515E+01 0.25799058939E+01 0.32696783858E+01 0.42117028616E+01
 0.54510199727E+01 0.70259841887E+01 0.89448146093E+01 0.11150815252E+02 0.15051763666E+02
 0.17112157213E+02 0.18528993294E+02 0.19035467881E+02 0.18528974706E+02 0.17112114995E+02
 0.15051711754E+02 0.12684923838E+02 0.10323782916E+02 0.81879954115E+01 0.63880667016E+01
 0.49469650136E+01 0.38366441093E+01 0.30098894795E+01 0.24195085575E+01 0.20264840349E+01
 0.18023001461E+01 0.17295377592E+01 0.18023076415E+01 0.20264845791E+01 0.24195018818E+01
 0.30098984188E+01 0.38366832272E+01 0.49470129357E+01 0.63880879395E+01 0.81879867416E+01
 0.10323779303E+02 0.12684953801E+02 0.16835534714E+02 0.18647663750E+02 0.19650723853E+02
 0.19650728888E+02 0.18647664482E+02 0.16835507118E+02 0.14531602665E+02 0.12069463193E+02
 0.97190782636E+01 0.76609896160E+01 0.59717396849E+01 0.46495534348E+01 0.36516730911E+01
 0.29242970628E+01 0.24195005980E+01 0.21016587626E+01 0.19481520656E+01 0.19481614880E+01
 0.21016748515E+01 0.24195018818E+01 0.29242783704E+01 0.36516499385E+01 0.46495438803E+01
 0.59717507169E+01 0.76610218634E+01 0.97191320405E+01 0.12069530632E+02 0.14531661125E+02
 0.18629017122E+02 0.20052157304E+02 0.20556195604E+02 0.20052186576E+02 0.18629058379E+02
 0.16529625017E+02 0.14081195617E+02 0.11598562260E+02 0.93054714553E+01 0.73422721884E+01
 0.57634412973E+01 0.45506644338E+01 0.36516866604E+01 0.30098939418E+01 0.25798823921E+01
 0.23320585707E+01 0.22509966189E+01 0.23320761692E+01 0.25799058939E+01 0.30098984188E+01
 0.36516499385E+01 0.45505960944E+01 0.57633874825E+01 0.73422772171E+01 0.93055328131E+01
 0.11598631228E+02 0.14081223824E+02 0.16529604498E+02 0.20047999357E+02 0.20931102506E+02
 0.20931103571E+02 0.20048018987E+02 0.18390042390E+02 0.16178260935E+02 0.13712892968E+02
 0.11285400620E+02 0.90894105354E+01 0.72343851815E+01 0.57634330193E+01 0.46495646677E+01
 0.38366686555E+01 0.32696545852E+01 0.29089435339E+01 0.27328043725E+01 0.27328050821E+01
 0.29089537854E+01 0.32696783858E+01 0.38366832272E+01 0.46495438803E+01 0.57633874825E+01
 0.72343529222E+01 0.90894040924E+01 0.11285387198E+02 0.13712839978E+02 0.16178183192E+02
 0.18389984271E+02 0.20642356701E+02 0.20968053210E+02 0.20642309465E+02 0.19652012118E+02
 0.18014418235E+02 0.15871987629E+02 0.13495729563E+02 0.11173508493E+02 0.90894241282E+01
 0.73422634555E+01 0.59717228740E+01 0.49469831531E+01 0.42116874410E+01 0.37152147424E+01
 0.34260106151E+01 0.33306219592E+01 0.34259937725E+01 0.37152062205E+01 0.42117028616E+01
 0.49470129357E+01 0.59717507169E+01 0.73422772171E+01 0.90894040924E+01 0.11173432178E+02
 0.13495607009E+02 0.15871876090E+02 0.18014377883E+02 0.19652045429E+02 0.20242308097E+02
 0.20242273527E+02 0.19938313775E+02 0.19150064253E+02 0.17728042663E+02 0.15747932601E+02
 0.13495694874E+02 0.11285415857E+02 0.93054997774E+01 0.76609722932E+01 0.63880583405E+01
 0.54510172847E+01 0.47938040660E+01 0.43722743222E+01 0.41645189676E+01 0.41645080416E+01
 0.43722512947E+01 0.47937872475E+01 0.54510199727E+01 0.63880879395E+01 0.76610218634E+01
 0.93055328131E+01 0.11285387198E+02 0.13495607009E+02 0.15747851288E+02 0.17728034495E+02
 0.19150129671E+02 0.19938394164E+02 0.19229429709E+02 0.19315420156E+02 0.19360561535E+02
 0.18923832018E+02 0.17728015247E+02 0.15871878175E+02 0.13712829984E+02 0.11598596150E+02
 0.97190991678E+01 0.81879798968E+01 0.70259932762E+01 0.61875831874E+01 0.56179061887E+01
 0.52828019385E+01 0.51713987633E+01 0.52828023228E+01 0.56179063766E+01 0.61875775938E+01
 0.70259841887E+01 0.81879867416E+01 0.97191320405E+01 0.11598631228E+02 0.13712839978E+02
 0.15871876090E+02 0.17728034495E+02 0.18923872659E+02 0.19360593011E+02 0.19315429915E+02
 0.18396347898E+02 0.18898430313E+02 0.19360646103E+02 0.19150140345E+02 0.18014351624E+02
 0.16178132923E+02 0.14081171560E+02 0.12069506810E+02 0.10323791111E+02 0.89448316851E+01
 0.79227797800E+01 0.72011577544E+01 0.67324481736E+01 0.64981782951E+01 0.64981819428E+01
 0.67324632241E+01 0.72011797674E+01 0.79227861842E+01 0.89448146093E+01 0.10323779303E+02
 0.12069530632E+02 0.14081223824E+02 0.16178183192E+02 0.18014377883E+02 0.19150129671E+02
 0.19360593011E+02 0.18898359748E+02 0.18396314256E+02 0.18396401567E+02 0.19315554316E+02
 0.19938494767E+02 0.19652085779E+02 0.18389963387E+02 0.16529555070E+02 0.14531629897E+02
 0.12684961116E+02 0.11150836485E+02 0.99795545257E+01 0.91274286536E+01 0.85367690536E+01
 0.81798897663E+01 0.80589734078E+01 0.81798789645E+01 0.85367686977E+01 0.91274392655E+01
 0.99795514416E+01 0.11150815252E+02 0.12684953801E+02 0.14531661125E+02 0.16529604498E+02
 0.18389984271E+02 0.19652045429E+02 0.19938394164E+02 0.19315429915E+02 0.18396314256E+02
 0.17969572111E+02 0.19490282808E+02 0.19850550157E+02 0.19574239970E+02 0.18628976635E+02
 0.17282755132E+02 0.15851513391E+02 0.14544595746E+02 0.13489006718E+02 0.12684961116E+02
 0.12069506810E+02 0.11598596150E+02 0.11285415857E+02 0.11173508493E+02 0.11285400620E+02
 0.11598562260E+02 0.12069463193E+02 0.12684923838E+02 0.13488978453E+02 0.14544572052E+02
 0.15851507682E+02 0.17282789597E+02 0.18629041655E+02 0.19574287418E+02 0.19850541163E+02
 0.19490229621E+02 0.18903356298E+02 0.18625584649E+02 0.18903403660E+02 0.19850550157E+02
 0.19985508534E+02 0.19542741345E+02 0.18647600361E+02 0.17574236796E+02 0.16543706564E+02
 0.15697205245E+02 0.15051755831E+02 0.14531629897E+02 0.14081171560E+02 0.13712829984E+02
 0.13495694874E+02 0.13495729563E+02 0.13712892968E+02 0.14081195617E+02 0.14531602665E+02
 0.15051711754E+02 0.15697168296E+02 0.16543684151E+02 0.17574248758E+02 0.18647663930E+02
 0.19542829010E+02 0.19985559913E+02 0.19850535206E+02 0.19335206614E+02 0.18888617120E+02
 0.18888642813E+02 0.19335256031E+02 0.19574239970E+02 0.19542741345E+02 0.19134253693E+02
 0.18528946485E+02 0.17921244877E+02 0.17443834930E+02 0.17112133485E+02 0.16835496980E+02
 0.16529555070E+02 0.16178132923E+02 0.15871878175E+02 0.15747932601E+02 0.15871987629E+02
 0.16178260935E+02 0.16529625017E+02 0.16835507118E+02 0.17112114995E+02 0.17443807265E+02
 0.17921230432E+02 0.18528979359E+02 0.19134339558E+02 0.19542834498E+02 0.19574287265E+02
 0.19237544882E+02 0.18793007973E+02 0.18590681881E+02 0.18793028396E+02 0.19237549963E+02
 0.18628976635E+02 0.18647600361E+02 0.18528946485E+02 0.18413955153E+02 0.18413957369E+02
 0.18528950841E+02 0.18647604385E+02 0.18628981957E+02 0.18389963387E+02 0.18014351624E+02
 0.17728015247E+02 0.17728042663E+02 0.18014418235E+02 0.18390042390E+02 0.18629058379E+02
 0.18647664482E+02 0.18528974706E+02 0.18413945905E+02 0.18413944744E+02 0.18528973657E+02
 0.18647666143E+02 0.18629060621E+02 0.18390042621E+02 0.18014417913E+02 0.17728043026E+02
 0.17728013301E+02 0.18014345179E+02 0.18389955676E+02 0.17282755132E+02 0.17574236796E+02
 0.17921244877E+02 0.18413957369E+02 0.19035418927E+02 0.19650627686E+02 0.20052096717E+02
 0.20048011439E+02 0.19652085778E+02 0.19150140345E+02 0.18923832018E+02 0.19150064253E+02
 0.19652012118E+02 0.20048018987E+02 0.20052186576E+02 0.19650728888E+02 0.19035467881E+02
 0.18413952648E+02 0.17921222313E+02 0.17574226379E+02 0.17282784074E+02 0.16958911740E+02
 0.16585261457E+02 0.16258764104E+02 0.16126376899E+02 0.16258637514E+02 0.16585104817E+02
 0.16958812947E+02 0.15851513391E+02 0.16543706564E+02 0.17443834930E+02 0.18528950841E+02
 0.19650627686E+02 0.20556100069E+02 0.20931101936E+02 0.20642440509E+02 0.19938494767E+02
 0.19360646103E+02 0.19360561535E+02 0.19938313775E+02 0.20642309465E+02 0.20931103571E+02
 0.20556195605E+02 0.19650723853E+02 0.18528993294E+02 0.17443824723E+02 0.16543663215E+02
 0.15851467268E+02 0.15290064101E+02 0.14803312544E+02 0.14403532154E+02 0.14166817963E+02
 0.14166750833E+02 0.14403393473E+02 0.14803217000E+02 0.15290058656E+02 0.14544595746E+02
 0.15697205245E+02 0.17112133485E+02 0.18647604385E+02 0.20052096717E+02 0.20931101936E+02
 0.20968155521E+02 0.20242445130E+02 0.19315554316E+02 0.18898430313E+02 0.19315420156E+02
 0.20242273527E+02 0.20968053210E+02 0.20931102506E+02 0.20052157304E+02 0.18647663750E+02
 0.17112157213E+02 0.15697186843E+02 0.14544546271E+02 0.13663595268E+02 0.12986721927E+02
 0.12466997000E+02 0.12121203477E+02 0.11997481752E+02 0.12121162546E+02 0.12466963358E+02
 0.12986734827E+02 0.13663645614E+02 0.13489006718E+02 0.15051755831E+02 0.16835496980E+02
 0.18628981957E+02 0.20048011439E+02 0.20642440509E+02 0.20242445130E+02 0.19229559770E+02
 0.18396401567E+02 0.18396347898E+02 0.19229429709E+02 0.20242308097E+02 0.20642356701E+02
 0.20047999357E+02 0.18629017122E+02 0.16835534714E+02 0.15051763666E+02 0.13488984619E+02
 0.12256055579E+02 0.11334824451E+02 0.10662393824E+02 0.10201843981E+02 0.99605315609E+01
 0.99605399753E+01 0.10201862434E+02 0.10662413684E+02 0.11334848324E+02 0.12256085913E+02
 0.12684961116E+02 0.14531629897E+02 0.16529555070E+02 0.18389963387E+02 0.19652085779E+02
 0.19938494767E+02 0.19315554316E+02 0.18396401567E+02 0.17969572111E+02 0.18396314256E+02
 0.19315429915E+02 0.19938394164E+02 0.19652045429E+02 0.18389984271E+02 0.16529604498E+02
 0.14531661125E+02 0.12684953801E+02 0.11150815252E+02 0.99795514416E+01 0.91274392655E+01
 0.85367686977E+01 0.81798789645E+01 0.80589734078E+01 0.81798897663E+01 0.85367690536E+01
 0.91274286536E+01 0.99795545257E+01 0.11150836485E+02 0.12069506810E+02 0.14081171560E+02
 0.16178132923E+02 0.18014351624E+02 0.19150140345E+02 0.19360646103E+02 0.18898430313E+02
 0.18396347898E+02 0.18396314256E+02 0.18898359748E+02 0.19360593011E+02 0.19150129671E+02
 0.18014377883E+02 0.16178183192E+02 0.14081223824E+02 0.12069530632E+02 0.10323779303E+02
 0.89448146093E+01 0.79227861842E+01 0.72011797674E+01 0.67324632241E+01 0.64981819428E+01
 0.64981782951E+01 0.67324481736E+01 0.72011577544E+01 0.79227797800E+01 0.89448316851E+01
 0.10323791111E+02 0.11598596150E+02 0.13712829984E+02 0.15871878175E+02 0.17728015247E+02
 0.18923832018E+02 0.19360561535E+02 0.19315420156E+02 0.19229429709E+02 0.19315429915E+02
 0.19360593011E+02 0.18923872659E+02 0.17728034495E+02 0.15871876090E+02 0.13712839978E+02
 0.11598631228E+02 0.97191320405E+01 0.81879867416E+01 0.70259841887E+01 0.61875775938E+01
 0.56179063766E+01 0.52828023228E+01 0.51713987633E+01 0.52828019385E+01 0.56179061887E+01
 0.61875831874E+01 0.70259932762E+01 0.81879798968E+01 0.97190991678E+01 0.11285415857E+02
 0.13495694874E+02 0.15747932601E+02 0.17728042663E+02 0.19150064253E+02 0.19938313775E+02
 0.20242273527E+02 0.20242308097E+02 0.19938394164E+02 0.19150129671E+02 0.17728034495E+02
 0.15747851288E+02 0.13495607009E+02 0.11285387198E+02 0.93055328131E+01 0.76610218634E+01
 0.63880879395E+01 0.54510199727E+01 0.47937872475E+01 0.43722512947E+01 0.41645080416E+01
 0.41645189676E+01 0.43722743222E+01 0.47938040660E+01 0.54510172847E+01 0.63880583405E+01
 0.76609722932E+01 0.93054997774E+01 0.11173508493E+02 0.13495729563E+02 0.15871987629E+02
 0.18014418235E+02 0.19652012118E+02 0.20642309465E+02 0.20968053210E+02 0.20642356701E+02
 0.19652045429E+02 0.18014377883E+02 0.15871876090E+02 0.13495607009E+02 0.11173432178E+02
 0.90894040924E+01 0.73422772171E+01 0.59717507169E+01 0.49470129357E+01 0.42117028616E+01
 0.37152062205E+01 0.34259937725E+01 0.33306219592E+01 0.34260106151E+01 0.37152147424E+01
 0.42116874410E+01 0.49469831531E+01 0.59717228740E+01 0.73422634555E+01 0.90894241282E+01
 0.11285400620E+02 0.13712892968E+02 0.16178260935E+02 0.18390042390E+02 0.20048018987E+02
 0.20931103571E+02 0.20931102506E+02 0.20047999357E+02 0.18389984271E+02 0.16178183192E+02
 0.13712839978E+02 0.11285387198E+02 0.90894040924E+01 0.72343529222E+01 0.57633874825E+01
 0.46495438803E+01 0.38366832272E+01 0.32696783858E+01 0.29089537854E+01 0.27328050821E+01
 0.27328043725E+01 0.29089435339E+01 0.32696545852E+01 0.38366686555E+01 0.46495646677E+01
 0.57634330193E+01 0.72343851815E+01 0.90894105354E+01 0.11598562260E+02 0.14081195617E+02
 0.16529625017E+02 0.18629058379E+02 0.20052186576E+02 0.20556195604E+02 0.20052157304E+02
 0.18629017122E+02 0.16529604498E+02 0.14081223824E+02 0.11598631228E+02 0.93055328131E+01
 0.73422772171E+01 0.57633874825E+01 0.45505960944E+01 0.36516499385E+01 0.30098984188E+01
 0.25799058939E+01 0.23320761692E+01 0.22509966189E+01 0.23320585707E+01 0.25798823921E+01
 0.30098939418E+01 0.36516866604E+01 0.45506644338E+01 0.57634412973E+01 0.73422721884E+01
 0.93054714553E+01 0.12069463193E+02 0.14531602665E+02 0.16835507118E+02 0.18647664482E+02
 0.19650728888E+02 0.19650723853E+02 0.18647663750E+02 0.16835534714E+02 0.14531661125E+02
 0.12069530632E+02 0.97191320405E+01 0.76610218634E+01 0.59717507169E+01 0.46495438803E+01
 0.36516499385E+01 0.29242783704E+01 0.24195018818E+01 0.21016748515E+01 0.19481614880E+01
 0.19481520656E+01 0.21016587626E+01 0.24195005980E+01 0.29242970628E+01 0.36516730911E+01
 0.46495534348E+01 0.59717396849E+01 0.76609896160E+01 0.97190782636E+01 0.12684923838E+02
 0.15051711754E+02 0.17112114995E+02 0.18528974706E+02 0.19035467881E+02 0.18528993294E+02
 0.17112157213E+02 0.15051763666E+02 0.12684953801E+02 0.10323779303E+02 0.81879867416E+01
 0.63880879395E+01 0.49470129357E+01 0.38366832272E+01 0.30098984188E+01 0.24195018818E+01
 0.20264845791E+01 0.18023076415E+01 0.17295377592E+01 0.18023001461E+01 0.20264840349E+01
 0.24195085575E+01 0.30098894795E+01 0.38366441093E+01 0.49469650136E+01 0.63880667016E+01
 0.81879954115E+01 0.10323782916E+02 0.13488978453E+02 0.15697168296E+02 0.17443807265E+02
 0.18413945905E+02 0.18413952648E+02 0.17443824723E+02 0.15697186843E+02 0.13488984619E+02
 0.11150815252E+02 0.89448146093E+01 0.70259841887E+01 0.54510199727E+01 0.42117028616E+01
 0.32696783858E+01 0.25799058939E+01 0.21016748515E+01 0.18023076415E+01 0.16586798174E+01
 0.16586783008E+01 0.18023063162E+01 0.21016769931E+01 0.25799060661E+01 0.32696671439E+01
 0.42116813085E+01 0.54510034120E+01 0.70259862388E+01 0.89448304812E+01 0.11150826269E+02
 0.14544572052E+02 0.16543684151E+02 0.17921230432E+02 0.18413944744E+02 0.17921222313E+02
 0.16543663215E+02 0.14544546271E+02 0.12256055579E+02 0.99795514416E+01 0.79227861842E+01
 0.61875775938E+01 0.47937872475E+01 0.37152062205E+01 0.29089537854E+01 0.23320761692E+01
 0.19481614880E+01 0.17295377592E+01 0.16586783008E+01 0.17295394685E+01 0.19481588748E+01
 0.23320740606E+01 0.29089695364E+01 0.37152457251E+01 0.47938288007E+01 0.61875926232E+01
 0.79227735970E+01 0.99795389943E+01 0.12256065620E+02 0.15851507682E+02 0.17574248758E+02
 0.18528979359E+02 0.18528973657E+02 0.17574226379E+02 0.15851467268E+02 0.13663595268E+02
 0.11334824451E+02 0.91274392655E+01 0.72011797674E+01 0.56179063766E+01 0.43722512947E+01
 0.34259937725E+01 0.27328050821E+01 0.22509966189E+01 0.19481520656E+01 0.18023001461E+01
 0.18023063162E+01 0.19481588748E+01 0.22509889013E+01 0.27327931969E+01 0.34260050569E+01
 0.43722925239E+01 0.56179514069E+01 0.72012027922E+01 0.91274476727E+01 0.11334845058E+02
 0.13663635614E+02 0.17282789597E+02 0.18647663930E+02 0.19134339558E+02 0.18647666143E+02
 0.17282784074E+02 0.15290064101E+02 0.12986721927E+02 0.10662393824E+02 0.85367686977E+01
 0.67324632241E+01 0.52828023228E+01 0.41645080416E+01 0.33306219592E+01 0.27328043725E+01
 0.23320585707E+01 0.21016587626E+01 0.20264840349E+01 0.21016769931E+01 0.23320740606E+01
 0.27327931969E+01 0.33305803960E+01 0.41644604104E+01 0.52827834754E+01 0.67324907508E+01
 0.85368311433E+01 0.10662463089E+02 0.12986773909E+02 0.15290090010E+02 0.18629041655E+02
 0.19542829010E+02 0.19542834498E+02 0.18629060621E+02 0.16958911740E+02 0.14803312544E+02
 0.12466997000E+02 0.10201843981E+02 0.81798789645E+01 0.64981819428E+01 0.51713987633E+01
 0.41645189676E+01 0.34260106151E+01 0.29089435339E+01 0.25798823921E+01 0.24195005980E+01
 0.24195085575E+01 0.25799060661E+01 0.29089695364E+01 0.34260050569E+01 0.41644604104E+01
 0.51713163210E+01 0.64981368470E+01 0.81799005331E+01 0.10201898909E+02 0.12467030063E+02
 0.14803304357E+02 0.16958885006E+02 0.19574287418E+02 0.19985559913E+02 0.19574287265E+02
 0.18390042621E+02 0.16585261457E+02 0.14403532154E+02 0.12121203477E+02 0.99605315609E+01
 0.80589734078E+01 0.64981782951E+01 0.52828019385E+01 0.43722743222E+01 0.37152147424E+01
 0.32696545852E+01 0.30098939418E+01 0.29242970628E+01 0.30098894795E+01 0.32696671439E+01
 0.37152457251E+01 0.43722925239E+01 0.52827834754E+01 0.64981368470E+01 0.80589350962E+01
 0.99604966433E+01 0.12121153627E+02 0.14403467639E+02 0.16585208662E+02 0.18390021407E+02
 0.19850541163E+02 0.19850535206E+02 0.19237544882E+02 0.18014417913E+02 0.16258764104E+02
 0.14166817963E+02 0.11997481752E+02 0.99605399753E+01 0.81798897663E+01 0.67324481736E+01
 0.56179061887E+01 0.47938040660E+01 0.42116874410E+01 0.38366686555E+01 0.36516866604E+01
 0.36516730911E+01 0.38366441093E+01 0.42116813085E+01 0.47938288007E+01 0.56179514069E+01
 0.67324907508E+01 0.81799005331E+01 0.99604966433E+01 0.11997392511E+02 0.14166724697E+02
 0.16258708167E+02 0.18014405963E+02 0.19237553952E+02 0.19490229621E+02 0.19335206614E+02
 0.18793007973E+02 0.17728043026E+02 0.16126376899E+02 0.14166750833E+02 0.12121162546E+02
 0.10201862434E+02 0.85367690536E+01 0.72011577544E+01 0.61875831874E+01 0.54510172847E+01
 0.49469831531E+01 0.46495646677E+01 0.45506644338E+01 0.46495534348E+01 0.49469650136E+01
 0.54510034120E+01 0.61875926232E+01 0.72012027922E+01 0.85368311433E+01 0.10201898909E+02
 0.12121153627E+02 0.14166724697E+02 0.16126368656E+02 0.17728047127E+02 0.18792998773E+02
 0.19335188621E+02 0.18903356298E+02 0.18888617120E+02 0.18590681881E+02 0.17728013301E+02
 0.16258637514E+02 0.14403393473E+02 0.12466963358E+02 0.10662413684E+02 0.91274286536E+01
 0.79227797800E+01 0.70259932762E+01 0.63880583405E+01 0.59717228740E+01 0.57634330193E+01
 0.57634412973E+01 0.59717396849E+01 0.63880667016E+01 0.70259862388E+01 0.79227735970E+01
 0.91274476727E+01 0.10662463089E+02 0.12467030063E+02 0.14403467639E+02 0.16258708168E+02
 0.17728047127E+02 0.18590646571E+02 0.18888538807E+02 0.18903314998E+02 0.18625584649E+02
 0.18888642813E+02 0.18793028396E+02 0.18014345179E+02 0.16585104817E+02 0.14803217000E+02
 0.12986734827E+02 0.11334848324E+02 0.99795545257E+01 0.89448316851E+01 0.81879798968E+01
 0.76609722932E+01 0.73422634555E+01 0.72343851815E+01 0.73422721884E+01 0.76609896160E+01
 0.81879954115E+01 0.89448304812E+01 0.99795389943E+01 0.11334845058E+02 0.12986773909E+02
 0.14803304357E+02 0.16585208662E+02 0.18014405963E+02 0.18792998773E+02 0.18888538807E+02
 0.18625490975E+02 0.18465472385E+02 0.18903403660E+02 0.19335256031E+02 0.19237549963E+02
 0.18389955676E+02 0.16958812947E+02 0.15290058656E+02 0.13663645614E+02 0.12256085913E+02
 0.11150836485E+02 0.10323791111E+02 0.97190991678E+01 0.93054997774E+01 0.90894241282E+01
 0.90894105354E+01 0.93054714553E+01 0.97190782636E+01 0.10323782916E+02 0.11150826269E+02
 0.12256065620E+02 0.13663635614E+02 0.15290090010E+02 0.16958885006E+02 0.18390021407E+02
 0.19237553952E+02 0.19335188621E+02 0.18903314998E+02 0.18465472385E+02 0.18465512576E+02
 0.18310403862E+02 0.18223438227E+02 0.17695544927E+02 0.16835495287E+02 0.15851516865E+02
 0.14920965225E+02 0.14169517709E+02 0.13603998571E+02 0.13155625808E+02 0.12768791771E+02
 0.12454507637E+02 0.12270516389E+02 0.12270505785E+02 0.12454469415E+02 0.12768728931E+02
 0.13155567243E+02 0.13603963593E+02 0.14169488570E+02 0.14920922739E+02 0.15851479469E+02
 0.16835495986E+02 0.17695592211E+02 0.18223522322E+02 0.18310512997E+02 0.18077341642E+02
 0.17829547418E+02 0.17829503147E+02 0.18077238160E+02 0.18223438227E+02 0.18107929692E+02
 0.17687861367E+02 0.17112134733E+02 0.16543711748E+02 0.16108605914E+02 0.15817587025E+02
 0.15581328857E+02 0.15322611001E+02 0.15028812428E+02 0.14774641108E+02 0.14672106380E+02
 0.14774702122E+02 0.15028869886E+02 0.15322619932E+02 0.15581302902E+02 0.15817552292E+02
 0.16108565814E+02 0.16543670863E+02 0.17112116585E+02 0.17687884767E+02 0.18107993390E+02
 0.18223533311E+02 0.18032381601E+02 0.17730837038E+02 0.17588370540E+02 0.17730760381E+02
 0.18032273879E+02 0.17695544927E+02 0.17687861367E+02 0.17561856279E+02 0.17443834965E+02
 0.17443839290E+02 0.17561862590E+02 0.17687862862E+02 0.17695547710E+02 0.17511009633E+02
 0.17203888069E+02 0.16966274974E+02 0.16966318264E+02 0.17203986408E+02 0.17511104530E+02
 0.17695607809E+02 0.17687886786E+02 0.17561854338E+02 0.17443808219E+02 0.17443804863E+02
 0.17561851090E+02 0.17687890626E+02 0.17695612202E+02 0.17511102496E+02 0.17203983821E+02
 0.16966320798E+02 0.16966275283E+02 0.17203879597E+02 0.17511000001E+02 0.16835495287E+02
 0.17112134733E+02 0.17443834965E+02 0.17921248208E+02 0.18528956490E+02 0.19134264663E+02
 0.19542748354E+02 0.19574246631E+02 0.19237558574E+02 0.18793032770E+02 0.18590678162E+02
 0.18793002535E+02 0.19237543437E+02 0.19574286076E+02 0.19542830095E+02 0.19134336743E+02
 0.18528981470E+02 0.17921231932E+02 0.17443804194E+02 0.17112112760E+02 0.16835509873E+02
 0.16529627343E+02 0.16178257950E+02 0.15871983281E+02 0.15747930137E+02 0.15871872821E+02
 0.16178122175E+02 0.16529546039E+02 0.15851516865E+02 0.16543711748E+02 0.17443839290E+02
 0.18528956490E+02 0.19650635731E+02 0.20556106978E+02 0.20931105146E+02 0.20642442017E+02
 0.19938495798E+02 0.19360644062E+02 0.19360555778E+02 0.19938308588E+02 0.20642307646E+02
 0.20931102579E+02 0.20556193381E+02 0.19650722666E+02 0.18528994386E+02 0.17443825082E+02
 0.16543661266E+02 0.15851466056E+02 0.15290065238E+02 0.14803312673E+02 0.14403528924E+02
 0.14166813905E+02 0.14166747979E+02 0.14403389965E+02 0.14803212482E+02 0.15290057103E+02
 0.14920965225E+02 0.16108605914E+02 0.17561862590E+02 0.19134264663E+02 0.20556106978E+02
 0.21402680949E+02 0.21339697732E+02 0.20465838735E+02 0.19402710857E+02 0.18930017040E+02
 0.19402541600E+02 0.20465620689E+02 0.21339557858E+02 0.21402657045E+02 0.20556156363E+02
 0.19134326509E+02 0.17561892565E+02 0.16108581641E+02 0.14920898196E+02 0.14011812070E+02
 0.13312296002E+02 0.12775023055E+02 0.12417501051E+02 0.12289515729E+02 0.12417435121E+02
 0.12774956857E+02 0.13312292468E+02 0.14011870878E+02 0.14169517709E+02 0.15817587025E+02
 0.17687862862E+02 0.19542748355E+02 0.20931105146E+02 0.21339697732E+02 0.20600960741E+02
 0.19202587748E+02 0.18109963157E+02 0.18109914265E+02 0.19202462222E+02 0.20600807346E+02
 0.21339567716E+02 0.20931036560E+02 0.19542750011E+02 0.17687900529E+02 0.15817604123E+02
 0.14169487161E+02 0.12864796348E+02 0.11890103327E+02 0.11179095998E+02 0.10691803650E+02
 0.10436109978E+02 0.10436110280E+02 0.10691805982E+02 0.11179110089E+02 0.11890142325E+02
 0.12864850248E+02 0.13603998571E+02 0.15581328857E+02 0.17695547710E+02 0.19574246631E+02
 0.20642442017E+02 0.20465838735E+02 0.19202587748E+02 0.17711513479E+02 0.17054207105E+02
 0.17711479797E+02 0.19202505496E+02 0.20465708994E+02 0.20642309058E+02 0.19574173839E+02
 0.17695552067E+02 0.15581359367E+02 0.13604000162E+02 0.11947384894E+02 0.10680910349E+02
 0.97620638555E+01 0.91269349450E+01 0.87435219558E+01 0.86135968613E+01 0.87435478189E+01
 0.91269551163E+01 0.97620705481E+01 0.10680926132E+02 0.11947408805E+02 0.13155625808E+02
 0.15322611001E+02 0.17511009633E+02 0.19237558574E+02 0.19938495798E+02 0.19402710857E+02
 0.18109963157E+02 0.17054207105E+02 0.17054199245E+02 0.18109934324E+02 0.19402651387E+02
 0.19938412722E+02 0.19237490316E+02 0.17510994588E+02 0.15322636766E+02 0.13155641249E+02
 0.11250225854E+02 0.97339783731E+01 0.86121560418E+01 0.78239873778E+01 0.73139257329E+01
 0.70592787177E+01 0.70592865291E+01 0.73139306249E+01 0.78239716591E+01 0.86121422823E+01
 0.97339901289E+01 0.11250240261E+02 0.12768791771E+02 0.15028812428E+02 0.17203888069E+02
 0.18793032770E+02 0.19360644062E+02 0.18930017040E+02 0.18109914265E+02 0.17711479797E+02
 0.18109934324E+02 0.18930052772E+02 0.19360673752E+02 0.18793036278E+02 0.17203878278E+02
 0.15028817258E+02 0.12768808810E+02 0.10718773656E+02 0.90221559016E+01 0.77311470313E+01
 0.68039419146E+01 0.61774985334E+01 0.58101093933E+01 0.56880470538E+01 0.58101085549E+01
 0.61774884142E+01 0.68039312818E+01 0.77311529510E+01 0.90221696669E+01 0.10718770693E+02
 0.12454507637E+02 0.14774641108E+02 0.16966274974E+02 0.18590678162E+02 0.19360555778E+02
 0.19402541600E+02 0.19202462222E+02 0.19202505496E+02 0.19402651387E+02 0.19360673752E+02
 0.18590736248E+02 0.16966253791E+02 0.14774589694E+02 0.12454485798E+02 0.10315994323E+02
 0.85000152608E+01 0.70812406223E+01 0.60386880804E+01 0.53117799107E+01 0.48476596989E+01
 0.46192498836E+01 0.46192557920E+01 0.48476723788E+01 0.53117919328E+01 0.60386951829E+01
 0.70812351864E+01 0.84999938462E+01 0.10315978429E+02 0.12270516389E+02 0.14672106380E+02
 0.16966318264E+02 0.18793002535E+02 0.19938308588E+02 0.20465620689E+02 0.20600807346E+02
 0.20465708994E+02 0.19938412722E+02 0.18793036278E+02 0.16966253791E+02 0.14671995061E+02
 0.12270436523E+02 0.10049920507E+02 0.81436434832E+01 0.66261307885E+01 0.54892940615E+01
 0.46771022923E+01 0.41313392561E+01 0.38140613848E+01 0.37094219380E+01 0.38140808975E+01
 0.41313608109E+01 0.46771074992E+01 0.54892748023E+01 0.66260921390E+01 0.81436101067E+01
 0.10049932975E+02 0.12270505785E+02 0.14774702122E+02 0.17203986408E+02 0.19237543437E+02
 0.20642307646E+02 0.21339557858E+02 0.21339567716E+02 0.20642309058E+02 0.19237490316E+02
 0.17203878277E+02 0.14774589694E+02 0.12270436523E+02 0.99550231571E+01 0.79583363747E+01
 0.63507839642E+01 0.51290124878E+01 0.42397895138E+01 0.36220587598E+01 0.32298014785E+01
 0.30381462287E+01 0.30381519322E+01 0.32298088046E+01 0.36220531367E+01 0.42397725104E+01
 0.51289970222E+01 0.63507757338E+01 0.79583361281E+01 0.99550457237E+01 0.12454469415E+02
 0.15028869886E+02 0.17511104530E+02 0.19574286076E+02 0.20931102579E+02 0.21402657045E+02
 0.20931036560E+02 0.19574173838E+02 0.17510994588E+02 0.15028817258E+02 0.12454485798E+02
 0.10049920507E+02 0.79583363747E+01 0.62577301112E+01 0.49486875063E+01 0.39811581365E+01
 0.32930578723E+01 0.28327372096E+01 0.25671074978E+01 0.24800498936E+01 0.25670978830E+01
 0.28327193718E+01 0.32930457432E+01 0.39811732771E+01 0.49487311030E+01 0.62577682756E+01
 0.79583318261E+01 0.10049881893E+02 0.12768728931E+02 0.15322619932E+02 0.17695607809E+02
 0.19542830095E+02 0.20556193381E+02 0.20556156363E+02 0.19542750011E+02 0.17695552067E+02
 0.15322636766E+02 0.12768808810E+02 0.10315994323E+02 0.81436434832E+01 0.63507839642E+01
 0.49486875063E+01 0.38951864629E+01 0.31308499312E+01 0.26015260085E+01 0.22678426184E+01
 0.21062405704E+01 0.21062306976E+01 0.22678221188E+01 0.26015151835E+01 0.31308653889E+01
 0.38952284862E+01 0.49487345804E+01 0.63507998308E+01 0.81436016496E+01 0.10315906961E+02
 0.13155567243E+02 0.15581302902E+02 0.17687886786E+02 0.19134336743E+02 0.19650722666E+02
 0.19134326509E+02 0.17687900529E+02 0.15581359367E+02 0.13155641249E+02 0.10718773656E+02
 0.85000152608E+01 0.66261307885E+01 0.51290124878E+01 0.39811581365E+01 0.31308499312E+01
 0.25254845222E+01 0.21224402750E+01 0.18920200478E+01 0.18170668240E+01 0.18920067075E+01
 0.21224321811E+01 0.25254904460E+01 0.31308563143E+01 0.39811509717E+01 0.51289969919E+01
 0.66261162326E+01 0.84999909076E+01 0.10718720401E+02 0.13603963593E+02 0.15817552292E+02
 0.17561854338E+02 0.18528981470E+02 0.18528994386E+02 0.17561892565E+02 0.15817604123E+02
 0.13604000162E+02 0.11250225854E+02 0.90221559016E+01 0.70812406223E+01 0.54892940615E+01
 0.42397895138E+01 0.32930578723E+01 0.26015260085E+01 0.21224402750E+01 0.18223053444E+01
 0.16781230599E+01 0.16781185140E+01 0.18223002298E+01 0.21224441498E+01 0.26015275554E+01
 0.32930357455E+01 0.42397457339E+01 0.54892603539E+01 0.70812414481E+01 0.90221754165E+01
 0.11250225336E+02 0.14169488570E+02 0.16108565814E+02 0.17443808219E+02 0.17921231932E+02
 0.17443825082E+02 0.16108581641E+02 0.14169487161E+02 0.11947384894E+02 0.97339783731E+01
 0.77311470313E+01 0.60386880804E+01 0.46771022923E+01 0.36220587598E+01 0.28327372096E+01
 0.22678426184E+01 0.18920200478E+01 0.16781230599E+01 0.16088214574E+01 0.16781205425E+01
 0.18920188193E+01 0.22678476272E+01 0.28327485676E+01 0.36220688511E+01 0.46771033430E+01
 0.60386832754E+01 0.77311488200E+01 0.97339926696E+01 0.11947401021E+02 0.14920922739E+02
 0.16543670863E+02 0.17443804863E+02 0.17443804194E+02 0.16543661266E+02 0.14920898196E+02
 0.12864796348E+02 0.10680910349E+02 0.86121560418E+01 0.68039419146E+01 0.53117799107E+01
 0.41313392561E+01 0.32298014785E+01 0.25671074978E+01 0.21062405704E+01 0.18170668240E+01
 0.16781185140E+01 0.16781205425E+01 0.18170661200E+01 0.21062326368E+01 0.25671093904E+01
 0.32298356177E+01 0.41313987023E+01 0.53118278365E+01 0.68039532712E+01 0.86121466758E+01
 0.10680913524E+02 0.12864820335E+02 0.15851479469E+02 0.17112116585E+02 0.17561851090E+02
 0.17112112760E+02 0.15851466056E+02 0.14011812070E+02 0.11890103327E+02 0.97620638555E+01
 0.78239873778E+01 0.61774985334E+01 0.48476596989E+01 0.38140613848E+01 0.30381462287E+01
 0.24800498936E+01 0.21062306976E+01 0.18920067075E+01 0.18223002298E+01 0.18920188193E+01
 0.21062326368E+01 0.24800293736E+01 0.30381222172E+01 0.38140649866E+01 0.48476987763E+01
 0.61775513475E+01 0.78240304088E+01 0.97620941957E+01 0.11890129546E+02 0.14011834988E+02
 0.16835495986E+02 0.17687884767E+02 0.17687890626E+02 0.16835509873E+02 0.15290065238E+02
 0.13312296002E+02 0.11179095998E+02 0.91269349450E+01 0.73139257329E+01 0.58101093933E+01
 0.46192498836E+01 0.37094219380E+01 0.30381519322E+01 0.25670978830E+01 0.22678221188E+01
 0.21224321811E+01 0.21224441498E+01 0.22678476272E+01 0.25671093904E+01 0.30381222172E+01
 0.37093530908E+01 0.46191836762E+01 0.58100961088E+01 0.73139778075E+01 0.91270162577E+01
 0.11179157647E+02 0.13312316793E+02 0.15290057348E+02 0.17695592211E+02 0.18107993390E+02
 0.17695612202E+02 0.16529627343E+02 0.14803312673E+02 0.12775023055E+02 0.10691803650E+02
 0.87435219558E+01 0.70592787177E+01 0.56880470538E+01 0.46192557920E+01 0.38140808975E+01
 0.32298088046E+01 0.28327193718E+01 0.26015151835E+01 0.25254904460E+01 0.26015275554E+01
 0.28327485676E+01 0.32298356177E+01 0.38140649866E+01 0.46191836762E+01 0.56879612235E+01
 0.70592387749E+01 0.87435417520E+01 0.10691842212E+02 0.12775034795E+02 0.14803290556E+02
 0.16529595145E+02 0.18223522322E+02 0.18223533311E+02 0.17511102496E+02 0.16178257950E+02
 0.14403528924E+02 0.12417501051E+02 0.10436109978E+02 0.86135968613E+01 0.70592865291E+01
 0.58101085549E+01 0.48476723788E+01 0.41313608109E+01 0.36220531367E+01 0.32930457432E+01
 0.31308653889E+01 0.31308563143E+01 0.32930357455E+01 0.36220688511E+01 0.41313987023E+01
 0.48476987763E+01 0.58100961088E+01 0.70592387749E+01 0.86135372599E+01 0.10436057494E+02
 0.12417459469E+02 0.14403492754E+02 0.16178223587E+02 0.17511074779E+02 0.18310512997E+02
 0.18032381601E+02 0.17203983821E+02 0.15871983281E+02 0.14166813905E+02 0.12289515729E+02
 0.10436110280E+02 0.87435478189E+01 0.73139306249E+01 0.61774884142E+01 0.53117919328E+01
 0.46771074992E+01 0.42397725104E+01 0.39811732771E+01 0.38952284862E+01 0.39811509717E+01
 0.42397457339E+01 0.46771033430E+01 0.53118278365E+01 0.61775513475E+01 0.73139778075E+01
 0.87435417520E+01 0.10436057494E+02 0.12289459304E+02 0.14166782758E+02 0.15871964465E+02
 0.17203955407E+02 0.18032353731E+02 0.18077341642E+02 0.17730837038E+02 0.16966320798E+02
 0.15747930137E+02 0.14166747979E+02 0.12417435121E+02 0.10691805982E+02 0.91269551163E+01
 0.78239716591E+01 0.68039312818E+01 0.60386951829E+01 0.54892748023E+01 0.51289970222E+01
 0.49487311030E+01 0.49487345804E+01 0.51289969919E+01 0.54892603539E+01 0.60386832754E+01
 0.68039532712E+01 0.78240304088E+01 0.91270162577E+01 0.10691842212E+02 0.12417459469E+02
 0.14166782758E+02 0.15747959592E+02 0.16966308758E+02 0.17730789659E+02 0.18077314446E+02
 0.17829547418E+02 0.17588370540E+02 0.16966275283E+02 0.15871872821E+02 0.14403389965E+02
 0.12774956857E+02 0.11179110089E+02 0.97620705481E+01 0.86121422823E+01 0.77311529510E+01
 0.70812351864E+01 0.66260921390E+01 0.63507757338E+01 0.62577682756E+01 0.63507998308E+01
 0.66261162326E+01 0.70812414481E+01 0.77311488200E+01 0.86121466758E+01 0.97620941957E+01
 0.11179157647E+02 0.12775034795E+02 0.14403492754E+02 0.15871964465E+02 0.16966308758E+02
 0.17588338967E+02 0.17829502255E+02 0.17878143194E+02 0.17829503147E+02 0.17730760381E+02
 0.17203879597E+02 0.16178122175E+02 0.14803212482E+02 0.13312292468E+02 0.11890142325E+02
 0.10680926132E+02 0.97339901289E+01 0.90221696669E+01 0.84999938462E+01 0.81436101067E+01
 0.79583361281E+01 0.79583318261E+01 0.81436016496E+01 0.84999909076E+01 0.90221754165E+01
 0.97339926696E+01 0.10680913524E+02 0.11890129546E+02 0.13312316793E+02 0.14803290556E+02
 0.16178223587E+02 0.17203955407E+02 0.17730789659E+02 0.17829502255E+02 0.17760781449E+02
 0.17760785634E+02 0.18077238160E+02 0.18032273879E+02 0.17511000001E+02 0.16529546039E+02
 0.15290057103E+02 0.14011870878E+02 0.12864850248E+02 0.11947408805E+02 0.11250240261E+02
 0.10718770693E+02 0.10315978429E+02 0.10049932975E+02 0.99550457237E+01 0.10049881893E+02
 0.10315906961E+02 0.10718720401E+02 0.11250225336E+02 0.11947401021E+02 0.12864820335E+02
 0.14011834988E+02 0.15290057348E+02 0.16529595145E+02 0.17511074779E+02 0.18032353731E+02
 0.18077314446E+02 0.17878143194E+02 0.17760785634E+02 0.17878091253E+02 0.16199519879E+02
 0.15999804878E+02 0.15581334128E+02 0.15051762168E+02 0.14544607253E+02 0.14169525889E+02
 0.13930657615E+02 0.13749671395E+02 0.13552779019E+02 0.13331714294E+02 0.13142498765E+02
 0.13066571069E+02 0.13142485456E+02 0.13331673961E+02 0.13552719173E+02 0.13749619759E+02
 0.13930622319E+02 0.14169487449E+02 0.14544552770E+02 0.15051701921E+02 0.15581289446E+02
 0.15999805761E+02 0.16199598129E+02 0.16169457736E+02 0.16031067425E+02 0.15957691557E+02
 0.16030948324E+02 0.16169315152E+02 0.15999804878E+02 0.15954258314E+02 0.15817590866E+02
 0.15697211824E+02 0.15697215872E+02 0.15817592689E+02 0.15954247792E+02 0.15999793054E+02
 0.15896722722E+02 0.15693989770E+02 0.15531274044E+02 0.15531320481E+02 0.15694088966E+02
 0.15896799828E+02 0.15999812043E+02 0.15954223257E+02 0.15817550578E+02 0.15697168881E+02
 0.15697163729E+02 0.15817545312E+02 0.15954227900E+02 0.15999816090E+02 0.15896793245E+02
 0.15694082937E+02 0.15531326416E+02 0.15531282336E+02 0.15693989996E+02 0.15896724274E+02
 0.15581334128E+02 0.15817590866E+02 0.16108600968E+02 0.16543707885E+02 0.17112139284E+02
 0.17687864536E+02 0.18107924297E+02 0.18223434245E+02 0.18032278649E+02 0.17730764014E+02
 0.17588365702E+02 0.17730833549E+02 0.18032386690E+02 0.18223537057E+02 0.18107988499E+02
 0.17687881140E+02 0.17112121533E+02 0.16543674516E+02 0.16108560882E+02 0.15817548649E+02
 0.15581307826E+02 0.15322623539E+02 0.15028864912E+02 0.14774698492E+02 0.14672111426E+02
 0.14774644971E+02 0.15028807805E+02 0.15322607724E+02 0.15051762168E+02 0.15697211824E+02
 0.16543707885E+02 0.17574240599E+02 0.18647610795E+02 0.19542749382E+02 0.19985508717E+02
 0.19850550101E+02 0.19335259915E+02 0.18888642410E+02 0.18888608759E+02 0.19335200113E+02
 0.19850536295E+02 0.19985560462E+02 0.19542824014E+02 0.18647661263E+02 0.17574252648E+02
 0.16543686003E+02 0.15697163567E+02 0.15051709064E+02 0.14531606590E+02 0.14081197227E+02
 0.13712886974E+02 0.13495724109E+02 0.13495694969E+02 0.13712828173E+02 0.14081164481E+02
 0.14531627046E+02 0.14544607253E+02 0.15697215872E+02 0.17112139284E+02 0.18647610795E+02
 0.20052105614E+02 0.20931106261E+02 0.20968152047E+02 0.20242439960E+02 0.19315550633E+02
 0.18898423391E+02 0.19315409523E+02 0.20242267094E+02 0.20968053890E+02 0.20931103234E+02
 0.20052154404E+02 0.18647662674E+02 0.17112160146E+02 0.15697187578E+02 0.14544542585E+02
 0.13663593563E+02 0.12986724305E+02 0.12466996449E+02 0.12121197146E+02 0.11997476478E+02
 0.12121162178E+02 0.12466963236E+02 0.12986733707E+02 0.13663650044E+02 0.14169525889E+02
 0.15817592689E+02 0.17687864536E+02 0.19542749382E+02 0.20931106261E+02 0.21339695283E+02
 0.20600954023E+02 0.19202580956E+02 0.18109958314E+02 0.18109909217E+02 0.19202457157E+02
 0.20600805989E+02 0.21339570207E+02 0.20931038285E+02 0.19542749305E+02 0.17687900634E+02
 0.15817605998E+02 0.14169487541E+02 0.12864794567E+02 0.11890102819E+02 0.11179097270E+02
 0.10691802962E+02 0.10436106789E+02 0.10436108964E+02 0.10691808391E+02 0.11179113373E+02
 0.11890145611E+02 0.12864856224E+02 0.13930657615E+02 0.15954247792E+02 0.18107924297E+02
 0.19985508717E+02 0.20968152047E+02 0.20600954023E+02 0.19079663681E+02 0.17360207130E+02
 0.16611208605E+02 0.17360209670E+02 0.19079619279E+02 0.20600830120E+02 0.20967991938E+02
 0.19985402583E+02 0.18107912559E+02 0.15954279249E+02 0.13930661990E+02 0.12230431383E+02
 0.10929696331E+02 0.99867656892E+01 0.93356122354E+01 0.89426625390E+01 0.88094992302E+01
 0.89426955745E+01 0.93356446054E+01 0.99867869548E+01 0.10929725120E+02 0.12230461034E+02
 0.13749671395E+02 0.15999793054E+02 0.18223434245E+02 0.19850550101E+02 0.20242439960E+02
 0.19202580956E+02 0.17360207130E+02 0.15941367022E+02 0.15941385718E+02 0.17360226021E+02
 0.19202532873E+02 0.20242313987E+02 0.19850418588E+02 0.18223377001E+02 0.15999808703E+02
 0.13749695079E+02 0.11758150350E+02 0.10165979124E+02 0.89884539216E+01 0.81631278293E+01
 0.76300893662E+01 0.73641752425E+01 0.73641931009E+01 0.76301160957E+01 0.81631295643E+01
 0.89884443229E+01 0.10165983945E+02 0.11758153023E+02 0.13552779019E+02 0.15896722722E+02
 0.18032278649E+02 0.19335259915E+02 0.19315550633E+02 0.18109958314E+02 0.16611208605E+02
 0.15941385718E+02 0.16611218177E+02 0.18109961966E+02 0.19315530370E+02 0.19335219947E+02
 0.18032249461E+02 0.15896724630E+02 0.13552794193E+02 0.11391597307E+02 0.95842289815E+01
 0.82047744355E+01 0.72163643207E+01 0.65509386680E+01 0.61615235800E+01 0.60322218612E+01
 0.61615321133E+01 0.65509331362E+01 0.72163436791E+01 0.82047633837E+01 0.95842335621E+01
 0.11391595278E+02 0.13331714295E+02 0.15693989770E+02 0.17730764014E+02 0.18888642410E+02
 0.18898423391E+02 0.18109909217E+02 0.17360209670E+02 0.17360226021E+02 0.18109961966E+02
 0.18898505197E+02 0.18888718532E+02 0.17730800465E+02 0.15693988717E+02 0.13331703124E+02
 0.11082344119E+02 0.91415618624E+01 0.76103891240E+01 0.64851830133E+01 0.57037165327E+01
 0.52065024203E+01 0.49621351628E+01 0.49621382000E+01 0.52065065483E+01 0.57037157162E+01
 0.64851794187E+01 0.76103866682E+01 0.91415611893E+01 0.11082348597E+02 0.13142498765E+02
 0.15531274044E+02 0.17588365702E+02 0.18888608759E+02 0.19315409523E+02 0.19202457157E+02
 0.19079619279E+02 0.19202532873E+02 0.19315530370E+02 0.18888718532E+02 0.17588412313E+02
 0.15531250844E+02 0.13142450023E+02 0.10832879523E+02 0.88100762833E+01 0.71722047637E+01
 0.59398681941E+01 0.50616946227E+01 0.44739691038E+01 0.41330178299E+01 0.40205966215E+01
 0.41330318417E+01 0.44739898222E+01 0.50617072819E+01 0.59398592609E+01 0.71721790867E+01
 0.88100620300E+01 0.10832902791E+02 0.13066571069E+02 0.15531320481E+02 0.17730833549E+02
 0.19335200113E+02 0.20242267094E+02 0.20600805989E+02 0.20600830121E+02 0.20242313987E+02
 0.19335219947E+02 0.17730800465E+02 0.15531250844E+02 0.13066503470E+02 0.10687927045E+02
 0.85945847620E+01 0.68741321811E+01 0.55558257159E+01 0.45965713299E+01 0.39324473412E+01
 0.35117201077E+01 0.33061900937E+01 0.33061980947E+01 0.35117388128E+01 0.39324616958E+01
 0.45965645295E+01 0.55557953466E+01 0.68740980426E+01 0.85945761294E+01 0.10687960751E+02
 0.13142485456E+02 0.15694088966E+02 0.18032386690E+02 0.19850536295E+02 0.20968053890E+02
 0.21339570207E+02 0.20967991938E+02 0.19850418588E+02 0.18032249461E+02 0.15693988717E+02
 0.13142450023E+02 0.10687927045E+02 0.85185085071E+01 0.67202247368E+01 0.53237509992E+01
 0.42905865261E+01 0.35576234746E+01 0.30682744720E+01 0.27858323534E+01 0.26931604104E+01
 0.27858335917E+01 0.30682734464E+01 0.35576179928E+01 0.42905806683E+01 0.53237499433E+01
 0.67202234481E+01 0.85184981327E+01 0.10687920517E+02 0.13331673961E+02 0.15896799828E+02
 0.18223537057E+02 0.19985560462E+02 0.20931103234E+02 0.20931038285E+02 0.19985402583E+02
 0.18223377001E+02 0.15896724630E+02 0.13331703124E+02 0.10832879523E+02 0.85945847620E+01
 0.67202247368E+01 0.52455655967E+01 0.41376603188E+01 0.33360177039E+01 0.27819462942E+01
 0.24324754894E+01 0.22628754204E+01 0.22628684705E+01 0.24324600127E+01 0.27819351268E+01
 0.33360247993E+01 0.41376918702E+01 0.52456063694E+01 0.67202365996E+01 0.85945398068E+01
 0.10832804429E+02 0.13552719173E+02 0.15999812043E+02 0.18107988499E+02 0.19542824014E+02
 0.20052154404E+02 0.19542749305E+02 0.18107912559E+02 0.15999808703E+02 0.13552794193E+02
 0.11082344119E+02 0.88100762833E+01 0.68741321811E+01 0.53237509992E+01 0.41376603188E+01
 0.32624969512E+01 0.26411785407E+01 0.22274875589E+01 0.19904268707E+01 0.19131410349E+01
 0.19904109973E+01 0.22274732556E+01 0.26411800428E+01 0.32625141530E+01 0.41376855585E+01
 0.53237715352E+01 0.68741243554E+01 0.88100179105E+01 0.11082248247E+02 0.13749619759E+02
 0.15954223257E+02 0.17687881140E+02 0.18647661263E+02 0.18647662674E+02 0.17687900634E+02
 0.15954279249E+02 0.13749695079E+02 0.11391597307E+02 0.91415618624E+01 0.71722047637E+01
 0.55558257159E+01 0.42905865261E+01 0.33360177039E+01 0.26411785407E+01 0.21602912903E+01
 0.18586003024E+01 0.17133457507E+01 0.17133386441E+01 0.18585897748E+01 0.21602914048E+01
 0.26411817176E+01 0.33360051884E+01 0.42905594352E+01 0.55558056210E+01 0.71721982849E+01
 0.91415436051E+01 0.11391542956E+02 0.13930622319E+02 0.15817550578E+02 0.17112121533E+02
 0.17574252648E+02 0.17112160146E+02 0.15817605998E+02 0.13930661990E+02 0.11758150350E+02
 0.95842289815E+01 0.76103891240E+01 0.59398681941E+01 0.45965713299E+01 0.35576234746E+01
 0.27819462942E+01 0.22274875589E+01 0.18586003024E+01 0.16484802718E+01 0.15803502778E+01
 0.16484744434E+01 0.18586000771E+01 0.22274964340E+01 0.27819494166E+01 0.35576046669E+01
 0.45965377616E+01 0.59398472988E+01 0.76103964676E+01 0.95842468798E+01 0.11758145827E+02
 0.14169487449E+02 0.15697168881E+02 0.16543674516E+02 0.16543686003E+02 0.15697187578E+02
 0.14169487541E+02 0.12230431383E+02 0.10165979124E+02 0.82047744355E+01 0.64851830133E+01
 0.50616946227E+01 0.39324473412E+01 0.30682744720E+01 0.24324754894E+01 0.19904268707E+01
 0.17133457507E+01 0.15803502778E+01 0.15803488683E+01 0.17133420123E+01 0.19904264936E+01
 0.24324899744E+01 0.30683068350E+01 0.39324809910E+01 0.50617083425E+01 0.64851775414E+01
 0.82047726448E+01 0.10165995346E+02 0.12230451140E+02 0.14544552770E+02 0.15697163729E+02
 0.16108560882E+02 0.15697163567E+02 0.14544542585E+02 0.12864794567E+02 0.10929696331E+02
 0.89884539216E+01 0.72163643207E+01 0.57037165327E+01 0.44739691038E+01 0.35117201077E+01
 0.27858323534E+01 0.22628754204E+01 0.19131410349E+01 0.17133386441E+01 0.16484744434E+01
 0.17133420123E+01 0.19131341556E+01 0.22628605303E+01 0.27858373199E+01 0.35117659968E+01
 0.44740380547E+01 0.57037679707E+01 0.72163808251E+01 0.89884554738E+01 0.10929707134E+02
 0.12864812840E+02 0.15051701921E+02 0.15817545312E+02 0.15817548649E+02 0.15051709064E+02
 0.13663593563E+02 0.11890102819E+02 0.99867656892E+01 0.81631278293E+01 0.65509386680E+01
 0.52065024203E+01 0.41330178299E+01 0.33061900937E+01 0.26931604104E+01 0.22628684705E+01
 0.19904109973E+01 0.18585897748E+01 0.18586000771E+01 0.19904264936E+01 0.22628605303E+01
 0.26931215643E+01 0.33061478854E+01 0.41330111544E+01 0.52065447724E+01 0.65510077160E+01
 0.81631891494E+01 0.99868004949E+01 0.11890113018E+02 0.13663589954E+02 0.15581289446E+02
 0.15954227900E+02 0.15581307826E+02 0.14531606590E+02 0.12986724305E+02 0.11179097270E+02
 0.93356122354E+01 0.76300893662E+01 0.61615235800E+01 0.49621351628E+01 0.40205966215E+01
 0.33061980947E+01 0.27858335917E+01 0.24324600127E+01 0.22274732556E+01 0.21602914048E+01
 0.22274964340E+01 0.24324899744E+01 0.27858373199E+01 0.33061478854E+01 0.40205056691E+01
 0.49620605002E+01 0.61615181112E+01 0.76301511268E+01 0.93356888240E+01 0.11179138094E+02
 0.12986720294E+02 0.14531582155E+02 0.15999805761E+02 0.15999816090E+02 0.15322623539E+02
 0.14081197227E+02 0.12466996449E+02 0.10691802962E+02 0.89426625390E+01 0.73641752425E+01
 0.60322218612E+01 0.49621382000E+01 0.41330318417E+01 0.35117388128E+01 0.30682734464E+01
 0.27819351268E+01 0.26411800428E+01 0.26411817176E+01 0.27819494166E+01 0.30683068350E+01
 0.35117659968E+01 0.41330111544E+01 0.49620605002E+01 0.60321295504E+01 0.73641228841E+01
 0.89426647660E+01 0.10691828522E+02 0.12467007344E+02 0.14081183242E+02 0.15322601014E+02
 0.16199598129E+02 0.15896793244E+02 0.15028864912E+02 0.13712886974E+02 0.12121197146E+02
 0.10436106789E+02 0.88094992302E+01 0.73641931009E+01 0.61615321133E+01 0.52065065483E+01
 0.44739898222E+01 0.39324616958E+01 0.35576179928E+01 0.33360247993E+01 0.32625141530E+01
 0.33360051884E+01 0.35576046669E+01 0.39324809910E+01 0.44740380547E+01 0.52065447724E+01
 0.61615181112E+01 0.73641228841E+01 0.88094132417E+01 0.10436051305E+02 0.12121182800E+02
 0.13712889250E+02 0.15028860248E+02 0.15896783742E+02 0.16169457735E+02 0.15694082937E+02
 0.14774698492E+02 0.13495724109E+02 0.11997476478E+02 0.10436108964E+02 0.89426955745E+01
 0.76301160957E+01 0.65509331362E+01 0.57037157162E+01 0.50617072819E+01 0.45965645295E+01
 0.42905806683E+01 0.41376918702E+01 0.41376855585E+01 0.42905594352E+01 0.45965377616E+01
 0.50617083425E+01 0.57037679707E+01 0.65510077160E+01 0.76301511268E+01 0.89426647660E+01
 0.10436051305E+02 0.11997447517E+02 0.13495734800E+02 0.14774717997E+02 0.15694088443E+02
 0.16169456337E+02 0.16031067425E+02 0.15531326416E+02 0.14672111426E+02 0.13495694969E+02
 0.12121162178E+02 0.10691808391E+02 0.93356446054E+01 0.81631295643E+01 0.72163436791E+01
 0.64851794187E+01 0.59398592609E+01 0.55557953466E+01 0.53237499433E+01 0.52456063694E+01
 0.53237715352E+01 0.55558056210E+01 0.59398472988E+01 0.64851775414E+01 0.72163808251E+01
 0.81631891494E+01 0.93356888240E+01 0.10691828522E+02 0.12121182800E+02 0.13495734800E+02
 0.14672160485E+02 0.15531363567E+02 0.16031084368E+02 0.16191427981E+02 0.15957691557E+02
 0.15531282336E+02 0.14774644971E+02 0.13712828173E+02 0.12466963236E+02 0.11179113373E+02
 0.99867869548E+01 0.89884443229E+01 0.82047633837E+01 0.76103866682E+01 0.71721790867E+01
 0.68740980426E+01 0.67202234481E+01 0.67202365996E+01 0.68741243554E+01 0.71721982849E+01
 0.76103964676E+01 0.82047726448E+01 0.89884554738E+01 0.99868004949E+01 0.11179138094E+02
 0.12467007344E+02 0.13712889250E+02 0.14774717997E+02 0.15531363567E+02 0.15957763567E+02
 0.16128425654E+02 0.16128395652E+02 0.16030948324E+02 0.15693989996E+02 0.15028807805E+02
 0.14081164481E+02 0.12986733707E+02 0.11890145611E+02 0.10929725120E+02 0.10165983945E+02
 0.95842335621E+01 0.91415611893E+01 0.88100620300E+01 0.85945761294E+01 0.85184981327E+01
 0.85945398068E+01 0.88100179105E+01 0.91415436051E+01 0.95842468798E+01 0.10165995346E+02
 0.10929707134E+02 0.11890113018E+02 0.12986720294E+02 0.14081183242E+02 0.15028860248E+02
 0.15694088444E+02 0.16031084368E+02 0.16128425654E+02 0.16136337275E+02 0.16128318823E+02
 0.16169315152E+02 0.15896724274E+02 0.15322607724E+02 0.14531627046E+02 0.13663650044E+02
 0.12864856224E+02 0.12230461034E+02 0.11758153023E+02 0.11391595278E+02 0.11082348597E+02
 0.10832902791E+02 0.10687960751E+02 0.10687920517E+02 0.10832804429E+02 0.11082248247E+02
 0.11391542956E+02 0.11758145827E+02 0.12230451140E+02 0.12864812840E+02 0.13663589954E+02
 0.14531582155E+02 0.15322601014E+02 0.15896783742E+02 0.16169456337E+02 0.16191427981E+02
 0.16128395652E+02 0.16128318823E+02 0.16191260759E+02 0.13829220429E+02 0.13749682238E+02
 0.13604003175E+02 0.13489012510E+02 0.13489017832E+02 0.13604006704E+02 0.13749671621E+02
 0.13829208535E+02 0.13802348553E+02 0.13699838418E+02 0.13609904632E+02 0.13609919140E+02
 0.13699860603E+02 0.13802342209E+02 0.13829165806E+02 0.13749614772E+02 0.13603957272E+02
 0.13488978313E+02 0.13488972131E+02 0.13603950985E+02 0.13749620493E+02 0.13829171007E+02
 0.13802334793E+02 0.13699853738E+02 0.13609926176E+02 0.13609913787E+02 0.13699837141E+02
 0.13802348303E+02 0.13749682238E+02 0.13930662946E+02 0.14169516560E+02 0.14544597353E+02
 0.15051761633E+02 0.15581330037E+02 0.15999788775E+02 0.16199506702E+02 0.16169315913E+02
 0.16030950622E+02 0.15957685933E+02 0.16031066127E+02 0.16169468412E+02 0.16199605939E+02
 0.15999800845E+02 0.15581285587E+02 0.15051709103E+02 0.14544557932E+02 0.14169481219E+02
 0.13930617887E+02 0.13749626308E+02 0.13552723530E+02 0.13331667664E+02 0.13142483131E+02
 0.13066582783E+02 0.13142510689E+02 0.13331715604E+02 0.13552781219E+02 0.13604003175E+02
 0.14169516560E+02 0.14920952689E+02 0.15851506931E+02 0.16835495058E+02 0.17695541904E+02
 0.18223426847E+02 0.18310398225E+02 0.18077245202E+02 0.17829509358E+02 0.17829545241E+02
 0.18077342839E+02 0.18310522919E+02 0.18223527431E+02 0.17695586406E+02 0.16835493092E+02
 0.15851486418E+02 0.14920926470E+02 0.14169482488E+02 0.13603960724E+02 0.13155574141E+02
 0.12768732884E+02 0.12454464622E+02 0.12270505807E+02 0.12270527368E+02 0.12454515348E+02
 0.12768788378E+02 0.13155623379E+02 0.13489012510E+02 0.14544597353E+02 0.15851506931E+02
 0.17282752670E+02 0.18628982224E+02 0.19574241727E+02 0.19850544169E+02 0.19490281013E+02
 0.18903409933E+02 0.18625586936E+02 0.18903350580E+02 0.19490227822E+02 0.19850547225E+02
 0.19574289404E+02 0.18629035658E+02 0.17282787614E+02 0.15851513669E+02 0.14544574040E+02
 0.13488972484E+02 0.12684921873E+02 0.12069469185E+02 0.11598564267E+02 0.11285394725E+02
 0.11173506674E+02 0.11285422041E+02 0.11598598325E+02 0.12069500959E+02 0.12684959134E+02
 0.13489017832E+02 0.15051761633E+02 0.16835495058E+02 0.18628982224E+02 0.20048015707E+02
 0.20642438654E+02 0.20242435396E+02 0.19229552773E+02 0.18396400272E+02 0.18396343598E+02
 0.19229421544E+02 0.20242306278E+02 0.20642362419E+02 0.20048001550E+02 0.18629013135E+02
 0.16835534293E+02 0.15051768786E+02 0.13488985516E+02 0.12256050559E+02 0.11334823437E+02
 0.10662398357E+02 0.10201843848E+02 0.99605252099E+01 0.99605382556E+01 0.10201868183E+02
 0.10662417515E+02 0.11334848299E+02 0.12256091183E+02 0.13604006704E+02 0.15581330037E+02
 0.17695541905E+02 0.19574241727E+02 0.20642438654E+02 0.20465830043E+02 0.19202574496E+02
 0.17711504577E+02 0.17054204451E+02 0.17711477171E+02 0.19202502702E+02 0.20465712196E+02
 0.20642316673E+02 0.19574177077E+02 0.17695550235E+02 0.15581360130E+02 0.13604004295E+02
 0.11947385442E+02 0.10680907158E+02 0.97620640218E+01 0.91269384288E+01 0.87435216573E+01
 0.86135935092E+01 0.87435499510E+01 0.91269636271E+01 0.97620777634E+01 0.10680930501E+02
 0.11947415782E+02 0.13749671621E+02 0.15999788775E+02 0.18223426847E+02 0.19850544169E+02
 0.20242435396E+02 0.19202574496E+02 0.17360200301E+02 0.15941364675E+02 0.15941387773E+02
 0.17360228357E+02 0.19202535097E+02 0.20242318591E+02 0.19850423813E+02 0.18223378570E+02
 0.15999807573E+02 0.13749695750E+02 0.11758152647E+02 0.10165979293E+02 0.89884524765E+01
 0.81631285032E+01 0.76300916021E+01 0.73641756022E+01 0.73641928593E+01 0.76301195130E+01
 0.81631357120E+01 0.89884483279E+01 0.10165985139E+02 0.11758154237E+02 0.13829208535E+02
 0.16199506702E+02 0.18310398225E+02 0.19490281013E+02 0.19229552772E+02 0.17711504577E+02
 0.15941364675E+02 0.15163384373E+02 0.15941372421E+02 0.17711495223E+02 0.19229510667E+02
 0.19490226510E+02 0.18310369661E+02 0.16199516095E+02 0.13829230869E+02 0.11629303516E+02
 0.97830038169E+01 0.83720120381E+01 0.73616980727E+01 0.66823431763E+01 0.62850831561E+01
 0.61532082440E+01 0.62850967952E+01 0.66823448850E+01 0.73616791385E+01 0.83719922185E+01
 0.97829948883E+01 0.11629291573E+02 0.13802348553E+02 0.16169315913E+02 0.18077245202E+02
 0.18903409933E+02 0.18396400272E+02 0.17054204451E+02 0.15941387773E+02 0.15941372421E+02
 0.17054183215E+02 0.18396415954E+02 0.18903470065E+02 0.18077314023E+02 0.16169355224E+02
 0.13802353341E+02 0.11496638452E+02 0.94904151847E+01 0.78980030367E+01 0.67271756468E+01
 0.59155558075E+01 0.54001205799E+01 0.51470015559E+01 0.51470036689E+01 0.54001216002E+01
 0.59155468428E+01 0.67271566755E+01 0.78979856510E+01 0.94904114241E+01 0.11496645245E+02
 0.13699838418E+02 0.16030950622E+02 0.17829509358E+02 0.18625586936E+02 0.18396343598E+02
 0.17711477171E+02 0.17360228357E+02 0.17711495223E+02 0.18396415954E+02 0.18625721985E+02
 0.17829650140E+02 0.16031022784E+02 0.13699827835E+02 0.11346691987E+02 0.92529922462E+01
 0.75366714073E+01 0.62398778729E+01 0.53167826543E+01 0.47005665426E+01 0.43436318765E+01
 0.42259724216E+01 0.43436378866E+01 0.47005781421E+01 0.53167875941E+01 0.62398638690E+01
 0.75366535135E+01 0.92530030844E+01 0.11346730433E+02 0.13609904632E+02 0.15957685934E+02
 0.17829545241E+02 0.18903350580E+02 0.19229421544E+02 0.19202502702E+02 0.19202535097E+02
 0.19229510667E+02 0.18903470065E+02 0.17829650140E+02 0.15957730272E+02 0.13609878433E+02
 0.11219108680E+02 0.90682367255E+01 0.72695918246E+01 0.58786832076E+01 0.48653810797E+01
 0.41653700175E+01 0.37227736754E+01 0.35066477092E+01 0.35066535946E+01 0.37227925420E+01
 0.41653921199E+01 0.48653805982E+01 0.58786527157E+01 0.72695667224E+01 0.90682568040E+01
 0.11219161368E+02 0.13609919140E+02 0.16031066127E+02 0.18077342839E+02 0.19490227822E+02
 0.20242306278E+02 0.20465712196E+02 0.20242318591E+02 0.19490226510E+02 0.18077314023E+02
 0.16031022784E+02 0.13609878433E+02 0.11168183507E+02 0.89625242065E+01 0.70993663471E+01
 0.56342101819E+01 0.45463320991E+01 0.37753368501E+01 0.32614930265E+01 0.29649928408E+01
 0.28676457912E+01 0.29650011349E+01 0.32615079598E+01 0.37753440793E+01 0.45463163046E+01
 0.56341801353E+01 0.70993490414E+01 0.89625337401E+01 0.11168213257E+02 0.13699860603E+02
 0.16169468412E+02 0.18310522919E+02 0.19850547225E+02 0.20642362419E+02 0.20642316673E+02
 0.19850423813E+02 0.18310369661E+02 0.16169355224E+02 0.13699827835E+02 0.11219108680E+02
 0.89625242065E+01 0.70400773424E+01 0.55091135445E+01 0.43541888897E+01 0.35188039652E+01
 0.29421702169E+01 0.25784324958E+01 0.24016563937E+01 0.24016539494E+01 0.25784286408E+01
 0.29421691901E+01 0.35188057434E+01 0.43541940150E+01 0.55091202401E+01 0.70400721060E+01
 0.89624968815E+01 0.11219084728E+02 0.13802342209E+02 0.16199605939E+02 0.18223527431E+02
 0.19574289404E+02 0.20048001549E+02 0.19574177077E+02 0.18223378570E+02 0.16199516095E+02
 0.13802353341E+02 0.11346691987E+02 0.90682367255E+01 0.70993663471E+01 0.55091135445E+01
 0.42897424134E+01 0.33910525978E+01 0.27540569118E+01 0.23298689443E+01 0.20862972528E+01
 0.20067296232E+01 0.20862843346E+01 0.23298558212E+01 0.27540558445E+01 0.33910687031E+01
 0.42897729802E+01 0.55091403391E+01 0.70993566172E+01 0.90681758631E+01 0.11346619054E+02
 0.13829165806E+02 0.15999800845E+02 0.17695586406E+02 0.18629035658E+02 0.18629013135E+02
 0.17695550235E+02 0.15999807573E+02 0.13829230869E+02 0.11496638452E+02 0.92529922462E+01
 0.72695918246E+01 0.56342101819E+01 0.43541888897E+01 0.33910525978E+01 0.26918639912E+01
 0.22082712444E+01 0.19043334464E+01 0.17576073904E+01 0.17575993605E+01 0.19043189107E+01
 0.22082648555E+01 0.26918666705E+01 0.33910570777E+01 0.43541945038E+01 0.56342159843E+01
 0.72695799688E+01 0.92529402353E+01 0.11496555716E+02 0.13749614772E+02 0.15581285587E+02
 0.16835493092E+02 0.17282787614E+02 0.16835534293E+02 0.15581360130E+02 0.13749695750E+02
 0.11629303516E+02 0.94904151847E+01 0.75366714073E+01 0.58786832076E+01 0.45463320991E+01
 0.35188039652E+01 0.27540569118E+01 0.22082712444E+01 0.18449160686E+01 0.16375272014E+01
 0.15701685574E+01 0.16375184463E+01 0.18449123744E+01 0.22082761657E+01 0.27540539114E+01
 0.35187795073E+01 0.45462992150E+01 0.58786671221E+01 0.75366727479E+01 0.94904030161E+01
 0.11629251615E+02 0.13603957272E+02 0.15051709103E+02 0.15851486418E+02 0.15851513669E+02
 0.15051768786E+02 0.13604004295E+02 0.11758152647E+02 0.97830038169E+01 0.78980030367E+01
 0.62398778729E+01 0.48653810797E+01 0.37753368501E+01 0.29421702169E+01 0.23298689443E+01
 0.19043334464E+01 0.16375272014E+01 0.15093953759E+01 0.15093918931E+01 0.16375228508E+01
 0.19043393375E+01 0.23298861771E+01 0.29421836742E+01 0.37753295335E+01 0.48653562109E+01
 0.62398595803E+01 0.78980085674E+01 0.97830190383E+01 0.11758144024E+02 0.13488978313E+02
 0.14544557932E+02 0.14920926470E+02 0.14544574040E+02 0.13488985516E+02 0.11947385442E+02
 0.10165979293E+02 0.83720120381E+01 0.67271756468E+01 0.53167826543E+01 0.41653700175E+01
 0.32614930265E+01 0.25784324958E+01 0.20862972528E+01 0.17576073904E+01 0.15701685574E+01
 0.15093918931E+01 0.15701653605E+01 0.17576006417E+01 0.20862982454E+01 0.25784593166E+01
 0.32615449752E+01 0.41654183603E+01 0.53167998911E+01 0.67271683263E+01 0.83720102186E+01
 0.10165995117E+02 0.11947399164E+02 0.13488972131E+02 0.14169481219E+02 0.14169482488E+02
 0.13488972484E+02 0.12256050559E+02 0.10680907158E+02 0.89884524765E+01 0.73616980727E+01
 0.59155558075E+01 0.47005665426E+01 0.37227736754E+01 0.29649928408E+01 0.24016563937E+01
 0.20067296232E+01 0.17575993605E+01 0.16375184463E+01 0.16375228508E+01 0.17576006417E+01
 0.20067119771E+01 0.24016315799E+01 0.29649960539E+01 0.37228237891E+01 0.47006410982E+01
 0.59156142498E+01 0.73617230956E+01 0.89884578936E+01 0.10680910502E+02 0.12256053928E+02
 0.13603950985E+02 0.13930617887E+02 0.13603960724E+02 0.12684921873E+02 0.11334823437E+02
 0.97620640218E+01 0.81631285032E+01 0.66823431763E+01 0.54001205799E+01 0.43436318765E+01
 0.35066477092E+01 0.28676457912E+01 0.24016539494E+01 0.20862843346E+01 0.19043189107E+01
 0.18449123744E+01 0.19043393375E+01 0.20862982454E+01 0.24016315799E+01 0.28675862366E+01
 0.35065885259E+01 0.43436202765E+01 0.54001703404E+01 0.66824222532E+01 0.81631900374E+01
 0.97620854315E+01 0.11334814970E+02 0.12684905812E+02 0.13749620493E+02 0.13749626308E+02
 0.13155574141E+02 0.12069469185E+02 0.10662398357E+02 0.91269384288E+01 0.76300916021E+01
 0.62850831561E+01 0.51470015559E+01 0.42259724216E+01 0.35066535946E+01 0.29650011349E+01
 0.25784286408E+01 0.23298558212E+01 0.22082648555E+01 0.22082761657E+01 0.23298861771E+01
 0.25784593166E+01 0.29649960539E+01 0.35065885259E+01 0.42258706128E+01 0.51469247993E+01
 0.62850764955E+01 0.76301420997E+01 0.91269945835E+01 0.10662422896E+02 0.12069463918E+02
 0.13155560821E+02 0.13829171007E+02 0.13552723530E+02 0.12768732884E+02 0.11598564267E+02
 0.10201843848E+02 0.87435216573E+01 0.73641756022E+01 0.61532082440E+01 0.51470036689E+01
 0.43436378866E+01 0.37227925420E+01 0.32615079598E+01 0.29421691901E+01 0.27540558445E+01
 0.26918666705E+01 0.27540539114E+01 0.29421836742E+01 0.32615449752E+01 0.37228237891E+01
 0.43436202765E+01 0.51469247993E+01 0.61531053408E+01 0.73641030505E+01 0.87435036723E+01
 0.10201863593E+02 0.11598591589E+02 0.12768751057E+02 0.13552731173E+02 0.13802334793E+02
 0.13331667664E+02 0.12454464622E+02 0.11285394725E+02 0.99605252099E+01 0.86135935092E+01
 0.73641928593E+01 0.62850967952E+01 0.54001216002E+01 0.47005781421E+01 0.41653921199E+01
 0.37753440793E+01 0.35188057434E+01 0.33910687031E+01 0.33910570777E+01 0.35187795073E+01
 0.37753295335E+01 0.41654183603E+01 0.47006410982E+01 0.54001703404E+01 0.62850764955E+01
 0.73641030505E+01 0.86134913331E+01 0.99604709374E+01 0.11285403831E+02 0.12454509825E+02
 0.13331711197E+02 0.13802351874E+02 0.13699853738E+02 0.13142483131E+02 0.12270505807E+02
 0.11173506674E+02 0.99605382556E+01 0.87435499510E+01 0.76301195130E+01 0.66823448850E+01
 0.59155468428E+01 0.53167875941E+01 0.48653805982E+01 0.45463163046E+01 0.43541940150E+01
 0.42897729802E+01 0.43541945038E+01 0.45462992150E+01 0.48653562109E+01 0.53167998911E+01
 0.59156142498E+01 0.66824222532E+01 0.76301420997E+01 0.87435036723E+01 0.99604709374E+01
 0.11173478142E+02 0.12270538077E+02 0.13142550365E+02 0.13699906243E+02 0.13890898391E+02
 0.13609926176E+02 0.13066582783E+02 0.12270527368E+02 0.11285422041E+02 0.10201868183E+02
 0.91269636271E+01 0.81631357120E+01 0.73616791385E+01 0.67271566755E+01 0.62398638690E+01
 0.58786527157E+01 0.56341801353E+01 0.55091202401E+01 0.55091403391E+01 0.56342159843E+01
 0.58786671221E+01 0.62398595803E+01 0.67271683263E+01 0.73617230956E+01 0.81631900374E+01
 0.91269945835E+01 0.10201863593E+02 0.11285403831E+02 0.12270538077E+02 0.13066646445E+02
 0.13610012137E+02 0.13879896451E+02 0.13879855815E+02 0.13609913787E+02 0.13142510689E+02
 0.12454515348E+02 0.11598598325E+02 0.10662417515E+02 0.97620777634E+01 0.89884483279E+01
 0.83719922185E+01 0.78979856510E+01 0.75366535135E+01 0.72695667224E+01 0.70993490414E+01
 0.70400721060E+01 0.70993566172E+01 0.72695799688E+01 0.75366727479E+01 0.78980085674E+01
 0.83720102186E+01 0.89884578936E+01 0.97620854315E+01 0.10662422896E+02 0.11598591589E+02
 0.12454509825E+02 0.13142550365E+02 0.13610012137E+02 0.13861580463E+02 0.13937748405E+02
 0.13861488986E+02 0.13699837141E+02 0.13331715604E+02 0.12768788378E+02 0.12069500959E+02
 0.11334848299E+02 0.10680930501E+02 0.10165985139E+02 0.97829948883E+01 0.94904114241E+01
 0.92530030844E+01 0.90682568040E+01 0.89625337401E+01 0.89624968815E+01 0.90681758631E+01
 0.92529402353E+01 0.94904030161E+01 0.97830190383E+01 0.10165995117E+02 0.10680910502E+02
 0.11334814970E+02 0.12069463918E+02 0.12768751057E+02 0.13331711197E+02 0.13699906243E+02
 0.13879896451E+02 0.13937748405E+02 0.13937691254E+02 0.13879783216E+02 0.13802348303E+02
 0.13552781219E+02 0.13155623379E+02 0.12684959134E+02 0.12256091183E+02 0.11947415782E+02
 0.11758154237E+02 0.11629291573E+02 0.11496645245E+02 0.11346730433E+02 0.11219161368E+02
 0.11168213257E+02 0.11219084728E+02 0.11346619054E+02 0.11496555716E+02 0.11629251615E+02
 0.11758144024E+02 0.11947399164E+02 0.12256053928E+02 0.12684905812E+02 0.13155560821E+02
 0.13552731173E+02 0.13802351874E+02 0.13890898391E+02 0.13879855815E+02 0.13861488986E+02
 0.13879783216E+02 0.13890830243E+02 0.11629298333E+02 0.11758158773E+02 0.11947408436E+02
 0.12256086688E+02 0.12684967192E+02 0.13155629126E+02 0.13552774683E+02 0.13802344021E+02
 0.13890837906E+02 0.13879788125E+02 0.13861481446E+02 0.13879850646E+02 0.13890905478E+02
 0.13802356579E+02 0.13552723729E+02 0.13155555900E+02 0.12684913153E+02 0.12256058802E+02
 0.11947391793E+02 0.11758139132E+02 0.11629259001E+02 0.11496560673E+02 0.11346611761E+02
 0.11219079813E+02 0.11168220422E+02 0.11219165865E+02 0.11346722505E+02 0.11496639694E+02
 0.11758158773E+02 0.12230460320E+02 0.12864843036E+02 0.13663640936E+02 0.14531629288E+02
 0.15322605887E+02 0.15896712210E+02 0.16169309551E+02 0.16191268974E+02 0.16128324790E+02
 0.16128391602E+02 0.16191428514E+02 0.16169467277E+02 0.15896788876E+02 0.15322593813E+02
 0.14531579060E+02 0.13663598231E+02 0.12864816730E+02 0.12230443680E+02 0.11758142754E+02
 0.11391551211E+02 0.11082252396E+02 0.10832798213E+02 0.10687920107E+02 0.10687972635E+02
 0.10832910092E+02 0.11082343213E+02 0.11391592142E+02 0.11947408436E+02 0.12864843036E+02
 0.14011854239E+02 0.15290047659E+02 0.16529548370E+02 0.17510999024E+02 0.18032266302E+02
 0.18077239999E+02 0.17878105861E+02 0.17760795668E+02 0.17878142656E+02 0.18077317551E+02
 0.18032364069E+02 0.17511077298E+02 0.16529586998E+02 0.15290055177E+02 0.14011843107E+02
 0.12864822846E+02 0.11947393647E+02 0.11250223786E+02 0.10718729072E+02 0.10315910748E+02
 0.10049877131E+02 0.99550476772E+01 0.10049944306E+02 0.10315981713E+02 0.10718760701E+02
 0.11250232583E+02 0.12256086688E+02 0.13663640936E+02 0.15290047659E+02 0.16958810589E+02
 0.18389963638E+02 0.19237553650E+02 0.19335253749E+02 0.18903409431E+02 0.18465526715E+02
 0.18465478757E+02 0.18903311014E+02 0.19335188814E+02 0.19237560579E+02 0.18390020849E+02
 0.16958876564E+02 0.15290088704E+02 0.13663642866E+02 0.12256066435E+02 0.11150818925E+02
 0.10323782235E+02 0.97190861274E+01 0.93054733597E+01 0.90894046422E+01 0.90894243119E+01
 0.93055065492E+01 0.97190970965E+01 0.10323778662E+02 0.11150829210E+02 0.12684967192E+02
 0.14531629288E+02 0.16529548370E+02 0.18389963638E+02 0.19652092485E+02 0.19938494897E+02
 0.19315548277E+02 0.18396402234E+02 0.17969578903E+02 0.18396314158E+02 0.19315423438E+02
 0.19938394336E+02 0.19652051808E+02 0.18389983925E+02 0.16529597950E+02 0.14531661352E+02
 0.12684960287E+02 0.11150815000E+02 0.99795449472E+01 0.91274395168E+01 0.85367752105E+01
 0.81798787676E+01 0.80589669893E+01 0.81798900701E+01 0.85367755293E+01 0.91274282757E+01
 0.99795477743E+01 0.11150836363E+02 0.13155629126E+02 0.15322605887E+02 0.17510999024E+02
 0.19237553650E+02 0.19938494897E+02 0.19402704033E+02 0.18109953364E+02 0.17054205732E+02
 0.17054204676E+02 0.18109935854E+02 0.19402650186E+02 0.19938417936E+02 0.19237498718E+02
 0.17510995322E+02 0.15322632300E+02 0.13155642665E+02 0.11250231447E+02 0.97339777767E+01
 0.86121512860E+01 0.78239888059E+01 0.73139312812E+01 0.70592783419E+01 0.70592829949E+01
 0.73139347601E+01 0.78239809931E+01 0.86121453322E+01 0.97339877621E+01 0.11250241960E+02
 0.13552774683E+02 0.15896712210E+02 0.18032266302E+02 0.19335253749E+02 0.19315548277E+02
 0.18109953364E+02 0.16611204870E+02 0.15941390716E+02 0.16611228317E+02 0.18109968492E+02
 0.19315534232E+02 0.19335226704E+02 0.18032255649E+02 0.15896723754E+02 0.13552790393E+02
 0.11391598650E+02 0.95842328107E+01 0.82047734585E+01 0.72163612526E+01 0.65509406156E+01
 0.61615279368E+01 0.60322221151E+01 0.61615316154E+01 0.65509386005E+01 0.72163508182E+01
 0.82047633898E+01 0.95842281861E+01 0.11391591464E+02 0.13802344021E+02 0.16169309551E+02
 0.18077239999E+02 0.18903409431E+02 0.18396402234E+02 0.17054205731E+02 0.15941390716E+02
 0.15941379773E+02 0.17054191422E+02 0.18396420275E+02 0.18903471816E+02 0.18077316304E+02
 0.16169356294E+02 0.13802350917E+02 0.11496635755E+02 0.94904158673E+01 0.78980046055E+01
 0.67271744987E+01 0.59155541599E+01 0.54001218679E+01 0.51470037100E+01 0.51470035590E+01
 0.54001213424E+01 0.59155489743E+01 0.67271578194E+01 0.78979817890E+01 0.94904049611E+01
 0.11496640317E+02 0.13890837906E+02 0.16191268974E+02 0.17878105861E+02 0.18465526715E+02
 0.17969578903E+02 0.17054204676E+02 0.16611228317E+02 0.17054191422E+02 0.17969617014E+02
 0.18465657723E+02 0.17878278785E+02 0.16191381116E+02 0.13890844364E+02 0.11525916153E+02
 0.94084019868E+01 0.76649169492E+01 0.63453369344E+01 0.54062703349E+01 0.47799320196E+01
 0.44173347219E+01 0.42978217859E+01 0.44173356702E+01 0.47799386042E+01 0.54062698407E+01
 0.63453142615E+01 0.76648938523E+01 0.94084187904E+01 0.11525960311E+02 0.13879788125E+02
 0.16128324790E+02 0.17760795668E+02 0.18465478757E+02 0.18396314158E+02 0.18109935854E+02
 0.18109968492E+02 0.18396420275E+02 0.18465657723E+02 0.17760995990E+02 0.16128454125E+02
 0.13879792520E+02 0.11497721782E+02 0.93208185645E+01 0.74829256066E+01 0.60531150193E+01
 0.50102840692E+01 0.42905985390E+01 0.38360500268E+01 0.36141519030E+01 0.36141544701E+01
 0.38360636416E+01 0.42906181137E+01 0.50102806533E+01 0.60530831677E+01 0.74829149238E+01
 0.93208717370E+01 0.11497795834E+02 0.13861481446E+02 0.16128391602E+02 0.17878142656E+02
 0.18903311014E+02 0.19315423438E+02 0.19402650186E+02 0.19315534232E+02 0.18903471816E+02
 0.17878278785E+02 0.16128454125E+02 0.13861460337E+02 0.11462121536E+02 0.92455833947E+01
 0.73484504244E+01 0.58400569966E+01 0.47158618830E+01 0.39192154389E+01 0.33888589615E+01
 0.30829296416E+01 0.29824545513E+01 0.30829391153E+01 0.33888803933E+01 0.39192292690E+01
 0.47158425688E+01 0.58400204763E+01 0.73484486242E+01 0.92456383952E+01 0.11462191824E+02
 0.13879850646E+02 0.16191428514E+02 0.18077317551E+02 0.19335188814E+02 0.19938394336E+02
 0.19938417936E+02 0.19335226704E+02 0.18077316304E+02 0.16191381116E+02 0.13879792520E+02
 0.11462121536E+02 0.92154025497E+01 0.72743797429E+01 0.57072276256E+01 0.45180695307E+01
 0.36569446451E+01 0.30628972594E+01 0.26881943097E+01 0.25059308198E+01 0.25059319859E+01
 0.26882011744E+01 0.30629083333E+01 0.36569456868E+01 0.45180529449E+01 0.57072070105E+01
 0.72743737809E+01 0.92154187361E+01 0.11462161585E+02 0.13890905478E+02 0.16169467277E+02
 0.18032364069E+02 0.19237560579E+02 0.19652051808E+02 0.19237498718E+02 0.18032255649E+02
 0.16169356294E+02 0.13890844364E+02 0.11497721782E+02 0.92455833947E+01 0.72743797429E+01
 0.56616773304E+01 0.44179355335E+01 0.34999914363E+01 0.28495286878E+01 0.24162441123E+01
 0.21670608095E+01 0.20855344808E+01 0.21670549568E+01 0.24162396222E+01 0.28495306061E+01
 0.34999999113E+01 0.44179473952E+01 0.56616817792E+01 0.72743630822E+01 0.92455538867E+01
 0.11497719773E+02 0.13802356579E+02 0.15896788876E+02 0.17511077298E+02 0.18390020849E+02
 0.18389983925E+02 0.17510995322E+02 0.15896723754E+02 0.13802350917E+02 0.11525916153E+02
 0.93208185645E+01 0.73484504244E+01 0.57072276256E+01 0.44179355335E+01 0.34476461314E+01
 0.27439085907E+01 0.22571215978E+01 0.19505972395E+01 0.18022458107E+01 0.18022394628E+01
 0.19505841610E+01 0.22571128811E+01 0.27439108239E+01 0.34476603560E+01 0.44179567287E+01
 0.57072396129E+01 0.73484323606E+01 0.93207700532E+01 0.11525872094E+02 0.13552723729E+02
 0.15322593813E+02 0.16529586998E+02 0.16958876564E+02 0.16529597950E+02 0.15322632300E+02
 0.13552790393E+02 0.11496635755E+02 0.94084019868E+01 0.74829256066E+01 0.58400569966E+01
 0.45180695307E+01 0.34999914363E+01 0.27439085907E+01 0.22047656341E+01 0.18453457391E+01
 0.16396405117E+01 0.15726840660E+01 0.16396305800E+01 0.18453364474E+01 0.22047620796E+01
 0.27439041678E+01 0.34999815807E+01 0.45180618370E+01 0.58400573408E+01 0.74829198323E+01
 0.94083665988E+01 0.11496569850E+02 0.13155555900E+02 0.14531579060E+02 0.15290055177E+02
 0.15290088704E+02 0.14531661352E+02 0.13155642665E+02 0.11391598650E+02 0.94904158673E+01
 0.76649169492E+01 0.60531150193E+01 0.47158618830E+01 0.36569446451E+01 0.28495286878E+01
 0.22571215978E+01 0.18453457391E+01 0.15867292512E+01 0.14622869282E+01 0.14622827650E+01
 0.15867237888E+01 0.18453492575E+01 0.22571295924E+01 0.28495227680E+01 0.36569159885E+01
 0.47158275743E+01 0.60531004606E+01 0.76649218229E+01 0.94904081682E+01 0.11391548268E+02
 0.12684913153E+02 0.13663598231E+02 0.14011843107E+02 0.13663642866E+02 0.12684960287E+02
 0.11250231447E+02 0.95842328107E+01 0.78980046055E+01 0.63453369344E+01 0.50102840692E+01
 0.39192154389E+01 0.30628972594E+01 0.24162441123E+01 0.19505972395E+01 0.16396405117E+01
 0.14622869282E+01 0.14047687387E+01 0.14622816795E+01 0.16396386300E+01 0.19506100751E+01
 0.24162723286E+01 0.30629227592E+01 0.39192160932E+01 0.50102606606E+01 0.63453163109E+01
 0.78980074306E+01 0.95842443949E+01 0.11250217602E+02 0.12256058802E+02 0.12864816730E+02
 0.12864822846E+02 0.12256066435E+02 0.11150815000E+02 0.97339777767E+01 0.82047734585E+01
 0.67271744987E+01 0.54062703349E+01 0.42905985390E+01 0.33888589615E+01 0.26881943097E+01
 0.21670608095E+01 0.18022458107E+01 0.15726840660E+01 0.14622827650E+01 0.14622816795E+01
 0.15726772669E+01 0.18022342368E+01 0.21670629350E+01 0.26882307365E+01 0.33889223424E+01
 0.42906530488E+01 0.54062892134E+01 0.67271682868E+01 0.82047706265E+01 0.97339862901E+01
 0.11150819307E+02 0.11947391793E+02 0.12230443680E+02 0.11947393647E+02 0.11150818925E+02
 0.99795449472E+01 0.86121512860E+01 0.72163612526E+01 0.59155541599E+01 0.47799320196E+01
 0.38360500268E+01 0.30829296416E+01 0.25059308198E+01 0.20855344808E+01 0.18022394628E+01
 0.16396305800E+01 0.15867237888E+01 0.16396386300E+01 0.18022342368E+01 0.20855035151E+01
 0.25058949545E+01 0.30829289407E+01 0.38361025150E+01 0.47800124453E+01 0.59156185247E+01
 0.72163872731E+01 0.86121492123E+01 0.99795356862E+01 0.11150813259E+02 0.11758139132E+02
 0.11758142754E+02 0.11250223786E+02 0.10323782235E+02 0.91274395168E+01 0.78239888059E+01
 0.65509406156E+01 0.54001218679E+01 0.44173347219E+01 0.36141519030E+01 0.29824545513E+01
 0.25059319859E+01 0.21670549568E+01 0.19505841610E+01 0.18453364474E+01 0.18453492575E+01
 0.19506100751E+01 0.21670629350E+01 0.25058949545E+01 0.29823793920E+01 0.36140852393E+01
 0.44173260960E+01 0.54001766242E+01 0.65510152588E+01 0.78240346982E+01 0.91274444454E+01
 0.10323767446E+02 0.11250211668E+02 0.11629259001E+02 0.11391551211E+02 0.10718729072E+02
 0.97190861274E+01 0.85367752105E+01 0.73139312812E+01 0.61615279368E+01 0.51470037100E+01
 0.42978217859E+01 0.36141544701E+01 0.30829391153E+01 0.26882011744E+01 0.24162396222E+01
 0.22571128811E+01 0.22047620796E+01 0.22571295924E+01 0.24162723286E+01 0.26882307365E+01
 0.30829289407E+01 0.36140852393E+01 0.42977218539E+01 0.51469305993E+01 0.61615153020E+01
 0.73139624771E+01 0.85368110508E+01 0.97191059897E+01 0.10718737018E+02 0.11391554827E+02
 0.11496560673E+02 0.11082252396E+02 0.10315910748E+02 0.93054733597E+01 0.81798787676E+01
 0.70592783419E+01 0.60322221151E+01 0.51470035590E+01 0.44173356702E+01 0.38360636416E+01
 0.33888803933E+01 0.30629083333E+01 0.28495306061E+01 0.27439108239E+01 0.27439041678E+01
 0.28495227680E+01 0.30629227592E+01 0.33889223424E+01 0.38361025150E+01 0.44173260960E+01
 0.51469305993E+01 0.60321197828E+01 0.70591990801E+01 0.81798513149E+01 0.93054923453E+01
 0.10315953197E+02 0.11082292520E+02 0.11496577004E+02 0.11346611761E+02 0.10832798213E+02
 0.10049877131E+02 0.90894046422E+01 0.80589669893E+01 0.70592829949E+01 0.61615316154E+01
 0.54001213424E+01 0.47799386042E+01 0.42906181137E+01 0.39192292690E+01 0.36569456868E+01
 0.34999999113E+01 0.34476603560E+01 0.34999815807E+01 0.36569159885E+01 0.39192160932E+01
 0.42906530488E+01 0.47800124453E+01 0.54001766242E+01 0.61615153020E+01 0.70591990801E+01
 0.80588708497E+01 0.90893546342E+01 0.10049894180E+02 0.10832857313E+02 0.11346661760E+02
 0.11525867477E+02 0.11219079813E+02 0.10687920107E+02 0.99550476772E+01 0.90894243119E+01
 0.81798900701E+01 0.73139347601E+01 0.65509386005E+01 0.59155489743E+01 0.54062698407E+01
 0.50102806533E+01 0.47158425688E+01 0.45180529449E+01 0.44179473952E+01 0.44179567287E+01
 0.45180618370E+01 0.47158275743E+01 0.50102606606E+01 0.54062892134E+01 0.59156185247E+01
 0.65510152588E+01 0.73139624771E+01 0.81798513149E+01 0.90893546342E+01 0.99550070031E+01
 0.10687941694E+02 0.11219137061E+02 0.11497744715E+02 0.11497714602E+02 0.11168220422E+02
 0.10687972635E+02 0.10049944306E+02 0.93055065492E+01 0.85367755293E+01 0.78239809931E+01
 0.72163508182E+01 0.67271578194E+01 0.63453142615E+01 0.60530831677E+01 0.58400204763E+01
 0.57072070105E+01 0.56616817792E+01 0.57072396129E+01 0.58400573408E+01 0.60531004606E+01
 0.63453163109E+01 0.67271682868E+01 0.72163872731E+01 0.78240346982E+01 0.85368110508E+01
 0.93054923453E+01 0.10049894180E+02 0.10687941694E+02 0.11168241469E+02 0.11462205617E+02
 0.11560459400E+02 0.11462166850E+02 0.11219165865E+02 0.10832910092E+02 0.10315981713E+02
 0.97190970965E+01 0.91274282757E+01 0.86121453322E+01 0.82047633898E+01 0.78979817890E+01
 0.76648938523E+01 0.74829149238E+01 0.73484486242E+01 0.72743737809E+01 0.72743630822E+01
 0.73484323606E+01 0.74829198323E+01 0.76649218229E+01 0.78980074306E+01 0.82047706265E+01
 0.86121492123E+01 0.91274444454E+01 0.97191059897E+01 0.10315953197E+02 0.10832857313E+02
 0.11219137061E+02 0.11462205617E+02 0.11574925790E+02 0.11574912851E+02 0.11462194733E+02
 0.11346722505E+02 0.11082343213E+02 0.10718760701E+02 0.10323778662E+02 0.99795477743E+01
 0.97339877621E+01 0.95842281861E+01 0.94904049611E+01 0.94084187904E+01 0.93208717370E+01
 0.92456383952E+01 0.92154187361E+01 0.92455538867E+01 0.93207700532E+01 0.94083665988E+01
 0.94904081682E+01 0.95842443949E+01 0.97339862901E+01 0.99795356862E+01 0.10323767446E+02
 0.10718737018E+02 0.11082292520E+02 0.11346661760E+02 0.11497744715E+02 0.11560459400E+02
 0.11574912851E+02 0.11560471950E+02 0.11497784407E+02 0.11496639694E+02 0.11391592142E+02
 0.11250232583E+02 0.11150829210E+02 0.11150836363E+02 0.11250241960E+02 0.11391591464E+02
 0.11496640317E+02 0.11525960311E+02 0.11497795834E+02 0.11462191824E+02 0.11462161585E+02
 0.11497719773E+02 0.11525872094E+02 0.11496569850E+02 0.11391548268E+02 0.11250217602E+02
 0.11150819307E+02 0.11150813259E+02 0.11250211668E+02 0.11391554827E+02 0.11496577004E+02
 0.11525867477E+02 0.11497714602E+02 0.11462166850E+02 0.11462194733E+02 0.11497784407E+02
 0.11525947559E+02 0.97830045978E+01 0.10165992607E+02 0.10680928722E+02 0.11334851914E+02
 0.12069515501E+02 0.12768797719E+02 0.13331712669E+02 0.13699836459E+02 0.13879790488E+02
 0.13937691362E+02 0.13937736268E+02 0.13879888935E+02 0.13699910635E+02 0.13331712408E+02
 0.12768742548E+02 0.12069460493E+02 0.11334822335E+02 0.10680913090E+02 0.10165986886E+02
 0.97830155886E+01 0.94904104319E+01 0.92529426008E+01 0.90681663426E+01 0.89624905415E+01
 0.89625370746E+01 0.90682554117E+01 0.92529921634E+01 0.94904075342E+01 0.10165992607E+02
 0.10929727417E+02 0.11890138153E+02 0.12986732950E+02 0.14081173508E+02 0.15028809832E+02
 0.15693981688E+02 0.16030946364E+02 0.16128326618E+02 0.16136338347E+02 0.16128416860E+02
 0.16031082417E+02 0.15694096619E+02 0.15028861863E+02 0.14081174950E+02 0.12986718675E+02
 0.11890121328E+02 0.10929708747E+02 0.10165987004E+02 0.95842452289E+01 0.91415519065E+01
 0.88100194859E+01 0.85945313306E+01 0.85184962184E+01 0.85945840841E+01 0.88100633056E+01
 0.91415526350E+01 0.95842319398E+01 0.10680928722E+02 0.11890138153E+02 0.13312281512E+02
 0.14803211361E+02 0.16178131337E+02 0.17203882512E+02 0.17730756514E+02 0.17829508598E+02
 0.17760799868E+02 0.17760786616E+02 0.17829496927E+02 0.17730790252E+02 0.17203963026E+02
 0.16178222614E+02 0.14803281272E+02 0.13312316070E+02 0.11890137743E+02 0.10680913785E+02
 0.97339843671E+01 0.90221752593E+01 0.84999996708E+01 0.81436028924E+01 0.79583247584E+01
 0.79583365495E+01 0.81436175546E+01 0.84999911341E+01 0.90221564589E+01 0.97339839361E+01
 0.11334851914E+02 0.12986732950E+02 0.14803211361E+02 0.16585110578E+02 0.18014359983E+02
 0.18793036062E+02 0.18888644327E+02 0.18625594223E+02 0.18465486442E+02 0.18625492676E+02
 0.18888530058E+02 0.18792996463E+02 0.18014409936E+02 0.16585204609E+02 0.14803294676E+02
 0.12986774013E+02 0.11334852464E+02 0.99795375896E+01 0.89448221362E+01 0.81879961021E+01
 0.76609976599E+01 0.73422716058E+01 0.72343769640E+01 0.73422621570E+01 0.76609753266E+01
 0.81879718812E+01 0.89448158955E+01 0.99795485714E+01 0.12069515501E+02 0.14081173508E+02
 0.16178131337E+02 0.18014359983E+02 0.19150154143E+02 0.19360650494E+02 0.18898428295E+02
 0.18396352653E+02 0.18396321276E+02 0.18898355097E+02 0.19360581683E+02 0.19150127272E+02
 0.18014381623E+02 0.16178179293E+02 0.14081215901E+02 0.12069532243E+02 0.10323786036E+02
 0.89448121481E+01 0.79227785903E+01 0.72011813793E+01 0.67324700284E+01 0.64981793077E+01
 0.64981695079E+01 0.67324470223E+01 0.72011605769E+01 0.79227733779E+01 0.89448213124E+01
 0.10323792034E+02 0.12768797719E+02 0.15028809832E+02 0.17203882512E+02 0.18793036062E+02
 0.19360650494E+02 0.18930014623E+02 0.18109908529E+02 0.17711482606E+02 0.18109940109E+02
 0.18930049723E+02 0.19360667553E+02 0.18793038872E+02 0.17203884090E+02 0.15028814400E+02
 0.12768802857E+02 0.10718776458E+02 0.90221618368E+01 0.77311442141E+01 0.68039359578E+01
 0.61775013289E+01 0.58101153354E+01 0.56880442403E+01 0.58101025574E+01 0.61774910869E+01
 0.68039370150E+01 0.77311498905E+01 0.90221634780E+01 0.10718773338E+02 0.13331712669E+02
 0.15693981688E+02 0.17730756514E+02 0.18888644327E+02 0.18898428295E+02 0.18109908529E+02
 0.17360209844E+02 0.17360235222E+02 0.18109972593E+02 0.18898507199E+02 0.18888717395E+02
 0.17730804690E+02 0.15693992440E+02 0.13331698650E+02 0.11082338753E+02 0.91415646145E+01
 0.76103933805E+01 0.64851797975E+01 0.57037121856E+01 0.52065057602E+01 0.49621399959E+01
 0.49621359970E+01 0.52065035219E+01 0.57037197815E+01 0.64851831057E+01 0.76103806227E+01
 0.91415519866E+01 0.11082345801E+02 0.13699836459E+02 0.16030946364E+02 0.17829508598E+02
 0.18625594223E+02 0.18396352653E+02 0.17711482606E+02 0.17360235222E+02 0.17711506991E+02
 0.18396424945E+02 0.18625721985E+02 0.17829647011E+02 0.16031022662E+02 0.13699826531E+02
 0.11346685932E+02 0.92529879080E+01 0.75366735158E+01 0.62398799275E+01 0.53167792491E+01
 0.47005635676E+01 0.43436345892E+01 0.42259751184E+01 0.43436353239E+01 0.47005753689E+01
 0.53167884639E+01 0.62398617476E+01 0.75366436842E+01 0.92529927822E+01 0.11346726485E+02
 0.13879790488E+02 0.16128326618E+02 0.17760799868E+02 0.18465486442E+02 0.18396321276E+02
 0.18109940109E+02 0.18109972593E+02 0.18396424945E+02 0.18465658744E+02 0.17760991800E+02
 0.16128449291E+02 0.13879790144E+02 0.11497719402E+02 0.93208148732E+01 0.74829239092E+01
 0.60531164514E+01 0.50102845806E+01 0.42905962657E+01 0.38360486748E+01 0.36141533494E+01
 0.36141550519E+01 0.38360612030E+01 0.42906156274E+01 0.50102794744E+01 0.60530799734E+01
 0.74829089301E+01 0.93208677855E+01 0.11497796660E+02 0.13937691362E+02 0.16136338347E+02
 0.17760786616E+02 0.18625492676E+02 0.18898355097E+02 0.18930049723E+02 0.18898507199E+02
 0.18625721985E+02 0.17760991800E+02 0.16136442030E+02 0.13937671384E+02 0.11560382346E+02
 0.93426794059E+01 0.74352853724E+01 0.59122210931E+01 0.47753059770E+01 0.39695863055E+01
 0.34333843258E+01 0.31241258604E+01 0.30225485733E+01 0.31241349439E+01 0.34334057197E+01
 0.39695990384E+01 0.47752831208E+01 0.59121837402E+01 0.74352957571E+01 0.93427616699E+01
 0.11560478570E+02 0.13937736268E+02 0.16128416860E+02 0.17829496927E+02 0.18888530058E+02
 0.19360581683E+02 0.19360667553E+02 0.18888717395E+02 0.17829647011E+02 0.16128449291E+02
 0.13937671384E+02 0.11574812820E+02 0.93427690854E+01 0.73977964310E+01 0.58136413188E+01
 0.46065692643E+01 0.37314955557E+01 0.31279174712E+01 0.27472201849E+01 0.25619661205E+01
 0.25619694291E+01 0.27472326084E+01 0.31279338518E+01 0.37314953242E+01 0.46065422771E+01
 0.58136115291E+01 0.73978034270E+01 0.93428302682E+01 0.11574905406E+02 0.13879888935E+02
 0.16031082417E+02 0.17730790252E+02 0.18792996463E+02 0.19150127272E+02 0.18793038872E+02
 0.17730804690E+02 0.16031022662E+02 0.13879790144E+02 0.11560382346E+02 0.93427690854E+01
 0.73831145089E+01 0.57617080526E+01 0.45037528381E+01 0.35732641169E+01 0.29136399881E+01
 0.24741056298E+01 0.22210790276E+01 0.21382160429E+01 0.22210806969E+01 0.24741107671E+01
 0.29136466869E+01 0.35732659231E+01 0.45037432502E+01 0.57616861733E+01 0.73830942745E+01
 0.93427822907E+01 0.11560451895E+02 0.13699910635E+02 0.15694096619E+02 0.17203963026E+02
 0.18014409936E+02 0.18014381623E+02 0.17203884090E+02 0.15693992440E+02 0.13699826531E+02
 0.11497719402E+02 0.93426794059E+01 0.73977964310E+01 0.57617080526E+01 0.44690597493E+01
 0.34941094115E+01 0.27866162056E+01 0.22969286343E+01 0.19880835127E+01 0.18383138891E+01
 0.18383114220E+01 0.19880776050E+01 0.22969245688E+01 0.27866214443E+01 0.34941248538E+01
 0.44690715161E+01 0.57616966382E+01 0.73977626426E+01 0.93426565788E+01 0.11497747309E+02
 0.13331712408E+02 0.15028861863E+02 0.16178222614E+02 0.16585204609E+02 0.16178179293E+02
 0.15028814400E+02 0.13331698650E+02 0.11346685932E+02 0.93208148732E+01 0.74352853724E+01
 0.58136413188E+01 0.45037528381E+01 0.34941094115E+01 0.27445379782E+01 0.22099184159E+01
 0.18528921352E+01 0.16479958498E+01 0.15811651254E+01 0.16479884921E+01 0.18528815062E+01
 0.22099111775E+01 0.27445394444E+01 0.34941191434E+01 0.45037631781E+01 0.58136402749E+01
 0.74352645199E+01 0.93207806034E+01 0.11346662959E+02 0.12768742548E+02 0.14081174950E+02
 0.14803281272E+02 0.14803294676E+02 0.14081215901E+02 0.12768802857E+02 0.11082338753E+02
 0.92529879080E+01 0.74829239092E+01 0.59122210931E+01 0.46065692643E+01 0.35732641169E+01
 0.27866162056E+01 0.22099184159E+01 0.18086448529E+01 0.15559626191E+01 0.14340452011E+01
 0.14340417101E+01 0.15559557992E+01 0.18086403125E+01 0.22099146204E+01 0.27866054369E+01
 0.35732454243E+01 0.46065544176E+01 0.59122188050E+01 0.74829215837E+01 0.92529618664E+01
 0.11082284325E+02 0.12069460493E+02 0.12986718675E+02 0.13312316070E+02 0.12986774013E+02
 0.12069532243E+02 0.10718776458E+02 0.91415646145E+01 0.75366735158E+01 0.60531164514E+01
 0.47753059770E+01 0.37314955557E+01 0.29136399881E+01 0.22969286343E+01 0.18528921352E+01
 0.15559626191E+01 0.13862716458E+01 0.13311606740E+01 0.13862674010E+01 0.15559628705E+01
 0.18529027997E+01 0.22969408113E+01 0.29136345529E+01 0.37314655604E+01 0.47752702581E+01
 0.60531007936E+01 0.75366776697E+01 0.91415579440E+01 0.10718731964E+02 0.11334822335E+02
 0.11890121328E+02 0.11890137743E+02 0.11334852464E+02 0.10323786036E+02 0.90221618368E+01
 0.76103933805E+01 0.62398799275E+01 0.50102845806E+01 0.39695863055E+01 0.31279174712E+01
 0.24741056298E+01 0.19880835127E+01 0.16479958498E+01 0.14340452011E+01 0.13311606740E+01
 0.13311578361E+01 0.14340395956E+01 0.16479972681E+01 0.19881038658E+01 0.24741433739E+01
 0.31279499091E+01 0.39695890094E+01 0.50102604464E+01 0.62398580416E+01 0.76103931947E+01
 0.90221686605E+01 0.10323773422E+02 0.10680913090E+02 0.10929708747E+02 0.10680913785E+02
 0.99795375896E+01 0.89448121481E+01 0.77311442141E+01 0.64851797975E+01 0.53167792491E+01
 0.42905962657E+01 0.34333843258E+01 0.27472201849E+01 0.22210790276E+01 0.18383138891E+01
 0.15811651254E+01 0.14340417101E+01 0.13862674010E+01 0.14340395956E+01 0.15811537457E+01
 0.18382978767E+01 0.22210819127E+01 0.27472615164E+01 0.34334518493E+01 0.42906524225E+01
 0.53167990298E+01 0.64851730748E+01 0.77311360887E+01 0.89448124071E+01 0.99795394577E+01
 0.10165986886E+02 0.10165987004E+02 0.97339843671E+01 0.89448221362E+01 0.79227785903E+01
 0.68039359578E+01 0.57037121856E+01 0.47005635676E+01 0.38360486748E+01 0.31241258604E+01
 0.25619661205E+01 0.21382160429E+01 0.18383114220E+01 0.16479884921E+01 0.15559557992E+01
 0.15559628705E+01 0.16479972681E+01 0.18382978767E+01 0.21381737238E+01 0.25619228564E+01
 0.31241242862E+01 0.38361042686E+01 0.47006459228E+01 0.57037731299E+01 0.68039530183E+01
 0.79227665667E+01 0.89448077404E+01 0.97339793759E+01 0.97830155886E+01 0.95842452289E+01
 0.90221752593E+01 0.81879961021E+01 0.72011813793E+01 0.61775013289E+01 0.52065057602E+01
 0.43436345892E+01 0.36141533494E+01 0.30225485733E+01 0.25619694291E+01 0.22210806969E+01
 0.19880776050E+01 0.18528815062E+01 0.18086403125E+01 0.18529027997E+01 0.19881038658E+01
 0.22210819127E+01 0.25619228564E+01 0.30224684339E+01 0.36140904756E+01 0.43436327150E+01
 0.52065585510E+01 0.61775611910E+01 0.72012093063E+01 0.81879928543E+01 0.90221640943E+01
 0.95842399008E+01 0.94904104319E+01 0.91415519065E+01 0.84999996708E+01 0.76609976599E+01
 0.67324700284E+01 0.58101153354E+01 0.49621399959E+01 0.42259751184E+01 0.36141550519E+01
 0.31241349439E+01 0.27472326084E+01 0.24741107671E+01 0.22969245688E+01 0.22099111775E+01
 0.22099146204E+01 0.22969408113E+01 0.24741433739E+01 0.27472615164E+01 0.31241242862E+01
 0.36140904756E+01 0.42258867064E+01 0.49620774513E+01 0.58101018005E+01 0.67324889400E+01
 0.76610214918E+01 0.85000168250E+01 0.91415630501E+01 0.94904147573E+01 0.92529426008E+01
 0.88100194859E+01 0.81436028924E+01 0.73422716058E+01 0.64981793077E+01 0.56880442403E+01
 0.49621359970E+01 0.43436353239E+01 0.38360612030E+01 0.34334057197E+01 0.31279338518E+01
 0.29136466869E+01 0.27866214443E+01 0.27445394444E+01 0.27866054369E+01 0.29136345529E+01
 0.31279499091E+01 0.34334518493E+01 0.38361042686E+01 0.43436327150E+01 0.49620774513E+01
 0.56879617035E+01 0.64981160010E+01 0.73422496229E+01 0.81436178738E+01 0.88100516069E+01
 0.92529674589E+01 0.94083711393E+01 0.90681663426E+01 0.85945313306E+01 0.79583247584E+01
 0.72343769640E+01 0.64981695079E+01 0.58101025574E+01 0.52065035219E+01 0.47005753689E+01
 0.42906156274E+01 0.39695990384E+01 0.37314953242E+01 0.35732659231E+01 0.34941248538E+01
 0.34941191434E+01 0.35732454243E+01 0.37314655604E+01 0.39695890094E+01 0.42906524225E+01
 0.47006459228E+01 0.52065585510E+01 0.58101018005E+01 0.64981160010E+01 0.72343093748E+01
 0.79582843582E+01 0.85945330620E+01 0.90681912225E+01 0.93207770841E+01 0.93207631724E+01
 0.89624905415E+01 0.85184962184E+01 0.79583365495E+01 0.73422621570E+01 0.67324470223E+01
 0.61774910869E+01 0.57037197815E+01 0.53167884639E+01 0.50102794744E+01 0.47752831208E+01
 0.46065422771E+01 0.45037432502E+01 0.44690715161E+01 0.45037631781E+01 0.46065544176E+01
 0.47752702581E+01 0.50102604464E+01 0.53167990298E+01 0.57037731299E+01 0.61775611910E+01
 0.67324889400E+01 0.73422496229E+01 0.79582843582E+01 0.85184455573E+01 0.89624691710E+01
 0.92455474438E+01 0.93426525090E+01 0.92455472963E+01 0.89625370746E+01 0.85945840841E+01
 0.81436175546E+01 0.76609753266E+01 0.72011605769E+01 0.68039370150E+01 0.64851831057E+01
 0.62398617476E+01 0.60530799734E+01 0.59121837402E+01 0.58136115291E+01 0.57616861733E+01
 0.57616966382E+01 0.58136402749E+01 0.59122188050E+01 0.60531007936E+01 0.62398580416E+01
 0.64851730748E+01 0.68039530183E+01 0.72012093063E+01 0.76610214918E+01 0.81436178738E+01
 0.85945330620E+01 0.89624691710E+01 0.92153717833E+01 0.93427698863E+01 0.93427860714E+01
 0.92154202585E+01 0.90682554117E+01 0.88100633056E+01 0.84999911341E+01 0.81879718812E+01
 0.79227733779E+01 0.77311498905E+01 0.76103806227E+01 0.75366436842E+01 0.74829089301E+01
 0.74352957571E+01 0.73978034270E+01 0.73830942745E+01 0.73977626426E+01 0.74352645199E+01
 0.74829215837E+01 0.75366776697E+01 0.76103931947E+01 0.77311360887E+01 0.79227665667E+01
 0.81879928543E+01 0.85000168250E+01 0.88100516069E+01 0.90681912225E+01 0.92455474438E+01
 0.93427698863E+01 0.93730085694E+01 0.93428320348E+01 0.92456355735E+01 0.92529921634E+01
 0.91415526350E+01 0.90221564589E+01 0.89448158955E+01 0.89448213124E+01 0.90221634780E+01
 0.91415519866E+01 0.92529927822E+01 0.93208677855E+01 0.93427616699E+01 0.93428302682E+01
 0.93427822907E+01 0.93426565788E+01 0.93207806034E+01 0.92529618664E+01 0.91415579440E+01
 0.90221686605E+01 0.89448124071E+01 0.89448077404E+01 0.90221640943E+01 0.91415630501E+01
 0.92529674589E+01 0.93207770841E+01 0.93426525090E+01 0.93427860714E+01 0.93428320348E+01
 0.93427523077E+01 0.93208575314E+01 0.94904075342E+01 0.95842319398E+01 0.97339839361E+01
 0.99795485714E+01 0.10323792034E+02 0.10718773338E+02 0.11082345801E+02 0.11346726485E+02
 0.11497796660E+02 0.11560478570E+02 0.11574905406E+02 0.11560451895E+02 0.11497747309E+02
 0.11346662959E+02 0.11082284325E+02 0.10718731964E+02 0.10323773422E+02 0.99795394577E+01
 0.97339793759E+01 0.95842399008E+01 0.94904147573E+01 0.94083711393E+01 0.93207631724E+01
 0.92455472963E+01 0.92154202585E+01 0.92456355735E+01 0.93208575314E+01 0.94084079572E+01
 0.83720074453E+01 0.89884586204E+01 0.97620790084E+01 0.10662423192E+02 0.11598610689E+02
 0.12454519526E+02 0.13142503251E+02 0.13609908718E+02 0.13861489623E+02 0.13937741996E+02
 0.13861566201E+02 0.13610005798E+02 0.13142555102E+02 0.12454510691E+02 0.11598584713E+02
 0.10662421686E+02 0.97620923279E+01 0.89884587679E+01 0.83720025924E+01 0.78980067504E+01
 0.75366790960E+01 0.72695795829E+01 0.70993464376E+01 0.70400669018E+01 0.70993528837E+01
 0.72695669726E+01 0.75366485984E+01 0.78979899481E+01 0.89884586204E+01 0.99867923453E+01
 0.11179109296E+02 0.12466964881E+02 0.13712835283E+02 0.14774641996E+02 0.15531269545E+02
 0.15957685074E+02 0.16128396586E+02 0.16128419995E+02 0.15957752478E+02 0.15531362662E+02
 0.14774726443E+02 0.13712890520E+02 0.12467000712E+02 0.11179138687E+02 0.99868083162E+01
 0.89884553720E+01 0.82047649160E+01 0.76103964354E+01 0.71722054943E+01 0.68741231638E+01
 0.67202274199E+01 0.67202225517E+01 0.68741063438E+01 0.71721818706E+01 0.76103840445E+01
 0.82047699457E+01 0.97620790084E+01 0.11179109296E+02 0.12774949519E+02 0.14403391403E+02
 0.15871880146E+02 0.16966273158E+02 0.17588362014E+02 0.17829548107E+02 0.17878150365E+02
 0.17829500543E+02 0.17588331228E+02 0.16966310339E+02 0.15871972381E+02 0.14403491487E+02
 0.12775027184E+02 0.11179159127E+02 0.97621019183E+01 0.86121452395E+01 0.77311411131E+01
 0.70812428853E+01 0.66261239066E+01 0.63507982956E+01 0.62577604317E+01 0.63507770763E+01
 0.66260998795E+01 0.70812339773E+01 0.77311457067E+01 0.86121443914E+01 0.10662423192E+02
 0.12466964881E+02 0.14403391403E+02 0.16258645814E+02 0.17728026317E+02 0.18590684527E+02
 0.18888613926E+02 0.18903361090E+02 0.18903322042E+02 0.18888533649E+02 0.18590635362E+02
 0.17728045785E+02 0.16258712486E+02 0.14403463312E+02 0.12467022006E+02 0.10662465375E+02
 0.91274546534E+01 0.79227705150E+01 0.70259784403E+01 0.63880689660E+01 0.59717466885E+01
 0.57634379572E+01 0.57634239767E+01 0.59717224763E+01 0.63880617156E+01 0.70259867842E+01
 0.79227699053E+01 0.91274309811E+01 0.11598610689E+02 0.13712835283E+02 0.15871880146E+02
 0.17728026317E+02 0.18923844362E+02 0.19360561191E+02 0.19315413593E+02 0.19229429830E+02
 0.19315430051E+02 0.19360581473E+02 0.18923858706E+02 0.17728032953E+02 0.15871880164E+02
 0.13712835757E+02 0.11598624827E+02 0.97191358188E+01 0.81879931209E+01 0.70259800509E+01
 0.61875704631E+01 0.56179095538E+01 0.52828081716E+01 0.51713933929E+01 0.52827922558E+01
 0.56179059039E+01 0.61875863467E+01 0.70259882637E+01 0.81879751775E+01 0.97191081733E+01
 0.12454519526E+02 0.14774641996E+02 0.16966273158E+02 0.18590684527E+02 0.19360561191E+02
 0.19402534709E+02 0.19202451999E+02 0.19202503689E+02 0.19402650266E+02 0.19360663626E+02
 0.18590727151E+02 0.16966257108E+02 0.14774595838E+02 0.12454482565E+02 0.10315989796E+02
 0.85000202459E+01 0.70812462882E+01 0.60386835619E+01 0.53117743175E+01 0.48476640688E+01
 0.46192549593E+01 0.46192502213E+01 0.48476653574E+01 0.53117953938E+01 0.60387011934E+01
 0.70812333177E+01 0.84999930459E+01 0.10315989059E+02 0.13142503251E+02 0.15531269545E+02
 0.17588362014E+02 0.18888613926E+02 0.19315413593E+02 0.19202451999E+02 0.19079614852E+02
 0.19202537409E+02 0.19315534068E+02 0.18888713321E+02 0.17588408116E+02 0.15531255780E+02
 0.13142454146E+02 0.10832874646E+02 0.88100722672E+01 0.71722097356E+01 0.59398722641E+01
 0.50616896684E+01 0.44739650326E+01 0.41330227747E+01 0.40206006676E+01 0.41330268342E+01
 0.44739856569E+01 0.50617121195E+01 0.59398632510E+01 0.71721741504E+01 0.88100581124E+01
 0.10832908043E+02 0.13609908718E+02 0.15957685074E+02 0.17829548107E+02 0.18903361090E+02
 0.19229429830E+02 0.19202503689E+02 0.19202537409E+02 0.19229517943E+02 0.18903472310E+02
 0.17829642967E+02 0.15957724058E+02 0.13609879069E+02 0.11219107824E+02 0.90682301998E+01
 0.72695887539E+01 0.58786875716E+01 0.48653830131E+01 0.41653648325E+01 0.37227709113E+01
 0.35066520712E+01 0.35066555772E+01 0.37227871504E+01 0.41653881726E+01 0.48653823185E+01
 0.58786509880E+01 0.72695579552E+01 0.90682516734E+01 0.11219165414E+02 0.13861489623E+02
 0.16128396586E+02 0.17878150365E+02 0.18903322042E+02 0.19315430051E+02 0.19402650266E+02
 0.19315534068E+02 0.18903472310E+02 0.17878273274E+02 0.16128442781E+02 0.13861452345E+02
 0.11462119872E+02 0.92455814092E+01 0.73484461509E+01 0.58400564864E+01 0.47158655959E+01
 0.39192158661E+01 0.33888548649E+01 0.30829284545E+01 0.29824576867E+01 0.30829390387E+01
 0.33888751190E+01 0.39192256060E+01 0.47158422947E+01 0.58400176733E+01 0.73484435267E+01
 0.92456393626E+01 0.11462200414E+02 0.13937741996E+02 0.16128419995E+02 0.17829500543E+02
 0.18888533649E+02 0.19360581473E+02 0.19360663626E+02 0.18888713321E+02 0.17829642967E+02
 0.16128442781E+02 0.13937664132E+02 0.11574809531E+02 0.93427697064E+01 0.73977967554E+01
 0.58136406630E+01 0.46065704151E+01 0.37314978552E+01 0.31279173999E+01 0.27472183305E+01
 0.25619662608E+01 0.25619711396E+01 0.27472319729E+01 0.31279310005E+01 0.37314941235E+01
 0.46065431605E+01 0.58136118382E+01 0.73978041485E+01 0.93428349908E+01 0.11574913028E+02
 0.13861566202E+02 0.15957752478E+02 0.17588331228E+02 0.18590635362E+02 0.18923858706E+02
 0.18590727151E+02 0.17588408116E+02 0.15957724058E+02 0.13861452345E+02 0.11574809531E+02
 0.93729672555E+01 0.74196963001E+01 0.57964956776E+01 0.45339599591E+01 0.35991285173E+01
 0.29362512992E+01 0.24944820625E+01 0.22400831690E+01 0.21567453821E+01 0.22400897875E+01
 0.24944908510E+01 0.29362575290E+01 0.35991269784E+01 0.45339429228E+01 0.57964635040E+01
 0.74196761778E+01 0.93730046281E+01 0.11574916254E+02 0.13610005798E+02 0.15531362662E+02
 0.16966310339E+02 0.17728045785E+02 0.17728032953E+02 0.16966257108E+02 0.15531255780E+02
 0.13609879069E+02 0.11462119872E+02 0.93427697064E+01 0.74196963001E+01 0.57903228643E+01
 0.44974055109E+01 0.35202961701E+01 0.28106880254E+01 0.23192642478E+01 0.20090352068E+01
 0.18584333692E+01 0.18584350524E+01 0.20090370015E+01 0.23192654417E+01 0.28106965142E+01
 0.35203107308E+01 0.44974024697E+01 0.57902829583E+01 0.74196449124E+01 0.93427672549E+01
 0.11462199344E+02 0.13142555102E+02 0.14774726443E+02 0.15871972381E+02 0.16258712486E+02
 0.15871880164E+02 0.14774595838E+02 0.13142454146E+02 0.11219107824E+02 0.92455814092E+01
 0.73977967554E+01 0.57964956776E+01 0.44974055109E+01 0.34941078516E+01 0.27486755752E+01
 0.22166082895E+01 0.18607551769E+01 0.16561194338E+01 0.15892767146E+01 0.16561177098E+01
 0.18607488460E+01 0.22166048062E+01 0.27486881371E+01 0.34941318690E+01 0.44974138872E+01
 0.57964676824E+01 0.73977463740E+01 0.92455519501E+01 0.11219140087E+02 0.12454510691E+02
 0.13712890520E+02 0.14403491487E+02 0.14403463312E+02 0.13712835757E+02 0.12454482565E+02
 0.10832874646E+02 0.90682301998E+01 0.73484461509E+01 0.58136406630E+01 0.45339599591E+01
 0.35202961701E+01 0.27486755752E+01 0.21828507105E+01 0.17885436223E+01 0.15395920551E+01
 0.14191680016E+01 0.14191664105E+01 0.15395860667E+01 0.17885341619E+01 0.21828444771E+01
 0.27486782328E+01 0.35203053459E+01 0.45339671404E+01 0.58136354289E+01 0.73484212978E+01
 0.90681944329E+01 0.10832858202E+02 0.11598584713E+02 0.12467000712E+02 0.12775027184E+02
 0.12467022006E+02 0.11598624827E+02 0.10315989796E+02 0.88100722672E+01 0.72695887539E+01
 0.58400564864E+01 0.46065704151E+01 0.35991285173E+01 0.28106880254E+01 0.22166082895E+01
 0.17885436223E+01 0.15016211029E+01 0.13371710435E+01 0.12836573454E+01 0.13371681283E+01
 0.15016183766E+01 0.17885428693E+01 0.22166049376E+01 0.28106751151E+01 0.35991089998E+01
 0.46065579996E+01 0.58400565592E+01 0.72695858052E+01 0.88100475464E+01 0.10315946601E+02
 0.10662421686E+02 0.11179138687E+02 0.11179159127E+02 0.10662465375E+02 0.97191358188E+01
 0.85000202459E+01 0.71722097356E+01 0.58786875716E+01 0.47158655959E+01 0.37314978552E+01
 0.29362512992E+01 0.23192642478E+01 0.18607551769E+01 0.15395920551E+01 0.13371710435E+01
 0.12396634903E+01 0.12396615619E+01 0.13371692374E+01 0.15395985796E+01 0.18607721711E+01
 0.23192795322E+01 0.29362463943E+01 0.37314693884E+01 0.47158335871E+01 0.58786744154E+01
 0.71722127859E+01 0.85000138835E+01 0.97191031394E+01 0.97620923279E+01 0.99868083162E+01
 0.97621019183E+01 0.91274546534E+01 0.81879931209E+01 0.70812462882E+01 0.59398722641E+01
 0.48653830131E+01 0.39192158661E+01 0.31279173999E+01 0.24944820625E+01 0.20090352068E+01
 0.16561194338E+01 0.14191680016E+01 0.12836573454E+01 0.12396615619E+01 0.12836534093E+01
 0.14191634192E+01 0.16561244008E+01 0.20090606277E+01 0.24945233664E+01 0.31279504251E+01
 0.39192185951E+01 0.48653606705E+01 0.59398515019E+01 0.70812430776E+01 0.81879970443E+01
 0.91274499957E+01 0.89884587679E+01 0.89884553720E+01 0.86121452395E+01 0.79227705150E+01
 0.70259800509E+01 0.60386835619E+01 0.50616896684E+01 0.41653648325E+01 0.33888548649E+01
 0.27472183305E+01 0.22400831690E+01 0.18584333692E+01 0.15892767146E+01 0.14191664105E+01
 0.13371681283E+01 0.13371692374E+01 0.14191634192E+01 0.15892614403E+01 0.18584144834E+01
 0.22400863253E+01 0.27472605348E+01 0.33889208460E+01 0.41654174694E+01 0.50617057902E+01
 0.60386728796E+01 0.70259676391E+01 0.79227695668E+01 0.86121512866E+01 0.83720025924E+01
 0.82047649160E+01 0.77311411131E+01 0.70259784403E+01 0.61875704631E+01 0.53117743175E+01
 0.44739650326E+01 0.37227709113E+01 0.30829284545E+01 0.25619662608E+01 0.21567453821E+01
 0.18584350524E+01 0.16561177098E+01 0.15395860667E+01 0.15016183766E+01 0.15395985796E+01
 0.16561244008E+01 0.18584144834E+01 0.21566972956E+01 0.25619224057E+01 0.30829294364E+01
 0.37228258236E+01 0.44740391303E+01 0.53118221621E+01 0.61875774799E+01 0.70259651032E+01
 0.77311319360E+01 0.82047642807E+01 0.78980067504E+01 0.76103964354E+01 0.70812428853E+01
 0.63880689660E+01 0.56179095538E+01 0.48476640688E+01 0.41330227747E+01 0.35066520712E+01
 0.29824576867E+01 0.25619711396E+01 0.22400897875E+01 0.20090370015E+01 0.18607488460E+01
 0.17885341619E+01 0.17885428693E+01 0.18607721711E+01 0.20090606277E+01 0.22400863253E+01
 0.25619224057E+01 0.29823822797E+01 0.35065983556E+01 0.41330247556E+01 0.48477087570E+01
 0.56179547400E+01 0.63880875877E+01 0.70812404293E+01 0.76103902171E+01 0.78980045590E+01
 0.75366790960E+01 0.71722054943E+01 0.66261239066E+01 0.59717466885E+01 0.52828081716E+01
 0.46192549593E+01 0.40206006676E+01 0.35066555772E+01 0.30829390387E+01 0.27472319729E+01
 0.24944908510E+01 0.23192654417E+01 0.22166048062E+01 0.21828444771E+01 0.22166049376E+01
 0.23192795322E+01 0.24945233664E+01 0.27472605348E+01 0.30829294364E+01 0.35065983556E+01
 0.40205264349E+01 0.46192066191E+01 0.52828016675E+01 0.59717648057E+01 0.66261424782E+01
 0.71722148209E+01 0.75366818038E+01 0.76649273831E+01 0.72695795829E+01 0.68741231638E+01
 0.63507982956E+01 0.57634379572E+01 0.51713933929E+01 0.46192502213E+01 0.41330268342E+01
 0.37227871504E+01 0.33888751190E+01 0.31279310005E+01 0.29362575290E+01 0.28106965142E+01
 0.27486881371E+01 0.27486782328E+01 0.28106751151E+01 0.29362463943E+01 0.31279504251E+01
 0.33889208460E+01 0.37228258236E+01 0.41330247556E+01 0.46192066191E+01 0.51713391840E+01
 0.57634038246E+01 0.63507908405E+01 0.68741299734E+01 0.72695872597E+01 0.74829244807E+01
 0.74829216322E+01 0.70993464376E+01 0.67202274199E+01 0.62577604317E+01 0.57634239767E+01
 0.52827922558E+01 0.48476653574E+01 0.44739856569E+01 0.41653881726E+01 0.39192256060E+01
 0.37314941235E+01 0.35991269784E+01 0.35203107308E+01 0.34941318690E+01 0.35203053459E+01
 0.35991089998E+01 0.37314693884E+01 0.39192185951E+01 0.41654174694E+01 0.44740391303E+01
 0.48477087570E+01 0.52828016675E+01 0.57634038246E+01 0.62577310550E+01 0.67202036403E+01
 0.70993314132E+01 0.73484173696E+01 0.74352602705E+01 0.73484247906E+01 0.70400669018E+01
 0.67202225517E+01 0.63507770763E+01 0.59717224763E+01 0.56179059039E+01 0.53117953938E+01
 0.50617121195E+01 0.48653823185E+01 0.47158422947E+01 0.46065431605E+01 0.45339429228E+01
 0.44974024697E+01 0.44974138872E+01 0.45339671404E+01 0.46065579996E+01 0.47158335871E+01
 0.48653606705E+01 0.50617057902E+01 0.53118221621E+01 0.56179547400E+01 0.59717648057E+01
 0.63507908405E+01 0.67202036403E+01 0.70400267369E+01 0.72743177771E+01 0.73977429992E+01
 0.73977596929E+01 0.72743576496E+01 0.70993528837E+01 0.68741063438E+01 0.66260998795E+01
 0.63880617156E+01 0.61875863467E+01 0.60387011934E+01 0.59398632510E+01 0.58786509880E+01
 0.58400176733E+01 0.58136118382E+01 0.57964635040E+01 0.57902829583E+01 0.57964676824E+01
 0.58136354289E+01 0.58400565592E+01 0.58786744154E+01 0.59398515019E+01 0.60386728796E+01
 0.61875774799E+01 0.63880875877E+01 0.66261424782E+01 0.68741299734E+01 0.70993314132E+01
 0.72743177771E+01 0.73830479212E+01 0.74196482450E+01 0.73830986838E+01 0.72743759138E+01
 0.72695669726E+01 0.71721818706E+01 0.70812339773E+01 0.70259867842E+01 0.70259882637E+01
 0.70812333177E+01 0.71721741504E+01 0.72695579552E+01 0.73484435267E+01 0.73978041485E+01
 0.74196761778E+01 0.74196449124E+01 0.73977463740E+01 0.73484212978E+01 0.72695858052E+01
 0.71722127859E+01 0.70812430776E+01 0.70259676391E+01 0.70259651032E+01 0.70812404293E+01
 0.71722148209E+01 0.72695872597E+01 0.73484173696E+01 0.73977429992E+01 0.74196482450E+01
 0.74196818199E+01 0.73978068969E+01 0.73484475414E+01 0.75366485984E+01 0.76103840445E+01
 0.77311457067E+01 0.79227699053E+01 0.81879751775E+01 0.84999930459E+01 0.88100581124E+01
 0.90682516734E+01 0.92456393626E+01 0.93428349908E+01 0.93730046281E+01 0.93427672549E+01
 0.92455519501E+01 0.90681944329E+01 0.88100475464E+01 0.85000138835E+01 0.81879970443E+01
 0.79227695668E+01 0.77311319360E+01 0.76103902171E+01 0.75366818038E+01 0.74829244807E+01
 0.74352602705E+01 0.73977596929E+01 0.73830986838E+01 0.73978068969E+01 0.74352922987E+01
 0.74829067743E+01 0.78979899481E+01 0.82047699457E+01 0.86121443914E+01 0.91274309811E+01
 0.97191081733E+01 0.10315989059E+02 0.10832908043E+02 0.11219165414E+02 0.11462200414E+02
 0.11574913028E+02 0.11574916254E+02 0.11462199344E+02 0.11219140087E+02 0.10832858202E+02
 0.10315946601E+02 0.97191031394E+01 0.91274499957E+01 0.86121512866E+01 0.82047642807E+01
 0.78980045590E+01 0.76649273831E+01 0.74829216322E+01 0.73484247906E+01 0.72743576496E+01
 0.72743759138E+01 0.73484475414E+01 0.74829067743E+01 0.76648912671E+01 0.73616903691E+01
 0.81631399434E+01 0.91269599366E+01 0.10201868470E+02 0.11285426973E+02 0.12270525080E+02
 0.13066572728E+02 0.13609920584E+02 0.13879856167E+02 0.13879892103E+02 0.13610003436E+02
 0.13066645391E+02 0.12270544644E+02 0.11285405273E+02 0.10201858623E+02 0.91269947635E+01
 0.81631960469E+01 0.73617233637E+01 0.67271624273E+01 0.62398592209E+01 0.58786725861E+01
 0.56342153194E+01 0.55091333016E+01 0.55091194295E+01 0.56341870143E+01 0.58786559965E+01
 0.62398627869E+01 0.67271621035E+01 0.81631399434E+01 0.93356440907E+01 0.10691799561E+02
 0.12121158522E+02 0.13495694639E+02 0.14672101961E+02 0.15531310963E+02 0.16031060289E+02
 0.16191428466E+02 0.16031080684E+02 0.15531358027E+02 0.14672164836E+02 0.13495745039E+02
 0.12121184672E+02 0.10691823856E+02 0.93356908060E+01 0.81631960397E+01 0.72163801244E+01
 0.64851715826E+01 0.59398487134E+01 0.55558118956E+01 0.53237700562E+01 0.52456003440E+01
 0.53237533890E+01 0.55558066020E+01 0.59398650697E+01 0.64851806984E+01 0.72163514393E+01
 0.91269599366E+01 0.10691799561E+02 0.12417423195E+02 0.14166744092E+02 0.15747929851E+02
 0.16966311935E+02 0.17730825544E+02 0.18077341359E+02 0.18077320939E+02 0.17730789838E+02
 0.16966306574E+02 0.15747966464E+02 0.14166792530E+02 0.12417458896E+02 0.10691836623E+02
 0.91270191194E+01 0.78240371877E+01 0.68039512604E+01 0.60386773576E+01 0.54892632139E+01
 0.51290036992E+01 0.49487327433E+01 0.49487263783E+01 0.51290026453E+01 0.54892854912E+01
 0.60386971127E+01 0.68039281425E+01 0.78239752076E+01 0.10201868470E+02 0.12121158522E+02
 0.14166744092E+02 0.16126379671E+02 0.17728048192E+02 0.18793003627E+02 0.19335200195E+02
 0.19490233262E+02 0.19335194951E+02 0.18792995565E+02 0.17728041544E+02 0.16126372684E+02
 0.14166730978E+02 0.12121150074E+02 0.10201892880E+02 0.85368347950E+01 0.72012088519E+01
 0.61875889973E+01 0.54509973910E+01 0.49469686783E+01 0.46495594819E+01 0.45506608010E+01
 0.46495587199E+01 0.49469870391E+01 0.54510237082E+01 0.61875799997E+01 0.72011521516E+01
 0.85367729888E+01 0.11285426973E+02 0.13495694639E+02 0.15747929851E+02 0.17728048192E+02
 0.19150068796E+02 0.19938306451E+02 0.20242263689E+02 0.20242307054E+02 0.19938393636E+02
 0.19150120095E+02 0.17728026118E+02 0.15747855104E+02 0.13495613096E+02 0.11285383763E+02
 0.93055283906E+01 0.76610269947E+01 0.63880934481E+01 0.54510153029E+01 0.47937818440E+01
 0.43722558604E+01 0.41645129844E+01 0.41645133166E+01 0.43722676842E+01 0.47938080532E+01
 0.54510235430E+01 0.63880566444E+01 0.76609717955E+01 0.93055103789E+01 0.12270525080E+02
 0.14672101961E+02 0.16966311935E+02 0.18793003627E+02 0.19938306451E+02 0.20465606872E+02
 0.20600793722E+02 0.20465705885E+02 0.19938410815E+02 0.18793027918E+02 0.16966250058E+02
 0.14672003665E+02 0.12270444723E+02 0.10049918055E+02 0.81436408792E+01 0.66261371454E+01
 0.54892989253E+01 0.46770972245E+01 0.41313353135E+01 0.38140671496E+01 0.37094261702E+01
 0.38140750107E+01 0.41313567083E+01 0.46771151546E+01 0.54892838776E+01 0.66260934871E+01
 0.81436134227E+01 0.10049945264E+02 0.13066572728E+02 0.15531310963E+02 0.17730825544E+02
 0.19335200195E+02 0.20242263689E+02 0.20600793722E+02 0.20600821962E+02 0.20242316961E+02
 0.19335222670E+02 0.17730796802E+02 0.15531251846E+02 0.13066513716E+02 0.10687933336E+02
 0.85945806820E+01 0.68741300513E+01 0.55558321095E+01 0.45965746730E+01 0.39324418004E+01
 0.35117176110E+01 0.33061964639E+01 0.33062013555E+01 0.35117334143E+01 0.39324603064E+01
 0.45965735158E+01 0.55558024199E+01 0.68740962987E+01 0.85945763613E+01 0.10687967910E+02
 0.13609920584E+02 0.16031060289E+02 0.18077341359E+02 0.19490233262E+02 0.20242307054E+02
 0.20465705885E+02 0.20242316961E+02 0.19490232152E+02 0.18077315279E+02 0.16031017082E+02
 0.13609877369E+02 0.11168189542E+02 0.89625256242E+01 0.70993606011E+01 0.56342089516E+01
 0.45463379413E+01 0.37753381216E+01 0.32614872061E+01 0.29649915900E+01 0.28676516287E+01
 0.29650023888E+01 0.32615021121E+01 0.37753428274E+01 0.45463222173E+01 0.56341815734E+01
 0.70993434725E+01 0.89625327899E+01 0.11168219381E+02 0.13879856167E+02 0.16191428466E+02
 0.18077320939E+02 0.19335194951E+02 0.19938393636E+02 0.19938410815E+02 0.19335222670E+02
 0.18077315279E+02 0.16191374663E+02 0.13879782551E+02 0.11462118587E+02 0.92154062754E+01
 0.72743800266E+01 0.57072240496E+01 0.45180708060E+01 0.36569498878E+01 0.30628970662E+01
 0.26881895193E+01 0.25059310977E+01 0.25059366499E+01 0.26882004164E+01 0.30629025531E+01
 0.36569446712E+01 0.45180568926E+01 0.57072073623E+01 0.72743717436E+01 0.92154237406E+01
 0.11462172216E+02 0.13879892103E+02 0.16031080684E+02 0.17730789838E+02 0.18792995565E+02
 0.19150120095E+02 0.18793027918E+02 0.17730796802E+02 0.16031017082E+02 0.13879782551E+02
 0.11560376219E+02 0.93427706249E+01 0.73831204254E+01 0.57617105928E+01 0.45037528102E+01
 0.35732670322E+01 0.29136438666E+01 0.24741049569E+01 0.22210764238E+01 0.21382176154E+01
 0.22210839760E+01 0.24741094696E+01 0.29136432679E+01 0.35732672949E+01 0.45037482970E+01
 0.57616895098E+01 0.73830978434E+01 0.93427908898E+01 0.11560461549E+02 0.13610003436E+02
 0.15531358027E+02 0.16966306574E+02 0.17728041544E+02 0.17728026118E+02 0.16966250058E+02
 0.15531251846E+02 0.13609877369E+02 0.11462118587E+02 0.93427706249E+01 0.74197009990E+01
 0.57903281251E+01 0.44974077255E+01 0.35202967923E+01 0.28106898046E+01 0.23192658618E+01
 0.20090346109E+01 0.18584325894E+01 0.18584364731E+01 0.20090385909E+01 0.23192647761E+01
 0.28106958926E+01 0.35203132384E+01 0.44974065735E+01 0.57902859034E+01 0.74196476756E+01
 0.93427711309E+01 0.11462201498E+02 0.13066645391E+02 0.14672164836E+02 0.15747966464E+02
 0.16126372684E+02 0.15747855104E+02 0.14672003665E+02 0.13066513716E+02 0.11168189542E+02
 0.92154062754E+01 0.73831204254E+01 0.57903281251E+01 0.44956445173E+01 0.34947536047E+01
 0.27507525032E+01 0.22195002758E+01 0.18639817174E+01 0.16593856930E+01 0.15925218736E+01
 0.16593885258E+01 0.18639787600E+01 0.22194991606E+01 0.27507714578E+01 0.34947840574E+01
 0.44956468379E+01 0.57902791364E+01 0.73830495019E+01 0.92153741937E+01 0.11168240416E+02
 0.12270544644E+02 0.13495745039E+02 0.14166792530E+02 0.14166730978E+02 0.13495613096E+02
 0.12270444723E+02 0.10687933336E+02 0.89625256242E+01 0.72743800266E+01 0.57617105928E+01
 0.44974077255E+01 0.34947536047E+01 0.27311291102E+01 0.21708589912E+01 0.17799856201E+01
 0.15327940723E+01 0.14130381227E+01 0.14130387469E+01 0.15327909039E+01 0.17799766301E+01
 0.21708580914E+01 0.27311496509E+01 0.34947853336E+01 0.44974220213E+01 0.57616861626E+01
 0.72743229464E+01 0.89624755025E+01 0.10687946585E+02 0.11285405273E+02 0.12121184672E+02
 0.12417458896E+02 0.12121150074E+02 0.11285383763E+02 0.10049918055E+02 0.85945806820E+01
 0.70993606011E+01 0.57072240496E+01 0.45037528102E+01 0.35202967923E+01 0.27507525032E+01
 0.21708589912E+01 0.17525507140E+01 0.14715494449E+01 0.13100874760E+01 0.12574591836E+01
 0.13100853053E+01 0.14715428673E+01 0.17525415730E+01 0.21708536412E+01 0.27507564057E+01
 0.35203115040E+01 0.45037722237E+01 0.57072300500E+01 0.70993358810E+01 0.85945368308E+01
 0.10049895651E+02 0.10201858623E+02 0.10691823856E+02 0.10691836623E+02 0.10201892880E+02
 0.93055283906E+01 0.81436408792E+01 0.68741300513E+01 0.56342089516E+01 0.45180708060E+01
 0.35732670322E+01 0.28106898046E+01 0.22195002758E+01 0.17799856201E+01 0.14715494449E+01
 0.12766196870E+01 0.11824974313E+01 0.11824961210E+01 0.12766176235E+01 0.14715496278E+01
 0.17799865466E+01 0.22194951326E+01 0.28106760552E+01 0.35732548063E+01 0.45180728034E+01
 0.56342207094E+01 0.68741302068E+01 0.81436155839E+01 0.93054875999E+01 0.91269947635E+01
 0.93356908060E+01 0.91270191194E+01 0.85368347950E+01 0.76610269947E+01 0.66261371454E+01
 0.55558321095E+01 0.45463379413E+01 0.36569498878E+01 0.29136438666E+01 0.23192658618E+01
 0.18639817174E+01 0.15327940723E+01 0.13100874760E+01 0.11824974313E+01 0.11410251027E+01
 0.11824952352E+01 0.13100885667E+01 0.15328044236E+01 0.18639994602E+01 0.23192782251E+01
 0.29136376338E+01 0.36569272783E+01 0.45463173012E+01 0.55558278377E+01 0.66261417457E+01
 0.76610199023E+01 0.85368095845E+01 0.81631960469E+01 0.81631960397E+01 0.78240371877E+01
 0.72012088519E+01 0.63880934481E+01 0.54892989253E+01 0.45965746730E+01 0.37753381216E+01
 0.30628970662E+01 0.24741049569E+01 0.20090346109E+01 0.16593856930E+01 0.14130381227E+01
 0.12574591836E+01 0.11824961210E+01 0.11824952352E+01 0.12574558278E+01 0.14130344654E+01
 0.16593913127E+01 0.20090589195E+01 0.24741423067E+01 0.30629255529E+01 0.37753400664E+01
 0.45965559667E+01 0.54892813316E+01 0.63880895160E+01 0.72012127265E+01 0.78240394207E+01
 0.73617233637E+01 0.72163801244E+01 0.68039512604E+01 0.61875889973E+01 0.54510153029E+01
 0.46770972245E+01 0.39324418004E+01 0.32614872061E+01 0.26881895193E+01 0.22210764238E+01
 0.18584325894E+01 0.15925218736E+01 0.14130387469E+01 0.13100853053E+01 0.12766176235E+01
 0.13100885667E+01 0.14130344654E+01 0.15925035621E+01 0.18584124329E+01 0.22210795546E+01
 0.26882286165E+01 0.32615447035E+01 0.39324837390E+01 0.46771056697E+01 0.54510025303E+01
 0.61875794686E+01 0.68039554363E+01 0.72163887468E+01 0.67271624273E+01 0.64851715826E+01
 0.60386773576E+01 0.54509973910E+01 0.47937818440E+01 0.41313353135E+01 0.35117176110E+01
 0.29649915900E+01 0.25059310977E+01 0.21382176154E+01 0.18584364731E+01 0.16593885258E+01
 0.15327909039E+01 0.14715428673E+01 0.14715496278E+01 0.15328044236E+01 0.16593913127E+01
 0.18584124329E+01 0.21381711751E+01 0.25058927692E+01 0.29649943857E+01 0.35117638548E+01
 0.41313925686E+01 0.47938154857E+01 0.54510020328E+01 0.60386718733E+01 0.64851705109E+01
 0.67271636034E+01 0.62398592209E+01 0.59398487134E+01 0.54892632139E+01 0.49469686783E+01
 0.43722558604E+01 0.38140671496E+01 0.33061964639E+01 0.28676516287E+01 0.25059366499E+01
 0.22210839760E+01 0.20090385909E+01 0.18639787600E+01 0.17799766301E+01 0.17525415730E+01
 0.17799865466E+01 0.18639994602E+01 0.20090589195E+01 0.22210795546E+01 0.25058927692E+01
 0.28675864112E+01 0.33061510800E+01 0.38140678920E+01 0.43722908317E+01 0.49470050834E+01
 0.54892807370E+01 0.59398502258E+01 0.62398564765E+01 0.63453148844E+01 0.58786725861E+01
 0.55558118956E+01 0.51290036992E+01 0.46495594819E+01 0.41645129844E+01 0.37094261702E+01
 0.33062013555E+01 0.29650023888E+01 0.26882004164E+01 0.24741094696E+01 0.23192647761E+01
 0.22194991606E+01 0.21708580914E+01 0.21708536412E+01 0.22194951326E+01 0.23192782251E+01
 0.24741423067E+01 0.26882286165E+01 0.29649943857E+01 0.33061510800E+01 0.37093635387E+01
 0.41644767194E+01 0.46495618146E+01 0.51290253705E+01 0.55558279135E+01 0.58786757552E+01
 0.60531041682E+01 0.60531051942E+01 0.56342153194E+01 0.53237700562E+01 0.49487327433E+01
 0.45506608010E+01 0.41645133166E+01 0.38140750107E+01 0.35117334143E+01 0.32615021121E+01
 0.30629025531E+01 0.29136432679E+01 0.28106958926E+01 0.27507714578E+01 0.27311496509E+01
 0.27507564057E+01 0.28106760552E+01 0.29136376338E+01 0.30629255529E+01 0.32615447035E+01
 0.35117638548E+01 0.38140678920E+01 0.41644767194E+01 0.45506271634E+01 0.49487232931E+01
 0.53237769539E+01 0.56342203258E+01 0.58400578248E+01 0.59122214521E+01 0.58400588609E+01
 0.55091333016E+01 0.52456003440E+01 0.49487263783E+01 0.46495587199E+01 0.43722676842E+01
 0.41313567083E+01 0.39324603064E+01 0.37753428274E+01 0.36569446712E+01 0.35732672949E+01
 0.35203132384E+01 0.34947840574E+01 0.34947853336E+01 0.35203115040E+01 0.35732548063E+01
 0.36569272783E+01 0.37753400664E+01 0.39324837390E+01 0.41313925686E+01 0.43722908317E+01
 0.46495618146E+01 0.49487232931E+01 0.52456013688E+01 0.55091328783E+01 0.57072284754E+01
 0.58136344323E+01 0.58136389916E+01 0.57072350968E+01 0.55091194295E+01 0.53237533890E+01
 0.51290026453E+01 0.49469870391E+01 0.47938080532E+01 0.46771151546E+01 0.45965735158E+01
 0.45463222173E+01 0.45180568926E+01 0.45037482970E+01 0.44974065735E+01 0.44956468379E+01
 0.44974220213E+01 0.45037722237E+01 0.45180728034E+01 0.45463173012E+01 0.45965559667E+01
 0.46771056697E+01 0.47938154857E+01 0.49470050834E+01 0.51290253705E+01 0.53237769539E+01
 0.55091328783E+01 0.56616753533E+01 0.57616851376E+01 0.57964684904E+01 0.57616979183E+01
 0.56616806813E+01 0.56341870143E+01 0.55558066020E+01 0.54892854912E+01 0.54510237082E+01
 0.54510235430E+01 0.54892838776E+01 0.55558024199E+01 0.56341815734E+01 0.57072073623E+01
 0.57616895098E+01 0.57902859034E+01 0.57902791364E+01 0.57616861626E+01 0.57072300500E+01
 0.56342207094E+01 0.55558278377E+01 0.54892813316E+01 0.54510025303E+01 0.54510020328E+01
 0.54892807370E+01 0.55558279135E+01 0.56342203258E+01 0.57072284754E+01 0.57616851376E+01
 0.57902805457E+01 0.57902892423E+01 0.57616935396E+01 0.57072121768E+01 0.58786559965E+01
 0.59398650697E+01 0.60386971127E+01 0.61875799997E+01 0.63880566444E+01 0.66260934871E+01
 0.68740962987E+01 0.70993434725E+01 0.72743717436E+01 0.73830978434E+01 0.74196476756E+01
 0.73830495019E+01 0.72743229464E+01 0.70993358810E+01 0.68741302068E+01 0.66261417457E+01
 0.63880895160E+01 0.61875794686E+01 0.60386718733E+01 0.59398502258E+01 0.58786757552E+01
 0.58400578248E+01 0.58136344323E+01 0.57964684904E+01 0.57902892423E+01 0.57964718769E+01
 0.58136178143E+01 0.58400223706E+01 0.62398627869E+01 0.64851806984E+01 0.68039281425E+01
 0.72011521516E+01 0.76609717955E+01 0.81436134227E+01 0.85945763613E+01 0.89625327899E+01
 0.92154237406E+01 0.93427908898E+01 0.93427711309E+01 0.92153741937E+01 0.89624755025E+01
 0.85945368308E+01 0.81436155839E+01 0.76610199023E+01 0.72012127265E+01 0.68039554363E+01
 0.64851705109E+01 0.62398564765E+01 0.60531041682E+01 0.59122214521E+01 0.58136389916E+01
 0.57616979183E+01 0.57616935396E+01 0.58136178143E+01 0.59121837450E+01 0.60530787491E+01
 0.67271621035E+01 0.72163514393E+01 0.78239752076E+01 0.85367729888E+01 0.93055103789E+01
 0.10049945264E+02 0.10687967910E+02 0.11168219381E+02 0.11462172216E+02 0.11560461549E+02
 0.11462201498E+02 0.11168240416E+02 0.10687946585E+02 0.10049895651E+02 0.93054875999E+01
 0.85368095845E+01 0.78240394207E+01 0.72163887468E+01 0.67271636034E+01 0.63453148844E+01
 0.60531051942E+01 0.58400588609E+01 0.57072350968E+01 0.56616806813E+01 0.57072121768E+01
 0.58400223706E+01 0.60530787491E+01 0.63453127998E+01 0.66823485308E+01 0.76301186986E+01
 0.87435449066E+01 0.99605382666E+01 0.11173511736E+02 0.12270506652E+02 0.13142479568E+02
 0.13699854682E+02 0.13890903643E+02 0.13699906574E+02 0.13142545819E+02 0.12270537909E+02
 0.11173482466E+02 0.99604707125E+01 0.87434989674E+01 0.76301420577E+01 0.66824268184E+01
 0.59156142366E+01 0.53167953059E+01 0.48653562226E+01 0.45463038409E+01 0.43541946142E+01
 0.42897685662E+01 0.43541941452E+01 0.45463208479E+01 0.48653803024E+01 0.53167824327E+01
 0.59155460171E+01 0.76301186986E+01 0.89426899143E+01 0.10436098775E+02 0.11997472531E+02
 0.13495723916E+02 0.14774692295E+02 0.15694074179E+02 0.16169457254E+02 0.16169461758E+02
 0.15694089501E+02 0.14774716678E+02 0.13495739998E+02 0.11997455416E+02 0.10436051495E+02
 0.89426604071E+01 0.76301528657E+01 0.65510131002E+01 0.57037670021E+01 0.50617037566E+01
 0.45965395336E+01 0.42905648184E+01 0.41376848857E+01 0.41376885512E+01 0.42905850577E+01
 0.45965733841E+01 0.50617094875E+01 0.57037128942E+01 0.65509345109E+01 0.87435449066E+01
 0.10436098775E+02 0.12289502446E+02 0.14166809599E+02 0.15871982951E+02 0.17203978102E+02
 0.18032376708E+02 0.18310519253E+02 0.18032365091E+02 0.17203960376E+02 0.15871966590E+02
 0.14166790504E+02 0.12289466748E+02 0.10436055299E+02 0.87435365231E+01 0.73139804007E+01
 0.61775565839E+01 0.53118255913E+01 0.46770988407E+01 0.42397489224E+01 0.39811567441E+01
 0.38952274765E+01 0.39811712941E+01 0.42397790624E+01 0.46771157935E+01 0.53117903672E+01
 0.61774813145E+01 0.73139278647E+01 0.99605382666E+01 0.11997472531E+02 0.14166809599E+02
 0.16258766073E+02 0.18014422679E+02 0.19237543440E+02 0.19850535248E+02 0.19850551303E+02
 0.19237565254E+02 0.18014407756E+02 0.16258707084E+02 0.14166729714E+02 0.11997396547E+02
 0.99604915426E+01 0.81798948800E+01 0.67324940990E+01 0.56179559212E+01 0.47938249857E+01
 0.42116767212E+01 0.38366480724E+01 0.36516781955E+01 0.36516838976E+01 0.38366654963E+01
 0.42116923131E+01 0.47938082355E+01 0.56178997239E+01 0.67324387935E+01 0.81798874695E+01
 0.11173511736E+02 0.13495723916E+02 0.15871982951E+02 0.18014422679E+02 0.19652016108E+02
 0.20642305006E+02 0.20968049864E+02 0.20642362281E+02 0.19652050091E+02 0.18014373518E+02
 0.15871872328E+02 0.13495611869E+02 0.11173436074E+02 0.90893991284E+01 0.73422731292E+01
 0.59717555113E+01 0.49470169261E+01 0.42116980350E+01 0.37152022318E+01 0.34259986157E+01
 0.33306259926E+01 0.34260058843E+01 0.37152109234E+01 0.42116924774E+01 0.49469872875E+01
 0.59717180153E+01 0.73422591903E+01 0.90894284198E+01 0.12270506653E+02 0.14774692295E+02
 0.17203978102E+02 0.19237543440E+02 0.20642305006E+02 0.21339546908E+02 0.21339560533E+02
 0.20642312569E+02 0.19237493648E+02 0.17203875132E+02 0.14774590527E+02 0.12270446169E+02
 0.99550292149E+01 0.79583323975E+01 0.63507816450E+01 0.51290185049E+01 0.42397929093E+01
 0.36220535383E+01 0.32297989011E+01 0.30381522682E+01 0.30381553051E+01 0.32298038413E+01
 0.36220518034E+01 0.42397812121E+01 0.51290040235E+01 0.63507739223E+01 0.79583356268E+01
 0.99550517000E+01 0.13142479568E+02 0.15694074179E+02 0.18032376708E+02 0.19850535248E+02
 0.20968049864E+02 0.21339560533E+02 0.20967989896E+02 0.19850427985E+02 0.18032257344E+02
 0.15693990197E+02 0.13142455557E+02 0.10687938425E+02 0.85185127926E+01 0.67202191658E+01
 0.53237491263E+01 0.42905926152E+01 0.35576254126E+01 0.30682687570E+01 0.27858311664E+01
 0.26931670790E+01 0.27858360411E+01 0.30682689212E+01 0.35576192821E+01 0.42905907128E+01
 0.53237550371E+01 0.67202186221E+01 0.85184946572E+01 0.10687921603E+02 0.13699854682E+02
 0.16169457254E+02 0.18310519253E+02 0.19850551303E+02 0.20642362281E+02 0.20642312569E+02
 0.19850427985E+02 0.18310381637E+02 0.16169361689E+02 0.13699827323E+02 0.11219112237E+02
 0.89625315653E+01 0.70400769183E+01 0.55091063231E+01 0.43541878854E+01 0.35188095559E+01
 0.29421701433E+01 0.25784264640E+01 0.24016564072E+01 0.24016601347E+01 0.25784291309E+01
 0.29421641590E+01 0.35188071242E+01 0.43542010889E+01 0.55091198773E+01 0.70400635966E+01
 0.89624923924E+01 0.11219085032E+02 0.13890903643E+02 0.16169461758E+02 0.18032365091E+02
 0.19237565254E+02 0.19652050091E+02 0.19237493648E+02 0.18032257344E+02 0.16169361689E+02
 0.13890843232E+02 0.11497717035E+02 0.92455851102E+01 0.72743849128E+01 0.56616758460E+01
 0.44179304344E+01 0.34999928970E+01 0.28495337353E+01 0.24162426157E+01 0.21670557538E+01
 0.20855359875E+01 0.21670600294E+01 0.24162381419E+01 0.28495255915E+01 0.35000015118E+01
 0.44179526086E+01 0.56616804368E+01 0.72743581207E+01 0.92455553739E+01 0.11497724667E+02
 0.13699906574E+02 0.15694089501E+02 0.17203960377E+02 0.18014407756E+02 0.18014373518E+02
 0.17203875132E+02 0.15693990197E+02 0.13699827323E+02 0.11497717035E+02 0.93426783432E+01
 0.73978025456E+01 0.57617154372E+01 0.44690605378E+01 0.34941078141E+01 0.27866192971E+01
 0.22969323804E+01 0.19880815568E+01 0.18383109600E+01 0.18383141997E+01 0.19880813474E+01
 0.22969225642E+01 0.27866187180E+01 0.34941287885E+01 0.44690778388E+01 0.57616982523E+01
 0.73977631975E+01 0.93426616432E+01 0.11497751336E+02 0.13142545819E+02 0.14774716678E+02
 0.15871966590E+02 0.16258707084E+02 0.15871872328E+02 0.14774590527E+02 0.13142455557E+02
 0.11219112237E+02 0.92455851102E+01 0.73978025456E+01 0.57965048951E+01 0.44974123058E+01
 0.34941083803E+01 0.27486746469E+01 0.22166102802E+01 0.18607567173E+01 0.16561175621E+01
 0.15892755661E+01 0.16561203313E+01 0.18607509388E+01 0.22166034220E+01 0.27486881251E+01
 0.34941368728E+01 0.44974192487E+01 0.57964688866E+01 0.73977461321E+01 0.92455524367E+01
 0.11219136903E+02 0.12270537909E+02 0.13495739998E+02 0.14166790504E+02 0.14166729714E+02
 0.13495611869E+02 0.12270446169E+02 0.10687938425E+02 0.89625315653E+01 0.72743849128E+01
 0.57617154372E+01 0.44974123058E+01 0.34947552487E+01 0.27311275060E+01 0.21708574777E+01
 0.17799858629E+01 0.15327940296E+01 0.14130368481E+01 0.14130383617E+01 0.15327921126E+01
 0.17799771553E+01 0.21708573599E+01 0.27311502180E+01 0.34947878132E+01 0.44974233078E+01
 0.57616844787E+01 0.72743200444E+01 0.89624722974E+01 0.10687941478E+02 0.11173482466E+02
 0.11997455416E+02 0.12289466748E+02 0.11997396547E+02 0.11173436074E+02 0.99550292149E+01
 0.85185127926E+01 0.70400769183E+01 0.56616758460E+01 0.44690605378E+01 0.34941083803E+01
 0.27311275060E+01 0.21560735153E+01 0.17410392786E+01 0.14619878080E+01 0.13014869841E+01
 0.12491380283E+01 0.13014852884E+01 0.14619805475E+01 0.17410294899E+01 0.21560728182E+01
 0.27311450642E+01 0.34941412482E+01 0.44690904577E+01 0.56616743917E+01 0.70400298088E+01
 0.85184497455E+01 0.99550097340E+01 0.99604707125E+01 0.10436051495E+02 0.10436055299E+02
 0.99604915426E+01 0.90893991284E+01 0.79583323975E+01 0.67202191658E+01 0.55091063231E+01
 0.44179304344E+01 0.34941078141E+01 0.27486746469E+01 0.21708574777E+01 0.17410392786E+01
 0.14389692711E+01 0.12476925010E+01 0.11551811048E+01 0.11551793066E+01 0.12476877478E+01
 0.14389623891E+01 0.17410300398E+01 0.21708477121E+01 0.27486738475E+01 0.34941282856E+01
 0.44179682646E+01 0.55091329580E+01 0.67202065299E+01 0.79582865195E+01 0.90893544823E+01
 0.87434989674E+01 0.89426604071E+01 0.87435365231E+01 0.81798948800E+01 0.73422731292E+01
 0.63507816450E+01 0.53237491263E+01 0.43541878854E+01 0.34999928970E+01 0.27866192971E+01
 0.22166102802E+01 0.17799858629E+01 0.14619878080E+01 0.12476925010E+01 0.11246435379E+01
 0.10845894070E+01 0.11246406756E+01 0.12476911485E+01 0.14619890028E+01 0.17799831628E+01
 0.22165975532E+01 0.27866026533E+01 0.34999893316E+01 0.43542069580E+01 0.53237774696E+01
 0.63507912036E+01 0.73422475085E+01 0.81798467987E+01 0.76301420577E+01 0.76301528657E+01
 0.73139804007E+01 0.67324940990E+01 0.59717555113E+01 0.51290185049E+01 0.42905926152E+01
 0.35188095559E+01 0.28495337353E+01 0.22969323804E+01 0.18607567173E+01 0.15327940296E+01
 0.13014869841E+01 0.11551811048E+01 0.10845894070E+01 0.10845884630E+01 0.11551800084E+01
 0.13014896086E+01 0.15328025473E+01 0.18607672971E+01 0.22969357076E+01 0.28495236960E+01
 0.35187927257E+01 0.42905843430E+01 0.51290250219E+01 0.59717638154E+01 0.67324871220E+01
 0.73139607981E+01 0.66824268184E+01 0.65510131002E+01 0.61775565839E+01 0.56179559212E+01
 0.49470169261E+01 0.42397929093E+01 0.35576254126E+01 0.29421701433E+01 0.24162426157E+01
 0.19880815568E+01 0.16561175621E+01 0.14130368481E+01 0.12491380283E+01 0.11551793066E+01
 0.11246406756E+01 0.11551800084E+01 0.12491357364E+01 0.14130323838E+01 0.16561201688E+01
 0.19880995583E+01 0.24162701823E+01 0.29421890448E+01 0.35576234814E+01 0.42397771408E+01
 0.49470044383E+01 0.56179553982E+01 0.61775632950E+01 0.65510186052E+01 0.59156142366E+01
 0.57037670021E+01 0.53118255913E+01 0.47938249857E+01 0.42116980350E+01 0.36220535383E+01
 0.30682687570E+01 0.25784264640E+01 0.21670557538E+01 0.18383109600E+01 0.15892755661E+01
 0.14130383617E+01 0.13014852884E+01 0.12476877478E+01 0.12476911485E+01 0.13014896086E+01
 0.14130323838E+01 0.15892566521E+01 0.18382928317E+01 0.21670589633E+01 0.25784576400E+01
 0.30683107715E+01 0.36220803858E+01 0.42116999888E+01 0.47938157759E+01 0.53118239136E+01
 0.57037752813E+01 0.59156197175E+01 0.53167953059E+01 0.50617037566E+01 0.46770988407E+01
 0.42116767212E+01 0.37152022318E+01 0.32297989011E+01 0.27858311664E+01 0.24016564072E+01
 0.20855359875E+01 0.18383141997E+01 0.16561203313E+01 0.15327921126E+01 0.14619805475E+01
 0.14389623891E+01 0.14619890028E+01 0.15328025473E+01 0.16561201688E+01 0.18382928317E+01
 0.20854985772E+01 0.24016266706E+01 0.27858325966E+01 0.32298312283E+01 0.37152415682E+01
 0.42117007933E+01 0.46771062777E+01 0.50617059104E+01 0.53167976383E+01 0.54062857716E+01
 0.48653562226E+01 0.45965395336E+01 0.42397489224E+01 0.38366480724E+01 0.34259986157E+01
 0.30381522682E+01 0.26931670790E+01 0.24016601347E+01 0.21670600294E+01 0.19880813474E+01
 0.18607509388E+01 0.17799771553E+01 0.17410294899E+01 0.17410300398E+01 0.17799831628E+01
 0.18607672971E+01 0.19880995583E+01 0.21670589633E+01 0.24016266706E+01 0.26931149740E+01
 0.30381140016E+01 0.34259958040E+01 0.38366733780E+01 0.42397780542E+01 0.45965556543E+01
 0.48653597007E+01 0.50102592169E+01 0.50102595956E+01 0.45463038409E+01 0.42905648184E+01
 0.39811567441E+01 0.36516781955E+01 0.33306259926E+01 0.30381553051E+01 0.27858360411E+01
 0.25784291309E+01 0.24162381419E+01 0.22969225642E+01 0.22166034220E+01 0.21708573599E+01
 0.21560728182E+01 0.21708477121E+01 0.22165975532E+01 0.22969357076E+01 0.24162701823E+01
 0.25784576400E+01 0.27858325966E+01 0.30381140016E+01 0.33305730878E+01 0.36516483438E+01
 0.39811605319E+01 0.42905840218E+01 0.45463167120E+01 0.47158342457E+01 0.47752729055E+01
 0.47158315237E+01 0.43541946142E+01 0.41376848857E+01 0.38952274765E+01 0.36516838976E+01
 0.34260058843E+01 0.32298038413E+01 0.30682689212E+01 0.29421641590E+01 0.28495255915E+01
 0.27866187180E+01 0.27486881251E+01 0.27311502180E+01 0.27311450642E+01 0.27486738475E+01
 0.27866026533E+01 0.28495236960E+01 0.29421890448E+01 0.30683107715E+01 0.32298312283E+01
 0.34259958040E+01 0.36516483438E+01 0.38952001837E+01 0.41376833970E+01 0.43542071905E+01
 0.45180731968E+01 0.46065600385E+01 0.46065578086E+01 0.45180640983E+01 0.42897685662E+01
 0.41376885512E+01 0.39811712941E+01 0.38366654963E+01 0.37152109234E+01 0.36220518034E+01
 0.35576192821E+01 0.35188071242E+01 0.35000015118E+01 0.34941287885E+01 0.34941368728E+01
 0.34947878132E+01 0.34941412482E+01 0.34941282856E+01 0.34999893316E+01 0.35187927257E+01
 0.35576234814E+01 0.36220803858E+01 0.37152415682E+01 0.38366733780E+01 0.39811605319E+01
 0.41376833970E+01 0.42897794981E+01 0.44179703912E+01 0.45037729285E+01 0.45339684687E+01
 0.45037642656E+01 0.44179546953E+01 0.43541941452E+01 0.42905850577E+01 0.42397790624E+01
 0.42116923131E+01 0.42116924774E+01 0.42397812121E+01 0.42905907128E+01 0.43542010889E+01
 0.44179526086E+01 0.44690778388E+01 0.44974192487E+01 0.44974233078E+01 0.44690904577E+01
 0.44179682646E+01 0.43542069580E+01 0.42905843430E+01 0.42397771408E+01 0.42116999888E+01
 0.42117007933E+01 0.42397780542E+01 0.42905840218E+01 0.43542071905E+01 0.44179703912E+01
 0.44690920317E+01 0.44974216811E+01 0.44974153970E+01 0.44690735274E+01 0.44179471380E+01
 0.45463208479E+01 0.45965733841E+01 0.46771157935E+01 0.47938082355E+01 0.49469872875E+01
 0.51290040235E+01 0.53237550371E+01 0.55091198773E+01 0.56616804368E+01 0.57616982523E+01
 0.57964688866E+01 0.57616844787E+01 0.56616743917E+01 0.55091329580E+01 0.53237774696E+01
 0.51290250219E+01 0.49470044383E+01 0.47938157759E+01 0.46771062777E+01 0.45965556543E+01
 0.45463167120E+01 0.45180731968E+01 0.45037729285E+01 0.44974216811E+01 0.44956459736E+01
 0.44974063939E+01 0.45037482108E+01 0.45180557583E+01 0.48653803024E+01 0.50617094875E+01
 0.53117903672E+01 0.56178997239E+01 0.59717180153E+01 0.63507739223E+01 0.67202186221E+01
 0.70400635966E+01 0.72743581207E+01 0.73977631975E+01 0.73977461321E+01 0.72743200444E+01
 0.70400298088E+01 0.67202065299E+01 0.63507912036E+01 0.59717638154E+01 0.56179553982E+01
 0.53118239136E+01 0.50617059104E+01 0.48653597007E+01 0.47158342457E+01 0.46065600385E+01
 0.45339684687E+01 0.44974153970E+01 0.44974063939E+01 0.45339476281E+01 0.46065448653E+01
 0.47158408588E+01 0.53167824327E+01 0.57037128942E+01 0.61774813145E+01 0.67324387935E+01
 0.73422591903E+01 0.79583356268E+01 0.85184946572E+01 0.89624923924E+01 0.92455553739E+01
 0.93426616432E+01 0.92455524367E+01 0.89624722974E+01 0.85184497455E+01 0.79582865195E+01
 0.73422475085E+01 0.67324871220E+01 0.61775632950E+01 0.57037752813E+01 0.53167976383E+01
 0.50102592169E+01 0.47752729055E+01 0.46065578086E+01 0.45037642656E+01 0.44690735274E+01
 0.45037482108E+01 0.46065448653E+01 0.47752789001E+01 0.50102721463E+01 0.59155460171E+01
 0.65509345109E+01 0.73139278647E+01 0.81798874695E+01 0.90894284198E+01 0.99550517000E+01
 0.10687921603E+02 0.11219085032E+02 0.11497724667E+02 0.11497751336E+02 0.11219136903E+02
 0.10687941478E+02 0.99550097340E+01 0.90893544823E+01 0.81798467987E+01 0.73139607981E+01
 0.65510186052E+01 0.59156197175E+01 0.54062857716E+01 0.50102595956E+01 0.47158315237E+01
 0.45180640983E+01 0.44179546953E+01 0.44179471380E+01 0.45180557583E+01 0.47158408588E+01
 0.50102721463E+01 0.54062622924E+01 0.62851021342E+01 0.73641971463E+01 0.86135953421E+01
 0.99605311345E+01 0.11285404854E+02 0.12454471090E+02 0.13331668927E+02 0.13802337132E+02
 0.13802355383E+02 0.13331708868E+02 0.12454502035E+02 0.11285399218E+02 0.99604712770E+01
 0.86134897720E+01 0.73640986152E+01 0.62850758168E+01 0.54001736079E+01 0.47006409369E+01
 0.41654142404E+01 0.37753288519E+01 0.35187828368E+01 0.33910567262E+01 0.33910633801E+01
 0.35188023189E+01 0.37753434972E+01 0.41653881233E+01 0.47005713829E+01 0.54001203790E+01
 0.73641971463E+01 0.88094986189E+01 0.10436103623E+02 0.12121199319E+02 0.13712892104E+02
 0.15028864702E+02 0.15896789677E+02 0.16199599217E+02 0.15896787420E+02 0.15028858619E+02
 0.13712884640E+02 0.12121183406E+02 0.10436055045E+02 0.88094120430E+01 0.73641188288E+01
 0.61615191866E+01 0.52065487884E+01 0.44740369472E+01 0.39324769269E+01 0.35576057264E+01
 0.33360092203E+01 0.32625130542E+01 0.33360206442E+01 0.35576187765E+01 0.39324652585E+01
 0.44739881683E+01 0.52065019630E+01 0.61615328355E+01 0.86135953421E+01 0.10436103623E+02
 0.12417494964E+02 0.14403530857E+02 0.16178263047E+02 0.17511102921E+02 0.18223533725E+02
 0.18223530115E+02 0.17511084296E+02 0.16178225828E+02 0.14403491558E+02 0.12417462522E+02
 0.10436060686E+02 0.86135336952E+01 0.70592338976E+01 0.58100980028E+01 0.48477025911E+01
 0.41313963492E+01 0.36220649172E+01 0.32930381835E+01 0.31308606841E+01 0.31308639854E+01
 0.32930429577E+01 0.36220560059E+01 0.41313636957E+01 0.48476669078E+01 0.58100996648E+01
 0.70592830308E+01 0.99605311345E+01 0.12121199319E+02 0.14403530857E+02 0.16585269477E+02
 0.18390052690E+02 0.19574291977E+02 0.19985565318E+02 0.19574299133E+02 0.18390030947E+02
 0.16585207875E+02 0.14403463338E+02 0.12121153950E+02 0.99604964184E+01 0.80589286679E+01
 0.64981315621E+01 0.52827860739E+01 0.43722955922E+01 0.37152418517E+01 0.32696631535E+01
 0.30098926483E+01 0.29243007435E+01 0.30098908446E+01 0.32696506792E+01 0.37152159348E+01
 0.43722731150E+01 0.52827916635E+01 0.64981671692E+01 0.80589702979E+01 0.11285404854E+02
 0.13712892104E+02 0.16178263047E+02 0.18390052690E+02 0.20048028285E+02 0.20931105457E+02
 0.20931104772E+02 0.20048006765E+02 0.18389987441E+02 0.16178176473E+02 0.13712833083E+02
 0.11285387334E+02 0.90894036935E+01 0.72343466204E+01 0.57633837193E+01 0.46495478680E+01
 0.38366857765E+01 0.32696735447E+01 0.29089503891E+01 0.27328090933E+01 0.27328070041E+01
 0.29089385507E+01 0.32696500819E+01 0.38366700508E+01 0.46495634872E+01 0.57634243817E+01
 0.72343790570E+01 0.90894137585E+01 0.12454471090E+02 0.15028864702E+02 0.17511102921E+02
 0.19574291978E+02 0.20931105457E+02 0.21402652711E+02 0.20931035222E+02 0.19574179376E+02
 0.17510996601E+02 0.15028811828E+02 0.12454483439E+02 0.10049925337E+02 0.79583380954E+01
 0.62577247600E+01 0.49486854475E+01 0.39811633137E+01 0.32930598565E+01 0.28327319925E+01
 0.25671054759E+01 0.24800550795E+01 0.25670998989E+01 0.28327142042E+01 0.32930437236E+01
 0.39811783277E+01 0.49487327874E+01 0.62577626058E+01 0.79583292629E+01 0.10049886562E+02
 0.13331668927E+02 0.15896789677E+02 0.18223533725E+02 0.19985565318E+02 0.20931104772E+02
 0.20931035222E+02 0.19985406339E+02 0.18223388430E+02 0.15896731241E+02 0.13331702314E+02
 0.10832881819E+02 0.85945913328E+01 0.67202247326E+01 0.52455586463E+01 0.41376586592E+01
 0.33360229590E+01 0.27819468682E+01 0.24324697733E+01 0.22628747418E+01 0.22628742913E+01
 0.24324611523E+01 0.27819303917E+01 0.33360253552E+01 0.41376982691E+01 0.52456061933E+01
 0.67202279094E+01 0.85945342221E+01 0.10832804213E+02 0.13802337132E+02 0.16199599217E+02
 0.18223530115E+02 0.19574299133E+02 0.20048006765E+02 0.19574179376E+02 0.18223388430E+02
 0.16199530185E+02 0.13802358711E+02 0.11346689316E+02 0.90682371488E+01 0.70993690407E+01
 0.55091089388E+01 0.42897338000E+01 0.33910517588E+01 0.27540616977E+01 0.23298675570E+01
 0.20862911958E+01 0.20067301063E+01 0.20862897086E+01 0.23298550512E+01 0.27540505843E+01
 0.33910693451E+01 0.42897765238E+01 0.55091348735E+01 0.70993443455E+01 0.90681693283E+01
 0.11346618133E+02 0.13802355383E+02 0.15896787420E+02 0.17511084296E+02 0.18390030947E+02
 0.18389987441E+02 0.17510996601E+02 0.15896731241E+02 0.13802358711E+02 0.11525914223E+02
 0.93208118345E+01 0.73484491262E+01 0.57072282557E+01 0.44179299125E+01 0.34476395654E+01
 0.27439101548E+01 0.22571258790E+01 0.19505944656E+01 0.18022406855E+01 0.18022414101E+01
 0.19505884785E+01 0.22571101885E+01 0.27439055653E+01 0.34476612553E+01 0.44179585683E+01
 0.57072333140E+01 0.73484236596E+01 0.93207694516E+01 0.11525875692E+02 0.13331708868E+02
 0.15028858619E+02 0.16178225828E+02 0.16585207875E+02 0.16178176473E+02 0.15028811828E+02
 0.13331702314E+02 0.11346689316E+02 0.93208118345E+01 0.74352823358E+01 0.58136444251E+01
 0.45037557302E+01 0.34941060538E+01 0.27445348286E+01 0.22099215755E+01 0.18528951655E+01
 0.16479926331E+01 0.15811620694E+01 0.16479916927E+01 0.18528845525E+01 0.22099079855E+01
 0.27445364343E+01 0.34941223870E+01 0.45037662120E+01 0.58136369604E+01 0.74352612546E+01
 0.93207834947E+01 0.11346665639E+02 0.12454502035E+02 0.13712884640E+02 0.14403491558E+02
 0.14403463338E+02 0.13712833083E+02 0.12454483439E+02 0.10832881819E+02 0.90682371488E+01
 0.73484491262E+01 0.58136444251E+01 0.45339662005E+01 0.35202985725E+01 0.27486720051E+01
 0.21828482116E+01 0.17885456964E+01 0.15395929360E+01 0.14191648718E+01 0.14191650871E+01
 0.15395891135E+01 0.17885356098E+01 0.21828419005E+01 0.27486778745E+01 0.35203096474E+01
 0.45339692680E+01 0.58136317382E+01 0.73484172541E+01 0.90681928468E+01 0.10832853838E+02
 0.11285399218E+02 0.12121183406E+02 0.12417462522E+02 0.12121153950E+02 0.11285387334E+02
 0.10049925337E+02 0.85945913328E+01 0.70993690407E+01 0.57072282557E+01 0.45037557302E+01
 0.35202985725E+01 0.27507499383E+01 0.21708533827E+01 0.17525476479E+01 0.14715497960E+01
 0.13100868108E+01 0.12574566473E+01 0.13100847213E+01 0.14715445201E+01 0.17525414912E+01
 0.21708517047E+01 0.27507565911E+01 0.35203133146E+01 0.45037703868E+01 0.57072236021E+01
 0.70993293337E+01 0.85945317663E+01 0.10049889561E+02 0.99604712770E+01 0.10436055045E+02
 0.10436060686E+02 0.99604964184E+01 0.90894036935E+01 0.79583380954E+01 0.67202247326E+01
 0.55091089388E+01 0.44179299125E+01 0.34941060538E+01 0.27486720051E+01 0.21708533827E+01
 0.17410353117E+01 0.14389677103E+01 0.12476926087E+01 0.11551804913E+01 0.11551780395E+01
 0.12476875416E+01 0.14389628484E+01 0.17410294519E+01 0.21708465046E+01 0.27486734704E+01
 0.34941276743E+01 0.44179652438E+01 0.55091283015E+01 0.67202029842E+01 0.79582847427E+01
 0.90893535098E+01 0.86134897720E+01 0.88094120430E+01 0.86135336952E+01 0.80589286679E+01
 0.72343466204E+01 0.62577247600E+01 0.52455586463E+01 0.42897338000E+01 0.34476395654E+01
 0.27445348286E+01 0.21828482116E+01 0.17525476479E+01 0.14389677103E+01 0.12274457457E+01
 0.11058676325E+01 0.10662661685E+01 0.11058626178E+01 0.12274415960E+01 0.14389645967E+01
 0.17525377970E+01 0.21828302731E+01 0.27445242189E+01 0.34476557512E+01 0.42897762494E+01
 0.52456002904E+01 0.62577327171E+01 0.72343102777E+01 0.80588694205E+01 0.73640986152E+01
 0.73641188288E+01 0.70592338976E+01 0.64981315621E+01 0.57633837193E+01 0.49486854475E+01
 0.41376586592E+01 0.33910517588E+01 0.27439101548E+01 0.22099215755E+01 0.17885456964E+01
 0.14715497960E+01 0.12476926087E+01 0.11058676325E+01 0.10373438755E+01 0.10373419872E+01
 0.11058651059E+01 0.12476932191E+01 0.14715498775E+01 0.17885365757E+01 0.22099008548E+01
 0.27438888924E+01 0.33910486514E+01 0.41376833403E+01 0.49487239635E+01 0.57634043353E+01
 0.64981140730E+01 0.70591948016E+01 0.62850758168E+01 0.61615191866E+01 0.58100980028E+01
 0.52827860739E+01 0.46495478680E+01 0.39811633137E+01 0.33360229590E+01 0.27540616977E+01
 0.22571258790E+01 0.18528951655E+01 0.15395929360E+01 0.13100868108E+01 0.11551804913E+01
 0.10662661685E+01 0.10373419872E+01 0.10662668881E+01 0.11551816599E+01 0.13100887604E+01
 0.15395959757E+01 0.18528965923E+01 0.22571195672E+01 0.27540453709E+01 0.33360059353E+01
 0.39811601651E+01 0.46495607759E+01 0.52828000014E+01 0.58100993365E+01 0.61615129957E+01
 0.54001736079E+01 0.52065487884E+01 0.48477025911E+01 0.43722955922E+01 0.38366857765E+01
 0.32930598565E+01 0.27819468682E+01 0.23298675570E+01 0.19505944656E+01 0.16479926331E+01
 0.14191648718E+01 0.12574566473E+01 0.11551780395E+01 0.11058626178E+01 0.11058651059E+01
 0.11551816599E+01 0.12574553947E+01 0.14191599650E+01 0.16479928363E+01 0.19506052358E+01
 0.23298821901E+01 0.27819521700E+01 0.32930507845E+01 0.38366713306E+01 0.43722890554E+01
 0.48477082697E+01 0.52065594765E+01 0.54001787405E+01 0.47006409369E+01 0.44740369472E+01
 0.41313963492E+01 0.37152418517E+01 0.32696735447E+01 0.28327319925E+01 0.24324697733E+01
 0.20862911958E+01 0.18022406855E+01 0.15811620694E+01 0.14191650871E+01 0.13100847213E+01
 0.12476875416E+01 0.12274415960E+01 0.12476932191E+01 0.13100887604E+01 0.14191599650E+01
 0.15811483420E+01 0.18022288724E+01 0.20862938490E+01 0.24324891406E+01 0.28327558267E+01
 0.32696862820E+01 0.37152407048E+01 0.41313927938E+01 0.44740407895E+01 0.47006479501E+01
 0.47800134950E+01 0.41654142404E+01 0.39324769269E+01 0.36220649172E+01 0.32696631535E+01
 0.29089503891E+01 0.25671054759E+01 0.22628747418E+01 0.20067301063E+01 0.18022414101E+01
 0.16479916927E+01 0.15395891135E+01 0.14715445201E+01 0.14389628484E+01 0.14389645967E+01
 0.14715498775E+01 0.15395959757E+01 0.16479928363E+01 0.18022288724E+01 0.20067057901E+01
 0.22628539357E+01 0.25671042675E+01 0.29089692727E+01 0.32696874934E+01 0.36220815276E+01
 0.39324846764E+01 0.41654179181E+01 0.42906513826E+01 0.42906500100E+01 0.37753288519E+01
 0.35576057264E+01 0.32930381835E+01 0.30098926483E+01 0.27328090933E+01 0.24800550795E+01
 0.22628742913E+01 0.20862897086E+01 0.19505884785E+01 0.18528845525E+01 0.17885356098E+01
 0.17525414912E+01 0.17410294519E+01 0.17525377970E+01 0.17885365757E+01 0.18528965923E+01
 0.19506052358E+01 0.20862938490E+01 0.22628539357E+01 0.24800184586E+01 0.27327792683E+01
 0.30098863694E+01 0.32930520911E+01 0.35576236419E+01 0.37753390043E+01 0.39192168891E+01
 0.39695870633E+01 0.39192143304E+01 0.35187828368E+01 0.33360092203E+01 0.31308606841E+01
 0.29243007435E+01 0.27328070041E+01 0.25670998989E+01 0.24324611523E+01 0.23298550512E+01
 0.22571101885E+01 0.22099079855E+01 0.21828419005E+01 0.21708517047E+01 0.21708465046E+01
 0.21828302731E+01 0.22099008548E+01 0.22571195672E+01 0.23298821901E+01 0.24324891406E+01
 0.25671042675E+01 0.27327792683E+01 0.29242591681E+01 0.31308327606E+01 0.33360051357E+01
 0.35187912418E+01 0.36569255373E+01 0.37314688899E+01 0.37314670149E+01 0.36569186935E+01
 0.33910567262E+01 0.32625130542E+01 0.31308639854E+01 0.30098908446E+01 0.29089385507E+01
 0.28327142042E+01 0.27819303917E+01 0.27540505843E+01 0.27439055653E+01 0.27445364343E+01
 0.27486778745E+01 0.27507565911E+01 0.27486734704E+01 0.27445242189E+01 0.27438888924E+01
 0.27540453709E+01 0.27819521700E+01 0.28327558267E+01 0.29089692727E+01 0.30098863694E+01
 0.31308327606E+01 0.32624844811E+01 0.33910482962E+01 0.34999891452E+01 0.35732547893E+01
 0.35991106125E+01 0.35732483457E+01 0.34999833535E+01 0.33910633801E+01 0.33360206442E+01
 0.32930429577E+01 0.32696506792E+01 0.32696500819E+01 0.32930437236E+01 0.33360253552E+01
 0.33910693451E+01 0.34476612553E+01 0.34941223870E+01 0.35203096474E+01 0.35203133146E+01
 0.34941276743E+01 0.34476557512E+01 0.33910486514E+01 0.33360059353E+01 0.32930507845E+01
 0.32696862820E+01 0.32696874934E+01 0.32930520911E+01 0.33360051357E+01 0.33910482962E+01
 0.34476580007E+01 0.34941293746E+01 0.35203111769E+01 0.35203056272E+01 0.34941191645E+01
 0.34476573076E+01 0.35188023189E+01 0.35576187765E+01 0.36220560059E+01 0.37152159348E+01
 0.38366700508E+01 0.39811783277E+01 0.41376982691E+01 0.42897765238E+01 0.44179585683E+01
 0.45037662120E+01 0.45339692680E+01 0.45037703868E+01 0.44179652438E+01 0.42897762494E+01
 0.41376833403E+01 0.39811601651E+01 0.38366713306E+01 0.37152407048E+01 0.36220815276E+01
 0.35576236419E+01 0.35187912418E+01 0.34999891452E+01 0.34941293746E+01 0.34941393371E+01
 0.34947815075E+01 0.34941298343E+01 0.34941232567E+01 0.34999960648E+01 0.37753434972E+01
 0.39324652585E+01 0.41313636957E+01 0.43722731150E+01 0.46495634872E+01 0.49487327874E+01
 0.52456061933E+01 0.55091348735E+01 0.57072333140E+01 0.58136369604E+01 0.58136317382E+01
 0.57072236021E+01 0.55091283015E+01 0.52456002904E+01 0.49487239635E+01 0.46495607759E+01
 0.43722890554E+01 0.41313927938E+01 0.39324846764E+01 0.37753390043E+01 0.36569255373E+01
 0.35732547893E+01 0.35203111769E+01 0.34947815075E+01 0.34947784863E+01 0.35203097996E+01
 0.35732658825E+01 0.36569434477E+01 0.41653881233E+01 0.44739881683E+01 0.48476669078E+01
 0.52827916635E+01 0.57634243817E+01 0.62577626058E+01 0.67202279094E+01 0.70993443455E+01
 0.73484236596E+01 0.74352612546E+01 0.73484172541E+01 0.70993293337E+01 0.67202029842E+01
 0.62577327171E+01 0.57634043353E+01 0.52828000014E+01 0.48477082697E+01 0.44740407895E+01
 0.41654179181E+01 0.39192168891E+01 0.37314688899E+01 0.35991106125E+01 0.35203056272E+01
 0.34941298343E+01 0.35203097996E+01 0.35991282167E+01 0.37314943070E+01 0.39192239349E+01
 0.47005713829E+01 0.52065019630E+01 0.58100996648E+01 0.64981671692E+01 0.72343790570E+01
 0.79583292629E+01 0.85945342221E+01 0.90681693283E+01 0.93207694516E+01 0.93207834947E+01
 0.90681928468E+01 0.85945317663E+01 0.79582847427E+01 0.72343102777E+01 0.64981140730E+01
 0.58100993365E+01 0.52065594765E+01 0.47006479501E+01 0.42906513826E+01 0.39695870633E+01
 0.37314670149E+01 0.35732483457E+01 0.34941191645E+01 0.34941232567E+01 0.35732658825E+01
 0.37314943070E+01 0.39695932522E+01 0.42906080927E+01 0.54001203790E+01 0.61615328355E+01
 0.70592830308E+01 0.80589702979E+01 0.90894137585E+01 0.10049886562E+02 0.10832804213E+02
 0.11346618133E+02 0.11525875692E+02 0.11346665639E+02 0.10832853838E+02 0.10049889561E+02
 0.90893535098E+01 0.80588694205E+01 0.70591948016E+01 0.61615129957E+01 0.54001787405E+01
 0.47800134950E+01 0.42906500100E+01 0.39192143304E+01 0.36569186935E+01 0.34999833535E+01
 0.34476573076E+01 0.34999960648E+01 0.36569434477E+01 0.39192239349E+01 0.42906080927E+01
 0.47799308683E+01 0.61532193866E+01 0.73641850330E+01 0.87435263187E+01 0.10201849533E+02
 0.11598572345E+02 0.12768736350E+02 0.13552719980E+02 0.13829166612E+02 0.13552728207E+02
 0.12768744465E+02 0.11598581485E+02 0.10201857923E+02 0.87435045951E+01 0.73641034324E+01
 0.61531023438E+01 0.51469240738E+01 0.43436232835E+01 0.37228241809E+01 0.32615412555E+01
 0.29421823605E+01 0.27540563752E+01 0.26918658230E+01 0.27540496460E+01 0.29421646357E+01
 0.32615081106E+01 0.37227924973E+01 0.43436369962E+01 0.51470084540E+01 0.73641850330E+01
 0.89426672032E+01 0.10691802906E+02 0.12466998648E+02 0.14081200523E+02 0.15322620561E+02
 0.15999807888E+02 0.15999800106E+02 0.15322598065E+02 0.14081177224E+02 0.12467000334E+02
 0.10691827938E+02 0.89426689530E+01 0.73641236108E+01 0.60321269894E+01 0.49620615150E+01
 0.41330148440E+01 0.35117654481E+01 0.30683032251E+01 0.27819498263E+01 0.26411848220E+01
 0.26411784560E+01 0.27819301270E+01 0.30682730124E+01 0.35117429272E+01 0.41330340068E+01
 0.49621394052E+01 0.60322284861E+01 0.87435263187E+01 0.10691802906E+02 0.12775020482E+02
 0.14803314916E+02 0.16529630772E+02 0.17695609976E+02 0.18107989157E+02 0.17695593038E+02
 0.16529597738E+02 0.14803288213E+02 0.12775031080E+02 0.10691843936E+02 0.87435453008E+01
 0.70592371796E+01 0.56879579152E+01 0.46191854834E+01 0.38140684170E+01 0.32298338513E+01
 0.28327451358E+01 0.26015293019E+01 0.25254938228E+01 0.26015132974E+01 0.28327157283E+01
 0.32298103099E+01 0.38140841480E+01 0.46192540653E+01 0.56880439663E+01 0.70592811515E+01
 0.10201849533E+02 0.12466998648E+02 0.14803314916E+02 0.16958920087E+02 0.18629068988E+02
 0.19542836545E+02 0.19542829691E+02 0.18629046220E+02 0.16958887469E+02 0.14803298956E+02
 0.12467023238E+02 0.10201897846E+02 0.81799006470E+01 0.64981324629E+01 0.51713126570E+01
 0.41644628768E+01 0.34260077059E+01 0.29089663003E+01 0.25799026122E+01 0.24195109811E+01
 0.24195032430E+01 0.25798788462E+01 0.29089387747E+01 0.34260103559E+01 0.41645180660E+01
 0.51713922890E+01 0.64981767027E+01 0.81798818300E+01 0.11598572345E+02 0.14081200523E+02
 0.16529630772E+02 0.18629068988E+02 0.20052194265E+02 0.20556195018E+02 0.20052154998E+02
 0.18629017449E+02 0.16529600661E+02 0.14081212572E+02 0.11598621801E+02 0.93055314715E+01
 0.73422771080E+01 0.57633832465E+01 0.45505939411E+01 0.36516537336E+01 0.30099005401E+01
 0.25799017422E+01 0.23320733136E+01 0.22509998307E+01 0.23320601665E+01 0.25798770287E+01
 0.30098886089E+01 0.36516865567E+01 0.45506635329E+01 0.57634364584E+01 0.73422718624E+01
 0.93054804800E+01 0.12768736350E+02 0.15322620561E+02 0.17695609976E+02 0.19542836546E+02
 0.20556195018E+02 0.20556149938E+02 0.19542744341E+02 0.17695550620E+02 0.15322631799E+02
 0.12768798793E+02 0.10315989268E+02 0.81436466527E+01 0.63507858864E+01 0.49486841989E+01
 0.38951859685E+01 0.31308548690E+01 0.26015275803E+01 0.22678381215E+01 0.21062390585E+01
 0.21062350408E+01 0.22678231271E+01 0.26015096861E+01 0.31308625099E+01 0.38952319411E+01
 0.49487364418E+01 0.63507978119E+01 0.81436046405E+01 0.10315917185E+02 0.13552719980E+02
 0.15999807888E+02 0.18107989157E+02 0.19542829691E+02 0.20052154998E+02 0.19542744341E+02
 0.18107912006E+02 0.15999813082E+02 0.13552793731E+02 0.11082338573E+02 0.88100756916E+01
 0.68741369647E+01 0.53237511741E+01 0.41376554072E+01 0.32624968188E+01 0.26411835448E+01
 0.22274877558E+01 0.19904218813E+01 0.19131408196E+01 0.19904159564E+01 0.22274734235E+01
 0.26411749795E+01 0.32625137690E+01 0.41376902639E+01 0.53237714544E+01 0.68741191965E+01
 0.88100177306E+01 0.11082253528E+02 0.13829166613E+02 0.15999800106E+02 0.17695593038E+02
 0.18629046220E+02 0.18629017449E+02 0.17695550620E+02 0.15999813082E+02 0.13829237923E+02
 0.11496636794E+02 0.92529848262E+01 0.72695893185E+01 0.56342111020E+01 0.43541845057E+01
 0.33910460098E+01 0.26918646370E+01 0.22082757929E+01 0.19043317245E+01 0.17576020465E+01
 0.17576002645E+01 0.19043234366E+01 0.22082631561E+01 0.26918610684E+01 0.33910567373E+01
 0.43541963673E+01 0.56342106564E+01 0.72695712146E+01 0.92529390628E+01 0.11496560305E+02
 0.13552728207E+02 0.15322598065E+02 0.16529597738E+02 0.16958887469E+02 0.16529600661E+02
 0.15322631799E+02 0.13552793731E+02 0.11496636794E+02 0.94083932585E+01 0.74829142109E+01
 0.58400527767E+01 0.45180684057E+01 0.34999860221E+01 0.27439039638E+01 0.22047686170E+01
 0.18453498071E+01 0.16396374351E+01 0.15726796174E+01 0.16396329138E+01 0.18453399558E+01
 0.22047585043E+01 0.27438985623E+01 0.34999815131E+01 0.45180620824E+01 0.58400512319E+01
 0.74829145702E+01 0.94083712052E+01 0.11496578798E+02 0.12768744465E+02 0.14081177224E+02
 0.14803288213E+02 0.14803298956E+02 0.14081212572E+02 0.12768798793E+02 0.11082338573E+02
 0.92529848262E+01 0.74829142109E+01 0.59122133484E+01 0.46065693578E+01 0.35732651935E+01
 0.27866129668E+01 0.22099170826E+01 0.18086493782E+01 0.15559654740E+01 0.14340416941E+01
 0.14340392747E+01 0.15559593625E+01 0.18086425990E+01 0.22099105759E+01 0.27866020565E+01
 0.35732477076E+01 0.46065558975E+01 0.59122156232E+01 0.74829215523E+01 0.92529697218E+01
 0.11082292144E+02 0.11598581485E+02 0.12467000334E+02 0.12775031080E+02 0.12467023238E+02
 0.11598621801E+02 0.10315989268E+02 0.88100756916E+01 0.72695893185E+01 0.58400527767E+01
 0.46065693578E+01 0.35991316725E+01 0.28106885956E+01 0.22166047912E+01 0.17885428666E+01
 0.15016245368E+01 0.13371717976E+01 0.12836539221E+01 0.13371673712E+01 0.15016217828E+01
 0.17885436056E+01 0.22166015092E+01 0.28106743373E+01 0.35991123313E+01 0.46065585894E+01
 0.58400529381E+01 0.72695848606E+01 0.88100508343E+01 0.10315947353E+02 0.10201857923E+02
 0.10691827938E+02 0.10691843936E+02 0.10201897846E+02 0.93055314715E+01 0.81436466527E+01
 0.68741369647E+01 0.56342111020E+01 0.45180684057E+01 0.35732651935E+01 0.28106885956E+01
 0.22194959723E+01 0.17799800953E+01 0.14715480873E+01 0.12766214066E+01 0.11824966748E+01
 0.11824932793E+01 0.12766175715E+01 0.14715516575E+01 0.17799857942E+01 0.22194923339E+01
 0.28106757932E+01 0.35732556880E+01 0.45180695159E+01 0.56342143817E+01 0.68741267836E+01
 0.81436154483E+01 0.93054866619E+01 0.87435045951E+01 0.89426689530E+01 0.87435453008E+01
 0.81799006470E+01 0.73422771080E+01 0.63507858864E+01 0.53237511741E+01 0.43541845057E+01
 0.34999860221E+01 0.27866129668E+01 0.22166047912E+01 0.17799800953E+01 0.14619838940E+01
 0.12476925876E+01 0.11246449969E+01 0.10845887099E+01 0.11246390870E+01 0.12476914567E+01
 0.14619898588E+01 0.17799819312E+01 0.22165954822E+01 0.27866018457E+01 0.34999878799E+01
 0.43542026042E+01 0.53237730029E+01 0.63507907925E+01 0.73422506175E+01 0.81798508285E+01
 0.73641034324E+01 0.73641236108E+01 0.70592371796E+01 0.64981324629E+01 0.57633832465E+01
 0.49486841989E+01 0.41376554072E+01 0.33910460098E+01 0.27439039638E+01 0.22099170826E+01
 0.17885428666E+01 0.14715480873E+01 0.12476925876E+01 0.11058692159E+01 0.10373452039E+01
 0.10373418997E+01 0.11058647719E+01 0.12476937234E+01 0.14715502818E+01 0.17885359418E+01
 0.22098999943E+01 0.27438884834E+01 0.33910478620E+01 0.41376820472E+01 0.49487241354E+01
 0.57634073880E+01 0.64981188200E+01 0.70591996011E+01 0.61531023438E+01 0.60321269894E+01
 0.56879579152E+01 0.51713126570E+01 0.45505939411E+01 0.38951859685E+01 0.32624968188E+01
 0.26918646370E+01 0.22047686170E+01 0.18086493782E+01 0.15016245368E+01 0.12766214066E+01
 0.11246449969E+01 0.10373452039E+01 0.10089310378E+01 0.10373440227E+01 0.11246450967E+01
 0.12766227865E+01 0.15016229405E+01 0.18086396479E+01 0.22047491025E+01 0.26918416872E+01
 0.32624861041E+01 0.38952014098E+01 0.45506291052E+01 0.51713409636E+01 0.56879610902E+01
 0.60321168880E+01 0.51469240738E+01 0.49620615150E+01 0.46191854834E+01 0.41644628768E+01
 0.36516537336E+01 0.31308548690E+01 0.26411835448E+01 0.22082757929E+01 0.18453498071E+01
 0.15559654740E+01 0.13371717976E+01 0.11824966748E+01 0.10845887099E+01 0.10373418997E+01
 0.10373440227E+01 0.10845928569E+01 0.11824991015E+01 0.13371719132E+01 0.15559650544E+01
 0.18453470456E+01 0.22082643056E+01 0.26411616677E+01 0.31308334104E+01 0.36516478287E+01
 0.41644755356E+01 0.46192048267E+01 0.49620748996E+01 0.51469282391E+01 0.43436232835E+01
 0.41330148440E+01 0.38140684170E+01 0.34260077059E+01 0.30099005401E+01 0.26015275803E+01
 0.22274877558E+01 0.19043317245E+01 0.16396374351E+01 0.14340416941E+01 0.12836539221E+01
 0.11824932793E+01 0.11246390870E+01 0.11058647719E+01 0.11246450967E+01 0.11824991015E+01
 0.12836548398E+01 0.14340399125E+01 0.16396384579E+01 0.19043363843E+01 0.22274898319E+01
 0.26015202518E+01 0.30098848503E+01 0.34259935699E+01 0.38140659500E+01 0.41330241086E+01
 0.43436334683E+01 0.44173280068E+01 0.37228241809E+01 0.35117654481E+01 0.32298338513E+01
 0.29089663003E+01 0.25799017422E+01 0.22678381215E+01 0.19904218813E+01 0.17576020465E+01
 0.15726796174E+01 0.14340392747E+01 0.13371673712E+01 0.12766175715E+01 0.12476914567E+01
 0.12476937234E+01 0.12766227865E+01 0.13371719132E+01 0.14340399125E+01 0.15726759444E+01
 0.17575978590E+01 0.19904229471E+01 0.22678459562E+01 0.25799103716E+01 0.29089686697E+01
 0.32298309902E+01 0.35117647081E+01 0.37228280913E+01 0.38361068758E+01 0.38361041250E+01
 0.32615412555E+01 0.30683032251E+01 0.28327451358E+01 0.25799026122E+01 0.23320733136E+01
 0.21062390585E+01 0.19131408196E+01 0.17576002645E+01 0.16396329138E+01 0.15559593625E+01
 0.15016217828E+01 0.14715516575E+01 0.14619898588E+01 0.14715502818E+01 0.15016229405E+01
 0.15559650544E+01 0.16396384579E+01 0.17575978590E+01 0.19131291597E+01 0.21062269532E+01
 0.23320710566E+01 0.25799113296E+01 0.28327573755E+01 0.30683122365E+01 0.32615459500E+01
 0.33889215926E+01 0.34334511161E+01 0.33889196490E+01 0.29421823605E+01 0.27819498263E+01
 0.26015293019E+01 0.24195109811E+01 0.22509998307E+01 0.21062350408E+01 0.19904159564E+01
 0.19043234366E+01 0.18453399558E+01 0.18086425990E+01 0.17885436056E+01 0.17799857942E+01
 0.17799819312E+01 0.17885359418E+01 0.18086396479E+01 0.18453470456E+01 0.19043363843E+01
 0.19904229471E+01 0.21062269532E+01 0.22509795581E+01 0.24194913624E+01 0.26015211051E+01
 0.27819527907E+01 0.29421885096E+01 0.30629237983E+01 0.31279480400E+01 0.31279473034E+01
 0.30629203570E+01 0.27540563752E+01 0.26411848220E+01 0.25254938228E+01 0.24195032430E+01
 0.23320601665E+01 0.22678231271E+01 0.22274734235E+01 0.22082631561E+01 0.22047585043E+01
 0.22099105759E+01 0.22166015092E+01 0.22194923339E+01 0.22165954822E+01 0.22098999943E+01
 0.22047491025E+01 0.22082643056E+01 0.22274898319E+01 0.22678459562E+01 0.23320710566E+01
 0.24194913624E+01 0.25254669231E+01 0.26411602485E+01 0.27540438068E+01 0.28495214557E+01
 0.29136351534E+01 0.29362451607E+01 0.29136352452E+01 0.28495246619E+01 0.26918658230E+01
 0.26411784560E+01 0.26015132974E+01 0.25798788462E+01 0.25798770287E+01 0.26015096861E+01
 0.26411749795E+01 0.26918610684E+01 0.27438985623E+01 0.27866020565E+01 0.28106743373E+01
 0.28106757932E+01 0.27866018457E+01 0.27438884834E+01 0.26918416872E+01 0.26411616677E+01
 0.26015202518E+01 0.25799103716E+01 0.25799113296E+01 0.26015211051E+01 0.26411602485E+01
 0.26918397480E+01 0.27438882067E+01 0.27866021206E+01 0.28106756896E+01 0.28106763531E+01
 0.27866079204E+01 0.27439054517E+01 0.27540496460E+01 0.27819301270E+01 0.28327157283E+01
 0.29089387747E+01 0.30098886089E+01 0.31308625099E+01 0.32625137690E+01 0.33910567373E+01
 0.34999815131E+01 0.35732477076E+01 0.35991123313E+01 0.35732556880E+01 0.34999878799E+01
 0.33910478620E+01 0.32624861041E+01 0.31308334104E+01 0.30098848503E+01 0.29089686697E+01
 0.28327573755E+01 0.27819527907E+01 0.27540438068E+01 0.27438882067E+01 0.27445256902E+01
 0.27486741134E+01 0.27507552477E+01 0.27486776483E+01 0.27445385399E+01 0.27439068451E+01
 0.29421646357E+01 0.30682730124E+01 0.32298103099E+01 0.34260103559E+01 0.36516865567E+01
 0.38952319411E+01 0.41376902639E+01 0.43541963673E+01 0.45180620824E+01 0.46065558975E+01
 0.46065585894E+01 0.45180695159E+01 0.43542026042E+01 0.41376820472E+01 0.38952014098E+01
 0.36516478287E+01 0.34259935699E+01 0.32298309902E+01 0.30683122365E+01 0.29421885096E+01
 0.28495214557E+01 0.27866021206E+01 0.27486741134E+01 0.27311420946E+01 0.27311448019E+01
 0.27486850462E+01 0.27866187200E+01 0.28495256223E+01 0.32615081106E+01 0.35117429272E+01
 0.38140841480E+01 0.41645180660E+01 0.45506635329E+01 0.49487364418E+01 0.53237714544E+01
 0.56342106564E+01 0.58400512319E+01 0.59122156232E+01 0.58400529381E+01 0.56342143817E+01
 0.53237730029E+01 0.49487241354E+01 0.45506291052E+01 0.41644755356E+01 0.38140659500E+01
 0.35117647081E+01 0.32615459500E+01 0.30629237983E+01 0.29136351534E+01 0.28106756896E+01
 0.27507552477E+01 0.27311448019E+01 0.27507668569E+01 0.28106964965E+01 0.29136474617E+01
 0.30629068817E+01 0.37227924973E+01 0.41330340068E+01 0.46192540653E+01 0.51713922890E+01
 0.57634364584E+01 0.63507978119E+01 0.68741191965E+01 0.72695712146E+01 0.74829145702E+01
 0.74829215523E+01 0.72695848606E+01 0.68741267836E+01 0.63507907925E+01 0.57634073880E+01
 0.51713409636E+01 0.46192048267E+01 0.41330241086E+01 0.37228280913E+01 0.33889215926E+01
 0.31279480400E+01 0.29362451607E+01 0.28106763531E+01 0.27486776483E+01 0.27486850462E+01
 0.28106964965E+01 0.29362627310E+01 0.31279367414E+01 0.33888790180E+01 0.43436369962E+01
 0.49621394052E+01 0.56880439663E+01 0.64981767027E+01 0.73422718624E+01 0.81436046405E+01
 0.88100177306E+01 0.92529390628E+01 0.94083712052E+01 0.92529697218E+01 0.88100508343E+01
 0.81436154483E+01 0.73422506175E+01 0.64981188200E+01 0.56879610902E+01 0.49620748996E+01
 0.43436334683E+01 0.38361068758E+01 0.34334511161E+01 0.31279473034E+01 0.29136352452E+01
 0.27866079204E+01 0.27445385399E+01 0.27866187200E+01 0.29136474617E+01 0.31279367414E+01
 0.34334055626E+01 0.38360594346E+01 0.51470084540E+01 0.60322284861E+01 0.70592811515E+01
 0.81798818300E+01 0.93054804800E+01 0.10315917185E+02 0.11082253528E+02 0.11496560305E+02
 0.11496578798E+02 0.11082292144E+02 0.10315947353E+02 0.93054866619E+01 0.81798508285E+01
 0.70591996011E+01 0.60321168880E+01 0.51469282391E+01 0.44173280068E+01 0.38361041250E+01
 0.33889196490E+01 0.30629203570E+01 0.28495246619E+01 0.27439054517E+01 0.27439068451E+01
 0.28495256223E+01 0.30629068817E+01 0.33888790180E+01 0.38360594346E+01 0.44173339333E+01
 0.62850917229E+01 0.76300965254E+01 0.91269368590E+01 0.10662397158E+02 0.12069471102E+02
 0.13155572530E+02 0.13749618708E+02 0.13749614004E+02 0.13155558840E+02 0.12069460842E+02
 0.10662417026E+02 0.91269927403E+01 0.76301462111E+01 0.62850789566E+01 0.51469223906E+01
 0.42258698021E+01 0.35065919782E+01 0.29649973214E+01 0.25784559945E+01 0.23298848397E+01
 0.22082790714E+01 0.22082651987E+01 0.23298514197E+01 0.25784269903E+01 0.29650056615E+01
 0.35066580958E+01 0.42259740961E+01 0.51470060752E+01 0.76300965254E+01 0.93356123973E+01
 0.11179091039E+02 0.12986719614E+02 0.14531603670E+02 0.15581299777E+02 0.15954215703E+02
 0.15581281691E+02 0.14531580135E+02 0.12986717797E+02 0.11179135373E+02 0.93356920612E+01
 0.76301584469E+01 0.61615209224E+01 0.49620585830E+01 0.40205065935E+01 0.33061519649E+01
 0.27858376523E+01 0.24324868177E+01 0.22274968150E+01 0.21602948958E+01 0.22274728650E+01
 0.24324568655E+01 0.27858360565E+01 0.33062065296E+01 0.40206033377E+01 0.49621389882E+01
 0.61615299338E+01 0.91269368590E+01 0.11179091039E+02 0.13312287525E+02 0.15290060684E+02
 0.16835507031E+02 0.17687883239E+02 0.17687876389E+02 0.16835494447E+02 0.15290060604E+02
 0.13312317852E+02 0.11179158203E+02 0.91270217651E+01 0.73139844652E+01 0.58100966694E+01
 0.46191810970E+01 0.37093547903E+01 0.30381259834E+01 0.25671085332E+01 0.22678447025E+01
 0.21224458348E+01 0.21224358767E+01 0.22678214265E+01 0.25670960923E+01 0.30381562421E+01
 0.37094294091E+01 0.46192527460E+01 0.58101090674E+01 0.73139280371E+01 0.10662397158E+02
 0.12986719614E+02 0.15290060684E+02 0.17282785491E+02 0.18647667977E+02 0.19134336184E+02
 0.18647660176E+02 0.17282791469E+02 0.15290092923E+02 0.12986771902E+02 0.10662460608E+02
 0.85368338975E+01 0.67324940277E+01 0.52827813712E+01 0.41644575557E+01 0.33305827177E+01
 0.27327961452E+01 0.23320717893E+01 0.21016740922E+01 0.20264863455E+01 0.21016616711E+01
 0.23320562373E+01 0.27328014685E+01 0.33306244384E+01 0.41645113633E+01 0.52828006155E+01
 0.67324609979E+01 0.85367716516E+01 0.12069471102E+02 0.14531603670E+02 0.16835507031E+02
 0.18647667977E+02 0.19650729873E+02 0.19650717755E+02 0.18647656910E+02 0.16835532227E+02
 0.14531657720E+02 0.12069522876E+02 0.97191270367E+01 0.76610243415E+01 0.59717538041E+01
 0.46495420124E+01 0.36516486203E+01 0.29242819629E+01 0.24195042895E+01 0.21016717292E+01
 0.19481592050E+01 0.19481551052E+01 0.21016606035E+01 0.24194965032E+01 0.29242936044E+01
 0.36516756904E+01 0.46495567973E+01 0.59717397574E+01 0.76609924186E+01 0.97190874082E+01
 0.13155572530E+02 0.15581299777E+02 0.17687883239E+02 0.19134336184E+02 0.19650717755E+02
 0.19134314723E+02 0.17687890345E+02 0.15581355023E+02 0.13155636653E+02 0.10718767098E+02
 0.85000145314E+01 0.66261376618E+01 0.51290175849E+01 0.39811572398E+01 0.31308502598E+01
 0.25254892052E+01 0.21224421440E+01 0.18920166294E+01 0.18170658674E+01 0.18920108224E+01
 0.21224334458E+01 0.25254862638E+01 0.31308552740E+01 0.39811570300E+01 0.51290030628E+01
 0.66261191044E+01 0.84999969532E+01 0.10718730668E+02 0.13749618708E+02 0.15954215703E+02
 0.17687876389E+02 0.18647660176E+02 0.18647656910E+02 0.17687890345E+02 0.15954274010E+02
 0.13749696295E+02 0.11391596989E+02 0.91415595818E+01 0.71722083094E+01 0.55558340960E+01
 0.42905898992E+01 0.33360152596E+01 0.26411792244E+01 0.21602960194E+01 0.18586008287E+01
 0.17133418658E+01 0.17133389447E+01 0.18585944678E+01 0.21602918498E+01 0.26411779662E+01
 0.33360065371E+01 0.42905666061E+01 0.55558096724E+01 0.71721979758E+01 0.91415464546E+01
 0.11391548369E+02 0.13749614004E+02 0.15581281691E+02 0.16835494447E+02 0.17282791469E+02
 0.16835532227E+02 0.15581355023E+02 0.13749696295E+02 0.11629307158E+02 0.94904135139E+01
 0.75366671380E+01 0.58786847563E+01 0.45463366286E+01 0.35188028694E+01 0.27540528463E+01
 0.22082726973E+01 0.18449203493E+01 0.16375258519E+01 0.15701643232E+01 0.16375198253E+01
 0.18449166263E+01 0.22082747714E+01 0.27540495946E+01 0.35187808089E+01 0.45463034893E+01
 0.58786659487E+01 0.75366688908E+01 0.94904049523E+01 0.11629256527E+02 0.13155558840E+02
 0.14531580135E+02 0.15290060604E+02 0.15290092923E+02 0.14531657720E+02 0.13155636653E+02
 0.11391596989E+02 0.94904135139E+01 0.76649082447E+01 0.60531067542E+01 0.47158616822E+01
 0.36569471497E+01 0.28495265976E+01 0.22571194731E+01 0.18453494932E+01 0.15867330714E+01
 0.14622842596E+01 0.14622794057E+01 0.15867265617E+01 0.18453525118E+01 0.22571263580E+01
 0.28495184276E+01 0.36569175270E+01 0.47158302504E+01 0.60530985420E+01 0.76649214377E+01
 0.94904158474E+01 0.11391557559E+02 0.12069460842E+02 0.12986717797E+02 0.13312317852E+02
 0.12986771902E+02 0.12069522876E+02 0.10718767098E+02 0.91415595818E+01 0.75366671380E+01
 0.60531067542E+01 0.47753012145E+01 0.37314995133E+01 0.29136446121E+01 0.22969286575E+01
 0.18528932246E+01 0.15559678817E+01 0.13862742882E+01 0.13311575916E+01 0.13862660089E+01
 0.15559668437E+01 0.18529048666E+01 0.22969371315E+01 0.29136324008E+01 0.37314694092E+01
 0.47752741455E+01 0.60531017110E+01 0.75366823245E+01 0.91415686873E+01 0.10718740032E+02
 0.10662417026E+02 0.11179135373E+02 0.11179158203E+02 0.10662460608E+02 0.97191270367E+01
 0.85000145314E+01 0.71722083094E+01 0.58786847563E+01 0.47158616822E+01 0.37314995133E+01
 0.29362581294E+01 0.23192682856E+01 0.18607548857E+01 0.15395936699E+01 0.13371752237E+01
 0.12396640830E+01 0.12396585617E+01 0.13371694704E+01 0.15396023850E+01 0.18607727263E+01
 0.23192764633E+01 0.29362467767E+01 0.37314742216E+01 0.47158365186E+01 0.58786747512E+01
 0.71722163409E+01 0.85000199646E+01 0.97191041898E+01 0.91269927403E+01 0.93356920612E+01
 0.91270217651E+01 0.85368338975E+01 0.76610243415E+01 0.66261376618E+01 0.55558340960E+01
 0.45463366286E+01 0.36569471497E+01 0.29136446121E+01 0.23192682856E+01 0.18639808997E+01
 0.15327917474E+01 0.13100884688E+01 0.11824999259E+01 0.11410242287E+01 0.11824928028E+01
 0.13100894652E+01 0.15328068648E+01 0.18639985621E+01 0.23192757655E+01 0.29136384772E+01
 0.36569296432E+01 0.45463163503E+01 0.55558254148E+01 0.66261427700E+01 0.76610225999E+01
 0.85368090592E+01 0.76301462111E+01 0.76301584469E+01 0.73139844652E+01 0.67324940277E+01
 0.59717538041E+01 0.51290175849E+01 0.42905898992E+01 0.35188028694E+01 0.28495265976E+01
 0.22969286575E+01 0.18607548857E+01 0.15327917474E+01 0.13014862141E+01 0.11551834867E+01
 0.10845916432E+01 0.10845876659E+01 0.11551788073E+01 0.13014908422E+01 0.15328038339E+01
 0.18607659449E+01 0.22969339624E+01 0.28495239860E+01 0.35187928004E+01 0.42905823676E+01
 0.51290244352E+01 0.59717677868E+01 0.67324930020E+01 0.73139651476E+01 0.62850789566E+01
 0.61615209224E+01 0.58100966694E+01 0.52827813712E+01 0.46495420124E+01 0.39811572398E+01
 0.33360152596E+01 0.27540528463E+01 0.22571194731E+01 0.18528932246E+01 0.15395936699E+01
 0.13100884688E+01 0.11551834867E+01 0.10662699663E+01 0.10373440794E+01 0.10662667026E+01
 0.11551816906E+01 0.13100901706E+01 0.15395968197E+01 0.18528958475E+01 0.22571190254E+01
 0.27540460668E+01 0.33360066977E+01 0.39811612283E+01 0.46495647087E+01 0.52828072491E+01
 0.58101066412E+01 0.61615178864E+01 0.51469223906E+01 0.49620585830E+01 0.46191810970E+01
 0.41644575557E+01 0.36516486203E+01 0.31308502598E+01 0.26411792244E+01 0.22082726973E+01
 0.18453494932E+01 0.15559678817E+01 0.13371752237E+01 0.11824999259E+01 0.10845916432E+01
 0.10373440794E+01 0.10373447898E+01 0.10845927626E+01 0.11824994532E+01 0.13371728075E+01
 0.15559654953E+01 0.18453469344E+01 0.22082646152E+01 0.26411627632E+01 0.31308349402E+01
 0.36516501144E+01 0.41644791682E+01 0.46192088711E+01 0.49620773259E+01 0.51469282441E+01
 0.42258698021E+01 0.40205065935E+01 0.37093547903E+01 0.33305827177E+01 0.29242819629E+01
 0.25254892052E+01 0.21602960194E+01 0.18449203493E+01 0.15867330714E+01 0.13862742882E+01
 0.12396640830E+01 0.11410242287E+01 0.10845876659E+01 0.10662667026E+01 0.10845927626E+01
 0.11410292999E+01 0.12396652219E+01 0.13862729365E+01 0.15867321351E+01 0.18449176248E+01
 0.21602850381E+01 0.25254681828E+01 0.29242596454E+01 0.33305723946E+01 0.37093621720E+01
 0.40205244698E+01 0.42258840163E+01 0.42977193927E+01 0.35065919782E+01 0.33061519649E+01
 0.30381259834E+01 0.27327961452E+01 0.24195042895E+01 0.21224421440E+01 0.18586008287E+01
 0.16375258519E+01 0.14622842596E+01 0.13311575916E+01 0.12396585617E+01 0.11824928028E+01
 0.11551788073E+01 0.11551816906E+01 0.11824994532E+01 0.12396652219E+01 0.13311623585E+01
 0.14622875838E+01 0.16375282219E+01 0.18586007960E+01 0.21224365003E+01 0.24194909057E+01
 0.27327781646E+01 0.30381122121E+01 0.33061496128E+01 0.35065982033E+01 0.36140917279E+01
 0.36140876336E+01 0.29649973214E+01 0.27858376523E+01 0.25671085332E+01 0.23320717893E+01
 0.21016717292E+01 0.18920166294E+01 0.17133418658E+01 0.15701643232E+01 0.14622794057E+01
 0.13862660089E+01 0.13371694704E+01 0.13100894652E+01 0.13014908422E+01 0.13100901706E+01
 0.13371728075E+01 0.13862729365E+01 0.14622875838E+01 0.15701699068E+01 0.17133437949E+01
 0.18920173037E+01 0.21016726363E+01 0.23320710064E+01 0.25671045852E+01 0.27858332954E+01
 0.29649961827E+01 0.30829326332E+01 0.31241277962E+01 0.30829314338E+01 0.25784559945E+01
 0.24324868177E+01 0.22678447025E+01 0.21016740922E+01 0.19481592050E+01 0.18170658674E+01
 0.17133389447E+01 0.16375198253E+01 0.15867265617E+01 0.15559668437E+01 0.15396023850E+01
 0.15328068648E+01 0.15328038339E+01 0.15395968197E+01 0.15559654953E+01 0.15867321351E+01
 0.16375282219E+01 0.17133437949E+01 0.18170649887E+01 0.19481559695E+01 0.21016730899E+01
 0.22678473054E+01 0.24324910619E+01 0.25784594604E+01 0.26882302004E+01 0.27472616005E+01
 0.27472611010E+01 0.26882283899E+01 0.23298848397E+01 0.22274968150E+01 0.21224458348E+01
 0.20264863455E+01 0.19481551052E+01 0.18920108224E+01 0.18585944678E+01 0.18449166263E+01
 0.18453525118E+01 0.18529048666E+01 0.18607727263E+01 0.18639985621E+01 0.18607659449E+01
 0.18528958475E+01 0.18453469344E+01 0.18449176248E+01 0.18586007960E+01 0.18920173037E+01
 0.19481559695E+01 0.20264801314E+01 0.21224368588E+01 0.22274905771E+01 0.23298826899E+01
 0.24162695211E+01 0.24741404341E+01 0.24945208818E+01 0.24741406954E+01 0.24162698832E+01
 0.22082790714E+01 0.21602948958E+01 0.21224358767E+01 0.21016616711E+01 0.21016606035E+01
 0.21224334458E+01 0.21602918498E+01 0.22082747714E+01 0.22571263580E+01 0.22969371315E+01
 0.23192764633E+01 0.23192757655E+01 0.22969339624E+01 0.22571190254E+01 0.22082646152E+01
 0.21602850381E+01 0.21224365003E+01 0.21016726363E+01 0.21016730899E+01 0.21224368588E+01
 0.21602841727E+01 0.22082633053E+01 0.22571184409E+01 0.22969339271E+01 0.23192762381E+01
 0.23192788185E+01 0.22969420190E+01 0.22571319707E+01 0.22082651987E+01 0.22274728650E+01
 0.22678214265E+01 0.23320562373E+01 0.24194965032E+01 0.25254862638E+01 0.26411779662E+01
 0.27540495946E+01 0.28495184276E+01 0.29136324008E+01 0.29362467767E+01 0.29136384772E+01
 0.28495239860E+01 0.27540460668E+01 0.26411627632E+01 0.25254681828E+01 0.24194909057E+01
 0.23320710064E+01 0.22678473054E+01 0.22274905771E+01 0.22082633053E+01 0.22047484121E+01
 0.22099014308E+01 0.22165982892E+01 0.22194960572E+01 0.22166074665E+01 0.22099183508E+01
 0.22047645638E+01 0.23298514197E+01 0.24324568655E+01 0.25670960923E+01 0.27328014685E+01
 0.29242936044E+01 0.31308552740E+01 0.33360065371E+01 0.35187808089E+01 0.36569175270E+01
 0.37314694092E+01 0.37314742216E+01 0.36569296432E+01 0.35187928004E+01 0.33360066977E+01
 0.31308349402E+01 0.29242596454E+01 0.27327781646E+01 0.25671045852E+01 0.24324910619E+01
 0.23298826899E+01 0.22571184409E+01 0.22099014308E+01 0.21828334388E+01 0.21708496668E+01
 0.21708542071E+01 0.21828456287E+01 0.22099119834E+01 0.22571106255E+01 0.25784269903E+01
 0.27858360565E+01 0.30381562421E+01 0.33306244384E+01 0.36516756904E+01 0.39811570300E+01
 0.42905666061E+01 0.45463034893E+01 0.47158302504E+01 0.47752741455E+01 0.47158365186E+01
 0.45463163503E+01 0.42905823676E+01 0.39811612283E+01 0.36516501144E+01 0.33305723946E+01
 0.30381122121E+01 0.27858332954E+01 0.25784594604E+01 0.24162695211E+01 0.22969339271E+01
 0.22165982892E+01 0.21708496668E+01 0.21560724207E+01 0.21708559265E+01 0.22166044583E+01
 0.22969245974E+01 0.24162374527E+01 0.29650056615E+01 0.33062065296E+01 0.37094294091E+01
 0.41645113633E+01 0.46495567973E+01 0.51290030628E+01 0.55558096724E+01 0.58786659487E+01
 0.60530985420E+01 0.60531017110E+01 0.58786747512E+01 0.55558254148E+01 0.51290244352E+01
 0.46495647087E+01 0.41644791682E+01 0.37093621720E+01 0.33061496128E+01 0.29649961827E+01
 0.26882302004E+01 0.24741404341E+01 0.23192762381E+01 0.22194960572E+01 0.21708542071E+01
 0.21708559265E+01 0.22194987132E+01 0.23192696353E+01 0.24741157605E+01 0.26882040221E+01
 0.35066580958E+01 0.40206033377E+01 0.46192527460E+01 0.52828006155E+01 0.59717397574E+01
 0.66261191044E+01 0.71721979758E+01 0.75366688908E+01 0.76649214377E+01 0.75366823245E+01
 0.71722163409E+01 0.66261427700E+01 0.59717677868E+01 0.52828072491E+01 0.46192088711E+01
 0.40205244698E+01 0.35065982033E+01 0.30829326332E+01 0.27472616005E+01 0.24945208818E+01
 0.23192788185E+01 0.22166074665E+01 0.21828456287E+01 0.22166044583E+01 0.23192696353E+01
 0.24945003062E+01 0.27472397646E+01 0.30829421547E+01 0.42259740961E+01 0.49621389882E+01
 0.58101090674E+01 0.67324609979E+01 0.76609924186E+01 0.84999969532E+01 0.91415464546E+01
 0.94904049523E+01 0.94904158474E+01 0.91415686873E+01 0.85000199646E+01 0.76610225999E+01
 0.67324930020E+01 0.58101066412E+01 0.49620773259E+01 0.42258840163E+01 0.36140917279E+01
 0.31241277962E+01 0.27472611010E+01 0.24741406954E+01 0.22969420190E+01 0.22099183508E+01
 0.22099119834E+01 0.22969245974E+01 0.24741157605E+01 0.27472397646E+01 0.31241369174E+01
 0.36141526449E+01 0.51470060752E+01 0.61615299338E+01 0.73139280371E+01 0.85367716516E+01
 0.97190874082E+01 0.10718730668E+02 0.11391548369E+02 0.11629256527E+02 0.11391557559E+02
 0.10718740032E+02 0.97191041898E+01 0.85368090592E+01 0.73139651476E+01 0.61615178864E+01
 0.51469282441E+01 0.42977193927E+01 0.36140876336E+01 0.30829314338E+01 0.26882283899E+01
 0.24162698832E+01 0.22571319707E+01 0.22047645638E+01 0.22571106255E+01 0.24162374527E+01
 0.26882040221E+01 0.30829421547E+01 0.36141526449E+01 0.42978196780E+01 0.66823458605E+01
 0.81631288202E+01 0.97620595481E+01 0.11334821622E+02 0.12684925490E+02 0.13603962523E+02
 0.13930615073E+02 0.13603950586E+02 0.12684910266E+02 0.11334816885E+02 0.97620820992E+01
 0.81631887401E+01 0.66824257512E+01 0.54001715082E+01 0.43436165377E+01 0.35065871459E+01
 0.28675898529E+01 0.24016329187E+01 0.20862946302E+01 0.19043380182E+01 0.18449160444E+01
 0.19043203693E+01 0.20862809311E+01 0.24016528715E+01 0.28676495876E+01 0.35066490087E+01
 0.43436279173E+01 0.54001185737E+01 0.81631288202E+01 0.99867609792E+01 0.11890093514E+02
 0.13663588141E+02 0.15051707795E+02 0.15817544120E+02 0.15817538155E+02 0.15051700499E+02
 0.13663594533E+02 0.11890115652E+02 0.99868004340E+01 0.81631929493E+01 0.65510143440E+01
 0.52065462409E+01 0.41330079249E+01 0.33061482361E+01 0.26931257591E+01 0.22628609279E+01
 0.19904230928E+01 0.18586004872E+01 0.18585939950E+01 0.19904117464E+01 0.22628664241E+01
 0.26931635200E+01 0.33061977952E+01 0.41330213283E+01 0.52065005734E+01 0.65509383328E+01
 0.97620595481E+01 0.11890093514E+02 0.14011800573E+02 0.15851460752E+02 0.17112111517E+02
 0.17561847242E+02 0.17112113299E+02 0.15851484246E+02 0.14011844790E+02 0.11890135755E+02
 0.97620974648E+01 0.78240364613E+01 0.61775572602E+01 0.48476980121E+01 0.38140611484E+01
 0.30381233254E+01 0.24800332021E+01 0.21062318627E+01 0.18920157038E+01 0.18223019262E+01
 0.18920110791E+01 0.21062311627E+01 0.24800492568E+01 0.30381511656E+01 0.38140680693E+01
 0.48476593610E+01 0.61774925882E+01 0.78239829750E+01 0.11334821622E+02 0.13663588141E+02
 0.15851460752E+02 0.17574226779E+02 0.18528976767E+02 0.18528979294E+02 0.17574249931E+02
 0.15851515718E+02 0.13663645025E+02 0.11334848318E+02 0.91274480635E+01 0.72012061636E+01
 0.56179539826E+01 0.43722891883E+01 0.34260010069E+01 0.27327948896E+01 0.22509918724E+01
 0.19481567373E+01 0.18023032763E+01 0.18023024274E+01 0.19481556005E+01 0.22509954779E+01
 0.27328033829E+01 0.34259968806E+01 0.43722538848E+01 0.56179016628E+01 0.72011721447E+01
 0.91274356348E+01 0.12684925490E+02 0.15051707795E+02 0.17112111517E+02 0.18528976767E+02
 0.19035469798E+02 0.18528990344E+02 0.17112155245E+02 0.15051767346E+02 0.12684957036E+02
 0.10323777079E+02 0.81879848212E+01 0.63880911145E+01 0.49470153763E+01 0.38366802123E+01
 0.30098959256E+01 0.24195047817E+01 0.20264869920E+01 0.18023047233E+01 0.17295353691E+01
 0.18023031018E+01 0.20264864837E+01 0.24195057314E+01 0.30098872996E+01 0.38366473812E+01
 0.49469677725E+01 0.63880639947E+01 0.81879929772E+01 0.10323785470E+02 0.13603962523E+02
 0.15817544120E+02 0.17561847242E+02 0.18528979294E+02 0.18528990344E+02 0.17561883987E+02
 0.15817598867E+02 0.13604002029E+02 0.11250228019E+02 0.90221550371E+01 0.70812430392E+01
 0.54893016043E+01 0.42397939744E+01 0.32930558783E+01 0.26015251444E+01 0.21224441994E+01
 0.18223072250E+01 0.16781199091E+01 0.16781174473E+01 0.18223042029E+01 0.21224460340E+01
 0.26015247184E+01 0.32930360104E+01 0.42397524513E+01 0.54892658765E+01 0.70812416339E+01
 0.90221762159E+01 0.11250228898E+02 0.13930615073E+02 0.15817538155E+02 0.17112113299E+02
 0.17574249931E+02 0.17112155245E+02 0.15817598867E+02 0.13930661518E+02 0.11758157595E+02
 0.95842353444E+01 0.76103925150E+01 0.59398748337E+01 0.45965803438E+01 0.35576262676E+01
 0.27819428259E+01 0.22274870385E+01 0.18586042342E+01 0.16484808401E+01 0.15803467062E+01
 0.16484746050E+01 0.18586045814E+01 0.22274975209E+01 0.27819470386E+01 0.35576072642E+01
 0.45965455188E+01 0.59398508210E+01 0.76103935414E+01 0.95842445207E+01 0.11758144597E+02
 0.13603950586E+02 0.15051700499E+02 0.15851484246E+02 0.15851515718E+02 0.15051767346E+02
 0.13604002029E+02 0.11758157595E+02 0.97830132272E+01 0.78980079666E+01 0.62398792890E+01
 0.48653857548E+01 0.37753421021E+01 0.29421686873E+01 0.23298639492E+01 0.19043336897E+01
 0.16375306753E+01 0.15093941147E+01 0.15093880001E+01 0.16375240562E+01 0.19043433798E+01
 0.23298854533E+01 0.29421807263E+01 0.37753320186E+01 0.48653610596E+01 0.62398579936E+01
 0.78980022702E+01 0.97830159512E+01 0.11758142533E+02 0.12684910266E+02 0.13663594533E+02
 0.14011844790E+02 0.13663645025E+02 0.12684957036E+02 0.11250228019E+02 0.95842353444E+01
 0.78980079666E+01 0.63453349146E+01 0.50102815961E+01 0.39192184579E+01 0.30629006105E+01
 0.24162417116E+01 0.19505942228E+01 0.16396430287E+01 0.14622899480E+01 0.14047662030E+01
 0.14622786654E+01 0.16396411970E+01 0.19506131271E+01 0.24162698020E+01 0.30629197824E+01
 0.39192187945E+01 0.50102639763E+01 0.63453141314E+01 0.78980047541E+01 0.95842471745E+01
 0.11250220625E+02 0.11334816885E+02 0.11890115652E+02 0.11890135755E+02 0.11334848318E+02
 0.10323777079E+02 0.90221550371E+01 0.76103925150E+01 0.62398792890E+01 0.50102815961E+01
 0.39695873101E+01 0.31279246206E+01 0.24741111251E+01 0.19880832533E+01 0.16479960223E+01
 0.14340491985E+01 0.13311625407E+01 0.13311549145E+01 0.14340385238E+01 0.16480010073E+01
 0.19881057552E+01 0.24741404299E+01 0.31279490957E+01 0.39695939930E+01 0.50102649983E+01
 0.62398587263E+01 0.76103955335E+01 0.90221744764E+01 0.10323775249E+02 0.97620820992E+01
 0.99868004340E+01 0.97620974648E+01 0.91274480635E+01 0.81879848212E+01 0.70812430392E+01
 0.59398748337E+01 0.48653857548E+01 0.39192184579E+01 0.31279246206E+01 0.24944919743E+01
 0.20090401160E+01 0.16561188809E+01 0.14191686954E+01 0.12836602777E+01 0.12396614256E+01
 0.12836505788E+01 0.14191639334E+01 0.16561279600E+01 0.20090610367E+01 0.24945210305E+01
 0.31279520797E+01 0.39192244960E+01 0.48653642252E+01 0.59398515453E+01 0.70812442552E+01
 0.81879982364E+01 0.91274449775E+01 0.81631887401E+01 0.81631929493E+01 0.78240364613E+01
 0.72012061636E+01 0.63880911145E+01 0.54893016043E+01 0.45965803438E+01 0.37753421021E+01
 0.30629006105E+01 0.24741111251E+01 0.20090401160E+01 0.16593858353E+01 0.14130356067E+01
 0.12574592914E+01 0.11824974177E+01 0.11824936807E+01 0.12574535594E+01 0.14130356140E+01
 0.16593935195E+01 0.20090579067E+01 0.24741405550E+01 0.30629275981E+01 0.37753434567E+01
 0.45965556331E+01 0.54892786175E+01 0.63880882212E+01 0.72012107296E+01 0.78240331235E+01
 0.66824257512E+01 0.65510143440E+01 0.61775572602E+01 0.56179539826E+01 0.49470153763E+01
 0.42397939744E+01 0.35576262676E+01 0.29421686873E+01 0.24162417116E+01 0.19880832533E+01
 0.16561188809E+01 0.14130356067E+01 0.12491370967E+01 0.11551808115E+01 0.11246417473E+01
 0.11551785580E+01 0.12491346819E+01 0.14130338481E+01 0.16561212443E+01 0.19880981150E+01
 0.24162691208E+01 0.29421905053E+01 0.35576245975E+01 0.42397758204E+01 0.49470035858E+01
 0.56179571059E+01 0.61775646028E+01 0.65510173124E+01 0.54001715082E+01 0.52065462409E+01
 0.48476980121E+01 0.43722891883E+01 0.38366802123E+01 0.32930558783E+01 0.27819428259E+01
 0.23298639492E+01 0.19505942228E+01 0.16479960223E+01 0.14191686954E+01 0.12574592914E+01
 0.11551808115E+01 0.11058655101E+01 0.11058660510E+01 0.11551808324E+01 0.12574555492E+01
 0.14191615901E+01 0.16479934854E+01 0.19506044090E+01 0.23298823112E+01 0.27819540217E+01
 0.32930525917E+01 0.38366730189E+01 0.43722926355E+01 0.48477131609E+01 0.52065621517E+01
 0.54001779504E+01 0.43436165377E+01 0.41330079249E+01 0.38140611484E+01 0.34260010069E+01
 0.30098959256E+01 0.26015251444E+01 0.22274870385E+01 0.19043336897E+01 0.16396430287E+01
 0.14340491985E+01 0.12836602777E+01 0.11824974177E+01 0.11246417473E+01 0.11058660510E+01
 0.11246447514E+01 0.11824983783E+01 0.12836552974E+01 0.14340410106E+01 0.16396387118E+01
 0.19043361886E+01 0.22274907790E+01 0.26015224696E+01 0.30098873712E+01 0.34259963734E+01
 0.38140690838E+01 0.41330256826E+01 0.43436312368E+01 0.44173223992E+01 0.35065871459E+01
 0.33061482361E+01 0.30381233254E+01 0.27327948896E+01 0.24195047817E+01 0.21224441994E+01
 0.18586042342E+01 0.16375306753E+01 0.14622899480E+01 0.13311625407E+01 0.12396614256E+01
 0.11824936807E+01 0.11551785580E+01 0.11551808324E+01 0.11824983783E+01 0.12396646047E+01
 0.13311624582E+01 0.14622877865E+01 0.16375280410E+01 0.18586007077E+01 0.21224371178E+01
 0.24194919963E+01 0.27327791080E+01 0.30381126648E+01 0.33061490618E+01 0.35065957416E+01
 0.36140871635E+01 0.36140821916E+01 0.28675898529E+01 0.26931257591E+01 0.24800332021E+01
 0.22509918724E+01 0.20264869920E+01 0.18223072250E+01 0.16484808401E+01 0.15093941147E+01
 0.14047662030E+01 0.13311549145E+01 0.12836505788E+01 0.12574535594E+01 0.12491346819E+01
 0.12574555492E+01 0.12836552974E+01 0.13311624582E+01 0.14047746894E+01 0.15094004330E+01
 0.16484830129E+01 0.18223049806E+01 0.20264798719E+01 0.22509792016E+01 0.24800174654E+01
 0.26931133186E+01 0.28675851071E+01 0.29823823141E+01 0.30224698843E+01 0.29823819789E+01
 0.24016329187E+01 0.22628609279E+01 0.21062318627E+01 0.19481567373E+01 0.18023047233E+01
 0.16781199091E+01 0.15803467062E+01 0.15093880001E+01 0.14622786654E+01 0.14340385238E+01
 0.14191639334E+01 0.14130356140E+01 0.14130338481E+01 0.14191615901E+01 0.14340410106E+01
 0.14622877865E+01 0.15094004330E+01 0.15803577816E+01 0.16781272033E+01 0.18023078580E+01
 0.19481556845E+01 0.21062270725E+01 0.22628544241E+01 0.24016275461E+01 0.25058947429E+01
 0.25619257590E+01 0.25619264878E+01 0.25058975379E+01 0.20862946302E+01 0.19904230928E+01
 0.18920157038E+01 0.18023032763E+01 0.17295353691E+01 0.16781174473E+01 0.16484746050E+01
 0.16375240562E+01 0.16396411970E+01 0.16480010073E+01 0.16561279600E+01 0.16593935195E+01
 0.16561212443E+01 0.16479934854E+01 0.16396387118E+01 0.16375280410E+01 0.16484830129E+01
 0.16781272033E+01 0.17295434707E+01 0.18023079338E+01 0.18920175467E+01 0.19904240727E+01
 0.20862955240E+01 0.21670605140E+01 0.22210808426E+01 0.22400870651E+01 0.22210811536E+01
 0.21670602569E+01 0.19043380182E+01 0.18586004872E+01 0.18223019262E+01 0.18023024274E+01
 0.18023031018E+01 0.18223042029E+01 0.18586045814E+01 0.19043433798E+01 0.19506131271E+01
 0.19881057552E+01 0.20090610367E+01 0.20090579067E+01 0.19880981150E+01 0.19506044090E+01
 0.19043361886E+01 0.18586007077E+01 0.18223049806E+01 0.18023078580E+01 0.18023079338E+01
 0.18223051568E+01 0.18586010712E+01 0.19043370383E+01 0.19506056320E+01 0.19880987875E+01
 0.20090569446E+01 0.20090580605E+01 0.19881011351E+01 0.19506076152E+01 0.18449160444E+01
 0.18585939950E+01 0.18920110791E+01 0.19481556005E+01 0.20264864837E+01 0.21224460340E+01
 0.22274975209E+01 0.23298854533E+01 0.24162698020E+01 0.24741404299E+01 0.24945210305E+01
 0.24741405550E+01 0.24162691208E+01 0.23298823112E+01 0.22274907790E+01 0.21224371178E+01
 0.20264798719E+01 0.19481556845E+01 0.18920175467E+01 0.18586010712E+01 0.18449173902E+01
 0.18453466953E+01 0.18528961335E+01 0.18607662076E+01 0.18639982051E+01 0.18607722321E+01
 0.18529048006E+01 0.18453524211E+01 0.19043203693E+01 0.19904117464E+01 0.21062311627E+01
 0.22509954779E+01 0.24195057314E+01 0.26015247184E+01 0.27819470386E+01 0.29421807263E+01
 0.30629197824E+01 0.31279490957E+01 0.31279520797E+01 0.30629275981E+01 0.29421905053E+01
 0.27819540217E+01 0.26015224696E+01 0.24194919963E+01 0.22509792016E+01 0.21062270725E+01
 0.19904240727E+01 0.19043370383E+01 0.18453466953E+01 0.18086400618E+01 0.17885382665E+01
 0.17799850196E+01 0.17799886197E+01 0.17885465657E+01 0.18086451874E+01 0.18453400437E+01
 0.20862809311E+01 0.22628664241E+01 0.24800492568E+01 0.27328033829E+01 0.30098872996E+01
 0.32930360104E+01 0.35576072642E+01 0.37753320186E+01 0.39192187945E+01 0.39695939930E+01
 0.39192244960E+01 0.37753434567E+01 0.35576245975E+01 0.32930525917E+01 0.30098873712E+01
 0.27327791080E+01 0.24800174654E+01 0.22628544241E+01 0.20862955240E+01 0.19506056320E+01
 0.18528961335E+01 0.17885382665E+01 0.17525418166E+01 0.17410328251E+01 0.17525429984E+01
 0.17885361973E+01 0.18528831855E+01 0.19505828038E+01 0.24016528715E+01 0.26931635200E+01
 0.30381511656E+01 0.34259968806E+01 0.38366473812E+01 0.42397524513E+01 0.45965455188E+01
 0.48653610596E+01 0.50102639763E+01 0.50102649983E+01 0.48653642252E+01 0.45965556331E+01
 0.42397758204E+01 0.38366730189E+01 0.34259963734E+01 0.30381126648E+01 0.26931133186E+01
 0.24016275461E+01 0.21670605140E+01 0.19880987875E+01 0.18607662076E+01 0.17799850196E+01
 0.17410328251E+01 0.17410292974E+01 0.17799747503E+01 0.18607488405E+01 0.19880779922E+01
 0.21670532225E+01 0.28676495876E+01 0.33061977952E+01 0.38140680693E+01 0.43722538848E+01
 0.49469677725E+01 0.54892658765E+01 0.59398508210E+01 0.62398579936E+01 0.63453141314E+01
 0.62398587263E+01 0.59398515453E+01 0.54892786175E+01 0.49470035858E+01 0.43722926355E+01
 0.38140690838E+01 0.33061490618E+01 0.28675851071E+01 0.25058947429E+01 0.22210808426E+01
 0.20090569446E+01 0.18639982051E+01 0.17799886197E+01 0.17525429984E+01 0.17799747503E+01
 0.18639774387E+01 0.20090403382E+01 0.22210848020E+01 0.25059340036E+01 0.35066490087E+01
 0.41330213283E+01 0.48476593610E+01 0.56179016628E+01 0.63880639947E+01 0.70812416339E+01
 0.76103935414E+01 0.78980022702E+01 0.78980047541E+01 0.76103955335E+01 0.70812442552E+01
 0.63880882212E+01 0.56179571059E+01 0.48477131609E+01 0.41330256826E+01 0.35065957416E+01
 0.29823823141E+01 0.25619257590E+01 0.22400870651E+01 0.20090580605E+01 0.18607722321E+01
 0.17885465657E+01 0.17885361973E+01 0.18607488405E+01 0.20090403382E+01 0.22400960211E+01
 0.25619732540E+01 0.29824543054E+01 0.43436279173E+01 0.52065005734E+01 0.61774925882E+01
 0.72011721447E+01 0.81879929772E+01 0.90221762159E+01 0.95842445207E+01 0.97830159512E+01
 0.95842471745E+01 0.90221744764E+01 0.81879982364E+01 0.72012107296E+01 0.61775646028E+01
 0.52065621517E+01 0.43436312368E+01 0.36140871635E+01 0.30224698843E+01 0.25619264878E+01
 0.22210811536E+01 0.19881011351E+01 0.18529048006E+01 0.18086451874E+01 0.18528831855E+01
 0.19880779922E+01 0.22210848020E+01 0.25619732540E+01 0.30225447529E+01 0.36141443697E+01
 0.54001185737E+01 0.65509383328E+01 0.78239829750E+01 0.91274356348E+01 0.10323785470E+02
 0.11250228898E+02 0.11758144597E+02 0.11758142533E+02 0.11250220625E+02 0.10323775249E+02
 0.91274449775E+01 0.78240331235E+01 0.65510173124E+01 0.54001779504E+01 0.44173223992E+01
 0.36140821916E+01 0.29823819789E+01 0.25058975379E+01 0.21670602569E+01 0.19506076152E+01
 0.18453524211E+01 0.18453400437E+01 0.19505828038E+01 0.21670532225E+01 0.25059340036E+01
 0.29824543054E+01 0.36141443697E+01 0.44173261266E+01 0.73617036827E+01 0.89884575257E+01
 0.10680908501E+02 0.12256055161E+02 0.13488982294E+02 0.14169489384E+02 0.14169482007E+02
 0.13488973498E+02 0.12256057696E+02 0.10680909238E+02 0.89884501558E+01 0.73617178226E+01
 0.59156149171E+01 0.47006404809E+01 0.37228191943E+01 0.29649945091E+01 0.24016350370E+01
 0.20067127005E+01 0.17575963537E+01 0.16375213042E+01 0.16375219527E+01 0.17575998776E+01
 0.20067241522E+01 0.24016522056E+01 0.29649926371E+01 0.37227708171E+01 0.47005598884E+01
 0.59155539452E+01 0.89884575257E+01 0.10929696127E+02 0.12864791046E+02 0.14544543684E+02
 0.15697168670E+02 0.16108561739E+02 0.15697160545E+02 0.14544553414E+02 0.12864816865E+02
 0.10929706624E+02 0.89884510161E+01 0.72163805872E+01 0.57037716315E+01 0.44740376422E+01
 0.35117619134E+01 0.27858375146E+01 0.22628645198E+01 0.19131339104E+01 0.17133379753E+01
 0.16484746494E+01 0.17133426736E+01 0.19131408519E+01 0.22628713866E+01 0.27858323910E+01
 0.35117237241E+01 0.44739682949E+01 0.57037118213E+01 0.72163638835E+01 0.10680908501E+02
 0.12864791046E+02 0.14920892657E+02 0.16543662706E+02 0.17443809551E+02 0.17443806675E+02
 0.16543671811E+02 0.14920929688E+02 0.12864829535E+02 0.10680916515E+02 0.86121454854E+01
 0.68039551691E+01 0.53118306424E+01 0.41313960088E+01 0.32298309580E+01 0.25671103355E+01
 0.21062362038E+01 0.18170646972E+01 0.16781168348E+01 0.16781200021E+01 0.18170709588E+01
 0.21062401134E+01 0.25671049184E+01 0.32298032963E+01 0.41313417044E+01 0.53117751164E+01
 0.68039329776E+01 0.86121513695E+01 0.12256055161E+02 0.14544543684E+02 0.16543662706E+02
 0.17921229428E+02 0.18413954406E+02 0.17921236057E+02 0.16543689606E+02 0.14544582232E+02
 0.12256074381E+02 0.99795390675E+01 0.79227695766E+01 0.61875918105E+01 0.47938282219E+01
 0.37152404898E+01 0.29089647128E+01 0.23320755607E+01 0.19481615364E+01 0.17295367119E+01
 0.16586747165E+01 0.17295398024E+01 0.19481647380E+01 0.23320741354E+01 0.29089501913E+01
 0.37152061798E+01 0.47937855533E+01 0.61875684531E+01 0.79227756176E+01 0.99795475118E+01
 0.13488982294E+02 0.15697168670E+02 0.17443809551E+02 0.18413954406E+02 0.18413960963E+02
 0.17443827513E+02 0.15697189298E+02 0.13488990579E+02 0.11150818017E+02 0.89448094314E+01
 0.70259780109E+01 0.54510189719E+01 0.42117021264E+01 0.32696735038E+01 0.25799026353E+01
 0.21016774970E+01 0.18023097164E+01 0.16586763371E+01 0.16586754005E+01 0.18023089862E+01
 0.21016791375E+01 0.25799024276E+01 0.32696631568E+01 0.42116814641E+01 0.54510019458E+01
 0.70259792156E+01 0.89448251258E+01 0.11150828375E+02 0.14169489384E+02 0.16108561739E+02
 0.17443806675E+02 0.17921236057E+02 0.17443827513E+02 0.16108579076E+02 0.14169486627E+02
 0.11947389285E+02 0.97339803121E+01 0.77311434228E+01 0.60386862939E+01 0.46771055765E+01
 0.36220599816E+01 0.28327333468E+01 0.22678409512E+01 0.18920236422E+01 0.16781245979E+01
 0.16088178048E+01 0.16781189673E+01 0.18920224496E+01 0.22678492210E+01 0.28327450179E+01
 0.36220673725E+01 0.46771069453E+01 0.60386845939E+01 0.77311446973E+01 0.97339903999E+01
 0.11947403829E+02 0.14169482007E+02 0.15697160545E+02 0.16543671811E+02 0.16543689606E+02
 0.15697189298E+02 0.14169486627E+02 0.12230435752E+02 0.10165988948E+02 0.82047806501E+01
 0.64851837156E+01 0.50616970023E+01 0.39324519956E+01 0.30682740032E+01 0.24324701717E+01
 0.19904255074E+01 0.17133492954E+01 0.15803505253E+01 0.15803448441E+01 0.17133416387E+01
 0.19904306029E+01 0.24324908004E+01 0.30683038079E+01 0.39324818316E+01 0.50617129284E+01
 0.64851768501E+01 0.82047653929E+01 0.10165989793E+02 0.12230448989E+02 0.13488973498E+02
 0.14544553414E+02 0.14920929688E+02 0.14544582232E+02 0.13488990579E+02 0.11947389285E+02
 0.10165988948E+02 0.83720239623E+01 0.67271804931E+01 0.53167814753E+01 0.41653704662E+01
 0.32614939533E+01 0.25784277913E+01 0.20862904640E+01 0.17576067575E+01 0.15701716134E+01
 0.15093903543E+01 0.15701610519E+01 0.17576012759E+01 0.20863018624E+01 0.25784583710E+01
 0.32615414099E+01 0.41654190591E+01 0.53168015701E+01 0.67271626289E+01 0.83719997127E+01
 0.10165988886E+02 0.11947396792E+02 0.12256057696E+02 0.12864816865E+02 0.12864829535E+02
 0.12256074381E+02 0.11150818017E+02 0.97339803121E+01 0.82047806501E+01 0.67271804931E+01
 0.54062684834E+01 0.42905937020E+01 0.33888578968E+01 0.26881934512E+01 0.21670553355E+01
 0.18022410169E+01 0.15726856514E+01 0.14622853516E+01 0.14622789144E+01 0.15726738549E+01
 0.18022361968E+01 0.21670655589E+01 0.26882280400E+01 0.33889187809E+01 0.42906539809E+01
 0.54062894608E+01 0.67271621855E+01 0.82047638922E+01 0.97339859742E+01 0.11150821436E+02
 0.10680909238E+02 0.10929706624E+02 0.10680916515E+02 0.99795390675E+01 0.89448094314E+01
 0.77311434228E+01 0.64851837156E+01 0.53167814753E+01 0.42905937020E+01 0.34333831218E+01
 0.27472233151E+01 0.22210803619E+01 0.18383105809E+01 0.15811634757E+01 0.14340447128E+01
 0.13862688367E+01 0.14340364811E+01 0.15811522660E+01 0.18383009756E+01 0.22210833917E+01
 0.27472584508E+01 0.34334504688E+01 0.42906556587E+01 0.53168006037E+01 0.64851699428E+01
 0.77311343822E+01 0.89448150436E+01 0.99795402649E+01 0.89884501558E+01 0.89884510161E+01
 0.86121454854E+01 0.79227695766E+01 0.70259780109E+01 0.60386862939E+01 0.50616970023E+01
 0.41653704662E+01 0.33888578968E+01 0.27472233151E+01 0.22400890422E+01 0.18584341448E+01
 0.15892731322E+01 0.14191652547E+01 0.13371700465E+01 0.13371686975E+01 0.14191604151E+01
 0.15892615192E+01 0.18584173830E+01 0.22400863514E+01 0.27472580967E+01 0.33889219061E+01
 0.41654216035E+01 0.50617063946E+01 0.60386691259E+01 0.70259647441E+01 0.79227675603E+01
 0.86121452765E+01 0.73617178226E+01 0.72163805872E+01 0.68039551691E+01 0.61875918105E+01
 0.54510189719E+01 0.46771055765E+01 0.39324519956E+01 0.32614939533E+01 0.26881934512E+01
 0.22210803619E+01 0.18584341448E+01 0.15925180158E+01 0.14130332897E+01 0.13100835899E+01
 0.12766179307E+01 0.13100866454E+01 0.14130320277E+01 0.15925042526E+01 0.18584139866E+01
 0.22210781895E+01 0.26882267545E+01 0.32615461100E+01 0.39324853562E+01 0.46771024419E+01
 0.54509961007E+01 0.61875742132E+01 0.68039504259E+01 0.72163816793E+01 0.59156149171E+01
 0.57037716315E+01 0.53118306424E+01 0.47938282219E+01 0.42117021264E+01 0.36220599816E+01
 0.30682740032E+01 0.25784277913E+01 0.21670553355E+01 0.18383105809E+01 0.15892731322E+01
 0.14130332897E+01 0.13014814941E+01 0.12476874476E+01 0.12476912518E+01 0.13014878121E+01
 0.14130311512E+01 0.15892576475E+01 0.18382932780E+01 0.21670571935E+01 0.25784564543E+01
 0.30683115798E+01 0.36220797817E+01 0.42116958876E+01 0.47938113427E+01 0.53118218231E+01
 0.57037737646E+01 0.59156177871E+01 0.47006404809E+01 0.44740376422E+01 0.41313960088E+01
 0.37152404898E+01 0.32696735038E+01 0.28327333468E+01 0.24324701717E+01 0.20862904640E+01
 0.18022410169E+01 0.15811634757E+01 0.14191652547E+01 0.13100835899E+01 0.12476874476E+01
 0.12274426696E+01 0.12476932058E+01 0.13100875923E+01 0.14191599238E+01 0.15811494918E+01
 0.18022289142E+01 0.20862927080E+01 0.24324891234E+01 0.28327570299E+01 0.32696864181E+01
 0.37152396713E+01 0.41313928328E+01 0.44740419218E+01 0.47006478388E+01 0.47800120483E+01
 0.37228191943E+01 0.35117619134E+01 0.32298309580E+01 0.29089647128E+01 0.25799026353E+01
 0.22678409512E+01 0.19904255074E+01 0.17576067575E+01 0.15726856514E+01 0.14340447128E+01
 0.13371700465E+01 0.12766179307E+01 0.12476912518E+01 0.12476932058E+01 0.12766215159E+01
 0.13371708572E+01 0.14340401586E+01 0.15726765650E+01 0.17575975212E+01 0.19904224365E+01
 0.22678467415E+01 0.25799119217E+01 0.29089695053E+01 0.32298310372E+01 0.35117642596E+01
 0.37228259099E+01 0.38361019221E+01 0.38360979570E+01 0.29649945091E+01 0.27858375146E+01
 0.25671103355E+01 0.23320755607E+01 0.21016774970E+01 0.18920236422E+01 0.17133492954E+01
 0.15701716134E+01 0.14622853516E+01 0.13862688367E+01 0.13371686975E+01 0.13100866454E+01
 0.13014878121E+01 0.13100875923E+01 0.13371708572E+01 0.13862719970E+01 0.14622874657E+01
 0.15701696400E+01 0.17133430378E+01 0.18920168963E+01 0.21016730667E+01 0.23320714005E+01
 0.25671038153E+01 0.27858309726E+01 0.29649920823E+01 0.30829265463E+01 0.31241207314E+01
 0.30829256967E+01 0.24016350370E+01 0.22628645198E+01 0.21062362038E+01 0.19481615364E+01
 0.18023097164E+01 0.16781245979E+01 0.15803505253E+01 0.15093903543E+01 0.14622789144E+01
 0.14340364811E+01 0.14191604151E+01 0.14130320277E+01 0.14130311512E+01 0.14191599238E+01
 0.14340401586E+01 0.14622874657E+01 0.15094002156E+01 0.15803573233E+01 0.16781266386E+01
 0.18023075376E+01 0.19481554877E+01 0.21062263714E+01 0.22628527215E+01 0.24016248121E+01
 0.25058912886E+01 0.25619222882E+01 0.25619241702E+01 0.25058974048E+01 0.20067127005E+01
 0.19131339104E+01 0.18170646972E+01 0.17295367119E+01 0.16586763371E+01 0.16088178048E+01
 0.15803448441E+01 0.15701610519E+01 0.15726738549E+01 0.15811522660E+01 0.15892615192E+01
 0.15925042526E+01 0.15892576475E+01 0.15811494918E+01 0.15726765650E+01 0.15701696400E+01
 0.15803573233E+01 0.16088316488E+01 0.16586881413E+01 0.17295429232E+01 0.18170642355E+01
 0.19131288127E+01 0.20067058119E+01 0.20854989893E+01 0.21381726837E+01 0.21567001604E+01
 0.21381768233E+01 0.20855055209E+01 0.17575963537E+01 0.17133379753E+01 0.16781168348E+01
 0.16586747165E+01 0.16586754005E+01 0.16781189673E+01 0.17133416387E+01 0.17576012759E+01
 0.18022361968E+01 0.18383009756E+01 0.18584173830E+01 0.18584139866E+01 0.18382932780E+01
 0.18022289142E+01 0.17575975212E+01 0.17133430378E+01 0.16781266386E+01 0.16586881413E+01
 0.16586881199E+01 0.16781267143E+01 0.17133434807E+01 0.17575984236E+01 0.18022299699E+01
 0.18382937841E+01 0.18584130960E+01 0.18584145629E+01 0.18382964269E+01 0.18022308634E+01
 0.16375213042E+01 0.16484746494E+01 0.16781200021E+01 0.17295398024E+01 0.18023089862E+01
 0.18920224496E+01 0.19904306029E+01 0.20863018624E+01 0.21670655589E+01 0.22210833917E+01
 0.22400863514E+01 0.22210781895E+01 0.21670571935E+01 0.20862927080E+01 0.19904224365E+01
 0.18920168963E+01 0.18023075376E+01 0.17295429232E+01 0.16781267143E+01 0.16484828698E+01
 0.16375281772E+01 0.16396387841E+01 0.16479928900E+01 0.16561190450E+01 0.16593889868E+01
 0.16561214980E+01 0.16479942302E+01 0.16396359024E+01 0.16375219527E+01 0.17133426736E+01
 0.18170709588E+01 0.19481647380E+01 0.21016791375E+01 0.22678492210E+01 0.24324908004E+01
 0.25784583710E+01 0.26882280400E+01 0.27472584508E+01 0.27472580967E+01 0.26882267545E+01
 0.25784564543E+01 0.24324891234E+01 0.22678467415E+01 0.21016730667E+01 0.19481554877E+01
 0.18170642355E+01 0.17133434807E+01 0.16375281772E+01 0.15867316631E+01 0.15559644677E+01
 0.15395952813E+01 0.15328012284E+01 0.15328029656E+01 0.15395984749E+01 0.15559647261E+01
 0.15867268038E+01 0.17575998776E+01 0.19131408519E+01 0.21062401134E+01 0.23320741354E+01
 0.25799024276E+01 0.28327450179E+01 0.30683038079E+01 0.32615414099E+01 0.33889187809E+01
 0.34334504688E+01 0.33889219061E+01 0.32615461100E+01 0.30683115798E+01 0.28327570299E+01
 0.25799119217E+01 0.23320714005E+01 0.21062263714E+01 0.19131288127E+01 0.17575984236E+01
 0.16396387841E+01 0.15559644677E+01 0.15016225728E+01 0.14715507718E+01 0.14619900386E+01
 0.14715508781E+01 0.15016212484E+01 0.15559598090E+01 0.16396332555E+01 0.20067241522E+01
 0.22628713866E+01 0.25671049184E+01 0.29089501913E+01 0.32696631568E+01 0.36220673725E+01
 0.39324818316E+01 0.41654190591E+01 0.42906539809E+01 0.42906556587E+01 0.41654216035E+01
 0.39324853562E+01 0.36220797817E+01 0.32696864181E+01 0.29089695053E+01 0.25671038153E+01
 0.22628527215E+01 0.20067058119E+01 0.18022299699E+01 0.16479928900E+01 0.15395952813E+01
 0.14715507718E+01 0.14389667121E+01 0.14389631943E+01 0.14715422861E+01 0.15395860730E+01
 0.16479880831E+01 0.18022359855E+01 0.24016522056E+01 0.27858323910E+01 0.32298032963E+01
 0.37152061798E+01 0.42116814641E+01 0.46771069453E+01 0.50617129284E+01 0.53168015701E+01
 0.54062894608E+01 0.53168006037E+01 0.50617063946E+01 0.46771024419E+01 0.42116958876E+01
 0.37152396713E+01 0.32298310372E+01 0.27858309726E+01 0.24016248121E+01 0.20854989893E+01
 0.18382937841E+01 0.16561190450E+01 0.15328012284E+01 0.14619900386E+01 0.14389631943E+01
 0.14619772445E+01 0.15327859156E+01 0.16561145857E+01 0.18383086316E+01 0.20855295618E+01
 0.29649926371E+01 0.35117237241E+01 0.41313417044E+01 0.47937855533E+01 0.54510019458E+01
 0.60386845939E+01 0.64851768501E+01 0.67271626289E+01 0.67271621855E+01 0.64851699428E+01
 0.60386691259E+01 0.54509961007E+01 0.47938113427E+01 0.41313928328E+01 0.35117642596E+01
 0.29649920823E+01 0.25058912886E+01 0.21381726837E+01 0.18584130960E+01 0.16593889868E+01
 0.15328029656E+01 0.14715508781E+01 0.14715422861E+01 0.15327859156E+01 0.16593834392E+01
 0.18584345712E+01 0.21382162019E+01 0.25059288345E+01 0.37227708171E+01 0.44739682949E+01
 0.53117751164E+01 0.61875684531E+01 0.70259792156E+01 0.77311446973E+01 0.82047653929E+01
 0.83719997127E+01 0.82047638922E+01 0.77311343822E+01 0.70259647441E+01 0.61875742132E+01
 0.53118218231E+01 0.44740419218E+01 0.37228259099E+01 0.30829265463E+01 0.25619222882E+01
 0.21567001604E+01 0.18584145629E+01 0.16561214980E+01 0.15395984749E+01 0.15016212484E+01
 0.15395860730E+01 0.16561145857E+01 0.18584345712E+01 0.21567478085E+01 0.25619659219E+01
 0.30829252809E+01 0.47005598884E+01 0.57037118213E+01 0.68039329776E+01 0.79227756176E+01
 0.89448251258E+01 0.97339903999E+01 0.10165989793E+02 0.10165988886E+02 0.97339859742E+01
 0.89448150436E+01 0.79227675603E+01 0.68039504259E+01 0.57037737646E+01 0.47006478388E+01
 0.38361019221E+01 0.31241207314E+01 0.25619241702E+01 0.21381768233E+01 0.18382964269E+01
 0.16479942302E+01 0.15559647261E+01 0.15559598090E+01 0.16479880831E+01 0.18383086316E+01
 0.21382162019E+01 0.25619659219E+01 0.31241193912E+01 0.38360398243E+01 0.59155539452E+01
 0.72163638835E+01 0.86121513695E+01 0.99795475118E+01 0.11150828375E+02 0.11947403829E+02
 0.12230448989E+02 0.11947396792E+02 0.11150821436E+02 0.99795402649E+01 0.86121452765E+01
 0.72163816793E+01 0.59156177871E+01 0.47800120483E+01 0.38360979570E+01 0.30829256967E+01
 0.25058974048E+01 0.20855055209E+01 0.18022308634E+01 0.16396359024E+01 0.15867268038E+01
 0.16396332555E+01 0.18022359855E+01 0.20855295618E+01 0.25059288345E+01 0.30829252809E+01
 0.38360398243E+01 0.47799236247E+01 0.83720239623E+01 0.10165988948E+02 0.11947389285E+02
 0.13488990579E+02 0.14544582232E+02 0.14920929688E+02 0.14544553414E+02 0.13488973498E+02
 0.11947396792E+02 0.10165988886E+02 0.83719997127E+01 0.67271626289E+01 0.53168015701E+01
 0.41654190591E+01 0.32615414099E+01 0.25784583710E+01 0.20863018624E+01 0.17576012759E+01
 0.15701610519E+01 0.15093903543E+01 0.15701716134E+01 0.17576067575E+01 0.20862904640E+01
 0.25784277913E+01 0.32614939533E+01 0.41653704662E+01 0.53167814753E+01 0.67271804931E+01
 0.10165988948E+02 0.12230435752E+02 0.14169486627E+02 0.15697189298E+02 0.16543689606E+02
 0.16543671811E+02 0.15697160545E+02 0.14169482007E+02 0.12230448989E+02 0.10165989793E+02
 0.82047653929E+01 0.64851768501E+01 0.50617129284E+01 0.39324818316E+01 0.30683038079E+01
 0.24324908004E+01 0.19904306029E+01 0.17133416387E+01 0.15803448441E+01 0.15803505253E+01
 0.17133492954E+01 0.19904255074E+01 0.24324701717E+01 0.30682740032E+01 0.39324519956E+01
 0.50616970023E+01 0.64851837156E+01 0.82047806501E+01 0.11947389285E+02 0.14169486627E+02
 0.16108579076E+02 0.17443827513E+02 0.17921236057E+02 0.17443806675E+02 0.16108561739E+02
 0.14169489384E+02 0.11947403829E+02 0.97339903999E+01 0.77311446973E+01 0.60386845939E+01
 0.46771069453E+01 0.36220673725E+01 0.28327450179E+01 0.22678492210E+01 0.18920224496E+01
 0.16781189673E+01 0.16088178048E+01 0.16781245979E+01 0.18920236422E+01 0.22678409512E+01
 0.28327333468E+01 0.36220599816E+01 0.46771055765E+01 0.60386862939E+01 0.77311434228E+01
 0.97339803121E+01 0.13488990579E+02 0.15697189298E+02 0.17443827513E+02 0.18413960963E+02
 0.18413954406E+02 0.17443809551E+02 0.15697168670E+02 0.13488982294E+02 0.11150828375E+02
 0.89448251258E+01 0.70259792156E+01 0.54510019458E+01 0.42116814641E+01 0.32696631568E+01
 0.25799024276E+01 0.21016791375E+01 0.18023089862E+01 0.16586754005E+01 0.16586763371E+01
 0.18023097164E+01 0.21016774970E+01 0.25799026353E+01 0.32696735038E+01 0.42117021264E+01
 0.54510189719E+01 0.70259780109E+01 0.89448094314E+01 0.11150818017E+02 0.14544582232E+02
 0.16543689606E+02 0.17921236057E+02 0.18413954406E+02 0.17921229428E+02 0.16543662706E+02
 0.14544543684E+02 0.12256055161E+02 0.99795475118E+01 0.79227756176E+01 0.61875684531E+01
 0.47937855533E+01 0.37152061798E+01 0.29089501913E+01 0.23320741354E+01 0.19481647380E+01
 0.17295398024E+01 0.16586747165E+01 0.17295367119E+01 0.19481615364E+01 0.23320755607E+01
 0.29089647128E+01 0.37152404898E+01 0.47938282219E+01 0.61875918105E+01 0.79227695766E+01
 0.99795390675E+01 0.12256074381E+02 0.14920929688E+02 0.16543671811E+02 0.17443806675E+02
 0.17443809551E+02 0.16543662706E+02 0.14920892657E+02 0.12864791046E+02 0.10680908501E+02
 0.86121513695E+01 0.68039329776E+01 0.53117751164E+01 0.41313417044E+01 0.32298032963E+01
 0.25671049184E+01 0.21062401134E+01 0.18170709588E+01 0.16781200021E+01 0.16781168348E+01
 0.18170646972E+01 0.21062362038E+01 0.25671103355E+01 0.32298309580E+01 0.41313960088E+01
 0.53118306424E+01 0.68039551691E+01 0.86121454854E+01 0.10680916515E+02 0.12864829535E+02
 0.14544553414E+02 0.15697160545E+02 0.16108561739E+02 0.15697168670E+02 0.14544543684E+02
 0.12864791046E+02 0.10929696127E+02 0.89884575257E+01 0.72163638835E+01 0.57037118213E+01
 0.44739682949E+01 0.35117237241E+01 0.27858323910E+01 0.22628713866E+01 0.19131408519E+01
 0.17133426736E+01 0.16484746494E+01 0.17133379753E+01 0.19131339104E+01 0.22628645198E+01
 0.27858375146E+01 0.35117619134E+01 0.44740376422E+01 0.57037716315E+01 0.72163805872E+01
 0.89884510161E+01 0.10929706624E+02 0.12864816865E+02 0.13488973498E+02 0.14169482007E+02
 0.14169489384E+02 0.13488982294E+02 0.12256055161E+02 0.10680908501E+02 0.89884575257E+01
 0.73617036827E+01 0.59155539452E+01 0.47005598884E+01 0.37227708171E+01 0.29649926371E+01
 0.24016522056E+01 0.20067241522E+01 0.17575998776E+01 0.16375219527E+01 0.16375213042E+01
 0.17575963537E+01 0.20067127005E+01 0.24016350370E+01 0.29649945091E+01 0.37228191943E+01
 0.47006404809E+01 0.59156149171E+01 0.73617178226E+01 0.89884501558E+01 0.10680909238E+02
 0.12256057696E+02 0.11947396792E+02 0.12230448989E+02 0.11947403829E+02 0.11150828375E+02
 0.99795475118E+01 0.86121513695E+01 0.72163638835E+01 0.59155539452E+01 0.47799236247E+01
 0.38360398243E+01 0.30829252809E+01 0.25059288345E+01 0.20855295618E+01 0.18022359855E+01
 0.16396332555E+01 0.15867268038E+01 0.16396359024E+01 0.18022308634E+01 0.20855055209E+01
 0.25058974048E+01 0.30829256967E+01 0.38360979570E+01 0.47800120483E+01 0.59156177871E+01
 0.72163816793E+01 0.86121452765E+01 0.99795402649E+01 0.11150821436E+02 0.10165988886E+02
 0.10165989793E+02 0.97339903999E+01 0.89448251258E+01 0.79227756176E+01 0.68039329776E+01
 0.57037118213E+01 0.47005598884E+01 0.38360398243E+01 0.31241193912E+01 0.25619659219E+01
 0.21382162019E+01 0.18383086316E+01 0.16479880831E+01 0.15559598090E+01 0.15559647261E+01
 0.16479942302E+01 0.18382964269E+01 0.21381768233E+01 0.25619241702E+01 0.31241207314E+01
 0.38361019221E+01 0.47006478388E+01 0.57037737646E+01 0.68039504259E+01 0.79227675603E+01
 0.89448150436E+01 0.97339859742E+01 0.83719997127E+01 0.82047653929E+01 0.77311446973E+01
 0.70259792156E+01 0.61875684531E+01 0.53117751164E+01 0.44739682949E+01 0.37227708171E+01
 0.30829252809E+01 0.25619659219E+01 0.21567478085E+01 0.18584345712E+01 0.16561145857E+01
 0.15395860730E+01 0.15016212484E+01 0.15395984749E+01 0.16561214980E+01 0.18584145629E+01
 0.21567001604E+01 0.25619222882E+01 0.30829265463E+01 0.37228259099E+01 0.44740419218E+01
 0.53118218231E+01 0.61875742132E+01 0.70259647441E+01 0.77311343822E+01 0.82047638922E+01
 0.67271626289E+01 0.64851768501E+01 0.60386845939E+01 0.54510019458E+01 0.47937855533E+01
 0.41313417044E+01 0.35117237241E+01 0.29649926371E+01 0.25059288345E+01 0.21382162019E+01
 0.18584345712E+01 0.16593834392E+01 0.15327859156E+01 0.14715422861E+01 0.14715508781E+01
 0.15328029656E+01 0.16593889868E+01 0.18584130960E+01 0.21381726837E+01 0.25058912886E+01
 0.29649920823E+01 0.35117642596E+01 0.41313928328E+01 0.47938113427E+01 0.54509961007E+01
 0.60386691259E+01 0.64851699428E+01 0.67271621855E+01 0.53168015701E+01 0.50617129284E+01
 0.46771069453E+01 0.42116814641E+01 0.37152061798E+01 0.32298032963E+01 0.27858323910E+01
 0.24016522056E+01 0.20855295618E+01 0.18383086316E+01 0.16561145857E+01 0.15327859156E+01
 0.14619772445E+01 0.14389631943E+01 0.14619900386E+01 0.15328012284E+01 0.16561190450E+01
 0.18382937841E+01 0.20854989893E+01 0.24016248121E+01 0.27858309726E+01 0.32298310372E+01
 0.37152396713E+01 0.42116958876E+01 0.46771024419E+01 0.50617063946E+01 0.53168006037E+01
 0.54062894608E+01 0.41654190591E+01 0.39324818316E+01 0.36220673725E+01 0.32696631568E+01
 0.29089501913E+01 0.25671049184E+01 0.22628713866E+01 0.20067241522E+01 0.18022359855E+01
 0.16479880831E+01 0.15395860730E+01 0.14715422861E+01 0.14389631943E+01 0.14389667121E+01
 0.14715507718E+01 0.15395952813E+01 0.16479928900E+01 0.18022299699E+01 0.20067058119E+01
 0.22628527215E+01 0.25671038153E+01 0.29089695053E+01 0.32696864181E+01 0.36220797817E+01
 0.39324853562E+01 0.41654216035E+01 0.42906556587E+01 0.42906539809E+01 0.32615414099E+01
 0.30683038079E+01 0.28327450179E+01 0.25799024276E+01 0.23320741354E+01 0.21062401134E+01
 0.19131408519E+01 0.17575998776E+01 0.16396332555E+01 0.15559598090E+01 0.15016212484E+01
 0.14715508781E+01 0.14619900386E+01 0.14715507718E+01 0.15016225728E+01 0.15559644677E+01
 0.16396387841E+01 0.17575984236E+01 0.19131288127E+01 0.21062263714E+01 0.23320714005E+01
 0.25799119217E+01 0.28327570299E+01 0.30683115798E+01 0.32615461100E+01 0.33889219061E+01
 0.34334504688E+01 0.33889187809E+01 0.25784583710E+01 0.24324908004E+01 0.22678492210E+01
 0.21016791375E+01 0.19481647380E+01 0.18170709588E+01 0.17133426736E+01 0.16375219527E+01
 0.15867268038E+01 0.15559647261E+01 0.15395984749E+01 0.15328029656E+01 0.15328012284E+01
 0.15395952813E+01 0.15559644677E+01 0.15867316631E+01 0.16375281772E+01 0.17133434807E+01
 0.18170642355E+01 0.19481554877E+01 0.21016730667E+01 0.22678467415E+01 0.24324891234E+01
 0.25784564543E+01 0.26882267545E+01 0.27472580967E+01 0.27472584508E+01 0.26882280400E+01
 0.20863018624E+01 0.19904306029E+01 0.18920224496E+01 0.18023089862E+01 0.17295398024E+01
 0.16781200021E+01 0.16484746494E+01 0.16375213042E+01 0.16396359024E+01 0.16479942302E+01
 0.16561214980E+01 0.16593889868E+01 0.16561190450E+01 0.16479928900E+01 0.16396387841E+01
 0.16375281772E+01 0.16484828698E+01 0.16781267143E+01 0.17295429232E+01 0.18023075376E+01
 0.18920168963E+01 0.19904224365E+01 0.20862927080E+01 0.21670571935E+01 0.22210781895E+01
 0.22400863514E+01 0.22210833917E+01 0.21670655589E+01 0.17576012759E+01 0.17133416387E+01
 0.16781189673E+01 0.16586754005E+01 0.16586747165E+01 0.16781168348E+01 0.17133379753E+01
 0.17575963537E+01 0.18022308634E+01 0.18382964269E+01 0.18584145629E+01 0.18584130960E+01
 0.18382937841E+01 0.18022299699E+01 0.17575984236E+01 0.17133434807E+01 0.16781267143E+01
 0.16586881199E+01 0.16586881413E+01 0.16781266386E+01 0.17133430378E+01 0.17575975212E+01
 0.18022289142E+01 0.18382932780E+01 0.18584139866E+01 0.18584173830E+01 0.18383009756E+01
 0.18022361968E+01 0.15701610519E+01 0.15803448441E+01 0.16088178048E+01 0.16586763371E+01
 0.17295367119E+01 0.18170646972E+01 0.19131339104E+01 0.20067127005E+01 0.20855055209E+01
 0.21381768233E+01 0.21567001604E+01 0.21381726837E+01 0.20854989893E+01 0.20067058119E+01
 0.19131288127E+01 0.18170642355E+01 0.17295429232E+01 0.16586881413E+01 0.16088316488E+01
 0.15803573233E+01 0.15701696400E+01 0.15726765650E+01 0.15811494918E+01 0.15892576475E+01
 0.15925042526E+01 0.15892615192E+01 0.15811522660E+01 0.15726738549E+01 0.15093903543E+01
 0.15803505253E+01 0.16781245979E+01 0.18023097164E+01 0.19481615364E+01 0.21062362038E+01
 0.22628645198E+01 0.24016350370E+01 0.25058974048E+01 0.25619241702E+01 0.25619222882E+01
 0.25058912886E+01 0.24016248121E+01 0.22628527215E+01 0.21062263714E+01 0.19481554877E+01
 0.18023075376E+01 0.16781266386E+01 0.15803573233E+01 0.15094002156E+01 0.14622874657E+01
 0.14340401586E+01 0.14191599238E+01 0.14130311512E+01 0.14130320277E+01 0.14191604151E+01
 0.14340364811E+01 0.14622789144E+01 0.15701716134E+01 0.17133492954E+01 0.18920236422E+01
 0.21016774970E+01 0.23320755607E+01 0.25671103355E+01 0.27858375146E+01 0.29649945091E+01
 0.30829256967E+01 0.31241207314E+01 0.30829265463E+01 0.29649920823E+01 0.27858309726E+01
 0.25671038153E+01 0.23320714005E+01 0.21016730667E+01 0.18920168963E+01 0.17133430378E+01
 0.15701696400E+01 0.14622874657E+01 0.13862719970E+01 0.13371708572E+01 0.13100875923E+01
 0.13014878121E+01 0.13100866454E+01 0.13371686975E+01 0.13862688367E+01 0.14622853516E+01
 0.17576067575E+01 0.19904255074E+01 0.22678409512E+01 0.25799026353E+01 0.29089647128E+01
 0.32298309580E+01 0.35117619134E+01 0.37228191943E+01 0.38360979570E+01 0.38361019221E+01
 0.37228259099E+01 0.35117642596E+01 0.32298310372E+01 0.29089695053E+01 0.25799119217E+01
 0.22678467415E+01 0.19904224365E+01 0.17575975212E+01 0.15726765650E+01 0.14340401586E+01
 0.13371708572E+01 0.12766215159E+01 0.12476932058E+01 0.12476912518E+01 0.12766179307E+01
 0.13371700465E+01 0.14340447128E+01 0.15726856514E+01 0.20862904640E+01 0.24324701717E+01
 0.28327333468E+01 0.32696735038E+01 0.37152404898E+01 0.41313960088E+01 0.44740376422E+01
 0.47006404809E+01 0.47800120483E+01 0.47006478388E+01 0.44740419218E+01 0.41313928328E+01
 0.37152396713E+01 0.32696864181E+01 0.28327570299E+01 0.24324891234E+01 0.20862927080E+01
 0.18022289142E+01 0.15811494918E+01 0.14191599238E+01 0.13100875923E+01 0.12476932058E+01
 0.12274426696E+01 0.12476874476E+01 0.13100835899E+01 0.14191652547E+01 0.15811634757E+01
 0.18022410169E+01 0.25784277913E+01 0.30682740032E+01 0.36220599816E+01 0.42117021264E+01
 0.47938282219E+01 0.53118306424E+01 0.57037716315E+01 0.59156149171E+01 0.59156177871E+01
 0.57037737646E+01 0.53118218231E+01 0.47938113427E+01 0.42116958876E+01 0.36220797817E+01
 0.30683115798E+01 0.25784564543E+01 0.21670571935E+01 0.18382932780E+01 0.15892576475E+01
 0.14130311512E+01 0.13014878121E+01 0.12476912518E+01 0.12476874476E+01 0.13014814941E+01
 0.14130332897E+01 0.15892731322E+01 0.18383105809E+01 0.21670553355E+01 0.32614939533E+01
 0.39324519956E+01 0.46771055765E+01 0.54510189719E+01 0.61875918105E+01 0.68039551691E+01
 0.72163805872E+01 0.73617178226E+01 0.72163816793E+01 0.68039504259E+01 0.61875742132E+01
 0.54509961007E+01 0.46771024419E+01 0.39324853562E+01 0.32615461100E+01 0.26882267545E+01
 0.22210781895E+01 0.18584139866E+01 0.15925042526E+01 0.14130320277E+01 0.13100866454E+01
 0.12766179307E+01 0.13100835899E+01 0.14130332897E+01 0.15925180158E+01 0.18584341448E+01
 0.22210803619E+01 0.26881934512E+01 0.41653704662E+01 0.50616970023E+01 0.60386862939E+01
 0.70259780109E+01 0.79227695766E+01 0.86121454854E+01 0.89884510161E+01 0.89884501558E+01
 0.86121452765E+01 0.79227675603E+01 0.70259647441E+01 0.60386691259E+01 0.50617063946E+01
 0.41654216035E+01 0.33889219061E+01 0.27472580967E+01 0.22400863514E+01 0.18584173830E+01
 0.15892615192E+01 0.14191604151E+01 0.13371686975E+01 0.13371700465E+01 0.14191652547E+01
 0.15892731322E+01 0.18584341448E+01 0.22400890422E+01 0.27472233151E+01 0.33888578968E+01
 0.53167814753E+01 0.64851837156E+01 0.77311434228E+01 0.89448094314E+01 0.99795390675E+01
 0.10680916515E+02 0.10929706624E+02 0.10680909238E+02 0.99795402649E+01 0.89448150436E+01
 0.77311343822E+01 0.64851699428E+01 0.53168006037E+01 0.42906556587E+01 0.34334504688E+01
 0.27472584508E+01 0.22210833917E+01 0.18383009756E+01 0.15811522660E+01 0.14340364811E+01
 0.13862688367E+01 0.14340447128E+01 0.15811634757E+01 0.18383105809E+01 0.22210803619E+01
 0.27472233151E+01 0.34333831218E+01 0.42905937020E+01 0.67271804931E+01 0.82047806501E+01
 0.97339803121E+01 0.11150818017E+02 0.12256074381E+02 0.12864829535E+02 0.12864816865E+02
 0.12256057696E+02 0.11150821436E+02 0.97339859742E+01 0.82047638922E+01 0.67271621855E+01
 0.54062894608E+01 0.42906539809E+01 0.33889187809E+01 0.26882280400E+01 0.21670655589E+01
 0.18022361968E+01 0.15726738549E+01 0.14622789144E+01 0.14622853516E+01 0.15726856514E+01
 0.18022410169E+01 0.21670553355E+01 0.26881934512E+01 0.33888578968E+01 0.42905937020E+01
 0.54062684834E+01 0.97830132272E+01 0.11758157595E+02 0.13604002029E+02 0.15051767346E+02
 0.15851515718E+02 0.15851484246E+02 0.15051700499E+02 0.13603950586E+02 0.11758142533E+02
 0.97830159512E+01 0.78980022702E+01 0.62398579936E+01 0.48653610596E+01 0.37753320186E+01
 0.29421807263E+01 0.23298854533E+01 0.19043433798E+01 0.16375240562E+01 0.15093880001E+01
 0.15093941147E+01 0.16375306753E+01 0.19043336897E+01 0.23298639492E+01 0.29421686873E+01
 0.37753421021E+01 0.48653857548E+01 0.62398792890E+01 0.78980079666E+01 0.11758157595E+02
 0.13930661518E+02 0.15817598867E+02 0.17112155245E+02 0.17574249931E+02 0.17112113299E+02
 0.15817538155E+02 0.13930615073E+02 0.11758144597E+02 0.95842445207E+01 0.76103935414E+01
 0.59398508210E+01 0.45965455188E+01 0.35576072642E+01 0.27819470386E+01 0.22274975209E+01
 0.18586045814E+01 0.16484746050E+01 0.15803467062E+01 0.16484808401E+01 0.18586042342E+01
 0.22274870385E+01 0.27819428259E+01 0.35576262676E+01 0.45965803438E+01 0.59398748337E+01
 0.76103925150E+01 0.95842353444E+01 0.13604002029E+02 0.15817598867E+02 0.17561883987E+02
 0.18528990344E+02 0.18528979294E+02 0.17561847242E+02 0.15817544120E+02 0.13603962523E+02
 0.11250228898E+02 0.90221762159E+01 0.70812416339E+01 0.54892658765E+01 0.42397524513E+01
 0.32930360104E+01 0.26015247184E+01 0.21224460340E+01 0.18223042029E+01 0.16781174473E+01
 0.16781199091E+01 0.18223072250E+01 0.21224441994E+01 0.26015251444E+01 0.32930558783E+01
 0.42397939744E+01 0.54893016043E+01 0.70812430392E+01 0.90221550371E+01 0.11250228019E+02
 0.15051767346E+02 0.17112155245E+02 0.18528990344E+02 0.19035469798E+02 0.18528976767E+02
 0.17112111517E+02 0.15051707795E+02 0.12684925490E+02 0.10323785470E+02 0.81879929772E+01
 0.63880639947E+01 0.49469677725E+01 0.38366473812E+01 0.30098872996E+01 0.24195057314E+01
 0.20264864837E+01 0.18023031018E+01 0.17295353691E+01 0.18023047233E+01 0.20264869920E+01
 0.24195047817E+01 0.30098959256E+01 0.38366802123E+01 0.49470153763E+01 0.63880911145E+01
 0.81879848212E+01 0.10323777079E+02 0.12684957036E+02 0.15851515718E+02 0.17574249931E+02
 0.18528979294E+02 0.18528976767E+02 0.17574226779E+02 0.15851460752E+02 0.13663588141E+02
 0.11334821622E+02 0.91274356348E+01 0.72011721447E+01 0.56179016628E+01 0.43722538848E+01
 0.34259968806E+01 0.27328033829E+01 0.22509954779E+01 0.19481556005E+01 0.18023024274E+01
 0.18023032763E+01 0.19481567373E+01 0.22509918724E+01 0.27327948896E+01 0.34260010069E+01
 0.43722891883E+01 0.56179539826E+01 0.72012061636E+01 0.91274480635E+01 0.11334848318E+02
 0.13663645025E+02 0.15851484246E+02 0.17112113299E+02 0.17561847242E+02 0.17112111517E+02
 0.15851460752E+02 0.14011800573E+02 0.11890093514E+02 0.97620595481E+01 0.78239829750E+01
 0.61774925882E+01 0.48476593610E+01 0.38140680693E+01 0.30381511656E+01 0.24800492568E+01
 0.21062311627E+01 0.18920110791E+01 0.18223019262E+01 0.18920157038E+01 0.21062318627E+01
 0.24800332021E+01 0.30381233254E+01 0.38140611484E+01 0.48476980121E+01 0.61775572602E+01
 0.78240364613E+01 0.97620974648E+01 0.11890135755E+02 0.14011844790E+02 0.15051700499E+02
 0.15817538155E+02 0.15817544120E+02 0.15051707795E+02 0.13663588141E+02 0.11890093514E+02
 0.99867609792E+01 0.81631288202E+01 0.65509383328E+01 0.52065005734E+01 0.41330213283E+01
 0.33061977952E+01 0.26931635200E+01 0.22628664241E+01 0.19904117464E+01 0.18585939950E+01
 0.18586004872E+01 0.19904230928E+01 0.22628609279E+01 0.26931257591E+01 0.33061482361E+01
 0.41330079249E+01 0.52065462409E+01 0.65510143440E+01 0.81631929493E+01 0.99868004340E+01
 0.11890115652E+02 0.13663594533E+02 0.13603950586E+02 0.13930615073E+02 0.13603962523E+02
 0.12684925490E+02 0.11334821622E+02 0.97620595481E+01 0.81631288202E+01 0.66823458605E+01
 0.54001185737E+01 0.43436279173E+01 0.35066490087E+01 0.28676495876E+01 0.24016528715E+01
 0.20862809311E+01 0.19043203693E+01 0.18449160444E+01 0.19043380182E+01 0.20862946302E+01
 0.24016329187E+01 0.28675898529E+01 0.35065871459E+01 0.43436165377E+01 0.54001715082E+01
 0.66824257512E+01 0.81631887401E+01 0.97620820992E+01 0.11334816885E+02 0.12684910266E+02
 0.11758142533E+02 0.11758144597E+02 0.11250228898E+02 0.10323785470E+02 0.91274356348E+01
 0.78239829750E+01 0.65509383328E+01 0.54001185737E+01 0.44173261266E+01 0.36141443697E+01
 0.29824543054E+01 0.25059340036E+01 0.21670532225E+01 0.19505828038E+01 0.18453400437E+01
 0.18453524211E+01 0.19506076152E+01 0.21670602569E+01 0.25058975379E+01 0.29823819789E+01
 0.36140821916E+01 0.44173223992E+01 0.54001779504E+01 0.65510173124E+01 0.78240331235E+01
 0.91274449775E+01 0.10323775249E+02 0.11250220625E+02 0.97830159512E+01 0.95842445207E+01
 0.90221762159E+01 0.81879929772E+01 0.72011721447E+01 0.61774925882E+01 0.52065005734E+01
 0.43436279173E+01 0.36141443697E+01 0.30225447529E+01 0.25619732540E+01 0.22210848020E+01
 0.19880779922E+01 0.18528831855E+01 0.18086451874E+01 0.18529048006E+01 0.19881011351E+01
 0.22210811536E+01 0.25619264878E+01 0.30224698843E+01 0.36140871635E+01 0.43436312368E+01
 0.52065621517E+01 0.61775646028E+01 0.72012107296E+01 0.81879982364E+01 0.90221744764E+01
 0.95842471745E+01 0.78980022702E+01 0.76103935414E+01 0.70812416339E+01 0.63880639947E+01
 0.56179016628E+01 0.48476593610E+01 0.41330213283E+01 0.35066490087E+01 0.29824543054E+01
 0.25619732540E+01 0.22400960211E+01 0.20090403382E+01 0.18607488405E+01 0.17885361973E+01
 0.17885465657E+01 0.18607722321E+01 0.20090580605E+01 0.22400870651E+01 0.25619257590E+01
 0.29823823141E+01 0.35065957416E+01 0.41330256826E+01 0.48477131609E+01 0.56179571059E+01
 0.63880882212E+01 0.70812442552E+01 0.76103955335E+01 0.78980047541E+01 0.62398579936E+01
 0.59398508210E+01 0.54892658765E+01 0.49469677725E+01 0.43722538848E+01 0.38140680693E+01
 0.33061977952E+01 0.28676495876E+01 0.25059340036E+01 0.22210848020E+01 0.20090403382E+01
 0.18639774387E+01 0.17799747503E+01 0.17525429984E+01 0.17799886197E+01 0.18639982051E+01
 0.20090569446E+01 0.22210808426E+01 0.25058947429E+01 0.28675851071E+01 0.33061490618E+01
 0.38140690838E+01 0.43722926355E+01 0.49470035858E+01 0.54892786175E+01 0.59398515453E+01
 0.62398587263E+01 0.63453141314E+01 0.48653610596E+01 0.45965455188E+01 0.42397524513E+01
 0.38366473812E+01 0.34259968806E+01 0.30381511656E+01 0.26931635200E+01 0.24016528715E+01
 0.21670532225E+01 0.19880779922E+01 0.18607488405E+01 0.17799747503E+01 0.17410292974E+01
 0.17410328251E+01 0.17799850196E+01 0.18607662076E+01 0.19880987875E+01 0.21670605140E+01
 0.24016275461E+01 0.26931133186E+01 0.30381126648E+01 0.34259963734E+01 0.38366730189E+01
 0.42397758204E+01 0.45965556331E+01 0.48653642252E+01 0.50102649983E+01 0.50102639763E+01
 0.37753320186E+01 0.35576072642E+01 0.32930360104E+01 0.30098872996E+01 0.27328033829E+01
 0.24800492568E+01 0.22628664241E+01 0.20862809311E+01 0.19505828038E+01 0.18528831855E+01
 0.17885361973E+01 0.17525429984E+01 0.17410328251E+01 0.17525418166E+01 0.17885382665E+01
 0.18528961335E+01 0.19506056320E+01 0.20862955240E+01 0.22628544241E+01 0.24800174654E+01
 0.27327791080E+01 0.30098873712E+01 0.32930525917E+01 0.35576245975E+01 0.37753434567E+01
 0.39192244960E+01 0.39695939930E+01 0.39192187945E+01 0.29421807263E+01 0.27819470386E+01
 0.26015247184E+01 0.24195057314E+01 0.22509954779E+01 0.21062311627E+01 0.19904117464E+01
 0.19043203693E+01 0.18453400437E+01 0.18086451874E+01 0.17885465657E+01 0.17799886197E+01
 0.17799850196E+01 0.17885382665E+01 0.18086400618E+01 0.18453466953E+01 0.19043370383E+01
 0.19904240727E+01 0.21062270725E+01 0.22509792016E+01 0.24194919963E+01 0.26015224696E+01
 0.27819540217E+01 0.29421905053E+01 0.30629275981E+01 0.31279520797E+01 0.31279490957E+01
 0.30629197824E+01 0.23298854533E+01 0.22274975209E+01 0.21224460340E+01 0.20264864837E+01
 0.19481556005E+01 0.18920110791E+01 0.18585939950E+01 0.18449160444E+01 0.18453524211E+01
 0.18529048006E+01 0.18607722321E+01 0.18639982051E+01 0.18607662076E+01 0.18528961335E+01
 0.18453466953E+01 0.18449173902E+01 0.18586010712E+01 0.18920175467E+01 0.19481556845E+01
 0.20264798719E+01 0.21224371178E+01 0.22274907790E+01 0.23298823112E+01 0.24162691208E+01
 0.24741405550E+01 0.24945210305E+01 0.24741404299E+01 0.24162698020E+01 0.19043433798E+01
 0.18586045814E+01 0.18223042029E+01 0.18023031018E+01 0.18023024274E+01 0.18223019262E+01
 0.18586004872E+01 0.19043380182E+01 0.19506076152E+01 0.19881011351E+01 0.20090580605E+01
 0.20090569446E+01 0.19880987875E+01 0.19506056320E+01 0.19043370383E+01 0.18586010712E+01
 0.18223051568E+01 0.18023079338E+01 0.18023078580E+01 0.18223049806E+01 0.18586007077E+01
 0.19043361886E+01 0.19506044090E+01 0.19880981150E+01 0.20090579067E+01 0.20090610367E+01
 0.19881057552E+01 0.19506131271E+01 0.16375240562E+01 0.16484746050E+01 0.16781174473E+01
 0.17295353691E+01 0.18023032763E+01 0.18920157038E+01 0.19904230928E+01 0.20862946302E+01
 0.21670602569E+01 0.22210811536E+01 0.22400870651E+01 0.22210808426E+01 0.21670605140E+01
 0.20862955240E+01 0.19904240727E+01 0.18920175467E+01 0.18023079338E+01 0.17295434707E+01
 0.16781272033E+01 0.16484830129E+01 0.16375280410E+01 0.16396387118E+01 0.16479934854E+01
 0.16561212443E+01 0.16593935195E+01 0.16561279600E+01 0.16480010073E+01 0.16396411970E+01
 0.15093880001E+01 0.15803467062E+01 0.16781199091E+01 0.18023047233E+01 0.19481567373E+01
 0.21062318627E+01 0.22628609279E+01 0.24016329187E+01 0.25058975379E+01 0.25619264878E+01
 0.25619257590E+01 0.25058947429E+01 0.24016275461E+01 0.22628544241E+01 0.21062270725E+01
 0.19481556845E+01 0.18023078580E+01 0.16781272033E+01 0.15803577816E+01 0.15094004330E+01
 0.14622877865E+01 0.14340410106E+01 0.14191615901E+01 0.14130338481E+01 0.14130356140E+01
 0.14191639334E+01 0.14340385238E+01 0.14622786654E+01 0.15093941147E+01 0.16484808401E+01
 0.18223072250E+01 0.20264869920E+01 0.22509918724E+01 0.24800332021E+01 0.26931257591E+01
 0.28675898529E+01 0.29823819789E+01 0.30224698843E+01 0.29823823141E+01 0.28675851071E+01
 0.26931133186E+01 0.24800174654E+01 0.22509792016E+01 0.20264798719E+01 0.18223049806E+01
 0.16484830129E+01 0.15094004330E+01 0.14047746894E+01 0.13311624582E+01 0.12836552974E+01
 0.12574555492E+01 0.12491346819E+01 0.12574535594E+01 0.12836505788E+01 0.13311549145E+01
 0.14047662030E+01 0.16375306753E+01 0.18586042342E+01 0.21224441994E+01 0.24195047817E+01
 0.27327948896E+01 0.30381233254E+01 0.33061482361E+01 0.35065871459E+01 0.36140821916E+01
 0.36140871635E+01 0.35065957416E+01 0.33061490618E+01 0.30381126648E+01 0.27327791080E+01
 0.24194919963E+01 0.21224371178E+01 0.18586007077E+01 0.16375280410E+01 0.14622877865E+01
 0.13311624582E+01 0.12396646047E+01 0.11824983783E+01 0.11551808324E+01 0.11551785580E+01
 0.11824936807E+01 0.12396614256E+01 0.13311625407E+01 0.14622899480E+01 0.19043336897E+01
 0.22274870385E+01 0.26015251444E+01 0.30098959256E+01 0.34260010069E+01 0.38140611484E+01
 0.41330079249E+01 0.43436165377E+01 0.44173223992E+01 0.43436312368E+01 0.41330256826E+01
 0.38140690838E+01 0.34259963734E+01 0.30098873712E+01 0.26015224696E+01 0.22274907790E+01
 0.19043361886E+01 0.16396387118E+01 0.14340410106E+01 0.12836552974E+01 0.11824983783E+01
 0.11246447514E+01 0.11058660510E+01 0.11246417473E+01 0.11824974177E+01 0.12836602777E+01
 0.14340491985E+01 0.16396430287E+01 0.23298639492E+01 0.27819428259E+01 0.32930558783E+01
 0.38366802123E+01 0.43722891883E+01 0.48476980121E+01 0.52065462409E+01 0.54001715082E+01
 0.54001779504E+01 0.52065621517E+01 0.48477131609E+01 0.43722926355E+01 0.38366730189E+01
 0.32930525917E+01 0.27819540217E+01 0.23298823112E+01 0.19506044090E+01 0.16479934854E+01
 0.14191615901E+01 0.12574555492E+01 0.11551808324E+01 0.11058660510E+01 0.11058655101E+01
 0.11551808115E+01 0.12574592914E+01 0.14191686954E+01 0.16479960223E+01 0.19505942228E+01
 0.29421686873E+01 0.35576262676E+01 0.42397939744E+01 0.49470153763E+01 0.56179539826E+01
 0.61775572602E+01 0.65510143440E+01 0.66824257512E+01 0.65510173124E+01 0.61775646028E+01
 0.56179571059E+01 0.49470035858E+01 0.42397758204E+01 0.35576245975E+01 0.29421905053E+01
 0.24162691208E+01 0.19880981150E+01 0.16561212443E+01 0.14130338481E+01 0.12491346819E+01
 0.11551785580E+01 0.11246417473E+01 0.11551808115E+01 0.12491370967E+01 0.14130356067E+01
 0.16561188809E+01 0.19880832533E+01 0.24162417116E+01 0.37753421021E+01 0.45965803438E+01
 0.54893016043E+01 0.63880911145E+01 0.72012061636E+01 0.78240364613E+01 0.81631929493E+01
 0.81631887401E+01 0.78240331235E+01 0.72012107296E+01 0.63880882212E+01 0.54892786175E+01
 0.45965556331E+01 0.37753434567E+01 0.30629275981E+01 0.24741405550E+01 0.20090579067E+01
 0.16593935195E+01 0.14130356140E+01 0.12574535594E+01 0.11824936807E+01 0.11824974177E+01
 0.12574592914E+01 0.14130356067E+01 0.16593858353E+01 0.20090401160E+01 0.24741111251E+01
 0.30629006105E+01 0.48653857548E+01 0.59398748337E+01 0.70812430392E+01 0.81879848212E+01
 0.91274480635E+01 0.97620974648E+01 0.99868004340E+01 0.97620820992E+01 0.91274449775E+01
 0.81879982364E+01 0.70812442552E+01 0.59398515453E+01 0.48653642252E+01 0.39192244960E+01
 0.31279520797E+01 0.24945210305E+01 0.20090610367E+01 0.16561279600E+01 0.14191639334E+01
 0.12836505788E+01 0.12396614256E+01 0.12836602777E+01 0.14191686954E+01 0.16561188809E+01
 0.20090401160E+01 0.24944919743E+01 0.31279246206E+01 0.39192184579E+01 0.62398792890E+01
 0.76103925150E+01 0.90221550371E+01 0.10323777079E+02 0.11334848318E+02 0.11890135755E+02
 0.11890115652E+02 0.11334816885E+02 0.10323775249E+02 0.90221744764E+01 0.76103955335E+01
 0.62398587263E+01 0.50102649983E+01 0.39695939930E+01 0.31279490957E+01 0.24741404299E+01
 0.19881057552E+01 0.16480010073E+01 0.14340385238E+01 0.13311549145E+01 0.13311625407E+01
 0.14340491985E+01 0.16479960223E+01 0.19880832533E+01 0.24741111251E+01 0.31279246206E+01
 0.39695873101E+01 0.50102815961E+01 0.78980079666E+01 0.95842353444E+01 0.11250228019E+02
 0.12684957036E+02 0.13663645025E+02 0.14011844790E+02 0.13663594533E+02 0.12684910266E+02
 0.11250220625E+02 0.95842471745E+01 0.78980047541E+01 0.63453141314E+01 0.50102639763E+01
 0.39192187945E+01 0.30629197824E+01 0.24162698020E+01 0.19506131271E+01 0.16396411970E+01
 0.14622786654E+01 0.14047662030E+01 0.14622899480E+01 0.16396430287E+01 0.19505942228E+01
 0.24162417116E+01 0.30629006105E+01 0.39192184579E+01 0.50102815961E+01 0.63453349146E+01
 0.11629307158E+02 0.13749696295E+02 0.15581355023E+02 0.16835532227E+02 0.17282791469E+02
 0.16835494447E+02 0.15581281691E+02 0.13749614004E+02 0.11629256527E+02 0.94904049523E+01
 0.75366688908E+01 0.58786659487E+01 0.45463034893E+01 0.35187808089E+01 0.27540495946E+01
 0.22082747714E+01 0.18449166263E+01 0.16375198253E+01 0.15701643232E+01 0.16375258519E+01
 0.18449203493E+01 0.22082726973E+01 0.27540528463E+01 0.35188028694E+01 0.45463366286E+01
 0.58786847563E+01 0.75366671380E+01 0.94904135139E+01 0.13749696295E+02 0.15954274010E+02
 0.17687890345E+02 0.18647656910E+02 0.18647660176E+02 0.17687876389E+02 0.15954215703E+02
 0.13749618708E+02 0.11391548369E+02 0.91415464546E+01 0.71721979758E+01 0.55558096724E+01
 0.42905666061E+01 0.33360065371E+01 0.26411779662E+01 0.21602918498E+01 0.18585944678E+01
 0.17133389447E+01 0.17133418658E+01 0.18586008287E+01 0.21602960194E+01 0.26411792244E+01
 0.33360152596E+01 0.42905898992E+01 0.55558340960E+01 0.71722083094E+01 0.91415595818E+01
 0.11391596989E+02 0.15581355023E+02 0.17687890345E+02 0.19134314723E+02 0.19650717755E+02
 0.19134336184E+02 0.17687883239E+02 0.15581299777E+02 0.13155572530E+02 0.10718730668E+02
 0.84999969532E+01 0.66261191044E+01 0.51290030628E+01 0.39811570300E+01 0.31308552740E+01
 0.25254862638E+01 0.21224334458E+01 0.18920108224E+01 0.18170658674E+01 0.18920166294E+01
 0.21224421440E+01 0.25254892052E+01 0.31308502598E+01 0.39811572398E+01 0.51290175849E+01
 0.66261376618E+01 0.85000145314E+01 0.10718767098E+02 0.13155636653E+02 0.16835532227E+02
 0.18647656910E+02 0.19650717755E+02 0.19650729873E+02 0.18647667977E+02 0.16835507031E+02
 0.14531603670E+02 0.12069471102E+02 0.97190874082E+01 0.76609924186E+01 0.59717397574E+01
 0.46495567973E+01 0.36516756904E+01 0.29242936044E+01 0.24194965032E+01 0.21016606035E+01
 0.19481551052E+01 0.19481592050E+01 0.21016717292E+01 0.24195042895E+01 0.29242819629E+01
 0.36516486203E+01 0.46495420124E+01 0.59717538041E+01 0.76610243415E+01 0.97191270367E+01
 0.12069522876E+02 0.14531657720E+02 0.17282791469E+02 0.18647660176E+02 0.19134336184E+02
 0.18647667977E+02 0.17282785491E+02 0.15290060684E+02 0.12986719614E+02 0.10662397158E+02
 0.85367716516E+01 0.67324609979E+01 0.52828006155E+01 0.41645113633E+01 0.33306244384E+01
 0.27328014685E+01 0.23320562373E+01 0.21016616711E+01 0.20264863455E+01 0.21016740922E+01
 0.23320717893E+01 0.27327961452E+01 0.33305827177E+01 0.41644575557E+01 0.52827813712E+01
 0.67324940277E+01 0.85368338975E+01 0.10662460608E+02 0.12986771902E+02 0.15290092923E+02
 0.16835494447E+02 0.17687876389E+02 0.17687883239E+02 0.16835507031E+02 0.15290060684E+02
 0.13312287525E+02 0.11179091039E+02 0.91269368590E+01 0.73139280371E+01 0.58101090674E+01
 0.46192527460E+01 0.37094294091E+01 0.30381562421E+01 0.25670960923E+01 0.22678214265E+01
 0.21224358767E+01 0.21224458348E+01 0.22678447025E+01 0.25671085332E+01 0.30381259834E+01
 0.37093547903E+01 0.46191810970E+01 0.58100966694E+01 0.73139844652E+01 0.91270217651E+01
 0.11179158203E+02 0.13312317852E+02 0.15290060604E+02 0.15581281691E+02 0.15954215703E+02
 0.15581299777E+02 0.14531603670E+02 0.12986719614E+02 0.11179091039E+02 0.93356123973E+01
 0.76300965254E+01 0.61615299338E+01 0.49621389882E+01 0.40206033377E+01 0.33062065296E+01
 0.27858360565E+01 0.24324568655E+01 0.22274728650E+01 0.21602948958E+01 0.22274968150E+01
 0.24324868177E+01 0.27858376523E+01 0.33061519649E+01 0.40205065935E+01 0.49620585830E+01
 0.61615209224E+01 0.76301584469E+01 0.93356920612E+01 0.11179135373E+02 0.12986717797E+02
 0.14531580135E+02 0.13749614004E+02 0.13749618708E+02 0.13155572530E+02 0.12069471102E+02
 0.10662397158E+02 0.91269368590E+01 0.76300965254E+01 0.62850917229E+01 0.51470060752E+01
 0.42259740961E+01 0.35066580958E+01 0.29650056615E+01 0.25784269903E+01 0.23298514197E+01
 0.22082651987E+01 0.22082790714E+01 0.23298848397E+01 0.25784559945E+01 0.29649973214E+01
 0.35065919782E+01 0.42258698021E+01 0.51469223906E+01 0.62850789566E+01 0.76301462111E+01
 0.91269927403E+01 0.10662417026E+02 0.12069460842E+02 0.13155558840E+02 0.11629256527E+02
 0.11391548369E+02 0.10718730668E+02 0.97190874082E+01 0.85367716516E+01 0.73139280371E+01
 0.61615299338E+01 0.51470060752E+01 0.42978196780E+01 0.36141526449E+01 0.30829421547E+01
 0.26882040221E+01 0.24162374527E+01 0.22571106255E+01 0.22047645638E+01 0.22571319707E+01
 0.24162698832E+01 0.26882283899E+01 0.30829314338E+01 0.36140876336E+01 0.42977193927E+01
 0.51469282441E+01 0.61615178864E+01 0.73139651476E+01 0.85368090592E+01 0.97191041898E+01
 0.10718740032E+02 0.11391557559E+02 0.94904049523E+01 0.91415464546E+01 0.84999969532E+01
 0.76609924186E+01 0.67324609979E+01 0.58101090674E+01 0.49621389882E+01 0.42259740961E+01
 0.36141526449E+01 0.31241369174E+01 0.27472397646E+01 0.24741157605E+01 0.22969245974E+01
 0.22099119834E+01 0.22099183508E+01 0.22969420190E+01 0.24741406954E+01 0.27472611010E+01
 0.31241277962E+01 0.36140917279E+01 0.42258840163E+01 0.49620773259E+01 0.58101066412E+01
 0.67324930020E+01 0.76610225999E+01 0.85000199646E+01 0.91415686873E+01 0.94904158474E+01
 0.75366688908E+01 0.71721979758E+01 0.66261191044E+01 0.59717397574E+01 0.52828006155E+01
 0.46192527460E+01 0.40206033377E+01 0.35066580958E+01 0.30829421547E+01 0.27472397646E+01
 0.24945003062E+01 0.23192696353E+01 0.22166044583E+01 0.21828456287E+01 0.22166074665E+01
 0.23192788185E+01 0.24945208818E+01 0.27472616005E+01 0.30829326332E+01 0.35065982033E+01
 0.40205244698E+01 0.46192088711E+01 0.52828072491E+01 0.59717677868E+01 0.66261427700E+01
 0.71722163409E+01 0.75366823245E+01 0.76649214377E+01 0.58786659487E+01 0.55558096724E+01
 0.51290030628E+01 0.46495567973E+01 0.41645113633E+01 0.37094294091E+01 0.33062065296E+01
 0.29650056615E+01 0.26882040221E+01 0.24741157605E+01 0.23192696353E+01 0.22194987132E+01
 0.21708559265E+01 0.21708542071E+01 0.22194960572E+01 0.23192762381E+01 0.24741404341E+01
 0.26882302004E+01 0.29649961827E+01 0.33061496128E+01 0.37093621720E+01 0.41644791682E+01
 0.46495647087E+01 0.51290244352E+01 0.55558254148E+01 0.58786747512E+01 0.60531017110E+01
 0.60530985420E+01 0.45463034893E+01 0.42905666061E+01 0.39811570300E+01 0.36516756904E+01
 0.33306244384E+01 0.30381562421E+01 0.27858360565E+01 0.25784269903E+01 0.24162374527E+01
 0.22969245974E+01 0.22166044583E+01 0.21708559265E+01 0.21560724207E+01 0.21708496668E+01
 0.22165982892E+01 0.22969339271E+01 0.24162695211E+01 0.25784594604E+01 0.27858332954E+01
 0.30381122121E+01 0.33305723946E+01 0.36516501144E+01 0.39811612283E+01 0.42905823676E+01
 0.45463163503E+01 0.47158365186E+01 0.47752741455E+01 0.47158302504E+01 0.35187808089E+01
 0.33360065371E+01 0.31308552740E+01 0.29242936044E+01 0.27328014685E+01 0.25670960923E+01
 0.24324568655E+01 0.23298514197E+01 0.22571106255E+01 0.22099119834E+01 0.21828456287E+01
 0.21708542071E+01 0.21708496668E+01 0.21828334388E+01 0.22099014308E+01 0.22571184409E+01
 0.23298826899E+01 0.24324910619E+01 0.25671045852E+01 0.27327781646E+01 0.29242596454E+01
 0.31308349402E+01 0.33360066977E+01 0.35187928004E+01 0.36569296432E+01 0.37314742216E+01
 0.37314694092E+01 0.36569175270E+01 0.27540495946E+01 0.26411779662E+01 0.25254862638E+01
 0.24194965032E+01 0.23320562373E+01 0.22678214265E+01 0.22274728650E+01 0.22082651987E+01
 0.22047645638E+01 0.22099183508E+01 0.22166074665E+01 0.22194960572E+01 0.22165982892E+01
 0.22099014308E+01 0.22047484121E+01 0.22082633053E+01 0.22274905771E+01 0.22678473054E+01
 0.23320710064E+01 0.24194909057E+01 0.25254681828E+01 0.26411627632E+01 0.27540460668E+01
 0.28495239860E+01 0.29136384772E+01 0.29362467767E+01 0.29136324008E+01 0.28495184276E+01
 0.22082747714E+01 0.21602918498E+01 0.21224334458E+01 0.21016606035E+01 0.21016616711E+01
 0.21224358767E+01 0.21602948958E+01 0.22082790714E+01 0.22571319707E+01 0.22969420190E+01
 0.23192788185E+01 0.23192762381E+01 0.22969339271E+01 0.22571184409E+01 0.22082633053E+01
 0.21602841727E+01 0.21224368588E+01 0.21016730899E+01 0.21016726363E+01 0.21224365003E+01
 0.21602850381E+01 0.22082646152E+01 0.22571190254E+01 0.22969339624E+01 0.23192757655E+01
 0.23192764633E+01 0.22969371315E+01 0.22571263580E+01 0.18449166263E+01 0.18585944678E+01
 0.18920108224E+01 0.19481551052E+01 0.20264863455E+01 0.21224458348E+01 0.22274968150E+01
 0.23298848397E+01 0.24162698832E+01 0.24741406954E+01 0.24945208818E+01 0.24741404341E+01
 0.24162695211E+01 0.23298826899E+01 0.22274905771E+01 0.21224368588E+01 0.20264801314E+01
 0.19481559695E+01 0.18920173037E+01 0.18586007960E+01 0.18449176248E+01 0.18453469344E+01
 0.18528958475E+01 0.18607659449E+01 0.18639985621E+01 0.18607727263E+01 0.18529048666E+01
 0.18453525118E+01 0.16375198253E+01 0.17133389447E+01 0.18170658674E+01 0.19481592050E+01
 0.21016740922E+01 0.22678447025E+01 0.24324868177E+01 0.25784559945E+01 0.26882283899E+01
 0.27472611010E+01 0.27472616005E+01 0.26882302004E+01 0.25784594604E+01 0.24324910619E+01
 0.22678473054E+01 0.21016730899E+01 0.19481559695E+01 0.18170649887E+01 0.17133437949E+01
 0.16375282219E+01 0.15867321351E+01 0.15559654953E+01 0.15395968197E+01 0.15328038339E+01
 0.15328068648E+01 0.15396023850E+01 0.15559668437E+01 0.15867265617E+01 0.15701643232E+01
 0.17133418658E+01 0.18920166294E+01 0.21016717292E+01 0.23320717893E+01 0.25671085332E+01
 0.27858376523E+01 0.29649973214E+01 0.30829314338E+01 0.31241277962E+01 0.30829326332E+01
 0.29649961827E+01 0.27858332954E+01 0.25671045852E+01 0.23320710064E+01 0.21016726363E+01
 0.18920173037E+01 0.17133437949E+01 0.15701699068E+01 0.14622875838E+01 0.13862729365E+01
 0.13371728075E+01 0.13100901706E+01 0.13014908422E+01 0.13100894652E+01 0.13371694704E+01
 0.13862660089E+01 0.14622794057E+01 0.16375258519E+01 0.18586008287E+01 0.21224421440E+01
 0.24195042895E+01 0.27327961452E+01 0.30381259834E+01 0.33061519649E+01 0.35065919782E+01
 0.36140876336E+01 0.36140917279E+01 0.35065982033E+01 0.33061496128E+01 0.30381122121E+01
 0.27327781646E+01 0.24194909057E+01 0.21224365003E+01 0.18586007960E+01 0.16375282219E+01
 0.14622875838E+01 0.13311623585E+01 0.12396652219E+01 0.11824994532E+01 0.11551816906E+01
 0.11551788073E+01 0.11824928028E+01 0.12396585617E+01 0.13311575916E+01 0.14622842596E+01
 0.18449203493E+01 0.21602960194E+01 0.25254892052E+01 0.29242819629E+01 0.33305827177E+01
 0.37093547903E+01 0.40205065935E+01 0.42258698021E+01 0.42977193927E+01 0.42258840163E+01
 0.40205244698E+01 0.37093621720E+01 0.33305723946E+01 0.29242596454E+01 0.25254681828E+01
 0.21602850381E+01 0.18449176248E+01 0.15867321351E+01 0.13862729365E+01 0.12396652219E+01
 0.11410292999E+01 0.10845927626E+01 0.10662667026E+01 0.10845876659E+01 0.11410242287E+01
 0.12396640830E+01 0.13862742882E+01 0.15867330714E+01 0.22082726973E+01 0.26411792244E+01
 0.31308502598E+01 0.36516486203E+01 0.41644575557E+01 0.46191810970E+01 0.49620585830E+01
 0.51469223906E+01 0.51469282441E+01 0.49620773259E+01 0.46192088711E+01 0.41644791682E+01
 0.36516501144E+01 0.31308349402E+01 0.26411627632E+01 0.22082646152E+01 0.18453469344E+01
 0.15559654953E+01 0.13371728075E+01 0.11824994532E+01 0.10845927626E+01 0.10373447898E+01
 0.10373440794E+01 0.10845916432E+01 0.11824999259E+01 0.13371752237E+01 0.15559678817E+01
 0.18453494932E+01 0.27540528463E+01 0.33360152596E+01 0.39811572398E+01 0.46495420124E+01
 0.52827813712E+01 0.58100966694E+01 0.61615209224E+01 0.62850789566E+01 0.61615178864E+01
 0.58101066412E+01 0.52828072491E+01 0.46495647087E+01 0.39811612283E+01 0.33360066977E+01
 0.27540460668E+01 0.22571190254E+01 0.18528958475E+01 0.15395968197E+01 0.13100901706E+01
 0.11551816906E+01 0.10662667026E+01 0.10373440794E+01 0.10662699663E+01 0.11551834867E+01
 0.13100884688E+01 0.15395936699E+01 0.18528932246E+01 0.22571194731E+01 0.35188028694E+01
 0.42905898992E+01 0.51290175849E+01 0.59717538041E+01 0.67324940277E+01 0.73139844652E+01
 0.76301584469E+01 0.76301462111E+01 0.73139651476E+01 0.67324930020E+01 0.59717677868E+01
 0.51290244352E+01 0.42905823676E+01 0.35187928004E+01 0.28495239860E+01 0.22969339624E+01
 0.18607659449E+01 0.15328038339E+01 0.13014908422E+01 0.11551788073E+01 0.10845876659E+01
 0.10845916432E+01 0.11551834867E+01 0.13014862141E+01 0.15327917474E+01 0.18607548857E+01
 0.22969286575E+01 0.28495265976E+01 0.45463366286E+01 0.55558340960E+01 0.66261376618E+01
 0.76610243415E+01 0.85368338975E+01 0.91270217651E+01 0.93356920612E+01 0.91269927403E+01
 0.85368090592E+01 0.76610225999E+01 0.66261427700E+01 0.55558254148E+01 0.45463163503E+01
 0.36569296432E+01 0.29136384772E+01 0.23192757655E+01 0.18639985621E+01 0.15328068648E+01
 0.13100894652E+01 0.11824928028E+01 0.11410242287E+01 0.11824999259E+01 0.13100884688E+01
 0.15327917474E+01 0.18639808997E+01 0.23192682856E+01 0.29136446121E+01 0.36569471497E+01
 0.58786847563E+01 0.71722083094E+01 0.85000145314E+01 0.97191270367E+01 0.10662460608E+02
 0.11179158203E+02 0.11179135373E+02 0.10662417026E+02 0.97191041898E+01 0.85000199646E+01
 0.71722163409E+01 0.58786747512E+01 0.47158365186E+01 0.37314742216E+01 0.29362467767E+01
 0.23192764633E+01 0.18607727263E+01 0.15396023850E+01 0.13371694704E+01 0.12396585617E+01
 0.12396640830E+01 0.13371752237E+01 0.15395936699E+01 0.18607548857E+01 0.23192682856E+01
 0.29362581294E+01 0.37314995133E+01 0.47158616822E+01 0.75366671380E+01 0.91415595818E+01
 0.10718767098E+02 0.12069522876E+02 0.12986771902E+02 0.13312317852E+02 0.12986717797E+02
 0.12069460842E+02 0.10718740032E+02 0.91415686873E+01 0.75366823245E+01 0.60531017110E+01
 0.47752741455E+01 0.37314694092E+01 0.29136324008E+01 0.22969371315E+01 0.18529048666E+01
 0.15559668437E+01 0.13862660089E+01 0.13311575916E+01 0.13862742882E+01 0.15559678817E+01
 0.18528932246E+01 0.22969286575E+01 0.29136446121E+01 0.37314995133E+01 0.47753012145E+01
 0.60531067542E+01 0.94904135139E+01 0.11391596989E+02 0.13155636653E+02 0.14531657720E+02
 0.15290092923E+02 0.15290060604E+02 0.14531580135E+02 0.13155558840E+02 0.11391557559E+02
 0.94904158474E+01 0.76649214377E+01 0.60530985420E+01 0.47158302504E+01 0.36569175270E+01
 0.28495184276E+01 0.22571263580E+01 0.18453525118E+01 0.15867265617E+01 0.14622794057E+01
 0.14622842596E+01 0.15867330714E+01 0.18453494932E+01 0.22571194731E+01 0.28495265976E+01
 0.36569471497E+01 0.47158616822E+01 0.60531067542E+01 0.76649082447E+01 0.13829237923E+02
 0.15999813082E+02 0.17695550620E+02 0.18629017449E+02 0.18629046220E+02 0.17695593038E+02
 0.15999800106E+02 0.13829166613E+02 0.11496560305E+02 0.92529390628E+01 0.72695712146E+01
 0.56342106564E+01 0.43541963673E+01 0.33910567373E+01 0.26918610684E+01 0.22082631561E+01
 0.19043234366E+01 0.17576002645E+01 0.17576020465E+01 0.19043317245E+01 0.22082757929E+01
 0.26918646370E+01 0.33910460098E+01 0.43541845057E+01 0.56342111020E+01 0.72695893185E+01
 0.92529848262E+01 0.11496636794E+02 0.15999813082E+02 0.18107912006E+02 0.19542744341E+02
 0.20052154998E+02 0.19542829691E+02 0.18107989157E+02 0.15999807888E+02 0.13552719980E+02
 0.11082253528E+02 0.88100177306E+01 0.68741191965E+01 0.53237714544E+01 0.41376902639E+01
 0.32625137690E+01 0.26411749795E+01 0.22274734235E+01 0.19904159564E+01 0.19131408196E+01
 0.19904218813E+01 0.22274877558E+01 0.26411835448E+01 0.32624968188E+01 0.41376554072E+01
 0.53237511741E+01 0.68741369647E+01 0.88100756916E+01 0.11082338573E+02 0.13552793731E+02
 0.17695550620E+02 0.19542744341E+02 0.20556149938E+02 0.20556195018E+02 0.19542836546E+02
 0.17695609976E+02 0.15322620561E+02 0.12768736350E+02 0.10315917185E+02 0.81436046405E+01
 0.63507978119E+01 0.49487364418E+01 0.38952319411E+01 0.31308625099E+01 0.26015096861E+01
 0.22678231271E+01 0.21062350408E+01 0.21062390585E+01 0.22678381215E+01 0.26015275803E+01
 0.31308548690E+01 0.38951859685E+01 0.49486841989E+01 0.63507858864E+01 0.81436466527E+01
 0.10315989268E+02 0.12768798793E+02 0.15322631799E+02 0.18629017449E+02 0.20052154998E+02
 0.20556195018E+02 0.20052194265E+02 0.18629068988E+02 0.16529630772E+02 0.14081200523E+02
 0.11598572345E+02 0.93054804800E+01 0.73422718624E+01 0.57634364584E+01 0.45506635329E+01
 0.36516865567E+01 0.30098886089E+01 0.25798770287E+01 0.23320601665E+01 0.22509998307E+01
 0.23320733136E+01 0.25799017422E+01 0.30099005401E+01 0.36516537336E+01 0.45505939411E+01
 0.57633832465E+01 0.73422771080E+01 0.93055314715E+01 0.11598621801E+02 0.14081212572E+02
 0.16529600661E+02 0.18629046220E+02 0.19542829691E+02 0.19542836545E+02 0.18629068988E+02
 0.16958920087E+02 0.14803314916E+02 0.12466998648E+02 0.10201849533E+02 0.81798818300E+01
 0.64981767027E+01 0.51713922890E+01 0.41645180660E+01 0.34260103559E+01 0.29089387747E+01
 0.25798788462E+01 0.24195032430E+01 0.24195109811E+01 0.25799026122E+01 0.29089663003E+01
 0.34260077059E+01 0.41644628768E+01 0.51713126570E+01 0.64981324629E+01 0.81799006470E+01
 0.10201897846E+02 0.12467023238E+02 0.14803298956E+02 0.16958887469E+02 0.17695593038E+02
 0.18107989157E+02 0.17695609976E+02 0.16529630772E+02 0.14803314916E+02 0.12775020482E+02
 0.10691802906E+02 0.87435263187E+01 0.70592811515E+01 0.56880439663E+01 0.46192540653E+01
 0.38140841480E+01 0.32298103099E+01 0.28327157283E+01 0.26015132974E+01 0.25254938228E+01
 0.26015293019E+01 0.28327451358E+01 0.32298338513E+01 0.38140684170E+01 0.46191854834E+01
 0.56879579152E+01 0.70592371796E+01 0.87435453008E+01 0.10691843936E+02 0.12775031080E+02
 0.14803288213E+02 0.16529597738E+02 0.15999800106E+02 0.15999807888E+02 0.15322620561E+02
 0.14081200523E+02 0.12466998648E+02 0.10691802906E+02 0.89426672032E+01 0.73641850330E+01
 0.60322284861E+01 0.49621394052E+01 0.41330340068E+01 0.35117429272E+01 0.30682730124E+01
 0.27819301270E+01 0.26411784560E+01 0.26411848220E+01 0.27819498263E+01 0.30683032251E+01
 0.35117654481E+01 0.41330148440E+01 0.49620615150E+01 0.60321269894E+01 0.73641236108E+01
 0.89426689530E+01 0.10691827938E+02 0.12467000334E+02 0.14081177224E+02 0.15322598065E+02
 0.13829166612E+02 0.13552719980E+02 0.12768736350E+02 0.11598572345E+02 0.10201849533E+02
 0.87435263187E+01 0.73641850330E+01 0.61532193866E+01 0.51470084540E+01 0.43436369962E+01
 0.37227924973E+01 0.32615081106E+01 0.29421646357E+01 0.27540496460E+01 0.26918658230E+01
 0.27540563752E+01 0.29421823605E+01 0.32615412555E+01 0.37228241809E+01 0.43436232835E+01
 0.51469240738E+01 0.61531023438E+01 0.73641034324E+01 0.87435045951E+01 0.10201857923E+02
 0.11598581485E+02 0.12768744465E+02 0.13552728207E+02 0.11496560305E+02 0.11082253528E+02
 0.10315917185E+02 0.93054804800E+01 0.81798818300E+01 0.70592811515E+01 0.60322284861E+01
 0.51470084540E+01 0.44173339333E+01 0.38360594346E+01 0.33888790180E+01 0.30629068817E+01
 0.28495256223E+01 0.27439068451E+01 0.27439054517E+01 0.28495246619E+01 0.30629203570E+01
 0.33889196490E+01 0.38361041250E+01 0.44173280068E+01 0.51469282391E+01 0.60321168880E+01
 0.70591996011E+01 0.81798508285E+01 0.93054866619E+01 0.10315947353E+02 0.11082292144E+02
 0.11496578798E+02 0.92529390628E+01 0.88100177306E+01 0.81436046405E+01 0.73422718624E+01
 0.64981767027E+01 0.56880439663E+01 0.49621394052E+01 0.43436369962E+01 0.38360594346E+01
 0.34334055626E+01 0.31279367414E+01 0.29136474617E+01 0.27866187200E+01 0.27445385399E+01
 0.27866079204E+01 0.29136352452E+01 0.31279473034E+01 0.34334511161E+01 0.38361068758E+01
 0.43436334683E+01 0.49620748996E+01 0.56879610902E+01 0.64981188200E+01 0.73422506175E+01
 0.81436154483E+01 0.88100508343E+01 0.92529697218E+01 0.94083712052E+01 0.72695712146E+01
 0.68741191965E+01 0.63507978119E+01 0.57634364584E+01 0.51713922890E+01 0.46192540653E+01
 0.41330340068E+01 0.37227924973E+01 0.33888790180E+01 0.31279367414E+01 0.29362627310E+01
 0.28106964965E+01 0.27486850462E+01 0.27486776483E+01 0.28106763531E+01 0.29362451607E+01
 0.31279480400E+01 0.33889215926E+01 0.37228280913E+01 0.41330241086E+01 0.46192048267E+01
 0.51713409636E+01 0.57634073880E+01 0.63507907925E+01 0.68741267836E+01 0.72695848606E+01
 0.74829215523E+01 0.74829145702E+01 0.56342106564E+01 0.53237714544E+01 0.49487364418E+01
 0.45506635329E+01 0.41645180660E+01 0.38140841480E+01 0.35117429272E+01 0.32615081106E+01
 0.30629068817E+01 0.29136474617E+01 0.28106964965E+01 0.27507668569E+01 0.27311448019E+01
 0.27507552477E+01 0.28106756896E+01 0.29136351534E+01 0.30629237983E+01 0.32615459500E+01
 0.35117647081E+01 0.38140659500E+01 0.41644755356E+01 0.45506291052E+01 0.49487241354E+01
 0.53237730029E+01 0.56342143817E+01 0.58400529381E+01 0.59122156232E+01 0.58400512319E+01
 0.43541963673E+01 0.41376902639E+01 0.38952319411E+01 0.36516865567E+01 0.34260103559E+01
 0.32298103099E+01 0.30682730124E+01 0.29421646357E+01 0.28495256223E+01 0.27866187200E+01
 0.27486850462E+01 0.27311448019E+01 0.27311420946E+01 0.27486741134E+01 0.27866021206E+01
 0.28495214557E+01 0.29421885096E+01 0.30683122365E+01 0.32298309902E+01 0.34259935699E+01
 0.36516478287E+01 0.38952014098E+01 0.41376820472E+01 0.43542026042E+01 0.45180695159E+01
 0.46065585894E+01 0.46065558975E+01 0.45180620824E+01 0.33910567373E+01 0.32625137690E+01
 0.31308625099E+01 0.30098886089E+01 0.29089387747E+01 0.28327157283E+01 0.27819301270E+01
 0.27540496460E+01 0.27439068451E+01 0.27445385399E+01 0.27486776483E+01 0.27507552477E+01
 0.27486741134E+01 0.27445256902E+01 0.27438882067E+01 0.27540438068E+01 0.27819527907E+01
 0.28327573755E+01 0.29089686697E+01 0.30098848503E+01 0.31308334104E+01 0.32624861041E+01
 0.33910478620E+01 0.34999878799E+01 0.35732556880E+01 0.35991123313E+01 0.35732477076E+01
 0.34999815131E+01 0.26918610684E+01 0.26411749795E+01 0.26015096861E+01 0.25798770287E+01
 0.25798788462E+01 0.26015132974E+01 0.26411784560E+01 0.26918658230E+01 0.27439054517E+01
 0.27866079204E+01 0.28106763531E+01 0.28106756896E+01 0.27866021206E+01 0.27438882067E+01
 0.26918397480E+01 0.26411602485E+01 0.26015211051E+01 0.25799113296E+01 0.25799103716E+01
 0.26015202518E+01 0.26411616677E+01 0.26918416872E+01 0.27438884834E+01 0.27866018457E+01
 0.28106757932E+01 0.28106743373E+01 0.27866020565E+01 0.27438985623E+01 0.22082631561E+01
 0.22274734235E+01 0.22678231271E+01 0.23320601665E+01 0.24195032430E+01 0.25254938228E+01
 0.26411848220E+01 0.27540563752E+01 0.28495246619E+01 0.29136352452E+01 0.29362451607E+01
 0.29136351534E+01 0.28495214557E+01 0.27540438068E+01 0.26411602485E+01 0.25254669231E+01
 0.24194913624E+01 0.23320710566E+01 0.22678459562E+01 0.22274898319E+01 0.22082643056E+01
 0.22047491025E+01 0.22098999943E+01 0.22165954822E+01 0.22194923339E+01 0.22166015092E+01
 0.22099105759E+01 0.22047585043E+01 0.19043234366E+01 0.19904159564E+01 0.21062350408E+01
 0.22509998307E+01 0.24195109811E+01 0.26015293019E+01 0.27819498263E+01 0.29421823605E+01
 0.30629203570E+01 0.31279473034E+01 0.31279480400E+01 0.30629237983E+01 0.29421885096E+01
 0.27819527907E+01 0.26015211051E+01 0.24194913624E+01 0.22509795581E+01 0.21062269532E+01
 0.19904229471E+01 0.19043363843E+01 0.18453470456E+01 0.18086396479E+01 0.17885359418E+01
 0.17799819312E+01 0.17799857942E+01 0.17885436056E+01 0.18086425990E+01 0.18453399558E+01
 0.17576002645E+01 0.19131408196E+01 0.21062390585E+01 0.23320733136E+01 0.25799026122E+01
 0.28327451358E+01 0.30683032251E+01 0.32615412555E+01 0.33889196490E+01 0.34334511161E+01
 0.33889215926E+01 0.32615459500E+01 0.30683122365E+01 0.28327573755E+01 0.25799113296E+01
 0.23320710566E+01 0.21062269532E+01 0.19131291597E+01 0.17575978590E+01 0.16396384579E+01
 0.15559650544E+01 0.15016229405E+01 0.14715502818E+01 0.14619898588E+01 0.14715516575E+01
 0.15016217828E+01 0.15559593625E+01 0.16396329138E+01 0.17576020465E+01 0.19904218813E+01
 0.22678381215E+01 0.25799017422E+01 0.29089663003E+01 0.32298338513E+01 0.35117654481E+01
 0.37228241809E+01 0.38361041250E+01 0.38361068758E+01 0.37228280913E+01 0.35117647081E+01
 0.32298309902E+01 0.29089686697E+01 0.25799103716E+01 0.22678459562E+01 0.19904229471E+01
 0.17575978590E+01 0.15726759444E+01 0.14340399125E+01 0.13371719132E+01 0.12766227865E+01
 0.12476937234E+01 0.12476914567E+01 0.12766175715E+01 0.13371673712E+01 0.14340392747E+01
 0.15726796174E+01 0.19043317245E+01 0.22274877558E+01 0.26015275803E+01 0.30099005401E+01
 0.34260077059E+01 0.38140684170E+01 0.41330148440E+01 0.43436232835E+01 0.44173280068E+01
 0.43436334683E+01 0.41330241086E+01 0.38140659500E+01 0.34259935699E+01 0.30098848503E+01
 0.26015202518E+01 0.22274898319E+01 0.19043363843E+01 0.16396384579E+01 0.14340399125E+01
 0.12836548398E+01 0.11824991015E+01 0.11246450967E+01 0.11058647719E+01 0.11246390870E+01
 0.11824932793E+01 0.12836539221E+01 0.14340416941E+01 0.16396374351E+01 0.22082757929E+01
 0.26411835448E+01 0.31308548690E+01 0.36516537336E+01 0.41644628768E+01 0.46191854834E+01
 0.49620615150E+01 0.51469240738E+01 0.51469282391E+01 0.49620748996E+01 0.46192048267E+01
 0.41644755356E+01 0.36516478287E+01 0.31308334104E+01 0.26411616677E+01 0.22082643056E+01
 0.18453470456E+01 0.15559650544E+01 0.13371719132E+01 0.11824991015E+01 0.10845928569E+01
 0.10373440227E+01 0.10373418997E+01 0.10845887099E+01 0.11824966748E+01 0.13371717976E+01
 0.15559654740E+01 0.18453498071E+01 0.26918646370E+01 0.32624968188E+01 0.38951859685E+01
 0.45505939411E+01 0.51713126570E+01 0.56879579152E+01 0.60321269894E+01 0.61531023438E+01
 0.60321168880E+01 0.56879610902E+01 0.51713409636E+01 0.45506291052E+01 0.38952014098E+01
 0.32624861041E+01 0.26918416872E+01 0.22047491025E+01 0.18086396479E+01 0.15016229405E+01
 0.12766227865E+01 0.11246450967E+01 0.10373440227E+01 0.10089310378E+01 0.10373452039E+01
 0.11246449969E+01 0.12766214066E+01 0.15016245368E+01 0.18086493782E+01 0.22047686170E+01
 0.33910460098E+01 0.41376554072E+01 0.49486841989E+01 0.57633832465E+01 0.64981324629E+01
 0.70592371796E+01 0.73641236108E+01 0.73641034324E+01 0.70591996011E+01 0.64981188200E+01
 0.57634073880E+01 0.49487241354E+01 0.41376820472E+01 0.33910478620E+01 0.27438884834E+01
 0.22098999943E+01 0.17885359418E+01 0.14715502818E+01 0.12476937234E+01 0.11058647719E+01
 0.10373418997E+01 0.10373452039E+01 0.11058692159E+01 0.12476925876E+01 0.14715480873E+01
 0.17885428666E+01 0.22099170826E+01 0.27439039638E+01 0.43541845057E+01 0.53237511741E+01
 0.63507858864E+01 0.73422771080E+01 0.81799006470E+01 0.87435453008E+01 0.89426689530E+01
 0.87435045951E+01 0.81798508285E+01 0.73422506175E+01 0.63507907925E+01 0.53237730029E+01
 0.43542026042E+01 0.34999878799E+01 0.27866018457E+01 0.22165954822E+01 0.17799819312E+01
 0.14619898588E+01 0.12476914567E+01 0.11246390870E+01 0.10845887099E+01 0.11246449969E+01
 0.12476925876E+01 0.14619838940E+01 0.17799800953E+01 0.22166047912E+01 0.27866129668E+01
 0.34999860221E+01 0.56342111020E+01 0.68741369647E+01 0.81436466527E+01 0.93055314715E+01
 0.10201897846E+02 0.10691843936E+02 0.10691827938E+02 0.10201857923E+02 0.93054866619E+01
 0.81436154483E+01 0.68741267836E+01 0.56342143817E+01 0.45180695159E+01 0.35732556880E+01
 0.28106757932E+01 0.22194923339E+01 0.17799857942E+01 0.14715516575E+01 0.12766175715E+01
 0.11824932793E+01 0.11824966748E+01 0.12766214066E+01 0.14715480873E+01 0.17799800953E+01
 0.22194959723E+01 0.28106885956E+01 0.35732651935E+01 0.45180684057E+01 0.72695893185E+01
 0.88100756916E+01 0.10315989268E+02 0.11598621801E+02 0.12467023238E+02 0.12775031080E+02
 0.12467000334E+02 0.11598581485E+02 0.10315947353E+02 0.88100508343E+01 0.72695848606E+01
 0.58400529381E+01 0.46065585894E+01 0.35991123313E+01 0.28106743373E+01 0.22166015092E+01
 0.17885436056E+01 0.15016217828E+01 0.13371673712E+01 0.12836539221E+01 0.13371717976E+01
 0.15016245368E+01 0.17885428666E+01 0.22166047912E+01 0.28106885956E+01 0.35991316725E+01
 0.46065693578E+01 0.58400527767E+01 0.92529848262E+01 0.11082338573E+02 0.12768798793E+02
 0.14081212572E+02 0.14803298956E+02 0.14803288213E+02 0.14081177224E+02 0.12768744465E+02
 0.11082292144E+02 0.92529697218E+01 0.74829215523E+01 0.59122156232E+01 0.46065558975E+01
 0.35732477076E+01 0.27866020565E+01 0.22099105759E+01 0.18086425990E+01 0.15559593625E+01
 0.14340392747E+01 0.14340416941E+01 0.15559654740E+01 0.18086493782E+01 0.22099170826E+01
 0.27866129668E+01 0.35732651935E+01 0.46065693578E+01 0.59122133484E+01 0.74829142109E+01
 0.11496636794E+02 0.13552793731E+02 0.15322631799E+02 0.16529600661E+02 0.16958887469E+02
 0.16529597738E+02 0.15322598065E+02 0.13552728207E+02 0.11496578798E+02 0.94083712052E+01
 0.74829145702E+01 0.58400512319E+01 0.45180620824E+01 0.34999815131E+01 0.27438985623E+01
 0.22047585043E+01 0.18453399558E+01 0.16396329138E+01 0.15726796174E+01 0.16396374351E+01
 0.18453498071E+01 0.22047686170E+01 0.27439039638E+01 0.34999860221E+01 0.45180684057E+01
 0.58400527767E+01 0.74829142109E+01 0.94083932585E+01 0.16199530185E+02 0.18223388430E+02
 0.19574179376E+02 0.20048006765E+02 0.19574299133E+02 0.18223530115E+02 0.16199599217E+02
 0.13802337132E+02 0.11346618133E+02 0.90681693283E+01 0.70993443455E+01 0.55091348735E+01
 0.42897765238E+01 0.33910693451E+01 0.27540505843E+01 0.23298550512E+01 0.20862897086E+01
 0.20067301063E+01 0.20862911958E+01 0.23298675570E+01 0.27540616977E+01 0.33910517588E+01
 0.42897338000E+01 0.55091089388E+01 0.70993690407E+01 0.90682371488E+01 0.11346689316E+02
 0.13802358711E+02 0.18223388430E+02 0.19985406339E+02 0.20931035222E+02 0.20931104772E+02
 0.19985565318E+02 0.18223533725E+02 0.15896789677E+02 0.13331668927E+02 0.10832804213E+02
 0.85945342221E+01 0.67202279094E+01 0.52456061933E+01 0.41376982691E+01 0.33360253552E+01
 0.27819303917E+01 0.24324611523E+01 0.22628742913E+01 0.22628747418E+01 0.24324697733E+01
 0.27819468682E+01 0.33360229590E+01 0.41376586592E+01 0.52455586463E+01 0.67202247326E+01
 0.85945913328E+01 0.10832881819E+02 0.13331702314E+02 0.15896731241E+02 0.19574179376E+02
 0.20931035222E+02 0.21402652711E+02 0.20931105457E+02 0.19574291978E+02 0.17511102921E+02
 0.15028864702E+02 0.12454471090E+02 0.10049886562E+02 0.79583292629E+01 0.62577626058E+01
 0.49487327874E+01 0.39811783277E+01 0.32930437236E+01 0.28327142042E+01 0.25670998989E+01
 0.24800550795E+01 0.25671054759E+01 0.28327319925E+01 0.32930598565E+01 0.39811633137E+01
 0.49486854475E+01 0.62577247600E+01 0.79583380954E+01 0.10049925337E+02 0.12454483439E+02
 0.15028811828E+02 0.17510996601E+02 0.20048006765E+02 0.20931104772E+02 0.20931105457E+02
 0.20048028285E+02 0.18390052690E+02 0.16178263047E+02 0.13712892104E+02 0.11285404854E+02
 0.90894137585E+01 0.72343790570E+01 0.57634243817E+01 0.46495634872E+01 0.38366700508E+01
 0.32696500819E+01 0.29089385507E+01 0.27328070041E+01 0.27328090933E+01 0.29089503891E+01
 0.32696735447E+01 0.38366857765E+01 0.46495478680E+01 0.57633837193E+01 0.72343466204E+01
 0.90894036935E+01 0.11285387334E+02 0.13712833083E+02 0.16178176473E+02 0.18389987441E+02
 0.19574299133E+02 0.19985565318E+02 0.19574291977E+02 0.18390052690E+02 0.16585269477E+02
 0.14403530857E+02 0.12121199319E+02 0.99605311345E+01 0.80589702979E+01 0.64981671692E+01
 0.52827916635E+01 0.43722731150E+01 0.37152159348E+01 0.32696506792E+01 0.30098908446E+01
 0.29243007435E+01 0.30098926483E+01 0.32696631535E+01 0.37152418517E+01 0.43722955922E+01
 0.52827860739E+01 0.64981315621E+01 0.80589286679E+01 0.99604964184E+01 0.12121153950E+02
 0.14403463338E+02 0.16585207875E+02 0.18390030947E+02 0.18223530115E+02 0.18223533725E+02
 0.17511102921E+02 0.16178263047E+02 0.14403530857E+02 0.12417494964E+02 0.10436103623E+02
 0.86135953421E+01 0.70592830308E+01 0.58100996648E+01 0.48476669078E+01 0.41313636957E+01
 0.36220560059E+01 0.32930429577E+01 0.31308639854E+01 0.31308606841E+01 0.32930381835E+01
 0.36220649172E+01 0.41313963492E+01 0.48477025911E+01 0.58100980028E+01 0.70592338976E+01
 0.86135336952E+01 0.10436060686E+02 0.12417462522E+02 0.14403491558E+02 0.16178225828E+02
 0.17511084296E+02 0.16199599217E+02 0.15896789677E+02 0.15028864702E+02 0.13712892104E+02
 0.12121199319E+02 0.10436103623E+02 0.88094986189E+01 0.73641971463E+01 0.61615328355E+01
 0.52065019630E+01 0.44739881683E+01 0.39324652585E+01 0.35576187765E+01 0.33360206442E+01
 0.32625130542E+01 0.33360092203E+01 0.35576057264E+01 0.39324769269E+01 0.44740369472E+01
 0.52065487884E+01 0.61615191866E+01 0.73641188288E+01 0.88094120430E+01 0.10436055045E+02
 0.12121183406E+02 0.13712884640E+02 0.15028858619E+02 0.15896787420E+02 0.13802337132E+02
 0.13331668927E+02 0.12454471090E+02 0.11285404854E+02 0.99605311345E+01 0.86135953421E+01
 0.73641971463E+01 0.62851021342E+01 0.54001203790E+01 0.47005713829E+01 0.41653881233E+01
 0.37753434972E+01 0.35188023189E+01 0.33910633801E+01 0.33910567262E+01 0.35187828368E+01
 0.37753288519E+01 0.41654142404E+01 0.47006409369E+01 0.54001736079E+01 0.62850758168E+01
 0.73640986152E+01 0.86134897720E+01 0.99604712770E+01 0.11285399218E+02 0.12454502035E+02
 0.13331708868E+02 0.13802355383E+02 0.11346618133E+02 0.10832804213E+02 0.10049886562E+02
 0.90894137585E+01 0.80589702979E+01 0.70592830308E+01 0.61615328355E+01 0.54001203790E+01
 0.47799308683E+01 0.42906080927E+01 0.39192239349E+01 0.36569434477E+01 0.34999960648E+01
 0.34476573076E+01 0.34999833535E+01 0.36569186935E+01 0.39192143304E+01 0.42906500100E+01
 0.47800134950E+01 0.54001787405E+01 0.61615129957E+01 0.70591948016E+01 0.80588694205E+01
 0.90893535098E+01 0.10049889561E+02 0.10832853838E+02 0.11346665639E+02 0.11525875692E+02
 0.90681693283E+01 0.85945342221E+01 0.79583292629E+01 0.72343790570E+01 0.64981671692E+01
 0.58100996648E+01 0.52065019630E+01 0.47005713829E+01 0.42906080927E+01 0.39695932522E+01
 0.37314943070E+01 0.35732658825E+01 0.34941232567E+01 0.34941191645E+01 0.35732483457E+01
 0.37314670149E+01 0.39695870633E+01 0.42906513826E+01 0.47006479501E+01 0.52065594765E+01
 0.58100993365E+01 0.64981140730E+01 0.72343102777E+01 0.79582847427E+01 0.85945317663E+01
 0.90681928468E+01 0.93207834947E+01 0.93207694516E+01 0.70993443455E+01 0.67202279094E+01
 0.62577626058E+01 0.57634243817E+01 0.52827916635E+01 0.48476669078E+01 0.44739881683E+01
 0.41653881233E+01 0.39192239349E+01 0.37314943070E+01 0.35991282167E+01 0.35203097996E+01
 0.34941298343E+01 0.35203056272E+01 0.35991106125E+01 0.37314688899E+01 0.39192168891E+01
 0.41654179181E+01 0.44740407895E+01 0.48477082697E+01 0.52828000014E+01 0.57634043353E+01
 0.62577327171E+01 0.67202029842E+01 0.70993293337E+01 0.73484172541E+01 0.74352612546E+01
 0.73484236596E+01 0.55091348735E+01 0.52456061933E+01 0.49487327874E+01 0.46495634872E+01
 0.43722731150E+01 0.41313636957E+01 0.39324652585E+01 0.37753434972E+01 0.36569434477E+01
 0.35732658825E+01 0.35203097996E+01 0.34947784863E+01 0.34947815075E+01 0.35203111769E+01
 0.35732547893E+01 0.36569255373E+01 0.37753390043E+01 0.39324846764E+01 0.41313927938E+01
 0.43722890554E+01 0.46495607759E+01 0.49487239635E+01 0.52456002904E+01 0.55091283015E+01
 0.57072236021E+01 0.58136317382E+01 0.58136369604E+01 0.57072333140E+01 0.42897765238E+01
 0.41376982691E+01 0.39811783277E+01 0.38366700508E+01 0.37152159348E+01 0.36220560059E+01
 0.35576187765E+01 0.35188023189E+01 0.34999960648E+01 0.34941232567E+01 0.34941298343E+01
 0.34947815075E+01 0.34941393371E+01 0.34941293746E+01 0.34999891452E+01 0.35187912418E+01
 0.35576236419E+01 0.36220815276E+01 0.37152407048E+01 0.38366713306E+01 0.39811601651E+01
 0.41376833403E+01 0.42897762494E+01 0.44179652438E+01 0.45037703868E+01 0.45339692680E+01
 0.45037662120E+01 0.44179585683E+01 0.33910693451E+01 0.33360253552E+01 0.32930437236E+01
 0.32696500819E+01 0.32696506792E+01 0.32930429577E+01 0.33360206442E+01 0.33910633801E+01
 0.34476573076E+01 0.34941191645E+01 0.35203056272E+01 0.35203111769E+01 0.34941293746E+01
 0.34476580007E+01 0.33910482962E+01 0.33360051357E+01 0.32930520911E+01 0.32696874934E+01
 0.32696862820E+01 0.32930507845E+01 0.33360059353E+01 0.33910486514E+01 0.34476557512E+01
 0.34941276743E+01 0.35203133146E+01 0.35203096474E+01 0.34941223870E+01 0.34476612553E+01
 0.27540505843E+01 0.27819303917E+01 0.28327142042E+01 0.29089385507E+01 0.30098908446E+01
 0.31308639854E+01 0.32625130542E+01 0.33910567262E+01 0.34999833535E+01 0.35732483457E+01
 0.35991106125E+01 0.35732547893E+01 0.34999891452E+01 0.33910482962E+01 0.32624844811E+01
 0.31308327606E+01 0.30098863694E+01 0.29089692727E+01 0.28327558267E+01 0.27819521700E+01
 0.27540453709E+01 0.27438888924E+01 0.27445242189E+01 0.27486734704E+01 0.27507565911E+01
 0.27486778745E+01 0.27445364343E+01 0.27439055653E+01 0.23298550512E+01 0.24324611523E+01
 0.25670998989E+01 0.27328070041E+01 0.29243007435E+01 0.31308606841E+01 0.33360092203E+01
 0.35187828368E+01 0.36569186935E+01 0.37314670149E+01 0.37314688899E+01 0.36569255373E+01
 0.35187912418E+01 0.33360051357E+01 0.31308327606E+01 0.29242591681E+01 0.27327792683E+01
 0.25671042675E+01 0.24324891406E+01 0.23298821901E+01 0.22571195672E+01 0.22099008548E+01
 0.21828302731E+01 0.21708465046E+01 0.21708517047E+01 0.21828419005E+01 0.22099079855E+01
 0.22571101885E+01 0.20862897086E+01 0.22628742913E+01 0.24800550795E+01 0.27328090933E+01
 0.30098926483E+01 0.32930381835E+01 0.35576057264E+01 0.37753288519E+01 0.39192143304E+01
 0.39695870633E+01 0.39192168891E+01 0.37753390043E+01 0.35576236419E+01 0.32930520911E+01
 0.30098863694E+01 0.27327792683E+01 0.24800184586E+01 0.22628539357E+01 0.20862938490E+01
 0.19506052358E+01 0.18528965923E+01 0.17885365757E+01 0.17525377970E+01 0.17410294519E+01
 0.17525414912E+01 0.17885356098E+01 0.18528845525E+01 0.19505884785E+01 0.20067301063E+01
 0.22628747418E+01 0.25671054759E+01 0.29089503891E+01 0.32696631535E+01 0.36220649172E+01
 0.39324769269E+01 0.41654142404E+01 0.42906500100E+01 0.42906513826E+01 0.41654179181E+01
 0.39324846764E+01 0.36220815276E+01 0.32696874934E+01 0.29089692727E+01 0.25671042675E+01
 0.22628539357E+01 0.20067057901E+01 0.18022288724E+01 0.16479928363E+01 0.15395959757E+01
 0.14715498775E+01 0.14389645967E+01 0.14389628484E+01 0.14715445201E+01 0.15395891135E+01
 0.16479916927E+01 0.18022414101E+01 0.20862911958E+01 0.24324697733E+01 0.28327319925E+01
 0.32696735447E+01 0.37152418517E+01 0.41313963492E+01 0.44740369472E+01 0.47006409369E+01
 0.47800134950E+01 0.47006479501E+01 0.44740407895E+01 0.41313927938E+01 0.37152407048E+01
 0.32696862820E+01 0.28327558267E+01 0.24324891406E+01 0.20862938490E+01 0.18022288724E+01
 0.15811483420E+01 0.14191599650E+01 0.13100887604E+01 0.12476932191E+01 0.12274415960E+01
 0.12476875416E+01 0.13100847213E+01 0.14191650871E+01 0.15811620694E+01 0.18022406855E+01
 0.23298675570E+01 0.27819468682E+01 0.32930598565E+01 0.38366857765E+01 0.43722955922E+01
 0.48477025911E+01 0.52065487884E+01 0.54001736079E+01 0.54001787405E+01 0.52065594765E+01
 0.48477082697E+01 0.43722890554E+01 0.38366713306E+01 0.32930507845E+01 0.27819521700E+01
 0.23298821901E+01 0.19506052358E+01 0.16479928363E+01 0.14191599650E+01 0.12574553947E+01
 0.11551816599E+01 0.11058651059E+01 0.11058626178E+01 0.11551780395E+01 0.12574566473E+01
 0.14191648718E+01 0.16479926331E+01 0.19505944656E+01 0.27540616977E+01 0.33360229590E+01
 0.39811633137E+01 0.46495478680E+01 0.52827860739E+01 0.58100980028E+01 0.61615191866E+01
 0.62850758168E+01 0.61615129957E+01 0.58100993365E+01 0.52828000014E+01 0.46495607759E+01
 0.39811601651E+01 0.33360059353E+01 0.27540453709E+01 0.22571195672E+01 0.18528965923E+01
 0.15395959757E+01 0.13100887604E+01 0.11551816599E+01 0.10662668881E+01 0.10373419872E+01
 0.10662661685E+01 0.11551804913E+01 0.13100868108E+01 0.15395929360E+01 0.18528951655E+01
 0.22571258790E+01 0.33910517588E+01 0.41376586592E+01 0.49486854475E+01 0.57633837193E+01
 0.64981315621E+01 0.70592338976E+01 0.73641188288E+01 0.73640986152E+01 0.70591948016E+01
 0.64981140730E+01 0.57634043353E+01 0.49487239635E+01 0.41376833403E+01 0.33910486514E+01
 0.27438888924E+01 0.22099008548E+01 0.17885365757E+01 0.14715498775E+01 0.12476932191E+01
 0.11058651059E+01 0.10373419872E+01 0.10373438755E+01 0.11058676325E+01 0.12476926087E+01
 0.14715497960E+01 0.17885456964E+01 0.22099215755E+01 0.27439101548E+01 0.42897338000E+01
 0.52455586463E+01 0.62577247600E+01 0.72343466204E+01 0.80589286679E+01 0.86135336952E+01
 0.88094120430E+01 0.86134897720E+01 0.80588694205E+01 0.72343102777E+01 0.62577327171E+01
 0.52456002904E+01 0.42897762494E+01 0.34476557512E+01 0.27445242189E+01 0.21828302731E+01
 0.17525377970E+01 0.14389645967E+01 0.12274415960E+01 0.11058626178E+01 0.10662661685E+01
 0.11058676325E+01 0.12274457457E+01 0.14389677103E+01 0.17525476479E+01 0.21828482116E+01
 0.27445348286E+01 0.34476395654E+01 0.55091089388E+01 0.67202247326E+01 0.79583380954E+01
 0.90894036935E+01 0.99604964184E+01 0.10436060686E+02 0.10436055045E+02 0.99604712770E+01
 0.90893535098E+01 0.79582847427E+01 0.67202029842E+01 0.55091283015E+01 0.44179652438E+01
 0.34941276743E+01 0.27486734704E+01 0.21708465046E+01 0.17410294519E+01 0.14389628484E+01
 0.12476875416E+01 0.11551780395E+01 0.11551804913E+01 0.12476926087E+01 0.14389677103E+01
 0.17410353117E+01 0.21708533827E+01 0.27486720051E+01 0.34941060538E+01 0.44179299125E+01
 0.70993690407E+01 0.85945913328E+01 0.10049925337E+02 0.11285387334E+02 0.12121153950E+02
 0.12417462522E+02 0.12121183406E+02 0.11285399218E+02 0.10049889561E+02 0.85945317663E+01
 0.70993293337E+01 0.57072236021E+01 0.45037703868E+01 0.35203133146E+01 0.27507565911E+01
 0.21708517047E+01 0.17525414912E+01 0.14715445201E+01 0.13100847213E+01 0.12574566473E+01
 0.13100868108E+01 0.14715497960E+01 0.17525476479E+01 0.21708533827E+01 0.27507499383E+01
 0.35202985725E+01 0.45037557302E+01 0.57072282557E+01 0.90682371488E+01 0.10832881819E+02
 0.12454483439E+02 0.13712833083E+02 0.14403463338E+02 0.14403491558E+02 0.13712884640E+02
 0.12454502035E+02 0.10832853838E+02 0.90681928468E+01 0.73484172541E+01 0.58136317382E+01
 0.45339692680E+01 0.35203096474E+01 0.27486778745E+01 0.21828419005E+01 0.17885356098E+01
 0.15395891135E+01 0.14191650871E+01 0.14191648718E+01 0.15395929360E+01 0.17885456964E+01
 0.21828482116E+01 0.27486720051E+01 0.35202985725E+01 0.45339662005E+01 0.58136444251E+01
 0.73484491262E+01 0.11346689316E+02 0.13331702314E+02 0.15028811828E+02 0.16178176473E+02
 0.16585207875E+02 0.16178225828E+02 0.15028858619E+02 0.13331708868E+02 0.11346665639E+02
 0.93207834947E+01 0.74352612546E+01 0.58136369604E+01 0.45037662120E+01 0.34941223870E+01
 0.27445364343E+01 0.22099079855E+01 0.18528845525E+01 0.16479916927E+01 0.15811620694E+01
 0.16479926331E+01 0.18528951655E+01 0.22099215755E+01 0.27445348286E+01 0.34941060538E+01
 0.45037557302E+01 0.58136444251E+01 0.74352823358E+01 0.93208118345E+01 0.13802358711E+02
 0.15896731241E+02 0.17510996601E+02 0.18389987441E+02 0.18390030947E+02 0.17511084296E+02
 0.15896787420E+02 0.13802355383E+02 0.11525875692E+02 0.93207694516E+01 0.73484236596E+01
 0.57072333140E+01 0.44179585683E+01 0.34476612553E+01 0.27439055653E+01 0.22571101885E+01
 0.19505884785E+01 0.18022414101E+01 0.18022406855E+01 0.19505944656E+01 0.22571258790E+01
 0.27439101548E+01 0.34476395654E+01 0.44179299125E+01 0.57072282557E+01 0.73484491262E+01
 0.93208118345E+01 0.11525914223E+02 0.18310381637E+02 0.19850427985E+02 0.20642312569E+02
 0.20642362281E+02 0.19850551303E+02 0.18310519253E+02 0.16169457254E+02 0.13699854682E+02
 0.11219085032E+02 0.89624923924E+01 0.70400635966E+01 0.55091198773E+01 0.43542010889E+01
 0.35188071242E+01 0.29421641590E+01 0.25784291309E+01 0.24016601347E+01 0.24016564072E+01
 0.25784264640E+01 0.29421701433E+01 0.35188095559E+01 0.43541878854E+01 0.55091063231E+01
 0.70400769183E+01 0.89625315653E+01 0.11219112237E+02 0.13699827323E+02 0.16169361689E+02
 0.19850427985E+02 0.20967989896E+02 0.21339560533E+02 0.20968049864E+02 0.19850535248E+02
 0.18032376708E+02 0.15694074179E+02 0.13142479568E+02 0.10687921603E+02 0.85184946572E+01
 0.67202186221E+01 0.53237550371E+01 0.42905907128E+01 0.35576192821E+01 0.30682689212E+01
 0.27858360411E+01 0.26931670790E+01 0.27858311664E+01 0.30682687570E+01 0.35576254126E+01
 0.42905926152E+01 0.53237491263E+01 0.67202191658E+01 0.85185127926E+01 0.10687938425E+02
 0.13142455557E+02 0.15693990197E+02 0.18032257344E+02 0.20642312569E+02 0.21339560533E+02
 0.21339546908E+02 0.20642305006E+02 0.19237543440E+02 0.17203978102E+02 0.14774692295E+02
 0.12270506653E+02 0.99550517000E+01 0.79583356268E+01 0.63507739223E+01 0.51290040235E+01
 0.42397812121E+01 0.36220518034E+01 0.32298038413E+01 0.30381553051E+01 0.30381522682E+01
 0.32297989011E+01 0.36220535383E+01 0.42397929093E+01 0.51290185049E+01 0.63507816450E+01
 0.79583323975E+01 0.99550292149E+01 0.12270446169E+02 0.14774590527E+02 0.17203875132E+02
 0.19237493648E+02 0.20642362281E+02 0.20968049864E+02 0.20642305006E+02 0.19652016108E+02
 0.18014422679E+02 0.15871982951E+02 0.13495723916E+02 0.11173511736E+02 0.90894284198E+01
 0.73422591903E+01 0.59717180153E+01 0.49469872875E+01 0.42116924774E+01 0.37152109234E+01
 0.34260058843E+01 0.33306259926E+01 0.34259986157E+01 0.37152022318E+01 0.42116980350E+01
 0.49470169261E+01 0.59717555113E+01 0.73422731292E+01 0.90893991284E+01 0.11173436074E+02
 0.13495611869E+02 0.15871872328E+02 0.18014373518E+02 0.19652050091E+02 0.19850551303E+02
 0.19850535248E+02 0.19237543440E+02 0.18014422679E+02 0.16258766073E+02 0.14166809599E+02
 0.11997472531E+02 0.99605382666E+01 0.81798874695E+01 0.67324387935E+01 0.56178997239E+01
 0.47938082355E+01 0.42116923131E+01 0.38366654963E+01 0.36516838976E+01 0.36516781955E+01
 0.38366480724E+01 0.42116767212E+01 0.47938249857E+01 0.56179559212E+01 0.67324940990E+01
 0.81798948800E+01 0.99604915426E+01 0.11997396547E+02 0.14166729714E+02 0.16258707084E+02
 0.18014407756E+02 0.19237565254E+02 0.18310519253E+02 0.18032376708E+02 0.17203978102E+02
 0.15871982951E+02 0.14166809599E+02 0.12289502446E+02 0.10436098775E+02 0.87435449066E+01
 0.73139278647E+01 0.61774813145E+01 0.53117903672E+01 0.46771157935E+01 0.42397790624E+01
 0.39811712941E+01 0.38952274765E+01 0.39811567441E+01 0.42397489224E+01 0.46770988407E+01
 0.53118255913E+01 0.61775565839E+01 0.73139804007E+01 0.87435365231E+01 0.10436055299E+02
 0.12289466748E+02 0.14166790504E+02 0.15871966590E+02 0.17203960376E+02 0.18032365091E+02
 0.16169457254E+02 0.15694074179E+02 0.14774692295E+02 0.13495723916E+02 0.11997472531E+02
 0.10436098775E+02 0.89426899143E+01 0.76301186986E+01 0.65509345109E+01 0.57037128942E+01
 0.50617094875E+01 0.45965733841E+01 0.42905850577E+01 0.41376885512E+01 0.41376848857E+01
 0.42905648184E+01 0.45965395336E+01 0.50617037566E+01 0.57037670021E+01 0.65510131002E+01
 0.76301528657E+01 0.89426604071E+01 0.10436051495E+02 0.11997455416E+02 0.13495739998E+02
 0.14774716678E+02 0.15694089501E+02 0.16169461758E+02 0.13699854682E+02 0.13142479568E+02
 0.12270506652E+02 0.11173511736E+02 0.99605382666E+01 0.87435449066E+01 0.76301186986E+01
 0.66823485308E+01 0.59155460171E+01 0.53167824327E+01 0.48653803024E+01 0.45463208479E+01
 0.43541941452E+01 0.42897685662E+01 0.43541946142E+01 0.45463038409E+01 0.48653562226E+01
 0.53167953059E+01 0.59156142366E+01 0.66824268184E+01 0.76301420577E+01 0.87434989674E+01
 0.99604707125E+01 0.11173482466E+02 0.12270537909E+02 0.13142545819E+02 0.13699906574E+02
 0.13890903643E+02 0.11219085032E+02 0.10687921603E+02 0.99550517000E+01 0.90894284198E+01
 0.81798874695E+01 0.73139278647E+01 0.65509345109E+01 0.59155460171E+01 0.54062622924E+01
 0.50102721463E+01 0.47158408588E+01 0.45180557583E+01 0.44179471380E+01 0.44179546953E+01
 0.45180640983E+01 0.47158315237E+01 0.50102595956E+01 0.54062857716E+01 0.59156197175E+01
 0.65510186052E+01 0.73139607981E+01 0.81798467987E+01 0.90893544823E+01 0.99550097340E+01
 0.10687941478E+02 0.11219136903E+02 0.11497751336E+02 0.11497724667E+02 0.89624923924E+01
 0.85184946572E+01 0.79583356268E+01 0.73422591903E+01 0.67324387935E+01 0.61774813145E+01
 0.57037128942E+01 0.53167824327E+01 0.50102721463E+01 0.47752789001E+01 0.46065448653E+01
 0.45037482108E+01 0.44690735274E+01 0.45037642656E+01 0.46065578086E+01 0.47752729055E+01
 0.50102592169E+01 0.53167976383E+01 0.57037752813E+01 0.61775632950E+01 0.67324871220E+01
 0.73422475085E+01 0.79582865195E+01 0.85184497455E+01 0.89624722974E+01 0.92455524367E+01
 0.93426616432E+01 0.92455553739E+01 0.70400635966E+01 0.67202186221E+01 0.63507739223E+01
 0.59717180153E+01 0.56178997239E+01 0.53117903672E+01 0.50617094875E+01 0.48653803024E+01
 0.47158408588E+01 0.46065448653E+01 0.45339476281E+01 0.44974063939E+01 0.44974153970E+01
 0.45339684687E+01 0.46065600385E+01 0.47158342457E+01 0.48653597007E+01 0.50617059104E+01
 0.53118239136E+01 0.56179553982E+01 0.59717638154E+01 0.63507912036E+01 0.67202065299E+01
 0.70400298088E+01 0.72743200444E+01 0.73977461321E+01 0.73977631975E+01 0.72743581207E+01
 0.55091198773E+01 0.53237550371E+01 0.51290040235E+01 0.49469872875E+01 0.47938082355E+01
 0.46771157935E+01 0.45965733841E+01 0.45463208479E+01 0.45180557583E+01 0.45037482108E+01
 0.44974063939E+01 0.44956459736E+01 0.44974216811E+01 0.45037729285E+01 0.45180731968E+01
 0.45463167120E+01 0.45965556543E+01 0.46771062777E+01 0.47938157759E+01 0.49470044383E+01
 0.51290250219E+01 0.53237774696E+01 0.55091329580E+01 0.56616743917E+01 0.57616844787E+01
 0.57964688866E+01 0.57616982523E+01 0.56616804368E+01 0.43542010889E+01 0.42905907128E+01
 0.42397812121E+01 0.42116924774E+01 0.42116923131E+01 0.42397790624E+01 0.42905850577E+01
 0.43541941452E+01 0.44179471380E+01 0.44690735274E+01 0.44974153970E+01 0.44974216811E+01
 0.44690920317E+01 0.44179703912E+01 0.43542071905E+01 0.42905840218E+01 0.42397780542E+01
 0.42117007933E+01 0.42116999888E+01 0.42397771408E+01 0.42905843430E+01 0.43542069580E+01
 0.44179682646E+01 0.44690904577E+01 0.44974233078E+01 0.44974192487E+01 0.44690778388E+01
 0.44179526086E+01 0.35188071242E+01 0.35576192821E+01 0.36220518034E+01 0.37152109234E+01
 0.38366654963E+01 0.39811712941E+01 0.41376885512E+01 0.42897685662E+01 0.44179546953E+01
 0.45037642656E+01 0.45339684687E+01 0.45037729285E+01 0.44179703912E+01 0.42897794981E+01
 0.41376833970E+01 0.39811605319E+01 0.38366733780E+01 0.37152415682E+01 0.36220803858E+01
 0.35576234814E+01 0.35187927257E+01 0.34999893316E+01 0.34941282856E+01 0.34941412482E+01
 0.34947878132E+01 0.34941368728E+01 0.34941287885E+01 0.35000015118E+01 0.29421641590E+01
 0.30682689212E+01 0.32298038413E+01 0.34260058843E+01 0.36516838976E+01 0.38952274765E+01
 0.41376848857E+01 0.43541946142E+01 0.45180640983E+01 0.46065578086E+01 0.46065600385E+01
 0.45180731968E+01 0.43542071905E+01 0.41376833970E+01 0.38952001837E+01 0.36516483438E+01
 0.34259958040E+01 0.32298312283E+01 0.30683107715E+01 0.29421890448E+01 0.28495236960E+01
 0.27866026533E+01 0.27486738475E+01 0.27311450642E+01 0.27311502180E+01 0.27486881251E+01
 0.27866187180E+01 0.28495255915E+01 0.25784291309E+01 0.27858360411E+01 0.30381553051E+01
 0.33306259926E+01 0.36516781955E+01 0.39811567441E+01 0.42905648184E+01 0.45463038409E+01
 0.47158315237E+01 0.47752729055E+01 0.47158342457E+01 0.45463167120E+01 0.42905840218E+01
 0.39811605319E+01 0.36516483438E+01 0.33305730878E+01 0.30381140016E+01 0.27858325966E+01
 0.25784576400E+01 0.24162701823E+01 0.22969357076E+01 0.22165975532E+01 0.21708477121E+01
 0.21560728182E+01 0.21708573599E+01 0.22166034220E+01 0.22969225642E+01 0.24162381419E+01
 0.24016601347E+01 0.26931670790E+01 0.30381522682E+01 0.34259986157E+01 0.38366480724E+01
 0.42397489224E+01 0.45965395336E+01 0.48653562226E+01 0.50102595956E+01 0.50102592169E+01
 0.48653597007E+01 0.45965556543E+01 0.42397780542E+01 0.38366733780E+01 0.34259958040E+01
 0.30381140016E+01 0.26931149740E+01 0.24016266706E+01 0.21670589633E+01 0.19880995583E+01
 0.18607672971E+01 0.17799831628E+01 0.17410300398E+01 0.17410294899E+01 0.17799771553E+01
 0.18607509388E+01 0.19880813474E+01 0.21670600294E+01 0.24016564072E+01 0.27858311664E+01
 0.32297989011E+01 0.37152022318E+01 0.42116767212E+01 0.46770988407E+01 0.50617037566E+01
 0.53167953059E+01 0.54062857716E+01 0.53167976383E+01 0.50617059104E+01 0.46771062777E+01
 0.42117007933E+01 0.37152415682E+01 0.32298312283E+01 0.27858325966E+01 0.24016266706E+01
 0.20854985772E+01 0.18382928317E+01 0.16561201688E+01 0.15328025473E+01 0.14619890028E+01
 0.14389623891E+01 0.14619805475E+01 0.15327921126E+01 0.16561203313E+01 0.18383141997E+01
 0.20855359875E+01 0.25784264640E+01 0.30682687570E+01 0.36220535383E+01 0.42116980350E+01
 0.47938249857E+01 0.53118255913E+01 0.57037670021E+01 0.59156142366E+01 0.59156197175E+01
 0.57037752813E+01 0.53118239136E+01 0.47938157759E+01 0.42116999888E+01 0.36220803858E+01
 0.30683107715E+01 0.25784576400E+01 0.21670589633E+01 0.18382928317E+01 0.15892566521E+01
 0.14130323838E+01 0.13014896086E+01 0.12476911485E+01 0.12476877478E+01 0.13014852884E+01
 0.14130383617E+01 0.15892755661E+01 0.18383109600E+01 0.21670557538E+01 0.29421701433E+01
 0.35576254126E+01 0.42397929093E+01 0.49470169261E+01 0.56179559212E+01 0.61775565839E+01
 0.65510131002E+01 0.66824268184E+01 0.65510186052E+01 0.61775632950E+01 0.56179553982E+01
 0.49470044383E+01 0.42397771408E+01 0.35576234814E+01 0.29421890448E+01 0.24162701823E+01
 0.19880995583E+01 0.16561201688E+01 0.14130323838E+01 0.12491357364E+01 0.11551800084E+01
 0.11246406756E+01 0.11551793066E+01 0.12491380283E+01 0.14130368481E+01 0.16561175621E+01
 0.19880815568E+01 0.24162426157E+01 0.35188095559E+01 0.42905926152E+01 0.51290185049E+01
 0.59717555113E+01 0.67324940990E+01 0.73139804007E+01 0.76301528657E+01 0.76301420577E+01
 0.73139607981E+01 0.67324871220E+01 0.59717638154E+01 0.51290250219E+01 0.42905843430E+01
 0.35187927257E+01 0.28495236960E+01 0.22969357076E+01 0.18607672971E+01 0.15328025473E+01
 0.13014896086E+01 0.11551800084E+01 0.10845884630E+01 0.10845894070E+01 0.11551811048E+01
 0.13014869841E+01 0.15327940296E+01 0.18607567173E+01 0.22969323804E+01 0.28495337353E+01
 0.43541878854E+01 0.53237491263E+01 0.63507816450E+01 0.73422731292E+01 0.81798948800E+01
 0.87435365231E+01 0.89426604071E+01 0.87434989674E+01 0.81798467987E+01 0.73422475085E+01
 0.63507912036E+01 0.53237774696E+01 0.43542069580E+01 0.34999893316E+01 0.27866026533E+01
 0.22165975532E+01 0.17799831628E+01 0.14619890028E+01 0.12476911485E+01 0.11246406756E+01
 0.10845894070E+01 0.11246435379E+01 0.12476925010E+01 0.14619878080E+01 0.17799858629E+01
 0.22166102802E+01 0.27866192971E+01 0.34999928970E+01 0.55091063231E+01 0.67202191658E+01
 0.79583323975E+01 0.90893991284E+01 0.99604915426E+01 0.10436055299E+02 0.10436051495E+02
 0.99604707125E+01 0.90893544823E+01 0.79582865195E+01 0.67202065299E+01 0.55091329580E+01
 0.44179682646E+01 0.34941282856E+01 0.27486738475E+01 0.21708477121E+01 0.17410300398E+01
 0.14389623891E+01 0.12476877478E+01 0.11551793066E+01 0.11551811048E+01 0.12476925010E+01
 0.14389692711E+01 0.17410392786E+01 0.21708574777E+01 0.27486746469E+01 0.34941078141E+01
 0.44179304344E+01 0.70400769183E+01 0.85185127926E+01 0.99550292149E+01 0.11173436074E+02
 0.11997396547E+02 0.12289466748E+02 0.11997455416E+02 0.11173482466E+02 0.99550097340E+01
 0.85184497455E+01 0.70400298088E+01 0.56616743917E+01 0.44690904577E+01 0.34941412482E+01
 0.27311450642E+01 0.21560728182E+01 0.17410294899E+01 0.14619805475E+01 0.13014852884E+01
 0.12491380283E+01 0.13014869841E+01 0.14619878080E+01 0.17410392786E+01 0.21560735153E+01
 0.27311275060E+01 0.34941083803E+01 0.44690605378E+01 0.56616758460E+01 0.89625315653E+01
 0.10687938425E+02 0.12270446169E+02 0.13495611869E+02 0.14166729714E+02 0.14166790504E+02
 0.13495739998E+02 0.12270537909E+02 0.10687941478E+02 0.89624722974E+01 0.72743200444E+01
 0.57616844787E+01 0.44974233078E+01 0.34947878132E+01 0.27311502180E+01 0.21708573599E+01
 0.17799771553E+01 0.15327921126E+01 0.14130383617E+01 0.14130368481E+01 0.15327940296E+01
 0.17799858629E+01 0.21708574777E+01 0.27311275060E+01 0.34947552487E+01 0.44974123058E+01
 0.57617154372E+01 0.72743849128E+01 0.11219112237E+02 0.13142455557E+02 0.14774590527E+02
 0.15871872328E+02 0.16258707084E+02 0.15871966590E+02 0.14774716678E+02 0.13142545819E+02
 0.11219136903E+02 0.92455524367E+01 0.73977461321E+01 0.57964688866E+01 0.44974192487E+01
 0.34941368728E+01 0.27486881251E+01 0.22166034220E+01 0.18607509388E+01 0.16561203313E+01
 0.15892755661E+01 0.16561175621E+01 0.18607567173E+01 0.22166102802E+01 0.27486746469E+01
 0.34941083803E+01 0.44974123058E+01 0.57965048951E+01 0.73978025456E+01 0.92455851102E+01
 0.13699827323E+02 0.15693990197E+02 0.17203875132E+02 0.18014373518E+02 0.18014407756E+02
 0.17203960377E+02 0.15694089501E+02 0.13699906574E+02 0.11497751336E+02 0.93426616432E+01
 0.73977631975E+01 0.57616982523E+01 0.44690778388E+01 0.34941287885E+01 0.27866187180E+01
 0.22969225642E+01 0.19880813474E+01 0.18383141997E+01 0.18383109600E+01 0.19880815568E+01
 0.22969323804E+01 0.27866192971E+01 0.34941078141E+01 0.44690605378E+01 0.57617154372E+01
 0.73978025456E+01 0.93426783432E+01 0.11497717035E+02 0.16169361689E+02 0.18032257344E+02
 0.19237493648E+02 0.19652050091E+02 0.19237565254E+02 0.18032365091E+02 0.16169461758E+02
 0.13890903643E+02 0.11497724667E+02 0.92455553739E+01 0.72743581207E+01 0.56616804368E+01
 0.44179526086E+01 0.35000015118E+01 0.28495255915E+01 0.24162381419E+01 0.21670600294E+01
 0.20855359875E+01 0.21670557538E+01 0.24162426157E+01 0.28495337353E+01 0.34999928970E+01
 0.44179304344E+01 0.56616758460E+01 0.72743849128E+01 0.92455851102E+01 0.11497717035E+02
 0.13890843232E+02 0.19490232152E+02 0.20242316961E+02 0.20465705885E+02 0.20242307054E+02
 0.19490233262E+02 0.18077341359E+02 0.16031060289E+02 0.13609920584E+02 0.11168219381E+02
 0.89625327899E+01 0.70993434725E+01 0.56341815734E+01 0.45463222173E+01 0.37753428274E+01
 0.32615021121E+01 0.29650023888E+01 0.28676516287E+01 0.29649915900E+01 0.32614872061E+01
 0.37753381216E+01 0.45463379413E+01 0.56342089516E+01 0.70993606011E+01 0.89625256242E+01
 0.11168189542E+02 0.13609877369E+02 0.16031017082E+02 0.18077315279E+02 0.20242316961E+02
 0.20600821962E+02 0.20600793722E+02 0.20242263689E+02 0.19335200195E+02 0.17730825544E+02
 0.15531310963E+02 0.13066572728E+02 0.10687967910E+02 0.85945763613E+01 0.68740962987E+01
 0.55558024199E+01 0.45965735158E+01 0.39324603064E+01 0.35117334143E+01 0.33062013555E+01
 0.33061964639E+01 0.35117176110E+01 0.39324418004E+01 0.45965746730E+01 0.55558321095E+01
 0.68741300513E+01 0.85945806820E+01 0.10687933336E+02 0.13066513716E+02 0.15531251846E+02
 0.17730796802E+02 0.19335222670E+02 0.20465705885E+02 0.20600793722E+02 0.20465606872E+02
 0.19938306451E+02 0.18793003627E+02 0.16966311935E+02 0.14672101961E+02 0.12270525080E+02
 0.10049945264E+02 0.81436134227E+01 0.66260934871E+01 0.54892838776E+01 0.46771151546E+01
 0.41313567083E+01 0.38140750107E+01 0.37094261702E+01 0.38140671496E+01 0.41313353135E+01
 0.46770972245E+01 0.54892989253E+01 0.66261371454E+01 0.81436408792E+01 0.10049918055E+02
 0.12270444723E+02 0.14672003665E+02 0.16966250058E+02 0.18793027918E+02 0.19938410815E+02
 0.20242307054E+02 0.20242263689E+02 0.19938306451E+02 0.19150068796E+02 0.17728048192E+02
 0.15747929851E+02 0.13495694639E+02 0.11285426973E+02 0.93055103789E+01 0.76609717955E+01
 0.63880566444E+01 0.54510235430E+01 0.47938080532E+01 0.43722676842E+01 0.41645133166E+01
 0.41645129844E+01 0.43722558604E+01 0.47937818440E+01 0.54510153029E+01 0.63880934481E+01
 0.76610269947E+01 0.93055283906E+01 0.11285383763E+02 0.13495613096E+02 0.15747855104E+02
 0.17728026118E+02 0.19150120095E+02 0.19938393636E+02 0.19490233262E+02 0.19335200195E+02
 0.18793003627E+02 0.17728048192E+02 0.16126379671E+02 0.14166744092E+02 0.12121158522E+02
 0.10201868470E+02 0.85367729888E+01 0.72011521516E+01 0.61875799997E+01 0.54510237082E+01
 0.49469870391E+01 0.46495587199E+01 0.45506608010E+01 0.46495594819E+01 0.49469686783E+01
 0.54509973910E+01 0.61875889973E+01 0.72012088519E+01 0.85368347950E+01 0.10201892880E+02
 0.12121150074E+02 0.14166730978E+02 0.16126372684E+02 0.17728041544E+02 0.18792995565E+02
 0.19335194951E+02 0.18077341359E+02 0.17730825544E+02 0.16966311935E+02 0.15747929851E+02
 0.14166744092E+02 0.12417423195E+02 0.10691799561E+02 0.91269599366E+01 0.78239752076E+01
 0.68039281425E+01 0.60386971127E+01 0.54892854912E+01 0.51290026453E+01 0.49487263783E+01
 0.49487327433E+01 0.51290036992E+01 0.54892632139E+01 0.60386773576E+01 0.68039512604E+01
 0.78240371877E+01 0.91270191194E+01 0.10691836623E+02 0.12417458896E+02 0.14166792530E+02
 0.15747966464E+02 0.16966306574E+02 0.17730789838E+02 0.18077320939E+02 0.16031060289E+02
 0.15531310963E+02 0.14672101961E+02 0.13495694639E+02 0.12121158522E+02 0.10691799561E+02
 0.93356440907E+01 0.81631399434E+01 0.72163514393E+01 0.64851806984E+01 0.59398650697E+01
 0.55558066020E+01 0.53237533890E+01 0.52456003440E+01 0.53237700562E+01 0.55558118956E+01
 0.59398487134E+01 0.64851715826E+01 0.72163801244E+01 0.81631960397E+01 0.93356908060E+01
 0.10691823856E+02 0.12121184672E+02 0.13495745039E+02 0.14672164836E+02 0.15531358027E+02
 0.16031080684E+02 0.16191428466E+02 0.13609920584E+02 0.13066572728E+02 0.12270525080E+02
 0.11285426973E+02 0.10201868470E+02 0.91269599366E+01 0.81631399434E+01 0.73616903691E+01
 0.67271621035E+01 0.62398627869E+01 0.58786559965E+01 0.56341870143E+01 0.55091194295E+01
 0.55091333016E+01 0.56342153194E+01 0.58786725861E+01 0.62398592209E+01 0.67271624273E+01
 0.73617233637E+01 0.81631960469E+01 0.91269947635E+01 0.10201858623E+02 0.11285405273E+02
 0.12270544644E+02 0.13066645391E+02 0.13610003436E+02 0.13879892103E+02 0.13879856167E+02
 0.11168219381E+02 0.10687967910E+02 0.10049945264E+02 0.93055103789E+01 0.85367729888E+01
 0.78239752076E+01 0.72163514393E+01 0.67271621035E+01 0.63453127998E+01 0.60530787491E+01
 0.58400223706E+01 0.57072121768E+01 0.56616806813E+01 0.57072350968E+01 0.58400588609E+01
 0.60531051942E+01 0.63453148844E+01 0.67271636034E+01 0.72163887468E+01 0.78240394207E+01
 0.85368095845E+01 0.93054875999E+01 0.10049895651E+02 0.10687946585E+02 0.11168240416E+02
 0.11462201498E+02 0.11560461549E+02 0.11462172216E+02 0.89625327899E+01 0.85945763613E+01
 0.81436134227E+01 0.76609717955E+01 0.72011521516E+01 0.68039281425E+01 0.64851806984E+01
 0.62398627869E+01 0.60530787491E+01 0.59121837450E+01 0.58136178143E+01 0.57616935396E+01
 0.57616979183E+01 0.58136389916E+01 0.59122214521E+01 0.60531041682E+01 0.62398564765E+01
 0.64851705109E+01 0.68039554363E+01 0.72012127265E+01 0.76610199023E+01 0.81436155839E+01
 0.85945368308E+01 0.89624755025E+01 0.92153741937E+01 0.93427711309E+01 0.93427908898E+01
 0.92154237406E+01 0.70993434725E+01 0.68740962987E+01 0.66260934871E+01 0.63880566444E+01
 0.61875799997E+01 0.60386971127E+01 0.59398650697E+01 0.58786559965E+01 0.58400223706E+01
 0.58136178143E+01 0.57964718769E+01 0.57902892423E+01 0.57964684904E+01 0.58136344323E+01
 0.58400578248E+01 0.58786757552E+01 0.59398502258E+01 0.60386718733E+01 0.61875794686E+01
 0.63880895160E+01 0.66261417457E+01 0.68741302068E+01 0.70993358810E+01 0.72743229464E+01
 0.73830495019E+01 0.74196476756E+01 0.73830978434E+01 0.72743717436E+01 0.56341815734E+01
 0.55558024199E+01 0.54892838776E+01 0.54510235430E+01 0.54510237082E+01 0.54892854912E+01
 0.55558066020E+01 0.56341870143E+01 0.57072121768E+01 0.57616935396E+01 0.57902892423E+01
 0.57902805457E+01 0.57616851376E+01 0.57072284754E+01 0.56342203258E+01 0.55558279135E+01
 0.54892807370E+01 0.54510020328E+01 0.54510025303E+01 0.54892813316E+01 0.55558278377E+01
 0.56342207094E+01 0.57072300500E+01 0.57616861626E+01 0.57902791364E+01 0.57902859034E+01
 0.57616895098E+01 0.57072073623E+01 0.45463222173E+01 0.45965735158E+01 0.46771151546E+01
 0.47938080532E+01 0.49469870391E+01 0.51290026453E+01 0.53237533890E+01 0.55091194295E+01
 0.56616806813E+01 0.57616979183E+01 0.57964684904E+01 0.57616851376E+01 0.56616753533E+01
 0.55091328783E+01 0.53237769539E+01 0.51290253705E+01 0.49470050834E+01 0.47938154857E+01
 0.46771056697E+01 0.45965559667E+01 0.45463173012E+01 0.45180728034E+01 0.45037722237E+01
 0.44974220213E+01 0.44956468379E+01 0.44974065735E+01 0.45037482970E+01 0.45180568926E+01
 0.37753428274E+01 0.39324603064E+01 0.41313567083E+01 0.43722676842E+01 0.46495587199E+01
 0.49487263783E+01 0.52456003440E+01 0.55091333016E+01 0.57072350968E+01 0.58136389916E+01
 0.58136344323E+01 0.57072284754E+01 0.55091328783E+01 0.52456013688E+01 0.49487232931E+01
 0.46495618146E+01 0.43722908317E+01 0.41313925686E+01 0.39324837390E+01 0.37753400664E+01
 0.36569272783E+01 0.35732548063E+01 0.35203115040E+01 0.34947853336E+01 0.34947840574E+01
 0.35203132384E+01 0.35732672949E+01 0.36569446712E+01 0.32615021121E+01 0.35117334143E+01
 0.38140750107E+01 0.41645133166E+01 0.45506608010E+01 0.49487327433E+01 0.53237700562E+01
 0.56342153194E+01 0.58400588609E+01 0.59122214521E+01 0.58400578248E+01 0.56342203258E+01
 0.53237769539E+01 0.49487232931E+01 0.45506271634E+01 0.41644767194E+01 0.38140678920E+01
 0.35117638548E+01 0.32615447035E+01 0.30629255529E+01 0.29136376338E+01 0.28106760552E+01
 0.27507564057E+01 0.27311496509E+01 0.27507714578E+01 0.28106958926E+01 0.29136432679E+01
 0.30629025531E+01 0.29650023888E+01 0.33062013555E+01 0.37094261702E+01 0.41645129844E+01
 0.46495594819E+01 0.51290036992E+01 0.55558118956E+01 0.58786725861E+01 0.60531051942E+01
 0.60531041682E+01 0.58786757552E+01 0.55558279135E+01 0.51290253705E+01 0.46495618146E+01
 0.41644767194E+01 0.37093635387E+01 0.33061510800E+01 0.29649943857E+01 0.26882286165E+01
 0.24741423067E+01 0.23192782251E+01 0.22194951326E+01 0.21708536412E+01 0.21708580914E+01
 0.22194991606E+01 0.23192647761E+01 0.24741094696E+01 0.26882004164E+01 0.28676516287E+01
 0.33061964639E+01 0.38140671496E+01 0.43722558604E+01 0.49469686783E+01 0.54892632139E+01
 0.59398487134E+01 0.62398592209E+01 0.63453148844E+01 0.62398564765E+01 0.59398502258E+01
 0.54892807370E+01 0.49470050834E+01 0.43722908317E+01 0.38140678920E+01 0.33061510800E+01
 0.28675864112E+01 0.25058927692E+01 0.22210795546E+01 0.20090589195E+01 0.18639994602E+01
 0.17799865466E+01 0.17525415730E+01 0.17799766301E+01 0.18639787600E+01 0.20090385909E+01
 0.22210839760E+01 0.25059366499E+01 0.29649915900E+01 0.35117176110E+01 0.41313353135E+01
 0.47937818440E+01 0.54509973910E+01 0.60386773576E+01 0.64851715826E+01 0.67271624273E+01
 0.67271636034E+01 0.64851705109E+01 0.60386718733E+01 0.54510020328E+01 0.47938154857E+01
 0.41313925686E+01 0.35117638548E+01 0.29649943857E+01 0.25058927692E+01 0.21381711751E+01
 0.18584124329E+01 0.16593913127E+01 0.15328044236E+01 0.14715496278E+01 0.14715428673E+01
 0.15327909039E+01 0.16593885258E+01 0.18584364731E+01 0.21382176154E+01 0.25059310977E+01
 0.32614872061E+01 0.39324418004E+01 0.46770972245E+01 0.54510153029E+01 0.61875889973E+01
 0.68039512604E+01 0.72163801244E+01 0.73617233637E+01 0.72163887468E+01 0.68039554363E+01
 0.61875794686E+01 0.54510025303E+01 0.46771056697E+01 0.39324837390E+01 0.32615447035E+01
 0.26882286165E+01 0.22210795546E+01 0.18584124329E+01 0.15925035621E+01 0.14130344654E+01
 0.13100885667E+01 0.12766176235E+01 0.13100853053E+01 0.14130387469E+01 0.15925218736E+01
 0.18584325894E+01 0.22210764238E+01 0.26881895193E+01 0.37753381216E+01 0.45965746730E+01
 0.54892989253E+01 0.63880934481E+01 0.72012088519E+01 0.78240371877E+01 0.81631960397E+01
 0.81631960469E+01 0.78240394207E+01 0.72012127265E+01 0.63880895160E+01 0.54892813316E+01
 0.45965559667E+01 0.37753400664E+01 0.30629255529E+01 0.24741423067E+01 0.20090589195E+01
 0.16593913127E+01 0.14130344654E+01 0.12574558278E+01 0.11824952352E+01 0.11824961210E+01
 0.12574591836E+01 0.14130381227E+01 0.16593856930E+01 0.20090346109E+01 0.24741049569E+01
 0.30628970662E+01 0.45463379413E+01 0.55558321095E+01 0.66261371454E+01 0.76610269947E+01
 0.85368347950E+01 0.91270191194E+01 0.93356908060E+01 0.91269947635E+01 0.85368095845E+01
 0.76610199023E+01 0.66261417457E+01 0.55558278377E+01 0.45463173012E+01 0.36569272783E+01
 0.29136376338E+01 0.23192782251E+01 0.18639994602E+01 0.15328044236E+01 0.13100885667E+01
 0.11824952352E+01 0.11410251027E+01 0.11824974313E+01 0.13100874760E+01 0.15327940723E+01
 0.18639817174E+01 0.23192658618E+01 0.29136438666E+01 0.36569498878E+01 0.56342089516E+01
 0.68741300513E+01 0.81436408792E+01 0.93055283906E+01 0.10201892880E+02 0.10691836623E+02
 0.10691823856E+02 0.10201858623E+02 0.93054875999E+01 0.81436155839E+01 0.68741302068E+01
 0.56342207094E+01 0.45180728034E+01 0.35732548063E+01 0.28106760552E+01 0.22194951326E+01
 0.17799865466E+01 0.14715496278E+01 0.12766176235E+01 0.11824961210E+01 0.11824974313E+01
 0.12766196870E+01 0.14715494449E+01 0.17799856201E+01 0.22195002758E+01 0.28106898046E+01
 0.35732670322E+01 0.45180708060E+01 0.70993606011E+01 0.85945806820E+01 0.10049918055E+02
 0.11285383763E+02 0.12121150074E+02 0.12417458896E+02 0.12121184672E+02 0.11285405273E+02
 0.10049895651E+02 0.85945368308E+01 0.70993358810E+01 0.57072300500E+01 0.45037722237E+01
 0.35203115040E+01 0.27507564057E+01 0.21708536412E+01 0.17525415730E+01 0.14715428673E+01
 0.13100853053E+01 0.12574591836E+01 0.13100874760E+01 0.14715494449E+01 0.17525507140E+01
 0.21708589912E+01 0.27507525032E+01 0.35202967923E+01 0.45037528102E+01 0.57072240496E+01
 0.89625256242E+01 0.10687933336E+02 0.12270444723E+02 0.13495613096E+02 0.14166730978E+02
 0.14166792530E+02 0.13495745039E+02 0.12270544644E+02 0.10687946585E+02 0.89624755025E+01
 0.72743229464E+01 0.57616861626E+01 0.44974220213E+01 0.34947853336E+01 0.27311496509E+01
 0.21708580914E+01 0.17799766301E+01 0.15327909039E+01 0.14130387469E+01 0.14130381227E+01
 0.15327940723E+01 0.17799856201E+01 0.21708589912E+01 0.27311291102E+01 0.34947536047E+01
 0.44974077255E+01 0.57617105928E+01 0.72743800266E+01 0.11168189542E+02 0.13066513716E+02
 0.14672003665E+02 0.15747855104E+02 0.16126372684E+02 0.15747966464E+02 0.14672164836E+02
 0.13066645391E+02 0.11168240416E+02 0.92153741937E+01 0.73830495019E+01 0.57902791364E+01
 0.44956468379E+01 0.34947840574E+01 0.27507714578E+01 0.22194991606E+01 0.18639787600E+01
 0.16593885258E+01 0.15925218736E+01 0.16593856930E+01 0.18639817174E+01 0.22195002758E+01
 0.27507525032E+01 0.34947536047E+01 0.44956445173E+01 0.57903281251E+01 0.73831204254E+01
 0.92154062754E+01 0.13609877369E+02 0.15531251846E+02 0.16966250058E+02 0.17728026118E+02
 0.17728041544E+02 0.16966306574E+02 0.15531358027E+02 0.13610003436E+02 0.11462201498E+02
 0.93427711309E+01 0.74196476756E+01 0.57902859034E+01 0.44974065735E+01 0.35203132384E+01
 0.28106958926E+01 0.23192647761E+01 0.20090385909E+01 0.18584364731E+01 0.18584325894E+01
 0.20090346109E+01 0.23192658618E+01 0.28106898046E+01 0.35202967923E+01 0.44974077255E+01
 0.57903281251E+01 0.74197009990E+01 0.93427706249E+01 0.11462118587E+02 0.16031017082E+02
 0.17730796802E+02 0.18793027918E+02 0.19150120095E+02 0.18792995565E+02 0.17730789838E+02
 0.16031080684E+02 0.13879892103E+02 0.11560461549E+02 0.93427908898E+01 0.73830978434E+01
 0.57616895098E+01 0.45037482970E+01 0.35732672949E+01 0.29136432679E+01 0.24741094696E+01
 0.22210839760E+01 0.21382176154E+01 0.22210764238E+01 0.24741049569E+01 0.29136438666E+01
 0.35732670322E+01 0.45037528102E+01 0.57617105928E+01 0.73831204254E+01 0.93427706249E+01
 0.11560376219E+02 0.13879782551E+02 0.18077315279E+02 0.19335222670E+02 0.19938410815E+02
 0.19938393636E+02 0.19335194951E+02 0.18077320939E+02 0.16191428466E+02 0.13879856167E+02
 0.11462172216E+02 0.92154237406E+01 0.72743717436E+01 0.57072073623E+01 0.45180568926E+01
 0.36569446712E+01 0.30629025531E+01 0.26882004164E+01 0.25059366499E+01 0.25059310977E+01
 0.26881895193E+01 0.30628970662E+01 0.36569498878E+01 0.45180708060E+01 0.57072240496E+01
 0.72743800266E+01 0.92154062754E+01 0.11462118587E+02 0.13879782551E+02 0.16191374663E+02
 0.19229517943E+02 0.19202537409E+02 0.19202503689E+02 0.19229429830E+02 0.18903361090E+02
 0.17829548107E+02 0.15957685074E+02 0.13609908718E+02 0.11219165414E+02 0.90682516734E+01
 0.72695579552E+01 0.58786509880E+01 0.48653823185E+01 0.41653881726E+01 0.37227871504E+01
 0.35066555772E+01 0.35066520712E+01 0.37227709113E+01 0.41653648325E+01 0.48653830131E+01
 0.58786875716E+01 0.72695887539E+01 0.90682301998E+01 0.11219107824E+02 0.13609879069E+02
 0.15957724058E+02 0.17829642967E+02 0.18903472310E+02 0.19202537409E+02 0.19079614852E+02
 0.19202451999E+02 0.19315413593E+02 0.18888613926E+02 0.17588362014E+02 0.15531269545E+02
 0.13142503251E+02 0.10832908043E+02 0.88100581124E+01 0.71721741504E+01 0.59398632510E+01
 0.50617121195E+01 0.44739856569E+01 0.41330268342E+01 0.40206006676E+01 0.41330227747E+01
 0.44739650326E+01 0.50616896684E+01 0.59398722641E+01 0.71722097356E+01 0.88100722672E+01
 0.10832874646E+02 0.13142454146E+02 0.15531255780E+02 0.17588408116E+02 0.18888713321E+02
 0.19315534068E+02 0.19202503689E+02 0.19202451999E+02 0.19402534709E+02 0.19360561191E+02
 0.18590684527E+02 0.16966273158E+02 0.14774641996E+02 0.12454519526E+02 0.10315989059E+02
 0.84999930459E+01 0.70812333177E+01 0.60387011934E+01 0.53117953938E+01 0.48476653574E+01
 0.46192502213E+01 0.46192549593E+01 0.48476640688E+01 0.53117743175E+01 0.60386835619E+01
 0.70812462882E+01 0.85000202459E+01 0.10315989796E+02 0.12454482565E+02 0.14774595838E+02
 0.16966257108E+02 0.18590727151E+02 0.19360663626E+02 0.19402650266E+02 0.19229429830E+02
 0.19315413593E+02 0.19360561191E+02 0.18923844362E+02 0.17728026317E+02 0.15871880146E+02
 0.13712835283E+02 0.11598610689E+02 0.97191081733E+01 0.81879751775E+01 0.70259882637E+01
 0.61875863467E+01 0.56179059039E+01 0.52827922558E+01 0.51713933929E+01 0.52828081716E+01
 0.56179095538E+01 0.61875704631E+01 0.70259800509E+01 0.81879931209E+01 0.97191358188E+01
 0.11598624827E+02 0.13712835757E+02 0.15871880164E+02 0.17728032953E+02 0.18923858706E+02
 0.19360581473E+02 0.19315430051E+02 0.18903361090E+02 0.18888613926E+02 0.18590684527E+02
 0.17728026317E+02 0.16258645814E+02 0.14403391403E+02 0.12466964881E+02 0.10662423192E+02
 0.91274309811E+01 0.79227699053E+01 0.70259867842E+01 0.63880617156E+01 0.59717224763E+01
 0.57634239767E+01 0.57634379572E+01 0.59717466885E+01 0.63880689660E+01 0.70259784403E+01
 0.79227705150E+01 0.91274546534E+01 0.10662465375E+02 0.12467022006E+02 0.14403463312E+02
 0.16258712486E+02 0.17728045785E+02 0.18590635362E+02 0.18888533649E+02 0.18903322042E+02
 0.17829548107E+02 0.17588362014E+02 0.16966273158E+02 0.15871880146E+02 0.14403391403E+02
 0.12774949519E+02 0.11179109296E+02 0.97620790084E+01 0.86121443914E+01 0.77311457067E+01
 0.70812339773E+01 0.66260998795E+01 0.63507770763E+01 0.62577604317E+01 0.63507982956E+01
 0.66261239066E+01 0.70812428853E+01 0.77311411131E+01 0.86121452395E+01 0.97621019183E+01
 0.11179159127E+02 0.12775027184E+02 0.14403491487E+02 0.15871972381E+02 0.16966310339E+02
 0.17588331228E+02 0.17829500543E+02 0.17878150365E+02 0.15957685074E+02 0.15531269545E+02
 0.14774641996E+02 0.13712835283E+02 0.12466964881E+02 0.11179109296E+02 0.99867923453E+01
 0.89884586204E+01 0.82047699457E+01 0.76103840445E+01 0.71721818706E+01 0.68741063438E+01
 0.67202225517E+01 0.67202274199E+01 0.68741231638E+01 0.71722054943E+01 0.76103964354E+01
 0.82047649160E+01 0.89884553720E+01 0.99868083162E+01 0.11179138687E+02 0.12467000712E+02
 0.13712890520E+02 0.14774726443E+02 0.15531362662E+02 0.15957752478E+02 0.16128419995E+02
 0.16128396586E+02 0.13609908718E+02 0.13142503251E+02 0.12454519526E+02 0.11598610689E+02
 0.10662423192E+02 0.97620790084E+01 0.89884586204E+01 0.83720074453E+01 0.78979899481E+01
 0.75366485984E+01 0.72695669726E+01 0.70993528837E+01 0.70400669018E+01 0.70993464376E+01
 0.72695795829E+01 0.75366790960E+01 0.78980067504E+01 0.83720025924E+01 0.89884587679E+01
 0.97620923279E+01 0.10662421686E+02 0.11598584713E+02 0.12454510691E+02 0.13142555102E+02
 0.13610005798E+02 0.13861566201E+02 0.13937741996E+02 0.13861489623E+02 0.11219165414E+02
 0.10832908043E+02 0.10315989059E+02 0.97191081733E+01 0.91274309811E+01 0.86121443914E+01
 0.82047699457E+01 0.78979899481E+01 0.76648912671E+01 0.74829067743E+01 0.73484475414E+01
 0.72743759138E+01 0.72743576496E+01 0.73484247906E+01 0.74829216322E+01 0.76649273831E+01
 0.78980045590E+01 0.82047642807E+01 0.86121512866E+01 0.91274499957E+01 0.97191031394E+01
 0.10315946601E+02 0.10832858202E+02 0.11219140087E+02 0.11462199344E+02 0.11574916254E+02
 0.11574913028E+02 0.11462200414E+02 0.90682516734E+01 0.88100581124E+01 0.84999930459E+01
 0.81879751775E+01 0.79227699053E+01 0.77311457067E+01 0.76103840445E+01 0.75366485984E+01
 0.74829067743E+01 0.74352922987E+01 0.73978068969E+01 0.73830986838E+01 0.73977596929E+01
 0.74352602705E+01 0.74829244807E+01 0.75366818038E+01 0.76103902171E+01 0.77311319360E+01
 0.79227695668E+01 0.81879970443E+01 0.85000138835E+01 0.88100475464E+01 0.90681944329E+01
 0.92455519501E+01 0.93427672549E+01 0.93730046281E+01 0.93428349908E+01 0.92456393626E+01
 0.72695579552E+01 0.71721741504E+01 0.70812333177E+01 0.70259882637E+01 0.70259867842E+01
 0.70812339773E+01 0.71721818706E+01 0.72695669726E+01 0.73484475414E+01 0.73978068969E+01
 0.74196818199E+01 0.74196482450E+01 0.73977429992E+01 0.73484173696E+01 0.72695872597E+01
 0.71722148209E+01 0.70812404293E+01 0.70259651032E+01 0.70259676391E+01 0.70812430776E+01
 0.71722127859E+01 0.72695858052E+01 0.73484212978E+01 0.73977463740E+01 0.74196449124E+01
 0.74196761778E+01 0.73978041485E+01 0.73484435267E+01 0.58786509880E+01 0.59398632510E+01
 0.60387011934E+01 0.61875863467E+01 0.63880617156E+01 0.66260998795E+01 0.68741063438E+01
 0.70993528837E+01 0.72743759138E+01 0.73830986838E+01 0.74196482450E+01 0.73830479212E+01
 0.72743177771E+01 0.70993314132E+01 0.68741299734E+01 0.66261424782E+01 0.63880875877E+01
 0.61875774799E+01 0.60386728796E+01 0.59398515019E+01 0.58786744154E+01 0.58400565592E+01
 0.58136354289E+01 0.57964676824E+01 0.57902829583E+01 0.57964635040E+01 0.58136118382E+01
 0.58400176733E+01 0.48653823185E+01 0.50617121195E+01 0.53117953938E+01 0.56179059039E+01
 0.59717224763E+01 0.63507770763E+01 0.67202225517E+01 0.70400669018E+01 0.72743576496E+01
 0.73977596929E+01 0.73977429992E+01 0.72743177771E+01 0.70400267369E+01 0.67202036403E+01
 0.63507908405E+01 0.59717648057E+01 0.56179547400E+01 0.53118221621E+01 0.50617057902E+01
 0.48653606705E+01 0.47158335871E+01 0.46065579996E+01 0.45339671404E+01 0.44974138872E+01
 0.44974024697E+01 0.45339429228E+01 0.46065431605E+01 0.47158422947E+01 0.41653881726E+01
 0.44739856569E+01 0.48476653574E+01 0.52827922558E+01 0.57634239767E+01 0.62577604317E+01
 0.67202274199E+01 0.70993464376E+01 0.73484247906E+01 0.74352602705E+01 0.73484173696E+01
 0.70993314132E+01 0.67202036403E+01 0.62577310550E+01 0.57634038246E+01 0.52828016675E+01
 0.48477087570E+01 0.44740391303E+01 0.41654174694E+01 0.39192185951E+01 0.37314693884E+01
 0.35991089998E+01 0.35203053459E+01 0.34941318690E+01 0.35203107308E+01 0.35991269784E+01
 0.37314941235E+01 0.39192256060E+01 0.37227871504E+01 0.41330268342E+01 0.46192502213E+01
 0.51713933929E+01 0.57634379572E+01 0.63507982956E+01 0.68741231638E+01 0.72695795829E+01
 0.74829216322E+01 0.74829244807E+01 0.72695872597E+01 0.68741299734E+01 0.63507908405E+01
 0.57634038246E+01 0.51713391840E+01 0.46192066191E+01 0.41330247556E+01 0.37228258236E+01
 0.33889208460E+01 0.31279504251E+01 0.29362463943E+01 0.28106751151E+01 0.27486782328E+01
 0.27486881371E+01 0.28106965142E+01 0.29362575290E+01 0.31279310005E+01 0.33888751190E+01
 0.35066555772E+01 0.40206006676E+01 0.46192549593E+01 0.52828081716E+01 0.59717466885E+01
 0.66261239066E+01 0.71722054943E+01 0.75366790960E+01 0.76649273831E+01 0.75366818038E+01
 0.71722148209E+01 0.66261424782E+01 0.59717648057E+01 0.52828016675E+01 0.46192066191E+01
 0.40205264349E+01 0.35065983556E+01 0.30829294364E+01 0.27472605348E+01 0.24945233664E+01
 0.23192795322E+01 0.22166049376E+01 0.21828444771E+01 0.22166048062E+01 0.23192654417E+01
 0.24944908510E+01 0.27472319729E+01 0.30829390387E+01 0.35066520712E+01 0.41330227747E+01
 0.48476640688E+01 0.56179095538E+01 0.63880689660E+01 0.70812428853E+01 0.76103964354E+01
 0.78980067504E+01 0.78980045590E+01 0.76103902171E+01 0.70812404293E+01 0.63880875877E+01
 0.56179547400E+01 0.48477087570E+01 0.41330247556E+01 0.35065983556E+01 0.29823822797E+01
 0.25619224057E+01 0.22400863253E+01 0.20090606277E+01 0.18607721711E+01 0.17885428693E+01
 0.17885341619E+01 0.18607488460E+01 0.20090370015E+01 0.22400897875E+01 0.25619711396E+01
 0.29824576867E+01 0.37227709113E+01 0.44739650326E+01 0.53117743175E+01 0.61875704631E+01
 0.70259784403E+01 0.77311411131E+01 0.82047649160E+01 0.83720025924E+01 0.82047642807E+01
 0.77311319360E+01 0.70259651032E+01 0.61875774799E+01 0.53118221621E+01 0.44740391303E+01
 0.37228258236E+01 0.30829294364E+01 0.25619224057E+01 0.21566972956E+01 0.18584144834E+01
 0.16561244008E+01 0.15395985796E+01 0.15016183766E+01 0.15395860667E+01 0.16561177098E+01
 0.18584350524E+01 0.21567453821E+01 0.25619662608E+01 0.30829284545E+01 0.41653648325E+01
 0.50616896684E+01 0.60386835619E+01 0.70259800509E+01 0.79227705150E+01 0.86121452395E+01
 0.89884553720E+01 0.89884587679E+01 0.86121512866E+01 0.79227695668E+01 0.70259676391E+01
 0.60386728796E+01 0.50617057902E+01 0.41654174694E+01 0.33889208460E+01 0.27472605348E+01
 0.22400863253E+01 0.18584144834E+01 0.15892614403E+01 0.14191634192E+01 0.13371692374E+01
 0.13371681283E+01 0.14191664105E+01 0.15892767146E+01 0.18584333692E+01 0.22400831690E+01
 0.27472183305E+01 0.33888548649E+01 0.48653830131E+01 0.59398722641E+01 0.70812462882E+01
 0.81879931209E+01 0.91274546534E+01 0.97621019183E+01 0.99868083162E+01 0.97620923279E+01
 0.91274499957E+01 0.81879970443E+01 0.70812430776E+01 0.59398515019E+01 0.48653606705E+01
 0.39192185951E+01 0.31279504251E+01 0.24945233664E+01 0.20090606277E+01 0.16561244008E+01
 0.14191634192E+01 0.12836534093E+01 0.12396615619E+01 0.12836573454E+01 0.14191680016E+01
 0.16561194338E+01 0.20090352068E+01 0.24944820625E+01 0.31279173999E+01 0.39192158661E+01
 0.58786875716E+01 0.71722097356E+01 0.85000202459E+01 0.97191358188E+01 0.10662465375E+02
 0.11179159127E+02 0.11179138687E+02 0.10662421686E+02 0.97191031394E+01 0.85000138835E+01
 0.71722127859E+01 0.58786744154E+01 0.47158335871E+01 0.37314693884E+01 0.29362463943E+01
 0.23192795322E+01 0.18607721711E+01 0.15395985796E+01 0.13371692374E+01 0.12396615619E+01
 0.12396634903E+01 0.13371710435E+01 0.15395920551E+01 0.18607551769E+01 0.23192642478E+01
 0.29362512992E+01 0.37314978552E+01 0.47158655959E+01 0.72695887539E+01 0.88100722672E+01
 0.10315989796E+02 0.11598624827E+02 0.12467022006E+02 0.12775027184E+02 0.12467000712E+02
 0.11598584713E+02 0.10315946601E+02 0.88100475464E+01 0.72695858052E+01 0.58400565592E+01
 0.46065579996E+01 0.35991089998E+01 0.28106751151E+01 0.22166049376E+01 0.17885428693E+01
 0.15016183766E+01 0.13371681283E+01 0.12836573454E+01 0.13371710435E+01 0.15016211029E+01
 0.17885436223E+01 0.22166082895E+01 0.28106880254E+01 0.35991285173E+01 0.46065704151E+01
 0.58400564864E+01 0.90682301998E+01 0.10832874646E+02 0.12454482565E+02 0.13712835757E+02
 0.14403463312E+02 0.14403491487E+02 0.13712890520E+02 0.12454510691E+02 0.10832858202E+02
 0.90681944329E+01 0.73484212978E+01 0.58136354289E+01 0.45339671404E+01 0.35203053459E+01
 0.27486782328E+01 0.21828444771E+01 0.17885341619E+01 0.15395860667E+01 0.14191664105E+01
 0.14191680016E+01 0.15395920551E+01 0.17885436223E+01 0.21828507105E+01 0.27486755752E+01
 0.35202961701E+01 0.45339599591E+01 0.58136406630E+01 0.73484461509E+01 0.11219107824E+02
 0.13142454146E+02 0.14774595838E+02 0.15871880164E+02 0.16258712486E+02 0.15871972381E+02
 0.14774726443E+02 0.13142555102E+02 0.11219140087E+02 0.92455519501E+01 0.73977463740E+01
 0.57964676824E+01 0.44974138872E+01 0.34941318690E+01 0.27486881371E+01 0.22166048062E+01
 0.18607488460E+01 0.16561177098E+01 0.15892767146E+01 0.16561194338E+01 0.18607551769E+01
 0.22166082895E+01 0.27486755752E+01 0.34941078516E+01 0.44974055109E+01 0.57964956776E+01
 0.73977967554E+01 0.92455814092E+01 0.13609879069E+02 0.15531255780E+02 0.16966257108E+02
 0.17728032953E+02 0.17728045785E+02 0.16966310339E+02 0.15531362662E+02 0.13610005798E+02
 0.11462199344E+02 0.93427672549E+01 0.74196449124E+01 0.57902829583E+01 0.44974024697E+01
 0.35203107308E+01 0.28106965142E+01 0.23192654417E+01 0.20090370015E+01 0.18584350524E+01
 0.18584333692E+01 0.20090352068E+01 0.23192642478E+01 0.28106880254E+01 0.35202961701E+01
 0.44974055109E+01 0.57903228643E+01 0.74196963001E+01 0.93427697064E+01 0.11462119872E+02
 0.15957724058E+02 0.17588408116E+02 0.18590727151E+02 0.18923858706E+02 0.18590635362E+02
 0.17588331228E+02 0.15957752478E+02 0.13861566202E+02 0.11574916254E+02 0.93730046281E+01
 0.74196761778E+01 0.57964635040E+01 0.45339429228E+01 0.35991269784E+01 0.29362575290E+01
 0.24944908510E+01 0.22400897875E+01 0.21567453821E+01 0.22400831690E+01 0.24944820625E+01
 0.29362512992E+01 0.35991285173E+01 0.45339599591E+01 0.57964956776E+01 0.74196963001E+01
 0.93729672555E+01 0.11574809531E+02 0.13861452345E+02 0.17829642967E+02 0.18888713321E+02
 0.19360663626E+02 0.19360581473E+02 0.18888533649E+02 0.17829500543E+02 0.16128419995E+02
 0.13937741996E+02 0.11574913028E+02 0.93428349908E+01 0.73978041485E+01 0.58136118382E+01
 0.46065431605E+01 0.37314941235E+01 0.31279310005E+01 0.27472319729E+01 0.25619711396E+01
 0.25619662608E+01 0.27472183305E+01 0.31279173999E+01 0.37314978552E+01 0.46065704151E+01
 0.58136406630E+01 0.73977967554E+01 0.93427697064E+01 0.11574809531E+02 0.13937664132E+02
 0.16128442781E+02 0.18903472310E+02 0.19315534068E+02 0.19402650266E+02 0.19315430051E+02
 0.18903322042E+02 0.17878150365E+02 0.16128396586E+02 0.13861489623E+02 0.11462200414E+02
 0.92456393626E+01 0.73484435267E+01 0.58400176733E+01 0.47158422947E+01 0.39192256060E+01
 0.33888751190E+01 0.30829390387E+01 0.29824576867E+01 0.30829284545E+01 0.33888548649E+01
 0.39192158661E+01 0.47158655959E+01 0.58400564864E+01 0.73484461509E+01 0.92455814092E+01
 0.11462119872E+02 0.13861452345E+02 0.16128442781E+02 0.17878273274E+02 0.17711506991E+02
 0.17360235222E+02 0.17711482606E+02 0.18396352653E+02 0.18625594223E+02 0.17829508598E+02
 0.16030946364E+02 0.13699836459E+02 0.11346726485E+02 0.92529927822E+01 0.75366436842E+01
 0.62398617476E+01 0.53167884639E+01 0.47005753689E+01 0.43436353239E+01 0.42259751184E+01
 0.43436345892E+01 0.47005635676E+01 0.53167792491E+01 0.62398799275E+01 0.75366735158E+01
 0.92529879080E+01 0.11346685932E+02 0.13699826531E+02 0.16031022662E+02 0.17829647011E+02
 0.18625721985E+02 0.18396424945E+02 0.17360235222E+02 0.17360209844E+02 0.18109908529E+02
 0.18898428295E+02 0.18888644327E+02 0.17730756514E+02 0.15693981688E+02 0.13331712669E+02
 0.11082345801E+02 0.91415519866E+01 0.76103806227E+01 0.64851831057E+01 0.57037197815E+01
 0.52065035219E+01 0.49621359970E+01 0.49621399959E+01 0.52065057602E+01 0.57037121856E+01
 0.64851797975E+01 0.76103933805E+01 0.91415646145E+01 0.11082338753E+02 0.13331698650E+02
 0.15693992440E+02 0.17730804690E+02 0.18888717395E+02 0.18898507199E+02 0.18109972593E+02
 0.17711482606E+02 0.18109908529E+02 0.18930014623E+02 0.19360650494E+02 0.18793036062E+02
 0.17203882512E+02 0.15028809832E+02 0.12768797719E+02 0.10718773338E+02 0.90221634780E+01
 0.77311498905E+01 0.68039370150E+01 0.61774910869E+01 0.58101025574E+01 0.56880442403E+01
 0.58101153354E+01 0.61775013289E+01 0.68039359578E+01 0.77311442141E+01 0.90221618368E+01
 0.10718776458E+02 0.12768802857E+02 0.15028814400E+02 0.17203884090E+02 0.18793038872E+02
 0.19360667553E+02 0.18930049723E+02 0.18109940109E+02 0.18396352653E+02 0.18898428295E+02
 0.19360650494E+02 0.19150154143E+02 0.18014359983E+02 0.16178131337E+02 0.14081173508E+02
 0.12069515501E+02 0.10323792034E+02 0.89448213124E+01 0.79227733779E+01 0.72011605769E+01
 0.67324470223E+01 0.64981695079E+01 0.64981793077E+01 0.67324700284E+01 0.72011813793E+01
 0.79227785903E+01 0.89448121481E+01 0.10323786036E+02 0.12069532243E+02 0.14081215901E+02
 0.16178179293E+02 0.18014381623E+02 0.19150127272E+02 0.19360581683E+02 0.18898355097E+02
 0.18396321276E+02 0.18625594223E+02 0.18888644327E+02 0.18793036062E+02 0.18014359983E+02
 0.16585110578E+02 0.14803211361E+02 0.12986732950E+02 0.11334851914E+02 0.99795485714E+01
 0.89448158955E+01 0.81879718812E+01 0.76609753266E+01 0.73422621570E+01 0.72343769640E+01
 0.73422716058E+01 0.76609976599E+01 0.81879961021E+01 0.89448221362E+01 0.99795375896E+01
 0.11334852464E+02 0.12986774013E+02 0.14803294676E+02 0.16585204609E+02 0.18014409936E+02
 0.18792996463E+02 0.18888530058E+02 0.18625492676E+02 0.18465486442E+02 0.17829508598E+02
 0.17730756514E+02 0.17203882512E+02 0.16178131337E+02 0.14803211361E+02 0.13312281512E+02
 0.11890138153E+02 0.10680928722E+02 0.97339839361E+01 0.90221564589E+01 0.84999911341E+01
 0.81436175546E+01 0.79583365495E+01 0.79583247584E+01 0.81436028924E+01 0.84999996708E+01
 0.90221752593E+01 0.97339843671E+01 0.10680913785E+02 0.11890137743E+02 0.13312316070E+02
 0.14803281272E+02 0.16178222614E+02 0.17203963026E+02 0.17730790252E+02 0.17829496927E+02
 0.17760786616E+02 0.17760799868E+02 0.16030946364E+02 0.15693981688E+02 0.15028809832E+02
 0.14081173508E+02 0.12986732950E+02 0.11890138153E+02 0.10929727417E+02 0.10165992607E+02
 0.95842319398E+01 0.91415526350E+01 0.88100633056E+01 0.85945840841E+01 0.85184962184E+01
 0.85945313306E+01 0.88100194859E+01 0.91415519065E+01 0.95842452289E+01 0.10165987004E+02
 0.10929708747E+02 0.11890121328E+02 0.12986718675E+02 0.14081174950E+02 0.15028861863E+02
 0.15694096619E+02 0.16031082417E+02 0.16128416860E+02 0.16136338347E+02 0.16128326618E+02
 0.13699836459E+02 0.13331712669E+02 0.12768797719E+02 0.12069515501E+02 0.11334851914E+02
 0.10680928722E+02 0.10165992607E+02 0.97830045978E+01 0.94904075342E+01 0.92529921634E+01
 0.90682554117E+01 0.89625370746E+01 0.89624905415E+01 0.90681663426E+01 0.92529426008E+01
 0.94904104319E+01 0.97830155886E+01 0.10165986886E+02 0.10680913090E+02 0.11334822335E+02
 0.12069460493E+02 0.12768742548E+02 0.13331712408E+02 0.13699910635E+02 0.13879888935E+02
 0.13937736268E+02 0.13937691362E+02 0.13879790488E+02 0.11346726485E+02 0.11082345801E+02
 0.10718773338E+02 0.10323792034E+02 0.99795485714E+01 0.97339839361E+01 0.95842319398E+01
 0.94904075342E+01 0.94084079572E+01 0.93208575314E+01 0.92456355735E+01 0.92154202585E+01
 0.92455472963E+01 0.93207631724E+01 0.94083711393E+01 0.94904147573E+01 0.95842399008E+01
 0.97339793759E+01 0.99795394577E+01 0.10323773422E+02 0.10718731964E+02 0.11082284325E+02
 0.11346662959E+02 0.11497747309E+02 0.11560451895E+02 0.11574905406E+02 0.11560478570E+02
 0.11497796660E+02 0.92529927822E+01 0.91415519866E+01 0.90221634780E+01 0.89448213124E+01
 0.89448158955E+01 0.90221564589E+01 0.91415526350E+01 0.92529921634E+01 0.93208575314E+01
 0.93427523077E+01 0.93428320348E+01 0.93427860714E+01 0.93426525090E+01 0.93207770841E+01
 0.92529674589E+01 0.91415630501E+01 0.90221640943E+01 0.89448077404E+01 0.89448124071E+01
 0.90221686605E+01 0.91415579440E+01 0.92529618664E+01 0.93207806034E+01 0.93426565788E+01
 0.93427822907E+01 0.93428302682E+01 0.93427616699E+01 0.93208677855E+01 0.75366436842E+01
 0.76103806227E+01 0.77311498905E+01 0.79227733779E+01 0.81879718812E+01 0.84999911341E+01
 0.88100633056E+01 0.90682554117E+01 0.92456355735E+01 0.93428320348E+01 0.93730085694E+01
 0.93427698863E+01 0.92455474438E+01 0.90681912225E+01 0.88100516069E+01 0.85000168250E+01
 0.81879928543E+01 0.79227665667E+01 0.77311360887E+01 0.76103931947E+01 0.75366776697E+01
 0.74829215837E+01 0.74352645199E+01 0.73977626426E+01 0.73830942745E+01 0.73978034270E+01
 0.74352957571E+01 0.74829089301E+01 0.62398617476E+01 0.64851831057E+01 0.68039370150E+01
 0.72011605769E+01 0.76609753266E+01 0.81436175546E+01 0.85945840841E+01 0.89625370746E+01
 0.92154202585E+01 0.93427860714E+01 0.93427698863E+01 0.92153717833E+01 0.89624691710E+01
 0.85945330620E+01 0.81436178738E+01 0.76610214918E+01 0.72012093063E+01 0.68039530183E+01
 0.64851730748E+01 0.62398580416E+01 0.60531007936E+01 0.59122188050E+01 0.58136402749E+01
 0.57616966382E+01 0.57616861733E+01 0.58136115291E+01 0.59121837402E+01 0.60530799734E+01
 0.53167884639E+01 0.57037197815E+01 0.61774910869E+01 0.67324470223E+01 0.73422621570E+01
 0.79583365495E+01 0.85184962184E+01 0.89624905415E+01 0.92455472963E+01 0.93426525090E+01
 0.92455474438E+01 0.89624691710E+01 0.85184455573E+01 0.79582843582E+01 0.73422496229E+01
 0.67324889400E+01 0.61775611910E+01 0.57037731299E+01 0.53167990298E+01 0.50102604464E+01
 0.47752702581E+01 0.46065544176E+01 0.45037631781E+01 0.44690715161E+01 0.45037432502E+01
 0.46065422771E+01 0.47752831208E+01 0.50102794744E+01 0.47005753689E+01 0.52065035219E+01
 0.58101025574E+01 0.64981695079E+01 0.72343769640E+01 0.79583247584E+01 0.85945313306E+01
 0.90681663426E+01 0.93207631724E+01 0.93207770841E+01 0.90681912225E+01 0.85945330620E+01
 0.79582843582E+01 0.72343093748E+01 0.64981160010E+01 0.58101018005E+01 0.52065585510E+01
 0.47006459228E+01 0.42906524225E+01 0.39695890094E+01 0.37314655604E+01 0.35732454243E+01
 0.34941191434E+01 0.34941248538E+01 0.35732659231E+01 0.37314953242E+01 0.39695990384E+01
 0.42906156274E+01 0.43436353239E+01 0.49621359970E+01 0.56880442403E+01 0.64981793077E+01
 0.73422716058E+01 0.81436028924E+01 0.88100194859E+01 0.92529426008E+01 0.94083711393E+01
 0.92529674589E+01 0.88100516069E+01 0.81436178738E+01 0.73422496229E+01 0.64981160010E+01
 0.56879617035E+01 0.49620774513E+01 0.43436327150E+01 0.38361042686E+01 0.34334518493E+01
 0.31279499091E+01 0.29136345529E+01 0.27866054369E+01 0.27445394444E+01 0.27866214443E+01
 0.29136466869E+01 0.31279338518E+01 0.34334057197E+01 0.38360612030E+01 0.42259751184E+01
 0.49621399959E+01 0.58101153354E+01 0.67324700284E+01 0.76609976599E+01 0.84999996708E+01
 0.91415519065E+01 0.94904104319E+01 0.94904147573E+01 0.91415630501E+01 0.85000168250E+01
 0.76610214918E+01 0.67324889400E+01 0.58101018005E+01 0.49620774513E+01 0.42258867064E+01
 0.36140904756E+01 0.31241242862E+01 0.27472615164E+01 0.24741433739E+01 0.22969408113E+01
 0.22099146204E+01 0.22099111775E+01 0.22969245688E+01 0.24741107671E+01 0.27472326084E+01
 0.31241349439E+01 0.36141550519E+01 0.43436345892E+01 0.52065057602E+01 0.61775013289E+01
 0.72011813793E+01 0.81879961021E+01 0.90221752593E+01 0.95842452289E+01 0.97830155886E+01
 0.95842399008E+01 0.90221640943E+01 0.81879928543E+01 0.72012093063E+01 0.61775611910E+01
 0.52065585510E+01 0.43436327150E+01 0.36140904756E+01 0.30224684339E+01 0.25619228564E+01
 0.22210819127E+01 0.19881038658E+01 0.18529027997E+01 0.18086403125E+01 0.18528815062E+01
 0.19880776050E+01 0.22210806969E+01 0.25619694291E+01 0.30225485733E+01 0.36141533494E+01
 0.47005635676E+01 0.57037121856E+01 0.68039359578E+01 0.79227785903E+01 0.89448221362E+01
 0.97339843671E+01 0.10165987004E+02 0.10165986886E+02 0.97339793759E+01 0.89448077404E+01
 0.79227665667E+01 0.68039530183E+01 0.57037731299E+01 0.47006459228E+01 0.38361042686E+01
 0.31241242862E+01 0.25619228564E+01 0.21381737238E+01 0.18382978767E+01 0.16479972681E+01
 0.15559628705E+01 0.15559557992E+01 0.16479884921E+01 0.18383114220E+01 0.21382160429E+01
 0.25619661205E+01 0.31241258604E+01 0.38360486748E+01 0.53167792491E+01 0.64851797975E+01
 0.77311442141E+01 0.89448121481E+01 0.99795375896E+01 0.10680913785E+02 0.10929708747E+02
 0.10680913090E+02 0.99795394577E+01 0.89448124071E+01 0.77311360887E+01 0.64851730748E+01
 0.53167990298E+01 0.42906524225E+01 0.34334518493E+01 0.27472615164E+01 0.22210819127E+01
 0.18382978767E+01 0.15811537457E+01 0.14340395956E+01 0.13862674010E+01 0.14340417101E+01
 0.15811651254E+01 0.18383138891E+01 0.22210790276E+01 0.27472201849E+01 0.34333843258E+01
 0.42905962657E+01 0.62398799275E+01 0.76103933805E+01 0.90221618368E+01 0.10323786036E+02
 0.11334852464E+02 0.11890137743E+02 0.11890121328E+02 0.11334822335E+02 0.10323773422E+02
 0.90221686605E+01 0.76103931947E+01 0.62398580416E+01 0.50102604464E+01 0.39695890094E+01
 0.31279499091E+01 0.24741433739E+01 0.19881038658E+01 0.16479972681E+01 0.14340395956E+01
 0.13311578361E+01 0.13311606740E+01 0.14340452011E+01 0.16479958498E+01 0.19880835127E+01
 0.24741056298E+01 0.31279174712E+01 0.39695863055E+01 0.50102845806E+01 0.75366735158E+01
 0.91415646145E+01 0.10718776458E+02 0.12069532243E+02 0.12986774013E+02 0.13312316070E+02
 0.12986718675E+02 0.12069460493E+02 0.10718731964E+02 0.91415579440E+01 0.75366776697E+01
 0.60531007936E+01 0.47752702581E+01 0.37314655604E+01 0.29136345529E+01 0.22969408113E+01
 0.18529027997E+01 0.15559628705E+01 0.13862674010E+01 0.13311606740E+01 0.13862716458E+01
 0.15559626191E+01 0.18528921352E+01 0.22969286343E+01 0.29136399881E+01 0.37314955557E+01
 0.47753059770E+01 0.60531164514E+01 0.92529879080E+01 0.11082338753E+02 0.12768802857E+02
 0.14081215901E+02 0.14803294676E+02 0.14803281272E+02 0.14081174950E+02 0.12768742548E+02
 0.11082284325E+02 0.92529618664E+01 0.74829215837E+01 0.59122188050E+01 0.46065544176E+01
 0.35732454243E+01 0.27866054369E+01 0.22099146204E+01 0.18086403125E+01 0.15559557992E+01
 0.14340417101E+01 0.14340452011E+01 0.15559626191E+01 0.18086448529E+01 0.22099184159E+01
 0.27866162056E+01 0.35732641169E+01 0.46065692643E+01 0.59122210931E+01 0.74829239092E+01
 0.11346685932E+02 0.13331698650E+02 0.15028814400E+02 0.16178179293E+02 0.16585204609E+02
 0.16178222614E+02 0.15028861863E+02 0.13331712408E+02 0.11346662959E+02 0.93207806034E+01
 0.74352645199E+01 0.58136402749E+01 0.45037631781E+01 0.34941191434E+01 0.27445394444E+01
 0.22099111775E+01 0.18528815062E+01 0.16479884921E+01 0.15811651254E+01 0.16479958498E+01
 0.18528921352E+01 0.22099184159E+01 0.27445379782E+01 0.34941094115E+01 0.45037528381E+01
 0.58136413188E+01 0.74352853724E+01 0.93208148732E+01 0.13699826531E+02 0.15693992440E+02
 0.17203884090E+02 0.18014381623E+02 0.18014409936E+02 0.17203963026E+02 0.15694096619E+02
 0.13699910635E+02 0.11497747309E+02 0.93426565788E+01 0.73977626426E+01 0.57616966382E+01
 0.44690715161E+01 0.34941248538E+01 0.27866214443E+01 0.22969245688E+01 0.19880776050E+01
 0.18383114220E+01 0.18383138891E+01 0.19880835127E+01 0.22969286343E+01 0.27866162056E+01
 0.34941094115E+01 0.44690597493E+01 0.57617080526E+01 0.73977964310E+01 0.93426794059E+01
 0.11497719402E+02 0.16031022662E+02 0.17730804690E+02 0.18793038872E+02 0.19150127272E+02
 0.18792996463E+02 0.17730790252E+02 0.16031082417E+02 0.13879888935E+02 0.11560451895E+02
 0.93427822907E+01 0.73830942745E+01 0.57616861733E+01 0.45037432502E+01 0.35732659231E+01
 0.29136466869E+01 0.24741107671E+01 0.22210806969E+01 0.21382160429E+01 0.22210790276E+01
 0.24741056298E+01 0.29136399881E+01 0.35732641169E+01 0.45037528381E+01 0.57617080526E+01
 0.73831145089E+01 0.93427690854E+01 0.11560382346E+02 0.13879790144E+02 0.17829647011E+02
 0.18888717395E+02 0.19360667553E+02 0.19360581683E+02 0.18888530058E+02 0.17829496927E+02
 0.16128416860E+02 0.13937736268E+02 0.11574905406E+02 0.93428302682E+01 0.73978034270E+01
 0.58136115291E+01 0.46065422771E+01 0.37314953242E+01 0.31279338518E+01 0.27472326084E+01
 0.25619694291E+01 0.25619661205E+01 0.27472201849E+01 0.31279174712E+01 0.37314955557E+01
 0.46065692643E+01 0.58136413188E+01 0.73977964310E+01 0.93427690854E+01 0.11574812820E+02
 0.13937671384E+02 0.16128449291E+02 0.18625721985E+02 0.18898507199E+02 0.18930049723E+02
 0.18898355097E+02 0.18625492676E+02 0.17760786616E+02 0.16136338347E+02 0.13937691362E+02
 0.11560478570E+02 0.93427616699E+01 0.74352957571E+01 0.59121837402E+01 0.47752831208E+01
 0.39695990384E+01 0.34334057197E+01 0.31241349439E+01 0.30225485733E+01 0.31241258604E+01
 0.34333843258E+01 0.39695863055E+01 0.47753059770E+01 0.59122210931E+01 0.74352853724E+01
 0.93426794059E+01 0.11560382346E+02 0.13937671384E+02 0.16136442030E+02 0.17760991800E+02
 0.18396424945E+02 0.18109972593E+02 0.18109940109E+02 0.18396321276E+02 0.18465486442E+02
 0.17760799868E+02 0.16128326618E+02 0.13879790488E+02 0.11497796660E+02 0.93208677855E+01
 0.74829089301E+01 0.60530799734E+01 0.50102794744E+01 0.42906156274E+01 0.38360612030E+01
 0.36141550519E+01 0.36141533494E+01 0.38360486748E+01 0.42905962657E+01 0.50102845806E+01
 0.60531164514E+01 0.74829239092E+01 0.93208148732E+01 0.11497719402E+02 0.13879790144E+02
 0.16128449291E+02 0.17760991800E+02 0.18465658744E+02 0.15941379773E+02 0.15941390716E+02
 0.17054205731E+02 0.18396402234E+02 0.18903409431E+02 0.18077239999E+02 0.16169309551E+02
 0.13802344021E+02 0.11496640317E+02 0.94904049611E+01 0.78979817890E+01 0.67271578194E+01
 0.59155489743E+01 0.54001213424E+01 0.51470035590E+01 0.51470037100E+01 0.54001218679E+01
 0.59155541599E+01 0.67271744987E+01 0.78980046055E+01 0.94904158673E+01 0.11496635755E+02
 0.13802350917E+02 0.16169356294E+02 0.18077316304E+02 0.18903471816E+02 0.18396420275E+02
 0.17054191422E+02 0.15941390716E+02 0.16611204870E+02 0.18109953364E+02 0.19315548277E+02
 0.19335253749E+02 0.18032266302E+02 0.15896712210E+02 0.13552774683E+02 0.11391591464E+02
 0.95842281861E+01 0.82047633898E+01 0.72163508182E+01 0.65509386005E+01 0.61615316154E+01
 0.60322221151E+01 0.61615279368E+01 0.65509406156E+01 0.72163612526E+01 0.82047734585E+01
 0.95842328107E+01 0.11391598650E+02 0.13552790393E+02 0.15896723754E+02 0.18032255649E+02
 0.19335226704E+02 0.19315534232E+02 0.18109968492E+02 0.16611228317E+02 0.17054205732E+02
 0.18109953364E+02 0.19402704033E+02 0.19938494897E+02 0.19237553650E+02 0.17510999024E+02
 0.15322605887E+02 0.13155629126E+02 0.11250241960E+02 0.97339877621E+01 0.86121453322E+01
 0.78239809931E+01 0.73139347601E+01 0.70592829949E+01 0.70592783419E+01 0.73139312812E+01
 0.78239888059E+01 0.86121512860E+01 0.97339777767E+01 0.11250231447E+02 0.13155642665E+02
 0.15322632300E+02 0.17510995322E+02 0.19237498718E+02 0.19938417936E+02 0.19402650186E+02
 0.18109935854E+02 0.17054204676E+02 0.18396402234E+02 0.19315548277E+02 0.19938494897E+02
 0.19652092485E+02 0.18389963638E+02 0.16529548370E+02 0.14531629288E+02 0.12684967192E+02
 0.11150836363E+02 0.99795477743E+01 0.91274282757E+01 0.85367755293E+01 0.81798900701E+01
 0.80589669893E+01 0.81798787676E+01 0.85367752105E+01 0.91274395168E+01 0.99795449472E+01
 0.11150815000E+02 0.12684960287E+02 0.14531661352E+02 0.16529597950E+02 0.18389983925E+02
 0.19652051808E+02 0.19938394336E+02 0.19315423438E+02 0.18396314158E+02 0.17969578903E+02
 0.18903409431E+02 0.19335253749E+02 0.19237553650E+02 0.18389963638E+02 0.16958810589E+02
 0.15290047659E+02 0.13663640936E+02 0.12256086688E+02 0.11150829210E+02 0.10323778662E+02
 0.97190970965E+01 0.93055065492E+01 0.90894243119E+01 0.90894046422E+01 0.93054733597E+01
 0.97190861274E+01 0.10323782235E+02 0.11150818925E+02 0.12256066435E+02 0.13663642866E+02
 0.15290088704E+02 0.16958876564E+02 0.18390020849E+02 0.19237560579E+02 0.19335188814E+02
 0.18903311014E+02 0.18465478757E+02 0.18465526715E+02 0.18077239999E+02 0.18032266302E+02
 0.17510999024E+02 0.16529548370E+02 0.15290047659E+02 0.14011854239E+02 0.12864843036E+02
 0.11947408436E+02 0.11250232583E+02 0.10718760701E+02 0.10315981713E+02 0.10049944306E+02
 0.99550476772E+01 0.10049877131E+02 0.10315910748E+02 0.10718729072E+02 0.11250223786E+02
 0.11947393647E+02 0.12864822846E+02 0.14011843107E+02 0.15290055177E+02 0.16529586998E+02
 0.17511077298E+02 0.18032364069E+02 0.18077317551E+02 0.17878142656E+02 0.17760795668E+02
 0.17878105861E+02 0.16169309551E+02 0.15896712210E+02 0.15322605887E+02 0.14531629288E+02
 0.13663640936E+02 0.12864843036E+02 0.12230460320E+02 0.11758158773E+02 0.11391592142E+02
 0.11082343213E+02 0.10832910092E+02 0.10687972635E+02 0.10687920107E+02 0.10832798213E+02
 0.11082252396E+02 0.11391551211E+02 0.11758142754E+02 0.12230443680E+02 0.12864816730E+02
 0.13663598231E+02 0.14531579060E+02 0.15322593813E+02 0.15896788876E+02 0.16169467277E+02
 0.16191428514E+02 0.16128391602E+02 0.16128324790E+02 0.16191268974E+02 0.13802344021E+02
 0.13552774683E+02 0.13155629126E+02 0.12684967192E+02 0.12256086688E+02 0.11947408436E+02
 0.11758158773E+02 0.11629298333E+02 0.11496639694E+02 0.11346722505E+02 0.11219165865E+02
 0.11168220422E+02 0.11219079813E+02 0.11346611761E+02 0.11496560673E+02 0.11629259001E+02
 0.11758139132E+02 0.11947391793E+02 0.12256058802E+02 0.12684913153E+02 0.13155555900E+02
 0.13552723729E+02 0.13802356579E+02 0.13890905478E+02 0.13879850646E+02 0.13861481446E+02
 0.13879788125E+02 0.13890837906E+02 0.11496640317E+02 0.11391591464E+02 0.11250241960E+02
 0.11150836363E+02 0.11150829210E+02 0.11250232583E+02 0.11391592142E+02 0.11496639694E+02
 0.11525947559E+02 0.11497784407E+02 0.11462194733E+02 0.11462166850E+02 0.11497714602E+02
 0.11525867477E+02 0.11496577004E+02 0.11391554827E+02 0.11250211668E+02 0.11150813259E+02
 0.11150819307E+02 0.11250217602E+02 0.11391548268E+02 0.11496569850E+02 0.11525872094E+02
 0.11497719773E+02 0.11462161585E+02 0.11462191824E+02 0.11497795834E+02 0.11525960311E+02
 0.94904049611E+01 0.95842281861E+01 0.97339877621E+01 0.99795477743E+01 0.10323778662E+02
 0.10718760701E+02 0.11082343213E+02 0.11346722505E+02 0.11497784407E+02 0.11560471950E+02
 0.11574912851E+02 0.11560459400E+02 0.11497744715E+02 0.11346661760E+02 0.11082292520E+02
 0.10718737018E+02 0.10323767446E+02 0.99795356862E+01 0.97339862901E+01 0.95842443949E+01
 0.94904081682E+01 0.94083665988E+01 0.93207700532E+01 0.92455538867E+01 0.92154187361E+01
 0.92456383952E+01 0.93208717370E+01 0.94084187904E+01 0.78979817890E+01 0.82047633898E+01
 0.86121453322E+01 0.91274282757E+01 0.97190970965E+01 0.10315981713E+02 0.10832910092E+02
 0.11219165865E+02 0.11462194733E+02 0.11574912851E+02 0.11574925790E+02 0.11462205617E+02
 0.11219137061E+02 0.10832857313E+02 0.10315953197E+02 0.97191059897E+01 0.91274444454E+01
 0.86121492123E+01 0.82047706265E+01 0.78980074306E+01 0.76649218229E+01 0.74829198323E+01
 0.73484323606E+01 0.72743630822E+01 0.72743737809E+01 0.73484486242E+01 0.74829149238E+01
 0.76648938523E+01 0.67271578194E+01 0.72163508182E+01 0.78239809931E+01 0.85367755293E+01
 0.93055065492E+01 0.10049944306E+02 0.10687972635E+02 0.11168220422E+02 0.11462166850E+02
 0.11560459400E+02 0.11462205617E+02 0.11168241469E+02 0.10687941694E+02 0.10049894180E+02
 0.93054923453E+01 0.85368110508E+01 0.78240346982E+01 0.72163872731E+01 0.67271682868E+01
 0.63453163109E+01 0.60531004606E+01 0.58400573408E+01 0.57072396129E+01 0.56616817792E+01
 0.57072070105E+01 0.58400204763E+01 0.60530831677E+01 0.63453142615E+01 0.59155489743E+01
 0.65509386005E+01 0.73139347601E+01 0.81798900701E+01 0.90894243119E+01 0.99550476772E+01
 0.10687920107E+02 0.11219079813E+02 0.11497714602E+02 0.11497744715E+02 0.11219137061E+02
 0.10687941694E+02 0.99550070031E+01 0.90893546342E+01 0.81798513149E+01 0.73139624771E+01
 0.65510152588E+01 0.59156185247E+01 0.54062892134E+01 0.50102606606E+01 0.47158275743E+01
 0.45180618370E+01 0.44179567287E+01 0.44179473952E+01 0.45180529449E+01 0.47158425688E+01
 0.50102806533E+01 0.54062698407E+01 0.54001213424E+01 0.61615316154E+01 0.70592829949E+01
 0.80589669893E+01 0.90894046422E+01 0.10049877131E+02 0.10832798213E+02 0.11346611761E+02
 0.11525867477E+02 0.11346661760E+02 0.10832857313E+02 0.10049894180E+02 0.90893546342E+01
 0.80588708497E+01 0.70591990801E+01 0.61615153020E+01 0.54001766242E+01 0.47800124453E+01
 0.42906530488E+01 0.39192160932E+01 0.36569159885E+01 0.34999815807E+01 0.34476603560E+01
 0.34999999113E+01 0.36569456868E+01 0.39192292690E+01 0.42906181137E+01 0.47799386042E+01
 0.51470035590E+01 0.60322221151E+01 0.70592783419E+01 0.81798787676E+01 0.93054733597E+01
 0.10315910748E+02 0.11082252396E+02 0.11496560673E+02 0.11496577004E+02 0.11082292520E+02
 0.10315953197E+02 0.93054923453E+01 0.81798513149E+01 0.70591990801E+01 0.60321197828E+01
 0.51469305993E+01 0.44173260960E+01 0.38361025150E+01 0.33889223424E+01 0.30629227592E+01
 0.28495227680E+01 0.27439041678E+01 0.27439108239E+01 0.28495306061E+01 0.30629083333E+01
 0.33888803933E+01 0.38360636416E+01 0.44173356702E+01 0.51470037100E+01 0.61615279368E+01
 0.73139312812E+01 0.85367752105E+01 0.97190861274E+01 0.10718729072E+02 0.11391551211E+02
 0.11629259001E+02 0.11391554827E+02 0.10718737018E+02 0.97191059897E+01 0.85368110508E+01
 0.73139624771E+01 0.61615153020E+01 0.51469305993E+01 0.42977218539E+01 0.36140852393E+01
 0.30829289407E+01 0.26882307365E+01 0.24162723286E+01 0.22571295924E+01 0.22047620796E+01
 0.22571128811E+01 0.24162396222E+01 0.26882011744E+01 0.30829391153E+01 0.36141544701E+01
 0.42978217859E+01 0.54001218679E+01 0.65509406156E+01 0.78239888059E+01 0.91274395168E+01
 0.10323782235E+02 0.11250223786E+02 0.11758142754E+02 0.11758139132E+02 0.11250211668E+02
 0.10323767446E+02 0.91274444454E+01 0.78240346982E+01 0.65510152588E+01 0.54001766242E+01
 0.44173260960E+01 0.36140852393E+01 0.29823793920E+01 0.25058949545E+01 0.21670629350E+01
 0.19506100751E+01 0.18453492575E+01 0.18453364474E+01 0.19505841610E+01 0.21670549568E+01
 0.25059319859E+01 0.29824545513E+01 0.36141519030E+01 0.44173347219E+01 0.59155541599E+01
 0.72163612526E+01 0.86121512860E+01 0.99795449472E+01 0.11150818925E+02 0.11947393647E+02
 0.12230443680E+02 0.11947391793E+02 0.11150813259E+02 0.99795356862E+01 0.86121492123E+01
 0.72163872731E+01 0.59156185247E+01 0.47800124453E+01 0.38361025150E+01 0.30829289407E+01
 0.25058949545E+01 0.20855035151E+01 0.18022342368E+01 0.16396386300E+01 0.15867237888E+01
 0.16396305800E+01 0.18022394628E+01 0.20855344808E+01 0.25059308198E+01 0.30829296416E+01
 0.38360500268E+01 0.47799320196E+01 0.67271744987E+01 0.82047734585E+01 0.97339777767E+01
 0.11150815000E+02 0.12256066435E+02 0.12864822846E+02 0.12864816730E+02 0.12256058802E+02
 0.11150819307E+02 0.97339862901E+01 0.82047706265E+01 0.67271682868E+01 0.54062892134E+01
 0.42906530488E+01 0.33889223424E+01 0.26882307365E+01 0.21670629350E+01 0.18022342368E+01
 0.15726772669E+01 0.14622816795E+01 0.14622827650E+01 0.15726840660E+01 0.18022458107E+01
 0.21670608095E+01 0.26881943097E+01 0.33888589615E+01 0.42905985390E+01 0.54062703349E+01
 0.78980046055E+01 0.95842328107E+01 0.11250231447E+02 0.12684960287E+02 0.13663642866E+02
 0.14011843107E+02 0.13663598231E+02 0.12684913153E+02 0.11250217602E+02 0.95842443949E+01
 0.78980074306E+01 0.63453163109E+01 0.50102606606E+01 0.39192160932E+01 0.30629227592E+01
 0.24162723286E+01 0.19506100751E+01 0.16396386300E+01 0.14622816795E+01 0.14047687387E+01
 0.14622869282E+01 0.16396405117E+01 0.19505972395E+01 0.24162441123E+01 0.30628972594E+01
 0.39192154389E+01 0.50102840692E+01 0.63453369344E+01 0.94904158673E+01 0.11391598650E+02
 0.13155642665E+02 0.14531661352E+02 0.15290088704E+02 0.15290055177E+02 0.14531579060E+02
 0.13155555900E+02 0.11391548268E+02 0.94904081682E+01 0.76649218229E+01 0.60531004606E+01
 0.47158275743E+01 0.36569159885E+01 0.28495227680E+01 0.22571295924E+01 0.18453492575E+01
 0.15867237888E+01 0.14622827650E+01 0.14622869282E+01 0.15867292512E+01 0.18453457391E+01
 0.22571215978E+01 0.28495286878E+01 0.36569446451E+01 0.47158618830E+01 0.60531150193E+01
 0.76649169492E+01 0.11496635755E+02 0.13552790393E+02 0.15322632300E+02 0.16529597950E+02
 0.16958876564E+02 0.16529586998E+02 0.15322593813E+02 0.13552723729E+02 0.11496569850E+02
 0.94083665988E+01 0.74829198323E+01 0.58400573408E+01 0.45180618370E+01 0.34999815807E+01
 0.27439041678E+01 0.22047620796E+01 0.18453364474E+01 0.16396305800E+01 0.15726840660E+01
 0.16396405117E+01 0.18453457391E+01 0.22047656341E+01 0.27439085907E+01 0.34999914363E+01
 0.45180695307E+01 0.58400569966E+01 0.74829256066E+01 0.94084019868E+01 0.13802350917E+02
 0.15896723754E+02 0.17510995322E+02 0.18389983925E+02 0.18390020849E+02 0.17511077298E+02
 0.15896788876E+02 0.13802356579E+02 0.11525872094E+02 0.93207700532E+01 0.73484323606E+01
 0.57072396129E+01 0.44179567287E+01 0.34476603560E+01 0.27439108239E+01 0.22571128811E+01
 0.19505841610E+01 0.18022394628E+01 0.18022458107E+01 0.19505972395E+01 0.22571215978E+01
 0.27439085907E+01 0.34476461314E+01 0.44179355335E+01 0.57072276256E+01 0.73484504244E+01
 0.93208185645E+01 0.11525916153E+02 0.16169356294E+02 0.18032255649E+02 0.19237498718E+02
 0.19652051808E+02 0.19237560579E+02 0.18032364069E+02 0.16169467277E+02 0.13890905478E+02
 0.11497719773E+02 0.92455538867E+01 0.72743630822E+01 0.56616817792E+01 0.44179473952E+01
 0.34999999113E+01 0.28495306061E+01 0.24162396222E+01 0.21670549568E+01 0.20855344808E+01
 0.21670608095E+01 0.24162441123E+01 0.28495286878E+01 0.34999914363E+01 0.44179355335E+01
 0.56616773304E+01 0.72743797429E+01 0.92455833947E+01 0.11497721782E+02 0.13890844364E+02
 0.18077316304E+02 0.19335226704E+02 0.19938417936E+02 0.19938394336E+02 0.19335188814E+02
 0.18077317551E+02 0.16191428514E+02 0.13879850646E+02 0.11462161585E+02 0.92154187361E+01
 0.72743737809E+01 0.57072070105E+01 0.45180529449E+01 0.36569456868E+01 0.30629083333E+01
 0.26882011744E+01 0.25059319859E+01 0.25059308198E+01 0.26881943097E+01 0.30628972594E+01
 0.36569446451E+01 0.45180695307E+01 0.57072276256E+01 0.72743797429E+01 0.92154025497E+01
 0.11462121536E+02 0.13879792520E+02 0.16191381116E+02 0.18903471816E+02 0.19315534232E+02
 0.19402650186E+02 0.19315423438E+02 0.18903311014E+02 0.17878142656E+02 0.16128391602E+02
 0.13861481446E+02 0.11462191824E+02 0.92456383952E+01 0.73484486242E+01 0.58400204763E+01
 0.47158425688E+01 0.39192292690E+01 0.33888803933E+01 0.30829391153E+01 0.29824545513E+01
 0.30829296416E+01 0.33888589615E+01 0.39192154389E+01 0.47158618830E+01 0.58400569966E+01
 0.73484504244E+01 0.92455833947E+01 0.11462121536E+02 0.13861460337E+02 0.16128454125E+02
 0.17878278785E+02 0.18396420275E+02 0.18109968492E+02 0.18109935854E+02 0.18396314158E+02
 0.18465478757E+02 0.17760795668E+02 0.16128324790E+02 0.13879788125E+02 0.11497795834E+02
 0.93208717370E+01 0.74829149238E+01 0.60530831677E+01 0.50102806533E+01 0.42906181137E+01
 0.38360636416E+01 0.36141544701E+01 0.36141519030E+01 0.38360500268E+01 0.42905985390E+01
 0.50102840692E+01 0.60531150193E+01 0.74829256066E+01 0.93208185645E+01 0.11497721782E+02
 0.13879792520E+02 0.16128454125E+02 0.17760995990E+02 0.18465657723E+02 0.17054191422E+02
 0.16611228317E+02 0.17054204676E+02 0.17969578903E+02 0.18465526715E+02 0.17878105861E+02
 0.16191268974E+02 0.13890837906E+02 0.11525960311E+02 0.94084187904E+01 0.76648938523E+01
 0.63453142615E+01 0.54062698407E+01 0.47799386042E+01 0.44173356702E+01 0.42978217859E+01
 0.44173347219E+01 0.47799320196E+01 0.54062703349E+01 0.63453369344E+01 0.76649169492E+01
 0.94084019868E+01 0.11525916153E+02 0.13890844364E+02 0.16191381116E+02 0.17878278785E+02
 0.18465657723E+02 0.17969617014E+02  
augmentation occupancies   1  33
  0.2133464E+01 -0.1893428E+01  0.2647158E-19 -0.5564459E-18  0.4805869E-18
  0.6576837E-20  0.4714281E-20 -0.2990882E-20  0.4430241E+00  0.7349110E-19
  0.5201998E-19 -0.1595936E-18 -0.5383835E-19 -0.2948517E-19  0.1470957E-19
  0.1332639E+01  0.1578451E-10 -0.1116135E-10 -0.1024689E-10  0.1116135E-10
 -0.7184314E-11  0.2199033E+00  0.2604474E-11 -0.1841643E-11 -0.1690720E-11
  0.1841643E-11 -0.1185423E-11  0.1044742E-01  0.1237364E-12 -0.8749496E-13
 -0.8032735E-13  0.8749494E-13 -0.5631880E-13
augmentation occupancies   2  33
  0.2133464E+01 -0.1893428E+01 -0.2875358E-18  0.5101379E-18 -0.5018614E-18
  0.3468191E-21 -0.8218550E-20 -0.1018251E-20  0.4430241E+00 -0.9248544E-19
 -0.4350594E-19  0.1288550E-18  0.5854925E-19  0.3218391E-19 -0.3078600E-20
  0.1332639E+01  0.1578451E-10 -0.1116135E-10 -0.1024678E-10  0.1116135E-10
 -0.7184333E-11  0.2199033E+00  0.2604474E-11 -0.1841643E-11 -0.1690773E-11
  0.1841643E-11 -0.1185457E-11  0.1044742E-01  0.1237364E-12 -0.8749496E-13
 -0.8032720E-13  0.8749494E-13 -0.5631791E-13
