    2    2    1    1
  0.5639752E+01  0.2517300E-09  0.2517300E-09  0.2517300E-09  0.5000000E-15
  1.000000000000000E-004
  CAR 
 unknown system                          
      8     10      8
 
  0.1276756E-14  0.1276756E-14  0.1276756E-14  0.8000000E-02
      1        -11.734271   1.000000
      2          9.823998   1.000000
      3          9.824042   1.000000
      4          9.824042   1.000000
      5         15.427347   0.000000
      6         15.427404   0.000000
      7         15.427404   0.000000
      8         23.286584   0.000000
 
  0.2000000E+00  0.1255815E-14  0.1296939E-14  0.6400000E-01
      1        -10.627534   1.000000
      2          4.920808   1.000000
      3          8.492945   1.000000
      4          8.492979   1.000000
      5         17.154426   0.000000
      6         17.154485   0.000000
      7         17.606721   0.000000
      8         24.156024   0.000000
 
  0.4000000E+00  0.1224943E-14  0.1342384E-14  0.6400000E-01
      1         -7.448079   1.000000
      2         -1.637041   1.000000
      3          7.183826   1.000000
      4          7.183857   1.000000
      5         18.267357   0.000000
      6         18.267412   0.000000
      7         18.648709   0.000000
      8         25.441051   0.000000
 
  0.2000000E+00  0.2000000E+00  0.1282348E-14  0.4800000E-01
      1        -10.259874   1.000000
      2          6.577643   1.000000
      3          6.577665   1.000000
      4          6.732211   1.000000
      5         14.558112   0.000000
      6         19.909637   0.000000
      7         19.909695   0.000000
      8         21.714734   0.000000
 
  0.4000000E+00  0.2000000E+00  0.1328561E-14  0.1920000E+00
      1         -7.753632   1.000000
      2          0.995795   1.000000
      3          5.100631   1.000000
      4          5.396908   1.000000
      5         15.937097   0.000000
      6         21.095702   0.000000
      7         21.660234   0.000000
      8         21.755205   0.000000
 
 -0.4000000E+00  0.2000000E+00  0.1234619E-14  0.1920000E+00
      1         -5.329782   1.000000
      2         -2.413631   1.000000
      3          3.422765   1.000000
      4          5.961626   1.000000
      5         17.089077   0.000000
      6         20.715097   0.000000
      7         21.923849   0.000000
      8         25.125941   0.000000
 
 -0.2000000E+00  0.2000000E+00  0.1301415E-14  0.9600000E-01
      1         -8.817939   1.000000
      2          2.820832   1.000000
      3          3.786347   1.000000
      4          7.827298   1.000000
      5         18.340921   0.000000
      6         18.439892   0.000000
      7         20.363028   0.000000
      8         23.565378   0.000000
 
  0.4000000E+00  0.4000000E+00  0.1238198E-14  0.4800000E-01
      1         -5.986342   1.000000
      2          0.361864   1.000000
      3          3.849520   1.000000
      4          3.849537   1.000000
      5         14.000387   0.000000
      6         16.041322   0.000000
      7         25.586702   0.000000
      8         25.586792   0.000000
 
 -0.4000000E+00  0.4000000E+00  0.1231745E-14  0.9600000E-01
      1         -2.927631   1.000000
      2         -2.319249   1.000000
      3          0.996126   1.000000
      4          4.098196   1.000000
      5         15.183976   0.000000
      6         18.849668   0.000000
      7         25.053990   0.000000
      8         25.911620   0.000000
 
 -0.4000000E+00  0.4000000E+00  0.2000000E+00  0.1920000E+00
      1         -4.771196   1.000000
      2         -0.370423   1.000000
      3          1.457165   1.000000
      4          3.403934   1.000000
      5         18.809781   0.000000
      6         19.699675   0.000000
      7         21.648085   0.000000
      8         25.000423   0.000000
