       N       E                     dE             d eps       ncg     rms          rms(c)
DAV:   1    -0.103775931129E+01   -0.10378E+01   -0.48617E+03   168   0.955E+02
DAV:   2    -0.185845037553E+02   -0.17547E+02   -0.15899E+02   240   0.101E+02
DAV:   3    -0.188072925330E+02   -0.22279E+00   -0.22279E+00   192   0.120E+01
DAV:   4    -0.188075768651E+02   -0.28433E-03   -0.28433E-03   216   0.416E-01
DAV:   5    -0.188075769790E+02   -0.11396E-06   -0.11396E-06   176   0.718E-03    0.563E+00
RMM:   6    -0.183123454701E+02    0.49523E+00   -0.28502E-01   162   0.475E+00    0.334E+00
RMM:   7    -0.181455858013E+02    0.16676E+00   -0.44099E-01   175   0.628E+00    0.740E-01
RMM:   8    -0.181493759326E+02   -0.37901E-02   -0.23133E-02   165   0.181E+00    0.116E-01
RMM:   9    -0.181495785685E+02   -0.20264E-03   -0.34678E-03   174   0.641E-01    0.513E-02
RMM:  10    -0.181496053549E+02   -0.26786E-04   -0.39050E-04   165   0.217E-01    0.215E-02
RMM:  11    -0.181496078428E+02   -0.24878E-05   -0.54682E-05   172   0.794E-02    0.538E-03
RMM:  12    -0.181496088336E+02   -0.99086E-06   -0.70757E-06   144   0.305E-02
   1 F= -.18149609E+02 E0= -.18149609E+02  d E =-.131582E-10
