<?xml version="1.0" encoding="ISO-8859-1"?>
<modeling>
 <generator>
  <i name="program" type="string">vasp </i>
  <i name="version" type="string">6.5.1  </i>
  <i name="subversion" type="string">10Mar25 (build Feb 13 2026 23:13:13) complex                          parallel </i>
  <i name="platform" type="string">LinuxIFC </i>
  <i name="date" type="string">2026 06 23 </i>
  <i name="time" type="string">04:05:29 </i>
 </generator>
 <incar>
  <i type="string" name="PREC">Normal</i>
  <i type="string" name="ALGO">Fast</i>
  <i type="int" name="ISPIN">     1</i>
  <i type="int" name="NELMIN">     4</i>
  <i name="EDIFF">      0.00000100</i>
  <i type="int" name="NSW">     0</i>
  <i name="ENCUT">    500.00000000</i>
  <i type="logical" name="LREAL"> F  </i>
  <i type="int" name="ISMEAR">     0</i>
  <i name="SIGMA">      0.20000000</i>
  <i type="logical" name="LWAVE"> F  </i>
 </incar>
 <primitive_cell>
  <structure name="primitive_cell" >
   <crystal>
    <varray name="basis" >
     <v>       2.51730013       0.00000000       0.00000000 </v>
     <v>       1.25865006       2.18004586       0.00000000 </v>
     <v>       1.25865006       0.72668195       2.05536695 </v>
    </varray>
    <i name="volume">     11.27950384 </i>
    <varray name="rec_basis" >
     <v>       0.39725100      -0.22935297      -0.16217704 </v>
     <v>       0.00000000       0.45870595      -0.16217704 </v>
     <v>       0.00000000       0.00000000       0.48653113 </v>
    </varray>
   </crystal>
   <varray name="positions" >
    <v>       0.25000000       0.25000000       0.25000000 </v>
    <v>       0.00000000       0.00000000       0.00000000 </v>
   </varray>
  </structure>
  <varray name="primitive_index" >
   <v type="int" >        1 </v>
   <v type="int" >        2 </v>
  </varray>
 </primitive_cell>
 <kpoints>
  <generation param="Gamma">
   <v type="int" name="divisions">       5        5        5 </v>
   <v name="usershift">      0.00000000       0.00000000       0.00000000 </v>
   <v name="genvec1">      0.20000000      -0.00000000      -0.00000000 </v>
   <v name="genvec2">      0.00000000       0.20000000      -0.00000000 </v>
   <v name="genvec3">      0.00000000       0.00000000       0.20000000 </v>
   <v name="shift">      0.00000000       0.00000000       0.00000000 </v>
  </generation>
  <varray name="kpointlist" >
   <v>       0.00000000       0.00000000       0.00000000 </v>
   <v>       0.20000000       0.00000000       0.00000000 </v>
   <v>       0.40000000       0.00000000       0.00000000 </v>
   <v>       0.20000000       0.20000000       0.00000000 </v>
   <v>       0.40000000       0.20000000       0.00000000 </v>
   <v>      -0.40000000       0.20000000       0.00000000 </v>
   <v>      -0.20000000       0.20000000       0.00000000 </v>
   <v>       0.40000000       0.40000000       0.00000000 </v>
   <v>      -0.40000000       0.40000000       0.00000000 </v>
   <v>      -0.40000000       0.40000000       0.20000000 </v>
  </varray>
  <varray name="weights" >
   <v>       0.00800000 </v>
   <v>       0.06400000 </v>
   <v>       0.06400000 </v>
   <v>       0.04800000 </v>
   <v>       0.19200000 </v>
   <v>       0.19200000 </v>
   <v>       0.09600000 </v>
   <v>       0.04800000 </v>
   <v>       0.09600000 </v>
   <v>       0.19200000 </v>
  </varray>
 </kpoints>
 <parameters>
  <separator name="general" >
   <i type="string" name="SYSTEM">unknown system</i>
   <i type="logical" name="LCOMPAT"> F  </i>
  </separator>
  <separator name="electronic" >
   <i type="string" name="PREC">normal</i>
   <i name="ENMAX">    500.00000000</i>
   <i name="ENAUG">    644.87300000</i>
   <i name="EDIFF">      0.00000100</i>
   <i type="int" name="IALGO">    68</i>
   <i type="int" name="IWAVPR">    10</i>
   <i type="int" name="NBANDS">     8</i>
   <i type="int" name="NBANDSLOW">    -1</i>
   <i type="int" name="NBANDSHIGH">    -1</i>
   <i name="NELECT">      8.00000000</i>
   <i type="int" name="TURBO">     0</i>
   <i type="int" name="IRESTART">     0</i>
   <i type="int" name="NREBOOT">     0</i>
   <i type="int" name="NMIN">     0</i>
   <i name="EREF">      0.00000000</i>
   <separator name="electronic smearing" >
    <i type="int" name="ISMEAR">     0</i>
    <i name="SIGMA">      0.20000000</i>
    <i name="KSPACING">      0.50000000</i>
    <i type="logical" name="KGAMMA"> T  </i>
    <i type="logical" name="KBLOWUP"> T  </i>
   </separator>
   <separator name="electronic projectors" >
    <i type="logical" name="LREAL"> F  </i>
    <v name="ROPT">      0.00000000</v>
    <i type="int" name="LMAXPAW">  -100</i>
    <i type="int" name="LMAXMIX">     2</i>
    <i type="logical" name="NLSPLINE"> F  </i>
   </separator>
   <separator name="electronic startup" >
    <i type="int" name="ISTART">     0</i>
    <i type="int" name="ICHARG">     2</i>
    <i type="int" name="INIWAV">     1</i>
   </separator>
   <separator name="electronic spin" >
    <i type="int" name="ISPIN">     1</i>
    <i type="logical" name="LNONCOLLINEAR"> F  </i>
    <v name="MAGMOM">      1.00000000      1.00000000</v>
    <i name="NUPDOWN">     -1.00000000</i>
    <i type="logical" name="LSORBIT"> F  </i>
    <v name="SAXIS">      0.00000000      0.00000000      1.00000000</v>
    <i type="logical" name="LSPIRAL"> F  </i>
    <v name="QSPIRAL">      0.00000000      0.00000000      0.00000000</v>
    <i type="logical" name="LZEROZ"> F  </i>
   </separator>
   <separator name="electronic exchange-correlation" >
    <i type="logical" name="LASPH"> F  </i>
   </separator>
   <separator name="electronic convergence" >
    <i type="int" name="NELM">    60</i>
    <i type="int" name="NELMDL">    -5</i>
    <i type="int" name="NELMIN">     4</i>
    <i name="ENINI">    500.00000000</i>
    <separator name="electronic convergence detail" >
     <i type="logical" name="LDIAG"> T  </i>
     <i type="logical" name="LSUBROT"> F  </i>
     <i type="logical" name="LROBUST"> F  </i>
     <i type="int" name="ISEARCH">     0</i>
     <i name="WEIMIN">      0.00000000</i>
     <i name="EBREAK">      0.00000003</i>
     <i name="DEPER">      0.30000000</i>
     <i type="int" name="NRMM">     4</i>
     <i name="TIME">      0.40000000</i>
    </separator>
   </separator>
   <separator name="electronic mixer" >
    <i name="AMIX">      0.40000000</i>
    <i name="BMIX">      1.00000000</i>
    <i name="AMIN">      0.10000000</i>
    <i name="AMIX_MAG">      1.60000000</i>
    <i name="BMIX_MAG">      1.00000000</i>
    <separator name="electronic mixer details" >
     <i type="int" name="IMIX">     4</i>
     <i type="logical" name="MIXFIRST"> F  </i>
     <i type="int" name="MAXMIX">   -45</i>
     <i name="WC">    100.00000000</i>
     <i type="int" name="INIMIX">     1</i>
     <i type="int" name="MIXPRE">     1</i>
     <i type="int" name="MREMOVE">     5</i>
    </separator>
   </separator>
   <separator name="electronic dipolcorrection" >
    <i type="logical" name="LDIPOL"> F  </i>
    <i type="logical" name="LMONO"> F  </i>
    <i type="int" name="IDIPOL">     0</i>
    <i name="EPSILON">      1.00000000</i>
    <v name="DIPOL">   -100.00000000   -100.00000000   -100.00000000</v>
    <i name="EFIELD">      0.00000000</i>
    <i type="logical" name="LVACPOTAV"> F  </i>
   </separator>
  </separator>
  <separator name="grids" >
   <i type="int" name="NGX">    14</i>
   <i type="int" name="NGY">    14</i>
   <i type="int" name="NGZ">    14</i>
   <i type="int" name="NGXF">    28</i>
   <i type="int" name="NGYF">    28</i>
   <i type="int" name="NGZF">    28</i>
   <i type="logical" name="ADDGRID"> F  </i>
  </separator>
  <separator name="ionic" >
   <i type="int" name="NSW">     0</i>
   <i type="int" name="IBRION">    -1</i>
   <i type="int" name="MDALGO">     0</i>
   <i type="int" name="ISIF">     2</i>
   <i name="PSTRESS">      0.00000000</i>
   <i name="EDIFFG">      0.00001000</i>
   <i type="int" name="NFREE">     0</i>
   <i name="POTIM">      0.50000000</i>
   <i name="SMASS">     -3.00000000</i>
   <i name="SCALEE">      1.00000000</i>
  </separator>
  <separator name="ionic md" >
   <i name="TEBEG">      0.00010000</i>
   <i name="TEEND">      0.00010000</i>
   <i type="int" name="NBLOCK">     1</i>
   <i type="int" name="KBLOCK">     1</i>
   <i type="int" name="NPACO">   256</i>
   <i name="APACO">     10.00000000</i>
  </separator>
  <separator name="symmetry" >
   <i type="int" name="ISYM">     2</i>
   <i name="SYMPREC">      0.00001000</i>
  </separator>
  <separator name="dos" >
   <i type="int" name="LORBIT">     0</i>
   <v name="RWIGS">     -1.00000000</v>
   <i type="int" name="NEDOS">   301</i>
   <i name="EMIN">     10.00000000</i>
   <i name="EMAX">    -10.00000000</i>
   <i name="EFERMI">      0.00000000</i>
  </separator>
  <separator name="writing" >
   <i type="int" name="NWRITE">     2</i>
   <i type="logical" name="LWAVE"> F  </i>
   <i type="logical" name="LDOWNSAMPLE"> F  </i>
   <i type="logical" name="LCHARG"> T  </i>
   <i type="logical" name="LPARD"> F  </i>
   <i type="logical" name="LVTOT"> F  </i>
   <i type="logical" name="LVHAR"> F  </i>
   <i type="logical" name="LELF"> F  </i>
   <i type="logical" name="LOPTICS"> F  </i>
   <v name="STM">      0.00000000      0.00000000      0.00000000      0.00000000      0.00000000      0.00000000      0.00000000</v>
  </separator>
  <separator name="performance" >
   <i type="int" name="NPAR">     4</i>
   <i type="int" name="NSIM">     4</i>
   <i type="int" name="NBLK">    -1</i>
   <i type="logical" name="LPLANE"> T  </i>
   <i type="logical" name="LSCALAPACK"> T  </i>
   <i type="logical" name="LSCAAWARE"> F  </i>
   <i type="logical" name="LSCALU"> F  </i>
   <i type="logical" name="LASYNC"> F  </i>
   <i type="logical" name="LORBITALREAL"> F  </i>
  </separator>
  <separator name="miscellaneous" >
   <i type="int" name="IDIOT">     3</i>
   <i type="int" name="PHON_NSTRUCT">    -1</i>
   <i type="logical" name="LMUSIC"> F  </i>
   <v name="POMASS">     12.01100000</v>
   <v name="DARWINR">      0.00000000</v>
   <v name="DARWINV">      1.00000000</v>
   <i type="logical" name="LCORR"> T  </i>
  </separator>
  <i type="logical" name="GGA_COMPAT"> T  </i>
  <i type="logical" name="LBERRY"> F  </i>
  <i type="int" name="ICORELEVEL">     0</i>
  <i type="logical" name="LDAU"> F  </i>
  <i type="int" name="I_CONSTRAINED_M">     0</i>
  <separator name="electronic exchange-correlation" >
   <i type="string" name="GGA    ">PE</i>
   <i type="string" name="XC_C">1</i>
   <i type="int" name="VOSKOWN">     0</i>
   <i type="logical" name="LHFCALC"> F  </i>
   <i type="string" name="PRECFOCK"></i>
   <i type="logical" name="LSYMGRAD"> F  </i>
   <i type="logical" name="LHFONE"> F  </i>
   <i type="logical" name="LRHFCALC"> F  </i>
   <i type="logical" name="LTHOMAS"> F  </i>
   <i type="logical" name="LMODELHF"> F  </i>
   <i type="logical" name="LFOCKACE"> F  </i>
   <i name="ENCUT4O">     -1.00000000</i>
   <i type="int" name="EXXOEP">     0</i>
   <i type="int" name="FOURORBIT">     0</i>
   <i name="AEXX">      0.00000000</i>
   <i name="HFALPHA">      0.00000000</i>
   <i name="MCALPHA">      0.00000000</i>
   <i name="ALDAX">      1.00000000</i>
   <i name="AGGAX">      1.00000000</i>
   <i name="AMGGAX">      1.00000000</i>
   <i name="ALDAC">      1.00000000</i>
   <i name="AGGAC">      1.00000000</i>
   <i name="AMGGAC">      1.00000000</i>
   <i type="int" name="NKREDX">     1</i>
   <i type="int" name="NKREDY">     1</i>
   <i type="int" name="NKREDZ">     1</i>
   <i type="logical" name="SHIFTRED"> F  </i>
   <i type="logical" name="ODDONLY"> F  </i>
   <i type="logical" name="EVENONLY"> F  </i>
   <i type="int" name="LMAXFOCK">     0</i>
   <i type="int" name="NMAXFOCKAE">     0</i>
   <i type="logical" name="LFOCKAEDFT"> F  </i>
   <i name="HFSCREEN">      0.00000000</i>
   <i name="HFSCREENC">      0.00000000</i>
   <i type="int" name="NBANDSGWLOW">     0</i>
  </separator>
  <separator name="vdW DFT" >
   <i type="logical" name="LUSE_VDW"> F  </i>
   <i type="int" name="IVDW_NL">    -1</i>
   <i type="logical" name="LSPIN_VDW"> F  </i>
   <i name="ZAB_VDW">     -0.84910000</i>
   <i name="GAMMA_VDW">      1.39626340</i>
   <i name="ALPHA_VDW">      0.00000000</i>
   <i name="PARAM1">      0.12340000</i>
   <i name="PARAM2">      1.00000000</i>
   <i name="BPARAM">      6.30000000</i>
   <i name="CPARAM">      0.00930000</i>
  </separator>
  <separator name="model GW" >
   <i type="int" name="MODEL_GW">     0</i>
   <i name="MODEL_EPS0">      3.38385115</i>
   <i name="MODEL_ALPHA">      1.00000000</i>
  </separator>
  <separator name="linear response parameters" >
   <i type="logical" name="LEPSILON"> F  </i>
   <i type="logical" name="LRPA"> F  </i>
   <i type="logical" name="LNABLA"> F  </i>
   <i type="logical" name="LVEL"> F  </i>
   <i name="CSHIFT">      0.10000000</i>
   <i name="OMEGAMAX">     -1.00000000</i>
   <i name="DEG_THRESHOLD">      0.00200000</i>
   <i name="RTIME">     -0.10000000</i>
   <i name="WPLASMAI">      0.00000000</i>
   <v name="DFIELD">      0.00000000      0.00000000      0.00000000</v>
   <v name="WPLASMA">      0.00000000      0.00000000      0.00000000      0.00000000      0.00000000      0.00000000      0.00000000      0.00000000      0.00000000</v>
  </separator>
  <separator name="orbital magnetization" >
   <i type="logical" name="NUCIND"> F  </i>
   <v name="MAGPOS">      0.00000000      0.00000000      0.00000000</v>
   <i type="logical" name="LNICSALL"> T  </i>
   <i type="logical" name="ORBITALMAG"> F  </i>
   <i type="logical" name="LMAGBLOCH"> F  </i>
   <i type="logical" name="LCHIMAG"> F  </i>
   <i type="logical" name="LGAUGE"> T  </i>
   <i type="int" name="MAGATOM">     0</i>
   <v name="MAGDIPOL">      0.00000000      0.00000000      0.00000000</v>
   <v name="AVECCONST">      0.00000000      0.00000000      0.00000000</v>
  </separator>
  <separator name="response functions" >
   <i type="logical" name="LALL_IN_ONE"> F  </i>
   <i type="int" name="IALL_IN_ONE">    -1</i>
   <i type="int" name="NBANDS_WAVE">    -1</i>
   <i type="logical" name="LFINITE_TEMPERATURE"> F  </i>
   <i type="logical" name="LADDER"> F  </i>
   <i type="logical" name="LRPAFORCE"> F  </i>
   <i type="logical" name="LFXC"> F  </i>
   <i type="logical" name="LHARTREE"> T  </i>
   <i type="int" name="IBSE">     2</i>
   <v type="int" name="KPOINT">    -1     0     0     0</v>
   <i type="logical" name="LTCTC"> F  </i>
   <i type="logical" name="LTCTE"> F  </i>
   <i type="logical" name="LTETE"> F  </i>
   <i type="logical" name="LTRIPLET"> F  </i>
   <i type="logical" name="LFXCEPS"> F  </i>
   <i type="logical" name="LFXHEG"> F  </i>
   <i type="int" name="NATURALO">     2</i>
   <i type="logical" name="LHOLEGF"> F  </i>
   <i type="logical" name="L2ORDER"> F  </i>
   <i type="logical" name="LDMP1"> F  </i>
   <i type="logical" name="LMP2LT"> F  </i>
   <i type="logical" name="LSMP2LT"> F  </i>
   <i type="logical" name="LGWLF"> F  </i>
   <i name="ENCUTGW">     -1.60000002</i>
   <i name="ENCUTGWSOFT">     -1.60000002</i>
   <i name="ENCUTLF">     -1.00000000</i>
   <i type="logical" name="ESF_SPLINES"> F  </i>
   <i name="ESF_CONV">      0.01000000</i>
   <i type="int" name="ESF_NINTER">    15</i>
   <i type="int" name="LMAXMP2">    -1</i>
   <i name="SCISSOR">      0.00000000</i>
   <i type="int" name="NOMEGA">     0</i>
   <i type="int" name="NOMEGAR">     0</i>
   <i type="int" name="NBANDSGW">    -1</i>
   <i type="int" name="NBANDSO">    -1</i>
   <i type="int" name="NBANDSV">    -1</i>
   <i type="int" name="NELMGW">     1</i>
   <i type="int" name="NELMHF">     1</i>
   <i type="int" name="DIM">     3</i>
   <i type="int" name="IESPILON">     4</i>
   <i type="int" name="ANTIRES">     0</i>
   <i name="OMEGAMAX">    -30.00000000</i>
   <i name="OMEGAMIN">    -30.00000000</i>
   <i name="OMEGATL">   -200.00000000</i>
   <i type="int" name="OMEGAGRID">     0</i>
   <i name="CSHIFT">     -0.10000000</i>
   <i type="logical" name="LSELFENERGY"> F  </i>
   <i type="logical" name="LSPECTRAL"> F  </i>
   <i type="logical" name="LSPECTRALGW"> F  </i>
   <i type="logical" name="LSINGLES"> F  </i>
   <i type="logical" name="LFERMIGW"> F  </i>
   <i type="logical" name="ODDONLYGW"> F  </i>
   <i type="logical" name="EVENONLYGW"> F  </i>
   <i type="int" name="NKREDLFX">     1</i>
   <i type="int" name="NKREDLFY">     1</i>
   <i type="int" name="NKREDLFZ">     1</i>
   <i type="int" name="MAXMEM">  2800</i>
   <i type="int" name="TELESCOPE">     0</i>
   <i type="int" name="NTAUPAR">    -1</i>
   <i type="int" name="NOMEGAPAR">    -1</i>
   <i name="DAMP_NEWTON">      0.80000001</i>
   <i name="LAMBDA">      1.00000000</i>
  </separator>
  <separator name="External order field" >
   <i name="OFIELD_KAPPA">      0.00000000</i>
   <v name="OFIELD_K">      0.00000000      0.00000000      0.00000000</v>
   <i name="OFIELD_Q6_NEAR">      0.00000000</i>
   <i name="OFIELD_Q6_FAR">      0.00000000</i>
   <i name="OFIELD_A">      0.00000000</i>
  </separator>
  <separator name="optional k-points parameters" >
   <i type="int" name="KPOINTS_OPT_MODE">     1</i>
   <i type="logical" name="LKPOINTS_OPT"> F  </i>
  </separator>
 </parameters>
 <atominfo>
  <atoms>       2 </atoms>
  <types>       1 </types>
  <array name="atoms" >
   <dimension dim="1">ion</dimension>
   <field type="string">element</field>
   <field type="int">atomtype</field>
   <set>
    <rc><c>C </c><c>   1</c></rc>
    <rc><c>C </c><c>   1</c></rc>
   </set>
  </array>
  <array name="atomtypes" >
   <dimension dim="1">type</dimension>
   <field type="int">atomspertype</field>
   <field type="string">element</field>
   <field>mass</field>
   <field>valence</field>
   <field type="string">pseudopotential</field>
   <set>
    <rc><c>   2</c><c>C </c><c>     12.01100000</c><c>      4.00000000</c><c>  PAW_PBE C 08Apr2002                   </c></rc>
   </set>
  </array>
 </atominfo>
 <structure name="initialpos" >
  <crystal>
   <varray name="basis" >
    <v>       2.51730013       0.00000000       0.00000000 </v>
    <v>       1.25865006       2.18004586       0.00000000 </v>
    <v>       1.25865006       0.72668195       2.05536695 </v>
   </varray>
   <i name="volume">     11.27950384 </i>
   <varray name="rec_basis" >
    <v>       0.39725100      -0.22935297      -0.16217704 </v>
    <v>       0.00000000       0.45870595      -0.16217704 </v>
    <v>       0.00000000       0.00000000       0.48653113 </v>
   </varray>
  </crystal>
  <varray name="positions" >
   <v>       0.25000000       0.25000000       0.25000000 </v>
   <v>       0.00000000       0.00000000       0.00000000 </v>
  </varray>
 </structure>
 <calculation>
  <scstep>
   <time name="dav">    0.02    0.02</time>
   <time name="total">    0.02    0.02</time>
   <energy>
    <i name="alphaZ">     29.13132251 </i>
    <i name="ewald">   -348.62358043 </i>
    <i name="hartreedc">    -17.48913657 </i>
    <i name="XCdc">     27.44127174 </i>
    <i name="pawpsdc">    217.04409276 </i>
    <i name="pawaedc">   -218.18290438 </i>
    <i name="eentropy">     -0.02154192 </i>
    <i name="bandstr">     15.36587363 </i>
    <i name="atom">    294.29684335 </i>
    <i name="e_fr_energy">     -1.03775931 </i>
    <i name="e_wo_entrp">     -1.01621740 </i>
    <i name="e_0_energy">     -1.02698835 </i>
   </energy>
  </scstep>
  <scstep>
   <time name="dav">    0.02    0.02</time>
   <time name="total">    0.02    0.02</time>
   <energy>
    <i name="e_fr_energy">    -18.58450376 </i>
    <i name="e_wo_entrp">    -18.58450376 </i>
    <i name="e_0_energy">    -18.58450376 </i>
   </energy>
  </scstep>
  <scstep>
   <time name="dav">    0.01    0.01</time>
   <time name="total">    0.01    0.01</time>
   <energy>
    <i name="e_fr_energy">    -18.80729253 </i>
    <i name="e_wo_entrp">    -18.80729253 </i>
    <i name="e_0_energy">    -18.80729253 </i>
   </energy>
  </scstep>
  <scstep>
   <time name="dav">    0.01    0.01</time>
   <time name="total">    0.01    0.01</time>
   <energy>
    <i name="e_fr_energy">    -18.80757687 </i>
    <i name="e_wo_entrp">    -18.80757687 </i>
    <i name="e_0_energy">    -18.80757687 </i>
   </energy>
  </scstep>
  <scstep>
   <time name="dav">    0.01    0.01</time>
   <time name="total">    0.01    0.01</time>
   <energy>
    <i name="e_fr_energy">    -18.80757698 </i>
    <i name="e_wo_entrp">    -18.80757698 </i>
    <i name="e_0_energy">    -18.80757698 </i>
   </energy>
  </scstep>
  <scstep>
   <time name="diag">    0.01    0.01</time>
   <time name="diis">    0.00    0.00</time>
   <time name="orth">    0.00    0.00</time>
   <time name="total">    0.02    0.02</time>
   <energy>
    <i name="e_fr_energy">    -18.31234547 </i>
    <i name="e_wo_entrp">    -18.31234547 </i>
    <i name="e_0_energy">    -18.31234547 </i>
   </energy>
  </scstep>
  <scstep>
   <time name="diag">    0.01    0.01</time>
   <time name="diis">    0.00    0.00</time>
   <time name="orth">    0.00    0.00</time>
   <time name="total">    0.02    0.02</time>
   <energy>
    <i name="e_fr_energy">    -18.14558580 </i>
    <i name="e_wo_entrp">    -18.14558580 </i>
    <i name="e_0_energy">    -18.14558580 </i>
   </energy>
  </scstep>
  <scstep>
   <time name="diag">    0.01    0.01</time>
   <time name="diis">    0.00    0.00</time>
   <time name="orth">    0.00    0.00</time>
   <time name="total">    0.02    0.02</time>
   <energy>
    <i name="e_fr_energy">    -18.14937593 </i>
    <i name="e_wo_entrp">    -18.14937593 </i>
    <i name="e_0_energy">    -18.14937593 </i>
   </energy>
  </scstep>
  <scstep>
   <time name="diag">    0.01    0.01</time>
   <time name="diis">    0.00    0.00</time>
   <time name="orth">    0.00    0.00</time>
   <time name="total">    0.02    0.02</time>
   <energy>
    <i name="e_fr_energy">    -18.14957857 </i>
    <i name="e_wo_entrp">    -18.14957857 </i>
    <i name="e_0_energy">    -18.14957857 </i>
   </energy>
  </scstep>
  <scstep>
   <time name="diag">    0.01    0.01</time>
   <time name="diis">    0.00    0.00</time>
   <time name="orth">    0.00    0.00</time>
   <time name="total">    0.02    0.02</time>
   <energy>
    <i name="e_fr_energy">    -18.14960535 </i>
    <i name="e_wo_entrp">    -18.14960535 </i>
    <i name="e_0_energy">    -18.14960535 </i>
   </energy>
  </scstep>
  <scstep>
   <time name="diag">    0.01    0.01</time>
   <time name="diis">    0.00    0.00</time>
   <time name="orth">    0.00    0.00</time>
   <time name="total">    0.02    0.02</time>
   <energy>
    <i name="e_fr_energy">    -18.14960784 </i>
    <i name="e_wo_entrp">    -18.14960784 </i>
    <i name="e_0_energy">    -18.14960784 </i>
   </energy>
  </scstep>
  <scstep>
   <time name="diag">    0.01    0.01</time>
   <time name="diis">    0.00    0.00</time>
   <time name="orth">    0.00    0.00</time>
   <time name="total">    0.01    0.01</time>
   <energy>
    <i name="alphaZ">     29.13132251 </i>
    <i name="ewald">   -348.62358043 </i>
    <i name="hartreedc">    -26.39806207 </i>
    <i name="XCdc">     28.25511918 </i>
    <i name="pawpsdc">    776.77300896 </i>
    <i name="pawaedc">   -778.11892993 </i>
    <i name="eentropy">     -0.00000000 </i>
    <i name="bandstr">      6.53466961 </i>
    <i name="atom">    294.29684335 </i>
    <i name="e_fr_energy">    -18.14960883 </i>
    <i name="e_wo_entrp">    -18.14960883 </i>
    <i name="e_0_energy">    -18.14960883 </i>
   </energy>
  </scstep>
  <structure>
   <crystal>
    <varray name="basis" >
     <v>       2.51730013       0.00000000       0.00000000 </v>
     <v>       1.25865006       2.18004586       0.00000000 </v>
     <v>       1.25865006       0.72668195       2.05536695 </v>
    </varray>
    <i name="volume">     11.27950384 </i>
    <varray name="rec_basis" >
     <v>       0.39725100      -0.22935297      -0.16217704 </v>
     <v>       0.00000000       0.45870595      -0.16217704 </v>
     <v>       0.00000000       0.00000000       0.48653113 </v>
    </varray>
   </crystal>
   <varray name="positions" >
    <v>       0.25000000       0.25000000       0.25000000 </v>
    <v>       0.00000000       0.00000000       0.00000000 </v>
   </varray>
  </structure>
  <varray name="forces" >
   <v>      -0.00000000      -0.00000000       0.00000000 </v>
   <v>       0.00000000       0.00000000      -0.00000000 </v>
  </varray>
  <varray name="stress" >
   <v>      53.65315771       0.00000000       0.00000000 </v>
   <v>       0.00000000      53.65315771      -0.00000000 </v>
   <v>       0.00000000      -0.00000000      53.65315771 </v>
  </varray>
  <energy>
   <i name="e_fr_energy">    -18.14960883 </i>
   <i name="e_wo_entrp">    -18.14960883 </i>
   <i name="e_0_energy">    -18.14960883 </i>
  </energy>
  <time name="totalsc">    0.22    0.23</time>
  <eigenvalues>
   <array>
    <dimension dim="1">band</dimension>
    <dimension dim="2">kpoint</dimension>
    <dimension dim="3">spin</dimension>
    <field>eigene</field>
    <field>occ</field>
    <set>
     <set comment="spin 1">
      <set comment="kpoint 1">
       <r>  -11.7343    1.0000 </r>
       <r>    9.8240    1.0000 </r>
       <r>    9.8240    1.0000 </r>
       <r>    9.8240    1.0000 </r>
       <r>   15.4273    0.0000 </r>
       <r>   15.4274    0.0000 </r>
       <r>   15.4274    0.0000 </r>
       <r>   23.2866    0.0000 </r>
      </set>
      <set comment="kpoint 2">
       <r>  -10.6275    1.0000 </r>
       <r>    4.9208    1.0000 </r>
       <r>    8.4929    1.0000 </r>
       <r>    8.4930    1.0000 </r>
       <r>   17.1544    0.0000 </r>
       <r>   17.1545    0.0000 </r>
       <r>   17.6067    0.0000 </r>
       <r>   24.1560    0.0000 </r>
      </set>
      <set comment="kpoint 3">
       <r>   -7.4481    1.0000 </r>
       <r>   -1.6370    1.0000 </r>
       <r>    7.1838    1.0000 </r>
       <r>    7.1839    1.0000 </r>
       <r>   18.2674    0.0000 </r>
       <r>   18.2674    0.0000 </r>
       <r>   18.6487    0.0000 </r>
       <r>   25.4411    0.0000 </r>
      </set>
      <set comment="kpoint 4">
       <r>  -10.2599    1.0000 </r>
       <r>    6.5776    1.0000 </r>
       <r>    6.5777    1.0000 </r>
       <r>    6.7322    1.0000 </r>
       <r>   14.5581    0.0000 </r>
       <r>   19.9096    0.0000 </r>
       <r>   19.9097    0.0000 </r>
       <r>   21.7147    0.0000 </r>
      </set>
      <set comment="kpoint 5">
       <r>   -7.7536    1.0000 </r>
       <r>    0.9958    1.0000 </r>
       <r>    5.1006    1.0000 </r>
       <r>    5.3969    1.0000 </r>
       <r>   15.9371    0.0000 </r>
       <r>   21.0957    0.0000 </r>
       <r>   21.6602    0.0000 </r>
       <r>   21.7552    0.0000 </r>
      </set>
      <set comment="kpoint 6">
       <r>   -5.3298    1.0000 </r>
       <r>   -2.4136    1.0000 </r>
       <r>    3.4228    1.0000 </r>
       <r>    5.9616    1.0000 </r>
       <r>   17.0891    0.0000 </r>
       <r>   20.7151    0.0000 </r>
       <r>   21.9238    0.0000 </r>
       <r>   25.1259    0.0000 </r>
      </set>
      <set comment="kpoint 7">
       <r>   -8.8179    1.0000 </r>
       <r>    2.8208    1.0000 </r>
       <r>    3.7863    1.0000 </r>
       <r>    7.8273    1.0000 </r>
       <r>   18.3409    0.0000 </r>
       <r>   18.4399    0.0000 </r>
       <r>   20.3630    0.0000 </r>
       <r>   23.5654    0.0000 </r>
      </set>
      <set comment="kpoint 8">
       <r>   -5.9863    1.0000 </r>
       <r>    0.3619    1.0000 </r>
       <r>    3.8495    1.0000 </r>
       <r>    3.8495    1.0000 </r>
       <r>   14.0004    0.0000 </r>
       <r>   16.0413    0.0000 </r>
       <r>   25.5867    0.0000 </r>
       <r>   25.5868    0.0000 </r>
      </set>
      <set comment="kpoint 9">
       <r>   -2.9276    1.0000 </r>
       <r>   -2.3192    1.0000 </r>
       <r>    0.9961    1.0000 </r>
       <r>    4.0982    1.0000 </r>
       <r>   15.1840    0.0000 </r>
       <r>   18.8497    0.0000 </r>
       <r>   25.0540    0.0000 </r>
       <r>   25.9116    0.0000 </r>
      </set>
      <set comment="kpoint 10">
       <r>   -4.7712    1.0000 </r>
       <r>   -0.3704    1.0000 </r>
       <r>    1.4572    1.0000 </r>
       <r>    3.4039    1.0000 </r>
       <r>   18.8098    0.0000 </r>
       <r>   19.6997    0.0000 </r>
       <r>   21.6481    0.0000 </r>
       <r>   25.0004    0.0000 </r>
      </set>
     </set>
    </set>
   </array>
  </eigenvalues>
  <separator name="orbital magnetization" >
   <v name="MAGDIPOLOUT">      0.00000000      0.00000000      0.00000000</v>
  </separator>
  <dos>
   <i name="efermi">     10.69906978 </i>
   <total>
    <array>
     <dimension dim="1">gridpoints</dimension>
     <dimension dim="2">spin</dimension>
     <field>energy</field>
     <field>total</field>
     <field>integrated</field>
     <set>
      <set comment="spin 1">
       <r>   -13.7343     0.0000     0.0000 </r>
       <r>   -13.5955     0.0000     0.0000 </r>
       <r>   -13.4566     0.0000     0.0000 </r>
       <r>   -13.3178     0.0000     0.0000 </r>
       <r>   -13.1790     0.0000     0.0000 </r>
       <r>   -13.0402     0.0000     0.0000 </r>
       <r>   -12.9014     0.0000     0.0000 </r>
       <r>   -12.7625     0.0000     0.0000 </r>
       <r>   -12.6237     0.0000     0.0000 </r>
       <r>   -12.4849     0.0000     0.0000 </r>
       <r>   -12.3461     0.0000     0.0000 </r>
       <r>   -12.2073     0.0000     0.0000 </r>
       <r>   -12.0684     0.0010     0.0001 </r>
       <r>   -11.9296     0.0086     0.0013 </r>
       <r>   -11.7908     0.0301     0.0055 </r>
       <r>   -11.6520     0.0432     0.0115 </r>
       <r>   -11.5132     0.0255     0.0151 </r>
       <r>   -11.3743     0.0062     0.0159 </r>
       <r>   -11.2355     0.0006     0.0160 </r>
       <r>   -11.0967     0.0004     0.0161 </r>
       <r>   -10.9579     0.0086     0.0172 </r>
       <r>   -10.8191     0.0720     0.0272 </r>
       <r>   -10.6802     0.2471     0.0615 </r>
       <r>   -10.5414     0.3599     0.1115 </r>
       <r>   -10.4026     0.2907     0.1519 </r>
       <r>   -10.2638     0.2768     0.1903 </r>
       <r>   -10.1250     0.2403     0.2237 </r>
       <r>    -9.9861     0.0995     0.2375 </r>
       <r>    -9.8473     0.0171     0.2398 </r>
       <r>    -9.7085     0.0012     0.2400 </r>
       <r>    -9.5697     0.0000     0.2400 </r>
       <r>    -9.4309     0.0000     0.2400 </r>
       <r>    -9.2920     0.0005     0.2401 </r>
       <r>    -9.1532     0.0117     0.2417 </r>
       <r>    -9.0144     0.1017     0.2558 </r>
       <r>    -8.8756     0.3588     0.3056 </r>
       <r>    -8.7368     0.5190     0.3777 </r>
       <r>    -8.5979     0.3085     0.4205 </r>
       <r>    -8.4591     0.0751     0.4309 </r>
       <r>    -8.3203     0.0075     0.4320 </r>
       <r>    -8.1815     0.0036     0.4325 </r>
       <r>    -8.0427     0.0533     0.4399 </r>
       <r>    -7.9038     0.3424     0.4874 </r>
       <r>    -7.7650     0.9067     0.6133 </r>
       <r>    -7.6262     1.0478     0.7587 </r>
       <r>    -7.4874     0.6900     0.8545 </r>
       <r>    -7.3486     0.4168     0.9124 </r>
       <r>    -7.2097     0.1853     0.9381 </r>
       <r>    -7.0709     0.0390     0.9435 </r>
       <r>    -6.9321     0.0034     0.9440 </r>
       <r>    -6.7933     0.0001     0.9440 </r>
       <r>    -6.6545     0.0000     0.9440 </r>
       <r>    -6.5156     0.0001     0.9440 </r>
       <r>    -6.3768     0.0019     0.9443 </r>
       <r>    -6.2380     0.0240     0.9476 </r>
       <r>    -6.0992     0.1209     0.9644 </r>
       <r>    -5.9604     0.2492     0.9990 </r>
       <r>    -5.8216     0.2117     1.0284 </r>
       <r>    -5.6827     0.0900     1.0409 </r>
       <r>    -5.5439     0.1728     1.0649 </r>
       <r>    -5.4051     0.6429     1.1541 </r>
       <r>    -5.2663     1.0411     1.2986 </r>
       <r>    -5.1275     0.7084     1.3970 </r>
       <r>    -4.9886     0.3445     1.4448 </r>
       <r>    -4.8498     0.6490     1.5349 </r>
       <r>    -4.7110     1.0402     1.6793 </r>
       <r>    -4.5722     0.7068     1.7774 </r>
       <r>    -4.4334     0.1970     1.8048 </r>
       <r>    -4.2945     0.0223     1.8079 </r>
       <r>    -4.1557     0.0010     1.8080 </r>
       <r>    -4.0169     0.0000     1.8080 </r>
       <r>    -3.8781     0.0000     1.8080 </r>
       <r>    -3.7393     0.0000     1.8080 </r>
       <r>    -3.6004     0.0000     1.8080 </r>
       <r>    -3.4616     0.0001     1.8080 </r>
       <r>    -3.3228     0.0035     1.8085 </r>
       <r>    -3.1840     0.0447     1.8147 </r>
       <r>    -3.0452     0.2324     1.8470 </r>
       <r>    -2.9063     0.4943     1.9156 </r>
       <r>    -2.7675     0.4481     1.9778 </r>
       <r>    -2.6287     0.3334     2.0241 </r>
       <r>    -2.4899     0.7983     2.1349 </r>
       <r>    -2.3511     1.4526     2.3365 </r>
       <r>    -2.2122     1.2007     2.5032 </r>
       <r>    -2.0734     0.4460     2.5651 </r>
       <r>    -1.9346     0.0890     2.5775 </r>
       <r>    -1.7958     0.1097     2.5927 </r>
       <r>    -1.6570     0.2889     2.6328 </r>
       <r>    -1.5181     0.3280     2.6784 </r>
       <r>    -1.3793     0.1531     2.6996 </r>
       <r>    -1.2405     0.0292     2.7037 </r>
       <r>    -1.1017     0.0023     2.7040 </r>
       <r>    -0.9629     0.0001     2.7040 </r>
       <r>    -0.8240     0.0018     2.7043 </r>
       <r>    -0.6852     0.0341     2.7090 </r>
       <r>    -0.5464     0.2591     2.7450 </r>
       <r>    -0.4076     0.8013     2.8562 </r>
       <r>    -0.2688     1.0166     2.9973 </r>
       <r>    -0.1299     0.5302     3.0709 </r>
       <r>     0.0089     0.1172     3.0872 </r>
       <r>     0.1477     0.0504     3.0942 </r>
       <r>     0.2865     0.1609     3.1165 </r>
       <r>     0.4253     0.2602     3.1526 </r>
       <r>     0.5642     0.1778     3.1773 </r>
       <r>     0.7030     0.1221     3.1943 </r>
       <r>     0.8418     0.4980     3.2634 </r>
       <r>     0.9806     1.3250     3.4473 </r>
       <r>     1.1194     1.4823     3.6531 </r>
       <r>     1.2583     0.8587     3.7723 </r>
       <r>     1.3971     0.8297     3.8875 </r>
       <r>     1.5359     1.0484     4.0330 </r>
       <r>     1.6747     0.6279     4.1202 </r>
       <r>     1.8135     0.1552     4.1417 </r>
       <r>     1.9523     0.0156     4.1439 </r>
       <r>     2.0912     0.0006     4.1440 </r>
       <r>     2.2300     0.0000     4.1440 </r>
       <r>     2.3688     0.0009     4.1441 </r>
       <r>     2.5076     0.0176     4.1466 </r>
       <r>     2.6464     0.1319     4.1649 </r>
       <r>     2.7853     0.4038     4.2209 </r>
       <r>     2.9241     0.5086     4.2915 </r>
       <r>     3.0629     0.2972     4.3328 </r>
       <r>     3.2017     0.3927     4.3873 </r>
       <r>     3.3405     1.3119     4.5694 </r>
       <r>     3.4794     2.1034     4.8614 </r>
       <r>     3.6182     1.5699     5.0794 </r>
       <r>     3.7570     1.0787     5.2291 </r>
       <r>     3.8958     1.1510     5.3889 </r>
       <r>     4.0346     0.9792     5.5248 </r>
       <r>     4.1735     0.6873     5.6202 </r>
       <r>     4.3123     0.3398     5.6674 </r>
       <r>     4.4511     0.0825     5.6788 </r>
       <r>     4.5899     0.0173     5.6812 </r>
       <r>     4.7287     0.0833     5.6928 </r>
       <r>     4.8676     0.3711     5.7443 </r>
       <r>     5.0064     0.9139     5.8712 </r>
       <r>     5.1452     1.3219     6.0547 </r>
       <r>     5.2840     1.3024     6.2355 </r>
       <r>     5.4228     1.2395     6.4076 </r>
       <r>     5.5617     0.8807     6.5298 </r>
       <r>     5.7005     0.3782     6.5823 </r>
       <r>     5.8393     0.4873     6.6500 </r>
       <r>     5.9781     0.9786     6.7858 </r>
       <r>     6.1169     0.8792     6.9079 </r>
       <r>     6.2558     0.3397     6.9550 </r>
       <r>     6.3946     0.1739     6.9792 </r>
       <r>     6.5334     0.4388     7.0401 </r>
       <r>     6.6722     0.6904     7.1359 </r>
       <r>     6.8110     0.5472     7.2119 </r>
       <r>     6.9499     0.3020     7.2538 </r>
       <r>     7.0887     0.4160     7.3115 </r>
       <r>     7.2275     0.6878     7.4070 </r>
       <r>     7.3663     0.5178     7.4789 </r>
       <r>     7.5051     0.1753     7.5032 </r>
       <r>     7.6440     0.1393     7.5226 </r>
       <r>     7.7828     0.3870     7.5763 </r>
       <r>     7.9216     0.5133     7.6475 </r>
       <r>     8.0604     0.2825     7.6868 </r>
       <r>     8.1992     0.0956     7.7000 </r>
       <r>     8.3381     0.2229     7.7310 </r>
       <r>     8.4769     0.5867     7.8124 </r>
       <r>     8.6157     0.6501     7.9027 </r>
       <r>     8.7545     0.2961     7.9438 </r>
       <r>     8.8933     0.0551     7.9514 </r>
       <r>     9.0321     0.0042     7.9520 </r>
       <r>     9.1710     0.0001     7.9520 </r>
       <r>     9.3098     0.0000     7.9520 </r>
       <r>     9.4486     0.0013     7.9522 </r>
       <r>     9.5874     0.0149     7.9543 </r>
       <r>     9.7262     0.0683     7.9637 </r>
       <r>     9.8651     0.1278     7.9815 </r>
       <r>    10.0039     0.0982     7.9951 </r>
       <r>    10.1427     0.0310     7.9994 </r>
       <r>    10.2815     0.0040     8.0000 </r>
       <r>    10.4203     0.0002     8.0000 </r>
       <r>    10.5592     0.0000     8.0000 </r>
       <r>    10.6980     0.0000     8.0000 </r>
       <r>    10.8368     0.0000     8.0000 </r>
       <r>    10.9756     0.0000     8.0000 </r>
       <r>    11.1144     0.0000     8.0000 </r>
       <r>    11.2533     0.0000     8.0000 </r>
       <r>    11.3921     0.0000     8.0000 </r>
       <r>    11.5309     0.0000     8.0000 </r>
       <r>    11.6697     0.0000     8.0000 </r>
       <r>    11.8085     0.0000     8.0000 </r>
       <r>    11.9474     0.0000     8.0000 </r>
       <r>    12.0862     0.0000     8.0000 </r>
       <r>    12.2250     0.0000     8.0000 </r>
       <r>    12.3638     0.0000     8.0000 </r>
       <r>    12.5026     0.0000     8.0000 </r>
       <r>    12.6415     0.0000     8.0000 </r>
       <r>    12.7803     0.0000     8.0000 </r>
       <r>    12.9191     0.0000     8.0000 </r>
       <r>    13.0579     0.0000     8.0000 </r>
       <r>    13.1967     0.0000     8.0000 </r>
       <r>    13.3356     0.0000     8.0000 </r>
       <r>    13.4744     0.0001     8.0000 </r>
       <r>    13.6132     0.0021     8.0003 </r>
       <r>    13.7520     0.0252     8.0038 </r>
       <r>    13.8908     0.1243     8.0211 </r>
       <r>    14.0297     0.2509     8.0559 </r>
       <r>    14.1685     0.2099     8.0850 </r>
       <r>    14.3073     0.0950     8.0982 </r>
       <r>    14.4461     0.1316     8.1165 </r>
       <r>    14.5849     0.2502     8.1512 </r>
       <r>    14.7238     0.2110     8.1805 </r>
       <r>    14.8626     0.0878     8.1927 </r>
       <r>    15.0014     0.1308     8.2109 </r>
       <r>    15.1402     0.3949     8.2657 </r>
       <r>    15.2790     0.5564     8.3429 </r>
       <r>    15.4179     0.3920     8.3973 </r>
       <r>    15.5567     0.1917     8.4239 </r>
       <r>    15.6955     0.1739     8.4481 </r>
       <r>    15.8343     0.5793     8.5285 </r>
       <r>    15.9731     1.1837     8.6928 </r>
       <r>    16.1120     1.0661     8.8408 </r>
       <r>    16.2508     0.4280     8.9002 </r>
       <r>    16.3896     0.0780     8.9111 </r>
       <r>    16.5284     0.0065     8.9120 </r>
       <r>    16.6672     0.0046     8.9126 </r>
       <r>    16.8060     0.0709     8.9225 </r>
       <r>    16.9449     0.4780     8.9888 </r>
       <r>    17.0837     1.3565     9.1771 </r>
       <r>    17.2225     1.6445     9.4054 </r>
       <r>    17.3613     0.8868     9.5285 </r>
       <r>    17.5001     0.3587     9.5783 </r>
       <r>    17.6390     0.3539     9.6274 </r>
       <r>    17.7778     0.2747     9.6656 </r>
       <r>    17.9166     0.1049     9.6801 </r>
       <r>    18.0554     0.1564     9.7019 </r>
       <r>    18.1942     0.6653     9.7942 </r>
       <r>    18.3331     1.4143     9.9905 </r>
       <r>    18.4719     1.5497    10.2057 </r>
       <r>    18.6107     1.2600    10.3806 </r>
       <r>    18.7495     1.5011    10.5890 </r>
       <r>    18.8883     1.7484    10.8317 </r>
       <r>    19.0272     1.0652    10.9796 </r>
       <r>    19.1660     0.2865    11.0193 </r>
       <r>    19.3048     0.0394    11.0248 </r>
       <r>    19.4436     0.0920    11.0376 </r>
       <r>    19.5824     0.4796    11.1042 </r>
       <r>    19.7213     1.0999    11.2568 </r>
       <r>    19.8601     1.2361    11.4284 </r>
       <r>    19.9989     0.8301    11.5437 </r>
       <r>    20.1377     0.4061    11.6000 </r>
       <r>    20.2765     0.3697    11.6514 </r>
       <r>    20.4154     0.5680    11.7302 </r>
       <r>    20.5542     0.6761    11.8241 </r>
       <r>    20.6930     0.9728    11.9591 </r>
       <r>    20.8318     1.0816    12.1093 </r>
       <r>    20.9706     0.9036    12.2347 </r>
       <r>    21.1095     1.0604    12.3819 </r>
       <r>    21.2483     0.9068    12.5078 </r>
       <r>    21.3871     0.5055    12.5780 </r>
       <r>    21.5259     1.0916    12.7295 </r>
       <r>    21.6647     2.7751    13.1147 </r>
       <r>    21.8036     3.5384    13.6059 </r>
       <r>    21.9424     2.5734    13.9632 </r>
       <r>    22.0812     1.2410    14.1354 </r>
       <r>    22.2200     0.3555    14.1848 </r>
       <r>    22.3588     0.0489    14.1916 </r>
       <r>    22.4977     0.0029    14.1920 </r>
       <r>    22.6365     0.0001    14.1920 </r>
       <r>    22.7753     0.0000    14.1920 </r>
       <r>    22.9141     0.0005    14.1921 </r>
       <r>    23.0529     0.0054    14.1928 </r>
       <r>    23.1918     0.0288    14.1968 </r>
       <r>    23.3306     0.1040    14.2113 </r>
       <r>    23.4694     0.3092    14.2542 </r>
       <r>    23.6082     0.5223    14.3267 </r>
       <r>    23.7470     0.3923    14.3811 </r>
       <r>    23.8859     0.1455    14.4013 </r>
       <r>    24.0247     0.1523    14.4225 </r>
       <r>    24.1635     0.3185    14.4667 </r>
       <r>    24.3023     0.3029    14.5087 </r>
       <r>    24.4411     0.1187    14.5252 </r>
       <r>    24.5799     0.0236    14.5285 </r>
       <r>    24.7188     0.0784    14.5394 </r>
       <r>    24.8576     0.5442    14.6149 </r>
       <r>    24.9964     1.6968    14.8505 </r>
       <r>    25.1352     2.4348    15.1885 </r>
       <r>    25.2740     1.7219    15.4275 </r>
       <r>    25.4129     0.9043    15.5530 </r>
       <r>    25.5517     0.8131    15.6659 </r>
       <r>    25.6905     0.7489    15.7699 </r>
       <r>    25.8293     0.5999    15.8531 </r>
       <r>    25.9681     0.5762    15.9331 </r>
       <r>    26.1070     0.3659    15.9839 </r>
       <r>    26.2458     0.1032    15.9983 </r>
       <r>    26.3846     0.0120    15.9999 </r>
       <r>    26.5234     0.0006    16.0000 </r>
       <r>    26.6622     0.0000    16.0000 </r>
       <r>    26.8011     0.0000    16.0000 </r>
       <r>    26.9399     0.0000    16.0000 </r>
       <r>    27.0787     0.0000    16.0000 </r>
       <r>    27.2175     0.0000    16.0000 </r>
       <r>    27.3563     0.0000    16.0000 </r>
       <r>    27.4952     0.0000    16.0000 </r>
       <r>    27.6340     0.0000    16.0000 </r>
       <r>    27.7728     0.0000    16.0000 </r>
       <r>    27.9116     0.0000    16.0000 </r>
      </set>
     </set>
    </array>
   </total>
  </dos>
 </calculation>
 <structure name="finalpos" >
  <crystal>
   <varray name="basis" >
    <v>       2.51730013       0.00000000       0.00000000 </v>
    <v>       1.25865006       2.18004586       0.00000000 </v>
    <v>       1.25865006       0.72668195       2.05536695 </v>
   </varray>
   <i name="volume">     11.27950384 </i>
   <varray name="rec_basis" >
    <v>       0.39725100      -0.22935297      -0.16217704 </v>
    <v>       0.00000000       0.45870595      -0.16217704 </v>
    <v>       0.00000000       0.00000000       0.48653113 </v>
   </varray>
  </crystal>
  <varray name="positions" >
   <v>       0.25000000       0.25000000       0.25000000 </v>
   <v>       0.00000000       0.00000000       0.00000000 </v>
  </varray>
 </structure>
</modeling>
