       N       E                     dE             d eps       ncg     rms          rms(c)
DAV:   1    -0.173293852544E+02   -0.17329E+02   -0.51499E+03 62468   0.274E+02
DAV:   2    -0.188133323809E+02   -0.14839E+01   -0.14839E+01 67732   0.154E+01
DAV:   3    -0.188136972045E+02   -0.36482E-03   -0.36482E-03 65492   0.254E-01
DAV:   4    -0.188136972230E+02   -0.18493E-07   -0.18624E-07 79968   0.140E-03
DAV:   5    -0.188136972230E+02    0.00000E+00    0.18391E-13 64764   0.636E-07    0.553E+00
DAV:   6    -0.183432210122E+02    0.47048E+00   -0.36102E-01 62048   0.137E+00    0.334E+00
DAV:   7    -0.181847540107E+02    0.15847E+00   -0.39853E-01 67564   0.147E+00    0.752E-01
DAV:   8    -0.181860180237E+02   -0.12640E-02   -0.17094E-03 67928   0.144E-01    0.522E-02
DAV:   9    -0.181860654420E+02   -0.47418E-04   -0.13990E-04 78764   0.305E-02    0.317E-02
DAV:  10    -0.181860792830E+02   -0.13841E-04   -0.16009E-05 70532   0.133E-02    0.151E-03
DAV:  11    -0.181860792709E+02    0.12097E-07   -0.39332E-08 56280   0.720E-04
   1 F= -.18186079E+02 E0= -.18186079E+02  d E =-.298823E-13
 Linear response reoptimize wavefunctions
DAV:   1    -0.181860793233E+02   -0.52389E-07   -0.22601E-08 81368   0.532E-04
DAV:   2    -0.181860793233E+02   -0.19327E-11   -0.19239E-11 50232   0.202E-05
 Linear response G [H, r] |phi>, progress :
  Direction:   1
       N       E                     dE             d eps       ncg     rms
RMM:   1    -0.244262598517E+02   -0.24426E+02    0.24545E+01131997   0.149E+01
RMM:   2    -0.235638010045E+02    0.86246E+00   -0.31269E-01 81015   0.211E+00
RMM:   3    -0.235666979778E+02   -0.28970E-02   -0.37719E-04 87096   0.743E-02
RMM:   4    -0.235667564058E+02   -0.58428E-04    0.61860E-06 89025   0.319E-03
RMM:   5    -0.235667570887E+02   -0.68287E-06    0.30607E-06 71376   0.196E-04
 Linear response G [H, r] |phi>, progress :
  Direction:   2
       N       E                     dE             d eps       ncg     rms
RMM:   1    -0.302164818505E+02   -0.30216E+02   -0.39754E+00131931   0.151E+01
RMM:   2    -0.278375406637E+02    0.23789E+01   -0.37769E-01 81141   0.231E+00
RMM:   3    -0.278398983398E+02   -0.23577E-02   -0.40080E-04 87318   0.709E-02
RMM:   4    -0.278399108467E+02   -0.12507E-04   -0.35997E-06 89276   0.282E-03
RMM:   5    -0.278399107696E+02    0.77161E-07   -0.16841E-06 71190   0.136E-04
 Linear response G [H, r] |phi>, progress :
  Direction:   3
       N       E                     dE             d eps       ncg     rms
RMM:   1    -0.441058658856E+02   -0.44106E+02   -0.10818E+02136583   0.153E+01
RMM:   2    -0.365491701245E+02    0.75567E+01   -0.47047E-01 81091   0.247E+00
RMM:   3    -0.365510122887E+02   -0.18422E-02   -0.44659E-04 87177   0.700E-02
RMM:   4    -0.365510040304E+02    0.82583E-05    0.98398E-06 88228   0.247E-03
RMM:   5    -0.365510043864E+02   -0.35598E-06    0.69934E-06 68706   0.107E-04
 Linear response to external field (no local field effect), progress :
  Direction:   1
       N       E                     dE             d eps       ncg     rms          rms(c)
RMM:   1    -0.105081189564E+00   -0.10508E+00   -0.36698E-01137202   0.658E-01
RMM:   2    -0.107818970147E+00   -0.27378E-02   -0.45869E-04 80242   0.720E-02
RMM:   3    -0.107819783816E+00   -0.81367E-06   -0.20908E-07 81295   0.150E-03
 Linear response to external field (no local field effect), progress :
  Direction:   2
       N       E                     dE             d eps       ncg     rms          rms(c)
RMM:   1    -0.138049394049E+00   -0.13805E+00   -0.50889E-01137586   0.733E-01
RMM:   2    -0.141880507199E+00   -0.38311E-02   -0.57793E-04 80421   0.793E-02
RMM:   3    -0.141881485679E+00   -0.97848E-06   -0.25098E-07 81310   0.163E-03
 Linear response to external field (no local field effect), progress :
  Direction:   3
       N       E                     dE             d eps       ncg     rms          rms(c)
RMM:   1    -0.215214024622E+00   -0.21521E+00   -0.80089E-01136875   0.853E-01
RMM:   2    -0.219821667479E+00   -0.46076E-02   -0.81328E-04 80299   0.926E-02
RMM:   3    -0.219822948470E+00   -0.12810E-05   -0.32642E-07 81123   0.180E-03
RMM:   4    -0.219822949031E+00   -0.56144E-09   -0.11464E-10 66224   0.592E-05
 Linear response to external field, progress :
  Direction:   1
       N       E                     dE             d eps       ncg     rms          rms(c)
RMM:   1    -0.152799203032E+00   -0.15280E+00   -0.55910E-01684460   0.741E-01
RMM:   2    -0.156507153400E+00   -0.37080E-02   -0.61155E-04402633   0.798E-02    0.714E-01
RMM:   3    -0.155980663732E+00    0.52649E-03   -0.15020E-04413349   0.463E-02    0.425E-01
RMM:   4    -0.164114949872E+00   -0.81343E-02   -0.28344E-04414131   0.652E-02    0.387E-02
RMM:   5    -0.164871283733E+00   -0.75633E-03   -0.40654E-06419276   0.835E-03    0.367E-03
RMM:   6    -0.164895713424E+00   -0.24430E-04   -0.41432E-08405711   0.826E-04    0.210E-03
RMM:   7    -0.164915805966E+00   -0.20093E-04   -0.75066E-08410843   0.112E-03    0.104E-04
RMM:   8    -0.164916049200E+00   -0.24323E-06    0.00000E+00237634   0.489E-05    0.309E-05
 Linear response to external field, progress :
  Direction:   2
       N       E                     dE             d eps       ncg     rms          rms(c)
RMM:   1    -0.152738442667E+00   -0.15274E+00   -0.55849E-01******   0.737E-01
RMM:   2    -0.156507114029E+00   -0.37687E-02   -0.61489E-04757602   0.799E-02    0.714E-01
RMM:   3    -0.155981706575E+00    0.52541E-03   -0.15053E-04777741   0.464E-02    0.425E-01
RMM:   4    -0.164115619097E+00   -0.81339E-02   -0.28284E-04779461   0.650E-02    0.387E-02
RMM:   5    -0.164870702150E+00   -0.75508E-03   -0.40590E-06789195   0.834E-03    0.366E-03
RMM:   6    -0.164895657115E+00   -0.24955E-04   -0.41439E-08764904   0.828E-04    0.210E-03
RMM:   7    -0.164915687670E+00   -0.20031E-04   -0.75065E-08773707   0.112E-03    0.104E-04
RMM:   8    -0.164915916942E+00   -0.22927E-06    0.00000E+00456576   0.481E-05    0.366E-05
 Linear response to external field, progress :
  Direction:   3
       N       E                     dE             d eps       ncg     rms          rms(c)
RMM:   1    -0.152656715341E+00   -0.15266E+00   -0.55767E-01456449   0.719E-01
RMM:   2    -0.156507001106E+00   -0.38503E-02   -0.61145E-04269122   0.773E-02    0.714E-01
RMM:   3    -0.155982133517E+00    0.52487E-03   -0.15044E-04276074   0.464E-02    0.425E-01
RMM:   4    -0.164115769866E+00   -0.81336E-02   -0.28278E-04276691   0.650E-02    0.387E-02
RMM:   5    -0.164870335825E+00   -0.75457E-03   -0.40630E-06280044   0.834E-03    0.365E-03
RMM:   6    -0.164895498779E+00   -0.25163E-04   -0.41645E-08271076   0.829E-04    0.210E-03
RMM:   7    -0.164915518109E+00   -0.20019E-04   -0.75100E-08274288   0.112E-03    0.104E-04
RMM:   8    -0.164915748663E+00   -0.23055E-06    0.00000E+00157000   0.478E-05    0.348E-05
 Linear response DOF=           1
 Linear response progress:
  Degree of freedom:   1/  1
       N       E                     dE             d eps       ncg     rms          rms(c)
RMM:   1    -0.119995434804E+00   -0.12000E+00   -0.17319E-02971123   0.727E-01
RMM:   2    -0.110745874846E+00    0.92496E-02   -0.58638E-04741630   0.101E-01    0.175E-01
RMM:   3    -0.110985776483E+00   -0.23990E-03   -0.68223E-06877184   0.187E-02    0.972E-02
RMM:   4    -0.111732198787E+00   -0.74642E-03   -0.16090E-05858451   0.200E-02    0.137E-02
RMM:   5    -0.111678399850E+00    0.53799E-04   -0.10044E-06904767   0.305E-03    0.909E-04
RMM:   6    -0.111674086314E+00    0.43135E-05   -0.28155E-07921004   0.197E-04    0.492E-04
RMM:   7    -0.111671565850E+00    0.25205E-05   -0.35612E-07929471   0.155E-04    0.679E-05
RMM:   8    -0.111671272489E+00    0.29336E-06   -0.28243E-07945259   0.259E-05    0.700E-06
 Linear response finished
