
     Program PWSCF v.7.4.1 starts on 27Jul2026 at 12:54:10 

     This program is part of the open-source Quantum ESPRESSO suite
     for quantum simulation of materials; please cite
         "P. Giannozzi et al., J. Phys.:Condens. Matter 21 395502 (2009);
         "P. Giannozzi et al., J. Phys.:Condens. Matter 29 465901 (2017);
         "P. Giannozzi et al., J. Chem. Phys. 152 154105 (2020);
          URL http://www.quantum-espresso.org", 
     in publications or presentations arising from this work. More details at
     http://www.quantum-espresso.org/quote

     Parallel version (MPI), running on    40 processors

     MPI processes distributed on     1 nodes
     290436 MiB available memory on the printing compute node when the environment starts
 
     Reading input from diamond_scf.in

     Current dimensions of program PWSCF are:
     Max number of different atomic species (ntypx) = 10
     Max number of k-points (npk) =  40000
     Max angular momentum in pseudopotentials (lmaxx) =  4
     file C.pbe-n-kjpaw_psl.1.0.0.UPF: wavefunction(s)  2S 2P renormalized

     IMPORTANT: XC functional enforced from input :
     Exchange-correlation= HSE
                           (   1   4  12   4   0   0   0)
     EXX-fraction              =        0.25
     Any further DFT definition will be discarded
     Please, verify this is what you really want

     EXX fraction changed:   0.25
     EXX Screening parameter changed:    0.2000000
     Message from routine setup :
     BEWARE: nonlinear core correction is not consistent with hybrid XC
 
     R & G space division:  proc/nbgrp/npool/nimage =      40
     WARNING: too many processors for an effective parallelization!
     wavefunctions fft division:  task group distribution
                                  #TG    x Z-proc =       8      5
     Subspace diagonalization in iterative solution of the eigenvalue problem:
     a serial algorithm will be used

     EXX: WARNING: q-point mesh has been updated!
     EXX: q-point mesh:     8    8    8
     EXX: setup a grid of 512 q-points centered on each k-point
     (set verbosity='high' to see the list)
 
     Parallelization info
     --------------------
     sticks:   dense  smooth     PW     G-vecs:    dense   smooth      PW
     Min           7       7      2                   76       76      16
     Max           8       8      3                   80       80      20
     Sum         283     283    109                 3119     3119     701
 
     Using Pencil Decomposition
 


     bravais-lattice index     =            0
     lattice parameter (alat)  =       4.7733  a.u.
     unit-cell volume          =      76.9035 (a.u.)^3
     number of atoms/cell      =            2
     number of atomic types    =            1
     number of electrons       =         8.00
     number of Kohn-Sham states=            8
     kinetic-energy cutoff     =      45.0000  Ry
     charge density cutoff     =     180.0000  Ry
     cutoff for Fock operator  =     180.0000  Ry
     scf convergence threshold =      1.0E-08
     mixing beta               =       0.7000
     number of iterations used =            8  plain     mixing
     Exchange-correlation= HSE
                           (   1   4  12   4   0   0   0)
     EXX-fraction              =        0.25

     celldm(1)=   4.773317  celldm(2)=   0.000000  celldm(3)=   0.000000
     celldm(4)=   0.000000  celldm(5)=   0.000000  celldm(6)=   0.000000

     crystal axes: (cart. coord. in units of alat)
               a(1) = (  -0.707107   0.000000   0.707107 )  
               a(2) = (   0.000000   0.707107   0.707107 )  
               a(3) = (  -0.707107   0.707107   0.000000 )  

     reciprocal axes: (cart. coord. in units 2 pi/alat)
               b(1) = ( -0.707107 -0.707107  0.707107 )  
               b(2) = (  0.707107  0.707107  0.707107 )  
               b(3) = ( -0.707107  0.707107 -0.707107 )  


     PseudoPot. # 1 for C  read from file:
     ../pseudos/C.pbe-n-kjpaw_psl.1.0.0.UPF
     MD5 check sum: 5f16ad9a65e90284d1d834d4ab3b0f7d
     Pseudo is Projector augmented-wave + core cor, Zval =  4.0
     Generated using &quot;atomic&quot; code by A. Dal Corso  v.6.3
     Shape of augmentation charge: PSQ
     Using radial grid of 1073 points,  4 beta functions with: 
                l(1) =   0
                l(2) =   0
                l(3) =   1
                l(4) =   1
     Q(r) pseudized with 0 coefficients 


     atomic species   valence    mass     pseudopotential
     C                 4.00    12.01070     C ( 1.00)

     No symmetry found



   Cartesian axes

     site n.     atom                  positions (alat units)
         1        C      tau(   1) = (   0.0000000   0.0000000   0.0000000  )
         2        C      tau(   2) = (  -0.3541036   0.3541036   0.3541036  )

     number of k points=   512

     Number of k-points >= 100: set verbosity='high' to print them.

     Dense  grid:     3119 G-vectors     FFT dimensions: (  24,  24,  24)

     Estimated max dynamical RAM per process >      11.58 MB

     Estimated total dynamical RAM >     463.01 MB
     EXX: ACE will be initialized later

     Check: negative core charge=   -0.000077

     Initial potential from superposition of free atoms

     starting charge       7.9999, renormalised to       8.0000
     Starting wfcs are random

     total cpu time spent up to now is        2.6 secs

     per-process dynamical memory:    26.1 Mb

     Self-consistent Calculation

     iteration #  1     ecut=    45.00 Ry     beta= 0.70
     Davidson diagonalization with overlap
     ethr =  1.00E-02,  avg # of iterations =  7.4

     total cpu time spent up to now is       24.3 secs

     total energy              =     -36.85859285 Ry
     estimated scf accuracy    <       0.11546363 Ry

     iteration #  2     ecut=    45.00 Ry     beta= 0.70
     Davidson diagonalization with overlap
     ethr =  1.44E-03,  avg # of iterations =  1.0

     total cpu time spent up to now is       28.3 secs

     total energy              =     -36.86670947 Ry
     estimated scf accuracy    <       0.00247539 Ry

     iteration #  3     ecut=    45.00 Ry     beta= 0.70
     Davidson diagonalization with overlap
     ethr =  3.09E-05,  avg # of iterations =  2.3

     total cpu time spent up to now is       34.3 secs

     total energy              =     -36.86712583 Ry
     estimated scf accuracy    <       0.00006640 Ry

     iteration #  4     ecut=    45.00 Ry     beta= 0.70
     Davidson diagonalization with overlap
     ethr =  8.30E-07,  avg # of iterations =  2.3

     total cpu time spent up to now is       43.8 secs

     total energy              =     -36.86713162 Ry
     estimated scf accuracy    <       0.00000926 Ry

     iteration #  5     ecut=    45.00 Ry     beta= 0.70
     Davidson diagonalization with overlap
     ethr =  1.16E-07,  avg # of iterations =  1.0

     total cpu time spent up to now is       47.7 secs

     total energy              =     -36.86713353 Ry
     estimated scf accuracy    <       0.00000018 Ry

     iteration #  6     ecut=    45.00 Ry     beta= 0.70
     Davidson diagonalization with overlap
     ethr =  2.21E-09,  avg # of iterations =  2.0

     total cpu time spent up to now is       57.6 secs

     End of self-consistent calculation

     Number of k-points >= 100: set verbosity='high' to print the bands.

     highest occupied, lowest unoccupied level (ev):    13.31257748   17.40870334

!    total energy              =     -36.86713357 Ry
     estimated scf accuracy    <          7.6E-09 Ry

     convergence has been achieved in   6 iterations

     Using ACE for calculation of exact exchange

     EXX grid:     3119 G-vectors     FFT dimensions: (  24,  24,  24)
     ACE projected onto     8 (nbndproj) and applied to     8 (nbnd) bands

     EXX: now go back to refine exchange calculation

     total cpu time spent up to now is     3337.5 secs

     per-process dynamical memory:   231.3 Mb

     Self-consistent Calculation

     iteration #  1     ecut=    45.00 Ry     beta= 0.70
     Davidson diagonalization with overlap
     ethr =  2.21E-09,  avg # of iterations =  6.0

     total cpu time spent up to now is     3358.4 secs

     total energy              =     -33.57625900 Ry
     estimated scf accuracy    <       0.00025287 Ry

     iteration #  2     ecut=    45.00 Ry     beta= 0.70
     Davidson diagonalization with overlap
     ethr =  3.16E-06,  avg # of iterations =  3.9

     total cpu time spent up to now is     3367.2 secs

     total energy              =     -33.46357021 Ry
     estimated scf accuracy    <       0.00052799 Ry

     iteration #  3     ecut=    45.00 Ry     beta= 0.70
     Davidson diagonalization with overlap
     ethr =  3.16E-06,  avg # of iterations =  2.0

     total cpu time spent up to now is     3372.7 secs

     total energy              =     -33.46228561 Ry
     estimated scf accuracy    <       0.00194398 Ry

     iteration #  4     ecut=    45.00 Ry     beta= 0.70
     Davidson diagonalization with overlap
     ethr =  3.16E-06,  avg # of iterations =  2.1

     total cpu time spent up to now is     3377.5 secs

     total energy              =     -33.46257727 Ry
     estimated scf accuracy    <       0.00004039 Ry

     iteration #  5     ecut=    45.00 Ry     beta= 0.70
     Davidson diagonalization with overlap
     ethr =  5.05E-07,  avg # of iterations =  1.0

     total cpu time spent up to now is     3381.5 secs

     total energy              =     -33.46258046 Ry
     estimated scf accuracy    <       0.00000019 Ry

     iteration #  6     ecut=    45.00 Ry     beta= 0.70
     Davidson diagonalization with overlap
     ethr =  2.43E-09,  avg # of iterations =  2.0

     total cpu time spent up to now is     3394.1 secs

     total energy              =     -33.46258055 Ry
     estimated scf accuracy    <       0.00000001 Ry

     iteration #  7     ecut=    45.00 Ry     beta= 0.70
     Davidson diagonalization with overlap
     ethr =  1.84E-10,  avg # of iterations =  2.0

     total cpu time spent up to now is     3406.8 secs

     total energy              =     -33.46258051 Ry
     estimated scf accuracy    <       0.00000010 Ry

     iteration #  8     ecut=    45.00 Ry     beta= 0.70
     Davidson diagonalization with overlap
     ethr =  1.84E-10,  avg # of iterations =  2.0

     total cpu time spent up to now is     3419.2 secs

     End of self-consistent calculation

     Number of k-points >= 100: set verbosity='high' to print the bands.

     highest occupied, lowest unoccupied level (ev):    13.05767641   17.94820848

!    total energy              =     -33.46258052 Ry
     estimated scf accuracy    <          6.9E-10 Ry

     convergence has been achieved in   8 iterations

     Using ACE for calculation of exact exchange
     ACE projected onto     8 (nbndproj) and applied to     8 (nbnd) bands

     total energy              =     -33.46285525 Ry
     Harris-Foulkes estimate   =     -33.46285525 Ry
     est. exchange err (dexx)  =       0.00027472 Ry
     - averaged Fock potential =       2.31478841 Ry
     + Fock energy (ACE)       =      -1.15736346 Ry

     EXX: now go back to refine exchange calculation

     total cpu time spent up to now is     6696.1 secs

     per-process dynamical memory:   231.5 Mb

     Self-consistent Calculation

     iteration #  1     ecut=    45.00 Ry     beta= 0.70
     Davidson diagonalization with overlap
     ethr =  1.84E-10,  avg # of iterations =  5.0

     total cpu time spent up to now is     6721.7 secs

     total energy              =     -33.46287146 Ry
     estimated scf accuracy    <       0.00000430 Ry

     iteration #  2     ecut=    45.00 Ry     beta= 0.70
     Davidson diagonalization with overlap
     ethr =  5.37E-08,  avg # of iterations =  1.0

     total cpu time spent up to now is     6725.8 secs

     total energy              =     -33.46287182 Ry
     estimated scf accuracy    <       0.00000009 Ry

     iteration #  3     ecut=    45.00 Ry     beta= 0.70
     Davidson diagonalization with overlap
     ethr =  1.07E-09,  avg # of iterations =  2.0

     total cpu time spent up to now is     6738.2 secs

     End of self-consistent calculation

     Number of k-points >= 100: set verbosity='high' to print the bands.

     highest occupied, lowest unoccupied level (ev):    13.04441125   17.95550140

!    total energy              =     -33.46287184 Ry
     estimated scf accuracy    <          2.6E-09 Ry

     convergence has been achieved in   3 iterations

     Using ACE for calculation of exact exchange
     ACE projected onto     8 (nbndproj) and applied to     8 (nbnd) bands

     total energy              =     -33.46287291 Ry
     Harris-Foulkes estimate   =     -33.46287292 Ry
     est. exchange err (dexx)  =       0.00000108 Ry
     - averaged Fock potential =       2.31469036 Ry
     + Fock energy (ACE)       =      -1.15732798 Ry

     EXX: now go back to refine exchange calculation

     total cpu time spent up to now is    10001.8 secs

     per-process dynamical memory:   231.5 Mb

     Self-consistent Calculation

     iteration #  1     ecut=    45.00 Ry     beta= 0.70
     Davidson diagonalization with overlap
     ethr =  1.07E-09,  avg # of iterations =  2.0

     total cpu time spent up to now is    10014.0 secs

     total energy              =     -33.46287298 Ry
     estimated scf accuracy    <       0.00000002 Ry

     iteration #  2     ecut=    45.00 Ry     beta= 0.70
     Davidson diagonalization with overlap
     ethr =  1.90E-10,  avg # of iterations =  1.0

     total cpu time spent up to now is    10017.9 secs

     End of self-consistent calculation

     Number of k-points >= 100: set verbosity='high' to print the bands.

     highest occupied, lowest unoccupied level (ev):    13.04372522   17.95609428

!    total energy              =     -33.46287298 Ry
     estimated scf accuracy    <          4.3E-10 Ry

     convergence has been achieved in   2 iterations

     Using ACE for calculation of exact exchange
     ACE projected onto     8 (nbndproj) and applied to     8 (nbnd) bands

!!   total energy              =     -33.46287299 Ry
     Harris-Foulkes estimate   =     -33.46287299 Ry
     est. exchange err (dexx)  =          5.1E-09 Ry
     - averaged Fock potential =       2.31465223 Ry
     + Fock energy (ACE)       =      -1.15732425 Ry

     EXX self-consistency reached

     Forces acting on atoms (cartesian axes, Ry/au):

     atom    1 type  1   force =    -0.00212124    0.00212124    0.00212124
     atom    2 type  1   force =     0.00212124   -0.00212124   -0.00212124

     Total force =     0.005196     Total SCF correction =     0.000000


     Computing stress (Cartesian axis) and pressure

     Message from routine exx_stress:
     USPP stress not tested
          total   stress  (Ry/bohr**3)                   (kbar)     P=      155.97
   0.00106023   0.00000596   0.00000596          155.97        0.88        0.88
   0.00000596   0.00106023  -0.00000596            0.88      155.97       -0.88
   0.00000596  -0.00000596   0.00106023            0.88       -0.88      155.97


     Writing all to output data dir ./tmp/diamond-HSE06.save/ :
     XML data file, charge density
     init_run     :      0.50s CPU      0.58s WALL (       1 calls)
     electrons    :    188.51s CPU    195.13s WALL (       4 calls)
     forces       :      0.07s CPU      0.08s WALL (       1 calls)
     stress       :    387.76s CPU    445.77s WALL (       1 calls)

     Called by init_run:
     aceinit0     :      0.00s CPU      0.00s WALL (       1 calls)
     wfcinit      :      0.36s CPU      0.44s WALL (       1 calls)
     potinit      :      0.06s CPU      0.06s WALL (       1 calls)
     hinit0       :      0.02s CPU      0.03s WALL (       1 calls)

     Called by electrons:
     c_bands      :    183.41s CPU    189.26s WALL (      19 calls)
     sum_band     :      3.21s CPU      3.92s WALL (      19 calls)
     v_of_rho     :      0.62s CPU      0.63s WALL (      21 calls)
     newd         :      0.01s CPU      0.01s WALL (      20 calls)
     PAW_pot      :      0.38s CPU      0.39s WALL (      21 calls)
     mix_rho      :      0.63s CPU      0.63s WALL (      19 calls)

     Called by c_bands:
     init_us_2    :      0.19s CPU      0.22s WALL (   39424 calls)
     cegterg      :    137.47s CPU    142.50s WALL (    9728 calls)

     Called by *egterg:
     cdiaghg      :      4.96s CPU      5.41s WALL (   32760 calls)
     h_psi        :     59.49s CPU     63.04s WALL (   34808 calls)
     s_psi        :      0.16s CPU      0.19s WALL (   34808 calls)
     g_psi        :      0.05s CPU      0.06s WALL (   24568 calls)

     Called by h_psi:
     h_psi:calbec :     11.14s CPU     11.43s WALL (   34808 calls)
     vloc_psi     :     24.30s CPU     26.80s WALL (   34808 calls)
     vloc_psi:tg_ :      0.09s CPU      0.10s WALL (   34808 calls)
     add_vuspsi   :      0.19s CPU      0.23s WALL (   34808 calls)

     General routines
     calbec       :     34.75s CPU     35.76s WALL (   87516 calls)
     fft          :      0.03s CPU      0.03s WALL (     250 calls)
     ffts         :      0.00s CPU      0.00s WALL (      19 calls)
     fftw         :     25.55s CPU     28.43s WALL (  544356 calls)
     fftc         :   5266.74s CPU   5786.43s WALL (******** calls)
     fftcw        :     62.53s CPU     71.73s WALL ( 2146304 calls)
 
     Parallel routines
     fft_scatt_xy :    342.81s CPU    377.30s WALL (******** calls)
     fft_scatt_yz :   3953.04s CPU   4352.15s WALL (******** calls)
     fft_scatt_tg :      1.73s CPU      2.01s WALL (  544356 calls)

     EXX routines
     exx_grid     :      1.83s CPU      1.84s WALL (       1 calls)
     exxinit      :      3.03s CPU      3.24s WALL (       4 calls)
     vexx         :  11946.87s CPU  13084.84s WALL (    2048 calls)
     matcalc      :     23.48s CPU     24.17s WALL (   32228 calls)
     aceupdate    :      0.05s CPU      0.05s WALL (    2048 calls)
     vexxace      :     23.60s CPU     24.30s WALL (   26596 calls)
     aceinit      :  11946.99s CPU  13084.98s WALL (    2048 calls)

     EXX+US  routines
     becxx        :      0.01s CPU      0.01s WALL (       4 calls)
     addusxx      :   1834.17s CPU   2028.22s WALL (67108864 calls)
     newdxx       :   1904.63s CPU   2080.78s WALL (67108864 calls)
     qvan_init    :     47.42s CPU     51.83s WALL ( 1048576 calls)
     nlxx_pot     :      0.16s CPU      0.17s WALL (   16384 calls)

     EXX+PAW routines
     PAW_newdxx   :   2226.33s CPU   2429.67s WALL (67108864 calls)
 
     PWSCF        :      3h28m CPU      3h48m WALL

 
   This run was terminated on:  16:43: 2  27Jul2026            

=------------------------------------------------------------------------------=
   JOB DONE.
=------------------------------------------------------------------------------=
