  215  215    1    2
  0.5731707E+01  0.1072114E-08  0.1072114E-08  0.1072114E-08  0.5000000E-15
  1.000000000000000E-004
  CAR 
 unknown system                          
    862      1    540
 
  0.1276756E-14  0.1276756E-14  0.1276756E-14  0.1000000E+01
      1        -11.877725      -11.872330   1.000000   1.000000
      2        -11.027972      -11.024726   1.000000   1.000000
      3        -10.875057      -10.872201   1.000000   1.000000
      4        -10.875057      -10.872201   1.000000   1.000000
      5        -10.833843      -10.826380   1.000000   1.000000
      6        -10.833843      -10.826380   1.000000   1.000000
      7        -10.744882      -10.732978   1.000000   1.000000
      8        -10.192930      -10.189347   1.000000   1.000000
      9         -9.873693       -9.871509   1.000000   1.000000
     10         -9.873693       -9.871509   1.000000   1.000000
     11         -9.866034       -9.863288   1.000000   1.000000
     12         -9.866034       -9.863288   1.000000   1.000000
     13         -9.858268       -9.853656   1.000000   1.000000
     14         -9.829120       -9.821748   1.000000   1.000000
     15         -9.829120       -9.821748   1.000000   1.000000
     16         -9.813254       -9.809896   1.000000   1.000000
     17         -9.780655       -9.764299   1.000000   1.000000
     18         -9.780655       -9.764299   1.000000   1.000000
     19         -9.603451       -9.580806   1.000000   1.000000
     20         -9.096253       -9.091497   1.000000   1.000000
     21         -8.852312       -8.846687   1.000000   1.000000
     22         -8.845655       -8.838462   1.000000   1.000000
     23         -8.845655       -8.838462   1.000000   1.000000
     24         -8.827306       -8.818246   1.000000   1.000000
     25         -8.827306       -8.811957   1.000000   1.000000
     26         -8.824752       -8.811957   1.000000   1.000000
     27         -8.663989       -8.640568   1.000000   1.000000
     28         -8.047250       -8.035471   1.000000   1.000000
     29         -7.861215       -7.855280   1.000000   1.000000
     30         -7.861215       -7.855280   1.000000   1.000000
     31         -7.842099       -7.832059   1.000000   1.000000
     32         -7.842099       -7.832059   1.000000   1.000000
     33         -7.782552       -7.775081   1.000000   1.000000
     34         -7.455049       -7.442296   1.000000   1.000000
     35         -6.967698       -6.965482   1.000000   1.000000
     36         -6.967698       -6.965482   1.000000   1.000000
     37         -6.964961       -6.963039   1.000000   1.000000
     38         -6.961699       -6.957013   1.000000   1.000000
     39         -6.961699       -6.957013   1.000000   1.000000
     40         -6.955239       -6.952375   1.000000   1.000000
     41         -6.951702       -6.947936   1.000000   1.000000
     42         -6.951702       -6.947936   1.000000   1.000000
     43         -6.935730       -6.934221   1.000000   1.000000
     44         -6.929063       -6.926591   1.000000   1.000000
     45         -6.929063       -6.926591   1.000000   1.000000
     46         -6.926052       -6.923709   1.000000   1.000000
     47         -6.923504       -6.919175   1.000000   1.000000
     48         -6.923504       -6.919174   1.000000   1.000000
     49         -6.903635       -6.885383   1.000000   1.000000
     50         -6.903635       -6.885303   1.000000   1.000000
     51         -6.896451       -6.885303   1.000000   1.000000
     52         -6.886861       -6.879176   1.000000   1.000000
     53         -6.886861       -6.879176   1.000000   1.000000
     54         -6.857612       -6.854669   1.000000   1.000000
     55         -6.802950       -6.778724   1.000000   1.000000
     56         -6.802950       -6.778723   1.000000   1.000000
     57         -6.623297       -6.611400   1.000000   1.000000
     58         -6.420773       -6.417141   1.000000   1.000000
     59         -6.199312       -6.196985   1.000000   1.000000
     60         -6.199312       -6.196985   1.000000   1.000000
     61         -6.175032       -6.172351   1.000000   1.000000
     62         -6.174847       -6.170107   1.000000   1.000000
     63         -6.174847       -6.170107   1.000000   1.000000
     64         -6.161082       -6.158634   1.000000   1.000000
     65         -6.155546       -6.151576   1.000000   1.000000
     66         -6.155340       -6.151576   1.000000   1.000000
     67         -6.155339       -6.146587   1.000000   1.000000
     68         -6.148100       -6.139530   1.000000   1.000000
     69         -6.148100       -6.139530   1.000000   1.000000
     70         -6.121593       -6.113790   1.000000   1.000000
     71         -6.116076       -6.111195   1.000000   1.000000
     72         -6.116076       -6.111195   1.000000   1.000000
     73         -6.100881       -6.096655   1.000000   1.000000
     74         -6.100881       -6.096655   1.000000   1.000000
     75         -6.083478       -6.072242   1.000000   1.000000
     76         -6.068878       -6.056435   1.000000   1.000000
     77         -6.068878       -6.056435   1.000000   1.000000
     78         -6.021581       -6.012108   1.000000   1.000000
     79         -5.938896       -5.876618   1.000000   1.000000
     80         -5.938896       -5.876618   1.000000   1.000000
     81         -5.253669       -5.195026   1.000000   1.000000
     82         -4.661994       -4.653963   1.000000   1.000000
     83         -4.497037       -4.492206   1.000000   1.000000
     84         -4.497037       -4.492206   1.000000   1.000000
     85         -4.470972       -4.460550   1.000000   1.000000
     86         -4.470972       -4.460550   1.000000   1.000000
     87         -4.455919       -4.451550   1.000000   1.000000
     88         -4.453273       -4.447236   1.000000   1.000000
     89         -4.451126       -4.445689   1.000000   1.000000
     90         -4.451126       -4.445689   1.000000   1.000000
     91         -4.405338       -4.374886   1.000000   1.000000
     92         -4.405338       -4.374886   1.000000   1.000000
     93         -4.057379       -3.997278   1.000000   1.000000
     94         -3.249999       -3.238002   1.000000   1.000000
     95         -3.193871       -3.190564   1.000000   1.000000
     96         -3.193871       -3.190564   1.000000   1.000000
     97         -3.180084       -3.172323   1.000000   1.000000
     98         -3.180084       -3.172323   1.000000   1.000000
     99         -3.138111       -3.132162   1.000000   1.000000
    100         -2.917652       -2.898070   1.000000   1.000000
    101         -2.730149       -2.726771   1.000000   1.000000
    102         -2.730149       -2.726771   1.000000   1.000000
    103         -2.702497       -2.702218   1.000000   1.000000
    104         -2.693118       -2.690247   1.000000   1.000000
    105         -2.693118       -2.690247   1.000000   1.000000
    106         -2.690349       -2.688202   1.000000   1.000000
    107         -2.690349       -2.688202   1.000000   1.000000
    108         -2.684662       -2.682433   1.000000   1.000000
    109         -2.678336       -2.676391   1.000000   1.000000
    110         -2.669643       -2.664614   1.000000   1.000000
    111         -2.669643       -2.664614   1.000000   1.000000
    112         -2.657981       -2.655013   1.000000   1.000000
    113         -2.657981       -2.655013   1.000000   1.000000
    114         -2.634747       -2.627520   1.000000   1.000000
    115         -2.614559       -2.602059   1.000000   1.000000
    116         -2.588938       -2.579122   1.000000   1.000000
    117         -2.588938       -2.579122   1.000000   1.000000
    118         -2.571192       -2.565674   1.000000   1.000000
    119         -2.556222       -2.549273   1.000000   1.000000
    120         -2.556222       -2.549273   1.000000   1.000000
    121         -2.551413       -2.527452   1.000000   1.000000
    122         -2.551413       -2.527452   1.000000   1.000000
    123         -2.502038       -2.497776   1.000000   1.000000
    124         -2.479210       -2.475400   1.000000   1.000000
    125         -2.479210       -2.475400   1.000000   1.000000
    126         -2.474647       -2.466286   1.000000   1.000000
    127         -2.456889       -2.451751   1.000000   1.000000
    128         -2.456889       -2.451751   1.000000   1.000000
    129         -2.454449       -2.451390   1.000000   1.000000
    130         -2.453275       -2.449943   1.000000   1.000000
    131         -2.452129       -2.448354   1.000000   1.000000
    132         -2.452129       -2.448354   1.000000   1.000000
    133         -2.444044       -2.433612   1.000000   1.000000
    134         -2.421006       -2.416285   1.000000   1.000000
    135         -2.421006       -2.416285   1.000000   1.000000
    136         -2.405851       -2.399557   1.000000   1.000000
    137         -2.403363       -2.397370   1.000000   1.000000
    138         -2.403363       -2.397370   1.000000   1.000000
    139         -2.395079       -2.386373   1.000000   1.000000
    140         -2.395079       -2.386373   1.000000   1.000000
    141         -2.391741       -2.375067   1.000000   1.000000
    142         -2.391741       -2.375067   1.000000   1.000000
    143         -2.385514       -2.356207   1.000000   1.000000
    144         -2.151239       -2.136253   1.000000   1.000000
    145         -2.048802       -1.999503   1.000000   1.000000
    146         -2.048802       -1.999503   1.000000   1.000000
    147         -1.656673       -1.636455   1.000000   1.000000
    148         -1.397801       -1.392055   1.000000   1.000000
    149         -1.397801       -1.392055   1.000000   1.000000
    150         -1.397121       -1.380348   1.000000   1.000000
    151         -1.364177       -1.354321   1.000000   1.000000
    152         -1.355757       -1.351696   1.000000   1.000000
    153         -1.355757       -1.351696   1.000000   1.000000
    154         -1.351167       -1.348481   1.000000   1.000000
    155         -1.323665       -1.317834   1.000000   1.000000
    156         -1.323665       -1.317834   1.000000   1.000000
    157         -1.205168       -1.146382   1.000000   1.000000
    158         -1.205168       -1.146382   1.000000   1.000000
    159         -0.222685       -0.158367   1.000000   1.000000
    160          0.137046        0.143182   1.000000   1.000000
    161          0.137301        0.143183   1.000000   1.000000
    162          0.137302        0.149307   1.000000   1.000000
    163          0.195142        0.197622   1.000000   1.000000
    164          0.199447        0.206958   1.000000   1.000000
    165          0.203351        0.206958   1.000000   1.000000
    166          0.203351        0.207388   1.000000   1.000000
    167          0.207590        0.213935   1.000000   1.000000
    168          0.209827        0.213935   1.000000   1.000000
    169          0.209827        0.216744   1.000000   1.000000
    170          0.222194        0.225016   1.000000   1.000000
    171          0.227443        0.232724   1.000000   1.000000
    172          0.227766        0.232724   1.000000   1.000000
    173          0.227766        0.232944   1.000000   1.000000
    174          0.240925        0.251715   1.000000   1.000000
    175          0.240925        0.251715   1.000000   1.000000
    176          0.366797        0.381949   1.000000   1.000000
    177          0.366797        0.381949   1.000000   1.000000
    178          0.378784        0.389443   1.000000   1.000000
    179          0.406802        0.425431   1.000000   1.000000
    180          0.762950        0.769718   1.000000   1.000000
    181          0.762950        0.769718   1.000000   1.000000
    182          0.782553        0.803453   1.000000   1.000000
    183          0.844957        0.849015   1.000000   1.000000
    184          0.853984        0.854724   1.000000   1.000000
    185          0.856493        0.862194   1.000000   1.000000
    186          0.856493        0.862194   1.000000   1.000000
    187          0.861073        0.865190   1.000000   1.000000
    188          0.861073        0.865190   1.000000   1.000000
    189          0.872912        0.876827   1.000000   1.000000
    190          0.872912        0.877196   1.000000   1.000000
    191          0.873167        0.877196   1.000000   1.000000
    192          0.882591        0.888227   1.000000   1.000000
    193          0.882591        0.888227   1.000000   1.000000
    194          0.891464        0.900240   1.000000   1.000000
    195          0.893378        0.900240   1.000000   1.000000
    196          0.893378        0.903019   1.000000   1.000000
    197          0.904790        0.915874   1.000000   1.000000
    198          0.904790        0.915874   1.000000   1.000000
    199          0.911014        0.921114   1.000000   1.000000
    200          0.911719        0.923848   1.000000   1.000000
    201          1.118401        1.176376   1.000000   1.000000
    202          1.118401        1.176376   1.000000   1.000000
    203          1.666926        1.671498   1.000000   1.000000
    204          1.666926        1.671498   1.000000   1.000000
    205          1.667232        1.682195   1.000000   1.000000
    206          1.722050        1.724767   1.000000   1.000000
    207          1.723169        1.724767   1.000000   1.000000
    208          1.723169        1.725532   1.000000   1.000000
    209          1.724219        1.725780   1.000000   1.000000
    210          1.732078        1.734728   1.000000   1.000000
    211          1.732078        1.734728   1.000000   1.000000
    212          1.741554        1.745668   1.000000   1.000000
    213          1.741554        1.745668   1.000000   1.000000
    214          1.748202        1.750675   1.000000   1.000000
    215          1.762654        1.765782   1.000000   1.000000
    216          1.762654        1.765782   1.000000   1.000000
    217          1.802411        1.814620   1.000000   1.000000
    218          1.811664        1.819079   1.000000   1.000000
    219          1.811664        1.819079   1.000000   1.000000
    220          1.826827        1.835293   1.000000   1.000000
    221          1.836296        1.841455   1.000000   1.000000
    222          1.868934        1.881461   1.000000   1.000000
    223          1.868934        1.881461   1.000000   1.000000
    224          1.938917        1.941288   1.000000   1.000000
    225          1.946721        1.956883   1.000000   1.000000
    226          1.946721        1.956883   1.000000   1.000000
    227          2.013820        2.049019   1.000000   1.000000
    228          2.151359        2.157282   1.000000   1.000000
    229          2.151359        2.157282   1.000000   1.000000
    230          2.222422        2.234127   1.000000   1.000000
    231          2.245838        2.248127   1.000000   1.000000
    232          2.245838        2.248127   1.000000   1.000000
    233          2.249006        2.254405   1.000000   1.000000
    234          2.258675        2.262642   1.000000   1.000000
    235          2.258675        2.262642   1.000000   1.000000
    236          2.261670        2.269135   1.000000   1.000000
    237          2.261670        2.269135   1.000000   1.000000
    238          2.265156        2.271271   1.000000   1.000000
    239          2.266509        2.272616   1.000000   1.000000
    240          2.277345        2.285388   1.000000   1.000000
    241          2.289158        2.294785   1.000000   1.000000
    242          2.289158        2.294785   1.000000   1.000000
    243          2.309055        2.317921   1.000000   1.000000
    244          2.309055        2.319982   1.000000   1.000000
    245          2.312330        2.319982   1.000000   1.000000
    246          2.313043        2.321070   1.000000   1.000000
    247          2.333185        2.344496   1.000000   1.000000
    248          2.333185        2.344496   1.000000   1.000000
    249          2.339474        2.360822   1.000000   1.000000
    250          2.365271        2.383661   1.000000   1.000000
    251          2.365271        2.383661   1.000000   1.000000
    252          2.403818        2.414539   1.000000   1.000000
    253          2.403818        2.414539   1.000000   1.000000
    254          2.718789        2.739722   1.000000   1.000000
    255          2.742265        2.786596   1.000000   1.000000
    256          2.742265        2.786596   1.000000   1.000000
    257          3.258546        3.264943   1.000000   1.000000
    258          3.258546        3.264943   1.000000   1.000000
    259          3.305637        3.314696   1.000000   1.000000
    260          3.330930        3.339093   1.000000   1.000000
    261          3.335955        3.352898   1.000000   1.000000
    262          3.335955        3.352898   1.000000   1.000000
    263          3.451383        3.523226   1.000000   1.000000
    264          3.775779        3.788900   1.000000   1.000000
    265          3.775779        3.788900   1.000000   1.000000
    266          3.850912        3.856939   1.000000   1.000000
    267          3.854212        3.856939   1.000000   1.000000
    268          3.854212        3.859441   1.000000   1.000000
    269          3.865942        3.870984   1.000000   1.000000
    270          3.867965        3.875517   1.000000   1.000000
    271          3.867965        3.875517   1.000000   1.000000
    272          3.902268        3.917446   1.000000   1.000000
    273          3.950689        3.966150   1.000000   1.000000
    274          3.950689        3.966150   1.000000   1.000000
    275          4.129339        4.133976   1.000000   1.000000
    276          4.129340        4.133976   1.000000   1.000000
    277          4.233665        4.247120   1.000000   1.000000
    278          4.262049        4.268223   1.000000   1.000000
    279          4.262425        4.273559   1.000000   1.000000
    280          4.265908        4.273559   1.000000   1.000000
    281          4.265908        4.282260   1.000000   1.000000
    282          4.274008        4.282260   1.000000   1.000000
    283          4.274008        4.284956   1.000000   1.000000
    284          4.295788        4.305258   1.000000   1.000000
    285          4.325603        4.335523   1.000000   1.000000
    286          4.325603        4.335523   1.000000   1.000000
    287          4.331643        4.345534   1.000000   1.000000
    288          4.466887        4.475802   1.000000   1.000000
    289          4.466887        4.475802   1.000000   1.000000
    290          4.494386        4.497448   1.000000   1.000000
    291          4.518670        4.521313   1.000000   1.000000
    292          4.520355        4.522590   1.000000   1.000000
    293          4.520355        4.522590   1.000000   1.000000
    294          4.539261        4.541501   1.000000   1.000000
    295          4.540882        4.542634   1.000000   1.000000
    296          4.540882        4.542634   1.000000   1.000000
    297          4.543461        4.546400   1.000000   1.000000
    298          4.543461        4.546400   1.000000   1.000000
    299          4.546185        4.549119   1.000000   1.000000
    300          4.552365        4.557902   1.000000   1.000000
    301          4.558149        4.561046   1.000000   1.000000
    302          4.558149        4.561046   1.000000   1.000000
    303          4.585474        4.591675   1.000000   1.000000
    304          4.585474        4.591675   1.000000   1.000000
    305          4.596692        4.602504   1.000000   1.000000
    306          4.599767        4.608000   1.000000   1.000000
    307          4.599767        4.608000   1.000000   1.000000
    308          4.606613        4.617068   1.000000   1.000000
    309          4.606613        4.617068   1.000000   1.000000
    310          4.615199        4.619963   1.000000   1.000000
    311          4.668955        4.674622   1.000000   1.000000
    312          4.668955        4.674622   1.000000   1.000000
    313          4.695475        4.702499   1.000000   1.000000
    314          4.713622        4.728026   1.000000   1.000000
    315          4.729139        4.730209   1.000000   1.000000
    316          4.731851        4.733978   1.000000   1.000000
    317          4.731851        4.733978   1.000000   1.000000
    318          4.733024        4.737403   1.000000   1.000000
    319          4.735619        4.740092   1.000000   1.000000
    320          4.735619        4.740092   1.000000   1.000000
    321          4.739902        4.742135   1.000000   1.000000
    322          4.739902        4.742135   1.000000   1.000000
    323          4.744908        4.750187   1.000000   1.000000
    324          4.749505        4.752398   1.000000   1.000000
    325          4.750063        4.755198   1.000000   1.000000
    326          4.750063        4.755198   1.000000   1.000000
    327          4.758288        4.762449   1.000000   1.000000
    328          4.758288        4.763064   1.000000   1.000000
    329          4.759116        4.763064   1.000000   1.000000
    330          4.760503        4.763532   1.000000   1.000000
    331          4.760503        4.763532   1.000000   1.000000
    332          4.764221        4.770904   1.000000   1.000000
    333          4.773016        4.778988   1.000000   1.000000
    334          4.773016        4.778988   1.000000   1.000000
    335          4.775338        4.788159   1.000000   1.000000
    336          4.783054        4.793777   1.000000   1.000000
    337          4.784576        4.795785   1.000000   1.000000
    338          4.784576        4.795785   1.000000   1.000000
    339          4.814472        4.823801   1.000000   1.000000
    340          4.814472        4.823801   1.000000   1.000000
    341          4.824762        4.834017   1.000000   1.000000
    342          4.824762        4.834017   1.000000   1.000000
    343          4.835220        4.840050   1.000000   1.000000
    344          4.848859        4.854785   1.000000   1.000000
    345          4.848859        4.854785   1.000000   1.000000
    346          4.874899        4.886038   1.000000   1.000000
    347          4.874899        4.886038   1.000000   1.000000
    348          4.876919        4.893486   1.000000   1.000000
    349          4.891829        4.917542   1.000000   1.000000
    350          4.933146        4.940383   1.000000   1.000000
    351          4.936359        4.951670   1.000000   1.000000
    352          4.936359        4.958312   1.000000   1.000000
    353          4.943957        4.958312   1.000000   1.000000
    354          5.037828        5.073608   1.000000   1.000000
    355          5.037828        5.073608   1.000000   1.000000
    356          5.317092        5.328871   1.000000   1.000000
    357          5.317092        5.336143   1.000000   1.000000
    358          5.317820        5.336143   1.000000   1.000000
    359          5.493028        5.498756   1.000000   1.000000
    360          5.493028        5.498756   1.000000   1.000000
    361          5.551547        5.554754   1.000000   1.000000
    362          5.557890        5.560359   1.000000   1.000000
    363          5.557891        5.560359   1.000000   1.000000
    364          5.565406        5.567181   1.000000   1.000000
    365          5.585376        5.593805   1.000000   1.000000
    366          5.594028        5.598687   1.000000   1.000000
    367          5.594028        5.598687   1.000000   1.000000
    368          5.601601        5.609975   1.000000   1.000000
    369          5.604678        5.618250   1.000000   1.000000
    370          5.604678        5.618250   1.000000   1.000000
    371          5.616871        5.623746   1.000000   1.000000
    372          5.616871        5.626541   1.000000   1.000000
    373          5.617321        5.626541   1.000000   1.000000
    374          5.626028        5.639814   1.000000   1.000000
    375          5.626028        5.639814   1.000000   1.000000
    376          5.649944        5.654537   1.000000   1.000000
    377          5.709527        5.736218   1.000000   1.000000
    378          5.709527        5.736218   1.000000   1.000000
    379          5.738867        5.771143   1.000000   1.000000
    380          6.430789        6.445939   1.000000   1.000000
    381          6.521827        6.591703   1.000000   1.000000
    382          6.521827        6.591703   1.000000   1.000000
    383          6.882341        6.932053   1.000000   1.000000
    384          6.917313        6.932053   1.000000   1.000000
    385          6.917313        6.972602   1.000000   1.000000
    386          6.966877        6.975584   1.000000   1.000000
    387          6.973414        6.975584   1.000000   1.000000
    388          6.973414        6.991325   1.000000   1.000000
    389          6.988101        6.991427   1.000000   1.000000
    390          6.990053        7.003493   1.000000   1.000000
    391          6.990053        7.003493   1.000000   1.000000
    392          6.998246        7.030093   1.000000   1.000000
    393          7.065011        7.070181   1.000000   1.000000
    394          7.065011        7.070181   1.000000   1.000000
    395          7.075200        7.083018   1.000000   1.000000
    396          7.166249        7.171120   1.000000   1.000000
    397          7.166249        7.171121   1.000000   1.000000
    398          7.226798        7.231597   1.000000   1.000000
    399          7.226798        7.231597   1.000000   1.000000
    400          7.227175        7.233608   1.000000   1.000000
    401          7.231262        7.237885   1.000000   1.000000
    402          7.231262        7.237885   1.000000   1.000000
    403          7.235158        7.245738   1.000000   1.000000
    404          7.235158        7.246232   1.000000   1.000000
    405          7.240490        7.246232   1.000000   1.000000
    406          7.267200        7.278283   1.000000   1.000000
    407          7.267200        7.278283   1.000000   1.000000
    408          7.285691        7.299668   1.000000   1.000000
    409          7.287894        7.299668   1.000000   1.000000
    410          7.287894        7.302351   1.000000   1.000000
    411          7.291519        7.303665   1.000000   1.000000
    412          7.324762        7.333160   1.000000   1.000000
    413          7.324762        7.333160   1.000000   1.000000
    414          7.895513        7.907280   1.000000   1.000000
    415          7.912072        7.940864   1.000000   1.000000
    416          7.912072        7.940864   1.000000   1.000000
    417          8.137328        8.144272   1.000000   1.000000
    418          8.137328        8.144272   1.000000   1.000000
    419          8.147906        8.149947   1.000000   1.000000
    420          8.169014        8.173533   1.000000   1.000000
    421          8.176994        8.181881   1.000000   1.000000
    422          8.176994        8.181881   1.000000   1.000000
    423          8.182677        8.195072   1.000000   1.000000
    424          8.238735        8.254736   1.000000   1.000000
    425          8.238735        8.254736   1.000000   1.000000
    426          8.286433        8.581495   1.000000   1.000000
    427          9.337170        9.434938   1.000000   1.000000
    428          9.396896        9.434938   1.000000   1.000000
    429          9.396896        9.439883   1.000000   1.000000
    430         10.368811       10.958388   1.000000   1.000000
    431         11.379514       12.613950   1.000000   0.000000
    432         11.379514       12.613950   1.000000   0.000000
    433         13.673508       13.677349   0.000000   0.000000
    434         13.673508       13.677349   0.000000   0.000000
    435         13.692180       13.702634   0.000000   0.000000
    436         13.732188       13.744527   0.000000   0.000000
    437         13.732188       13.744527   0.000000   0.000000
    438         13.748890       13.759800   0.000000   0.000000
    439         14.232989       14.238209   0.000000   0.000000
    440         14.317503       14.325402   0.000000   0.000000
    441         14.317503       14.325402   0.000000   0.000000
    442         14.325992       14.332603   0.000000   0.000000
    443         14.325992       14.332603   0.000000   0.000000
    444         14.390728       14.399841   0.000000   0.000000
    445         14.456119       14.460853   0.000000   0.000000
    446         14.456119       14.460853   0.000000   0.000000
    447         14.511789       14.541607   0.000000   0.000000
    448         14.566433       14.584912   0.000000   0.000000
    449         14.566433       14.584918   0.000000   0.000000
    450         14.576345       14.584918   0.000000   0.000000
    451         15.191837       15.211012   0.000000   0.000000
    452         15.191837       15.211012   0.000000   0.000000
    453         15.203102       15.213414   0.000000   0.000000
    454         15.758926       15.767192   0.000000   0.000000
    455         15.843125       15.846579   0.000000   0.000000
    456         15.843125       15.846579   0.000000   0.000000
    457         15.857096       15.859978   0.000000   0.000000
    458         15.888031       15.898046   0.000000   0.000000
    459         15.888031       15.898046   0.000000   0.000000
    460         15.909114       15.913025   0.000000   0.000000
    461         15.910520       15.915906   0.000000   0.000000
    462         15.910520       15.915906   0.000000   0.000000
    463         15.919646       15.925244   0.000000   0.000000
    464         15.919646       15.925244   0.000000   0.000000
    465         15.962160       15.969163   0.000000   0.000000
    466         16.375244       16.379880   0.000000   0.000000
    467         16.561110       16.563567   0.000000   0.000000
    468         16.561110       16.563567   0.000000   0.000000
    469         16.588805       16.590541   0.000000   0.000000
    470         16.588890       16.591936   0.000000   0.000000
    471         16.588890       16.591937   0.000000   0.000000
    472         16.597450       16.601401   0.000000   0.000000
    473         16.597450       16.601560   0.000000   0.000000
    474         16.599250       16.601560   0.000000   0.000000
    475         16.602023       16.610677   0.000000   0.000000
    476         16.602024       16.610677   0.000000   0.000000
    477         16.623544       16.628718   0.000000   0.000000
    478         16.623544       16.629460   0.000000   0.000000
    479         16.624821       16.629460   0.000000   0.000000
    480         16.625245       16.630978   0.000000   0.000000
    481         16.655986       16.664547   0.000000   0.000000
    482         16.655986       16.665351   0.000000   0.000000
    483         16.658302       16.665351   0.000000   0.000000
    484         16.702378       16.708995   0.000000   0.000000
    485         16.702379       16.708995   0.000000   0.000000
    486         16.717633       16.724849   0.000000   0.000000
    487         16.741361       16.749078   0.000000   0.000000
    488         16.741361       16.749078   0.000000   0.000000
    489         16.741783       16.750753   0.000000   0.000000
    490         17.004120       17.008757   0.000000   0.000000
    491         17.050502       17.056060   0.000000   0.000000
    492         17.050507       17.056141   0.000000   0.000000
    493         17.085297       17.087037   0.000000   0.000000
    494         17.091344       17.093492   0.000000   0.000000
    495         17.101092       17.103289   0.000000   0.000000
    496         17.101170       17.103301   0.000000   0.000000
    497         17.108232       17.110262   0.000000   0.000000
    498         17.108289       17.110349   0.000000   0.000000
    499         17.111406       17.114512   0.000000   0.000000
    500         17.122694       17.125505   0.000000   0.000000
    501         17.122764       17.125548   0.000000   0.000000
    502         17.133983       17.135867   0.000000   0.000000
    503         17.158361       17.161503   0.000000   0.000000
    504         17.158374       17.161582   0.000000   0.000000
    505         17.183040       17.186498   0.000000   0.000000
    506         17.183088       17.186599   0.000000   0.000000
    507         17.186814       17.190821   0.000000   0.000000
    508         17.198316       17.202382   0.000000   0.000000
    509         17.198342       17.202455   0.000000   0.000000
    510         17.198594       17.208697   0.000000   0.000000
    511         17.205157       17.209360   0.000000   0.000000
    512         17.221191       17.232232   0.000000   0.000000
    513         17.221372       17.232701   0.000000   0.000000
    514         17.228480       17.232827   0.000000   0.000000
    515         17.228770       17.240401   0.000000   0.000000
    516         17.228995       17.240631   0.000000   0.000000
    517         17.239148       17.251718   0.000000   0.000000
    518         17.239221       17.251841   0.000000   0.000000
    519         17.262106       17.268159   0.000000   0.000000
    520         17.262376       17.268493   0.000000   0.000000
    521         17.276175       17.279843   0.000000   0.000000
    522         17.281334       17.290321   0.000000   0.000000
    523         17.281863       17.290776   0.000000   0.000000
    524         17.306441       17.317372   0.000000   0.000000
    525         17.322127       17.329624   0.000000   0.000000
    526         17.380163       17.392687   0.000000   0.000000
    527         17.394039       17.400063   0.000000   0.000000
    528         17.394652       17.403011   0.000000   0.000000
    529         17.454038       17.465873   0.000000   0.000000
    530         17.457000       17.469048   0.000000   0.000000
    531         17.467698       17.474607   0.000000   0.000000
    532         17.609548       17.597585   0.000000   0.000000
    533         17.691525       17.708381   0.000000   0.000000
    534         17.709208       17.715814   0.000000   0.000000
    535         17.722293       17.723123   0.000000   0.000000
    536         17.731514       17.742649   0.000000   0.000000
    537         17.745873       17.752767   0.000000   0.000000
    538         17.754281       17.765014   0.000000   0.000000
    539         17.774371       17.775803   0.000000   0.000000
    540         17.786744       17.793928   0.000000   0.000000
