       N       E                     dE             d eps       ncg     rms          rms(c)
DAV:   1     0.295937434716E+04    0.29594E+04   -0.45418E+05  2160   0.153E+03
DAV:   2    -0.174527814319E+04   -0.47047E+04   -0.45094E+04  2624   0.298E+02
DAV:   3    -0.199664983284E+04   -0.25137E+03   -0.24893E+03  2592   0.668E+01
DAV:   4    -0.200323423628E+04   -0.65844E+01   -0.65663E+01  2656   0.105E+01
DAV:   5    -0.200340330820E+04   -0.16907E+00   -0.16875E+00  2592   0.169E+00    0.579E+01
DAV:   6    -0.195172627765E+04    0.51677E+02   -0.40502E+01  2488   0.841E+00    0.344E+01
DAV:   7    -0.193462240263E+04    0.17104E+02   -0.47342E+01  2496   0.911E+00    0.813E+00
DAV:   8    -0.193493095304E+04   -0.30855E+00   -0.21214E+00  2600   0.197E+00    0.422E+00
DAV:   9    -0.193493847229E+04   -0.75193E-02   -0.26570E-01  2568   0.889E-01    0.106E+00
DAV:  10    -0.193494216050E+04   -0.36882E-02   -0.57799E-02  2552   0.368E-01    0.432E-01
DAV:  11    -0.193494214440E+04    0.16101E-04   -0.61008E-03  2608   0.124E-01    0.147E-01
DAV:  12    -0.193494267293E+04   -0.52853E-03   -0.14057E-03  2592   0.647E-02    0.742E-02
DAV:  13    -0.193494293675E+04   -0.26382E-03   -0.33590E-04  2616   0.320E-02    0.382E-02
DAV:  14    -0.193494302814E+04   -0.91395E-04   -0.79278E-05  2600   0.160E-02    0.173E-02
DAV:  15    -0.193494303903E+04   -0.10891E-04   -0.14750E-05  2472   0.677E-03    0.725E-03
DAV:  16    -0.193494303918E+04   -0.14524E-06   -0.27716E-06  1928   0.286E-03
   1 F= -.19349430E+04 E0= -.19349430E+04  d E =-.820452E-19  mag=     2.0000
