/var/spool/slurmd/job07664/slurm_script: line 11: !#SBATCH: command not found
real-time non-blocking time  (microseconds, -R) unlimited
core file size              (blocks, -c) unlimited
data seg size               (kbytes, -d) unlimited
scheduling priority                 (-e) 0
file size                   (blocks, -f) unlimited
pending signals                     (-i) 505933
max locked memory           (kbytes, -l) unlimited
max memory size             (kbytes, -m) 114688000
open files                          (-n) 1024
pipe size                (512 bytes, -p) 8
POSIX message queues         (bytes, -q) 819200
real-time priority                  (-r) 0
stack size                  (kbytes, -s) unlimited
cpu time                   (seconds, -t) unlimited
max user processes                  (-u) 125621
virtual memory              (kbytes, -v) unlimited
file locks                          (-x) unlimited
 running   28 mpi-ranks, with    1 threads/rank, on    1 nodes
 distrk:  each k-point on   28 cores,    1 groups
 distr:  one band on    7 cores,    4 groups
 vasp.6.5.1 10Mar25 (build Feb 13 2026 23:13:13) complex                        
  
 POSCAR found type information on POSCAR C N 
 POSCAR found :  2 types and     215 ions
 -----------------------------------------------------------------------------
|                                                                             |
|           W    W    AA    RRRRR   N    N  II  N    N   GGGG   !!!           |
|           W    W   A  A   R    R  NN   N  II  NN   N  G    G  !!!           |
|           W    W  A    A  R    R  N N  N  II  N N  N  G       !!!           |
|           W WW W  AAAAAA  RRRRR   N  N N  II  N  N N  G  GGG   !            |
|           WW  WW  A    A  R   R   N   NN  II  N   NN  G    G                |
|           W    W  A    A  R    R  N    N  II  N    N   GGGG   !!!           |
|                                                                             |
|     You requested a magnetic or noncollinear calculation, but did not       |
|     specify the initial magnetic moment with the MAGMOM tag. Note that      |
|     a default of 9.302e-3 will be used for all atoms. This                  |
|     ferromagnetic setup may break the symmetry of the crystal, in           |
|     particular it may rule out finding an antiferromagnetic solution.       |
|     Thence, we recommend setting the initial magnetic moment manually       |
|     or verifying carefully that this magnetic setup is desired.             |
|                                                                             |
 -----------------------------------------------------------------------------

 scaLAPACK will be used
 LDA part: xc-table for (Slater+PW92), standard interpolation
 POSCAR, INCAR and KPOINTS ok, starting setup
 FFT: planning ... GRIDC
 FFT: planning ... GRID_SOFT
 FFT: planning ... GRID
 WAVECAR not read
 entering main loop
       N       E                     dE             d eps       ncg     rms          rms(c)
DAV:   1     0.295937434716E+04    0.29594E+04   -0.45418E+05  2160   0.153E+03
DAV:   2    -0.174527814319E+04   -0.47047E+04   -0.45094E+04  2624   0.298E+02
DAV:   3    -0.199664983284E+04   -0.25137E+03   -0.24893E+03  2592   0.668E+01
DAV:   4    -0.200323423628E+04   -0.65844E+01   -0.65663E+01  2656   0.105E+01
DAV:   5    -0.200340330820E+04   -0.16907E+00   -0.16875E+00  2592   0.169E+00BRMIX: very serious problems
 the old and the new charge density differ
 old charge density:   861.00000 new  861.99988
    0.579E+01
DAV:   6    -0.195172627765E+04    0.51677E+02   -0.40502E+01  2488   0.841E+00    0.344E+01
DAV:   7    -0.193462240263E+04    0.17104E+02   -0.47342E+01  2496   0.911E+00    0.813E+00
DAV:   8    -0.193493095304E+04   -0.30855E+00   -0.21214E+00  2600   0.197E+00    0.422E+00
DAV:   9    -0.193493847229E+04   -0.75193E-02   -0.26570E-01  2568   0.889E-01    0.106E+00
DAV:  10    -0.193494216050E+04   -0.36882E-02   -0.57799E-02  2552   0.368E-01    0.432E-01
DAV:  11    -0.193494214440E+04    0.16101E-04   -0.61008E-03  2608   0.124E-01    0.147E-01
DAV:  12    -0.193494267293E+04   -0.52853E-03   -0.14057E-03  2592   0.647E-02    0.742E-02
DAV:  13    -0.193494293675E+04   -0.26382E-03   -0.33590E-04  2616   0.320E-02    0.382E-02
DAV:  14    -0.193494302814E+04   -0.91395E-04   -0.79278E-05  2600   0.160E-02    0.173E-02
DAV:  15    -0.193494303903E+04   -0.10891E-04   -0.14750E-05  2472   0.677E-03    0.725E-03
DAV:  16    -0.193494303918E+04   -0.14524E-06   -0.27716E-06  1928   0.286E-03
   1 F= -.19349430E+04 E0= -.19349430E+04  d E =-.820452E-19  mag=     2.0000
