
     Program PWSCF v.7.4.1 starts on 27Jul2026 at 20:32:13 

     This program is part of the open-source Quantum ESPRESSO suite
     for quantum simulation of materials; please cite
         "P. Giannozzi et al., J. Phys.:Condens. Matter 21 395502 (2009);
         "P. Giannozzi et al., J. Phys.:Condens. Matter 29 465901 (2017);
         "P. Giannozzi et al., J. Chem. Phys. 152 154105 (2020);
          URL http://www.quantum-espresso.org", 
     in publications or presentations arising from this work. More details at
     http://www.quantum-espresso.org/quote

     Parallel version (MPI), running on    28 processors

     MPI processes distributed on     1 nodes
     106753 MiB available memory on the printing compute node when the environment starts
 
     Reading input from diamond_scf.in

     Current dimensions of program PWSCF are:
     Max number of different atomic species (ntypx) = 10
     Max number of k-points (npk) =  40000
     Max angular momentum in pseudopotentials (lmaxx) =  4
     file C.pbe-n-kjpaw_psl.1.0.0.UPF: wavefunction(s)  2S 2P renormalized

     IMPORTANT: XC functional enforced from input :
     Exchange-correlation= HSE
                           (   1   4  12   4   0   0   0)
     EXX-fraction              =        0.25
     Any further DFT definition will be discarded
     Please, verify this is what you really want

     EXX fraction changed:   0.25
     EXX Screening parameter changed:    0.2000000
     Message from routine setup :
     BEWARE: nonlinear core correction is not consistent with hybrid XC
 
     R & G space division:  proc/nbgrp/npool/nimage =      28
     WARNING: too many processors for an effective parallelization!
     wavefunctions fft division:  task group distribution
                                  #TG    x Z-proc =       7      4
     Subspace diagonalization in iterative solution of the eigenvalue problem:
     a serial algorithm will be used

     EXX: q-point mesh:     2    2    2
     EXX: setup a grid of 512 q-points centered on each k-point
     (set verbosity='high' to see the list)
 
     Parallelization info
     --------------------
     sticks:   dense  smooth     PW     G-vecs:    dense   smooth      PW
     Min          10      10      3                  110      110      23
     Max          11      11      4                  113      113      27
     Sum         283     283    109                 3119     3119     701
 
     Using Pencil Decomposition
 


     bravais-lattice index     =            0
     lattice parameter (alat)  =       4.7733  a.u.
     unit-cell volume          =      76.9035 (a.u.)^3
     number of atoms/cell      =            2
     number of atomic types    =            1
     number of electrons       =         8.00
     number of Kohn-Sham states=            8
     kinetic-energy cutoff     =      45.0000  Ry
     charge density cutoff     =     180.0000  Ry
     cutoff for Fock operator  =     180.0000  Ry
     scf convergence threshold =      1.0E-08
     mixing beta               =       0.7000
     number of iterations used =            8  plain     mixing
     Exchange-correlation= HSE
                           (   1   4  12   4   0   0   0)
     EXX-fraction              =        0.25

     celldm(1)=   4.773317  celldm(2)=   0.000000  celldm(3)=   0.000000
     celldm(4)=   0.000000  celldm(5)=   0.000000  celldm(6)=   0.000000

     crystal axes: (cart. coord. in units of alat)
               a(1) = (  -0.707107   0.000000   0.707107 )  
               a(2) = (   0.000000   0.707107   0.707107 )  
               a(3) = (  -0.707107   0.707107   0.000000 )  

     reciprocal axes: (cart. coord. in units 2 pi/alat)
               b(1) = ( -0.707107 -0.707107  0.707107 )  
               b(2) = (  0.707107  0.707107  0.707107 )  
               b(3) = ( -0.707107  0.707107 -0.707107 )  


     PseudoPot. # 1 for C  read from file:
     ../pseudos/C.pbe-n-kjpaw_psl.1.0.0.UPF
     MD5 check sum: 5f16ad9a65e90284d1d834d4ab3b0f7d
     Pseudo is Projector augmented-wave + core cor, Zval =  4.0
     Generated using &quot;atomic&quot; code by A. Dal Corso  v.6.3
     Shape of augmentation charge: PSQ
     Using radial grid of 1073 points,  4 beta functions with: 
                l(1) =   0
                l(2) =   0
                l(3) =   1
                l(4) =   1
     Q(r) pseudized with 0 coefficients 


     atomic species   valence    mass     pseudopotential
     C                 4.00    12.01070     C ( 1.00)

     No symmetry found



   Cartesian axes

     site n.     atom                  positions (alat units)
         1        C      tau(   1) = (   0.0000000   0.0000000   0.0000000  )
         2        C      tau(   2) = (  -0.3541036   0.3541036   0.3541036  )

     number of k points=   512

     Number of k-points >= 100: set verbosity='high' to print them.

     Dense  grid:     3119 G-vectors     FFT dimensions: (  24,  24,  24)

     Estimated max dynamical RAM per process >      16.50 MB

     Estimated total dynamical RAM >     461.87 MB
     EXX: ACE will be initialized later

     Check: negative core charge=   -0.000077

     Initial potential from superposition of free atoms

     starting charge       7.9999, renormalised to       8.0000
     Starting wfcs are random

     total cpu time spent up to now is        0.5 secs

     per-process dynamical memory:    25.4 Mb

     Self-consistent Calculation

     iteration #  1     ecut=    45.00 Ry     beta= 0.70
     Davidson diagonalization with overlap
     ethr =  1.00E-02,  avg # of iterations =  7.4

     total cpu time spent up to now is        3.2 secs

     total energy              =     -36.85859333 Ry
     estimated scf accuracy    <       0.11546876 Ry

     iteration #  2     ecut=    45.00 Ry     beta= 0.70
     Davidson diagonalization with overlap
     ethr =  1.44E-03,  avg # of iterations =  1.0

     total cpu time spent up to now is        4.1 secs

     total energy              =     -36.86670967 Ry
     estimated scf accuracy    <       0.00247569 Ry

     iteration #  3     ecut=    45.00 Ry     beta= 0.70
     Davidson diagonalization with overlap
     ethr =  3.09E-05,  avg # of iterations =  2.3

     total cpu time spent up to now is        5.4 secs

     total energy              =     -36.86712571 Ry
     estimated scf accuracy    <       0.00006659 Ry

     iteration #  4     ecut=    45.00 Ry     beta= 0.70
     Davidson diagonalization with overlap
     ethr =  8.32E-07,  avg # of iterations =  2.3

     total cpu time spent up to now is        6.5 secs

     total energy              =     -36.86713154 Ry
     estimated scf accuracy    <       0.00000964 Ry

     iteration #  5     ecut=    45.00 Ry     beta= 0.70
     Davidson diagonalization with overlap
     ethr =  1.21E-07,  avg # of iterations =  1.0

     total cpu time spent up to now is        7.4 secs

     total energy              =     -36.86713353 Ry
     estimated scf accuracy    <       0.00000017 Ry

     iteration #  6     ecut=    45.00 Ry     beta= 0.70
     Davidson diagonalization with overlap
     ethr =  2.14E-09,  avg # of iterations =  2.0

     total cpu time spent up to now is        8.5 secs

     End of self-consistent calculation

     Number of k-points >= 100: set verbosity='high' to print the bands.

     highest occupied, lowest unoccupied level (ev):    13.31257187   17.40870396

!    total energy              =     -36.86713357 Ry
     estimated scf accuracy    <          7.5E-09 Ry

     convergence has been achieved in   6 iterations

     Using ACE for calculation of exact exchange

     EXX grid:     3119 G-vectors     FFT dimensions: (  24,  24,  24)
     ACE projected onto     8 (nbndproj) and applied to     8 (nbnd) bands

     EXX: now go back to refine exchange calculation

     total cpu time spent up to now is       54.9 secs

     per-process dynamical memory:    74.0 Mb

     Self-consistent Calculation

     iteration #  1     ecut=    45.00 Ry     beta= 0.70
     Davidson diagonalization with overlap
     ethr =  2.14E-09,  avg # of iterations =  5.7

     total cpu time spent up to now is       57.3 secs

     total energy              =     -33.57197181 Ry
     estimated scf accuracy    <       0.00028931 Ry

     iteration #  2     ecut=    45.00 Ry     beta= 0.70
     Davidson diagonalization with overlap
     ethr =  3.62E-06,  avg # of iterations =  3.7

     total cpu time spent up to now is       59.1 secs

     total energy              =     -33.45990480 Ry
     estimated scf accuracy    <       0.00053046 Ry

     iteration #  3     ecut=    45.00 Ry     beta= 0.70
     Davidson diagonalization with overlap
     ethr =  3.62E-06,  avg # of iterations =  2.0

     total cpu time spent up to now is       60.4 secs

     total energy              =     -33.45815323 Ry
     estimated scf accuracy    <       0.00270158 Ry

     iteration #  4     ecut=    45.00 Ry     beta= 0.70
     Davidson diagonalization with overlap
     ethr =  3.62E-06,  avg # of iterations =  2.1

     total cpu time spent up to now is       61.8 secs

     total energy              =     -33.45855247 Ry
     estimated scf accuracy    <       0.00004006 Ry

     iteration #  5     ecut=    45.00 Ry     beta= 0.70
     Davidson diagonalization with overlap
     ethr =  5.01E-07,  avg # of iterations =  1.0

     total cpu time spent up to now is       62.7 secs

     total energy              =     -33.45855550 Ry
     estimated scf accuracy    <       0.00000023 Ry

     iteration #  6     ecut=    45.00 Ry     beta= 0.70
     Davidson diagonalization with overlap
     ethr =  2.92E-09,  avg # of iterations =  2.0

     total cpu time spent up to now is       63.9 secs

     total energy              =     -33.45855560 Ry
     estimated scf accuracy    <       0.00000002 Ry

     iteration #  7     ecut=    45.00 Ry     beta= 0.70
     Davidson diagonalization with overlap
     ethr =  2.38E-10,  avg # of iterations =  2.2

     total cpu time spent up to now is       65.1 secs

     total energy              =     -33.45855553 Ry
     estimated scf accuracy    <       0.00000016 Ry

     iteration #  8     ecut=    45.00 Ry     beta= 0.70
     Davidson diagonalization with overlap
     ethr =  2.38E-10,  avg # of iterations =  2.0

     total cpu time spent up to now is       66.2 secs

     End of self-consistent calculation

     Number of k-points >= 100: set verbosity='high' to print the bands.

     highest occupied, lowest unoccupied level (ev):    12.84094889   18.07496111

!    total energy              =     -33.45855555 Ry
     estimated scf accuracy    <          4.1E-12 Ry

     convergence has been achieved in   8 iterations

     Using ACE for calculation of exact exchange
     ACE projected onto     8 (nbndproj) and applied to     8 (nbnd) bands

     total energy              =     -33.45882463 Ry
     Harris-Foulkes estimate   =     -33.45882463 Ry
     est. exchange err (dexx)  =       0.00026909 Ry
     - averaged Fock potential =       2.30650144 Ry
     + Fock energy (ACE)       =      -1.15303153 Ry

     EXX: now go back to refine exchange calculation

     total cpu time spent up to now is      112.5 secs

     per-process dynamical memory:    74.9 Mb

     Self-consistent Calculation

     iteration #  1     ecut=    45.00 Ry     beta= 0.70
     Davidson diagonalization with overlap
     ethr =  2.38E-10,  avg # of iterations =  5.0

     total cpu time spent up to now is      114.4 secs

     total energy              =     -33.45884043 Ry
     estimated scf accuracy    <       0.00000483 Ry

     iteration #  2     ecut=    45.00 Ry     beta= 0.70
     Davidson diagonalization with overlap
     ethr =  6.04E-08,  avg # of iterations =  1.0

     total cpu time spent up to now is      115.4 secs

     total energy              =     -33.45884086 Ry
     estimated scf accuracy    <       0.00000008 Ry

     iteration #  3     ecut=    45.00 Ry     beta= 0.70
     Davidson diagonalization with overlap
     ethr =  1.01E-09,  avg # of iterations =  2.0

     total cpu time spent up to now is      116.5 secs

     End of self-consistent calculation

     Number of k-points >= 100: set verbosity='high' to print the bands.

     highest occupied, lowest unoccupied level (ev):    12.82586805   18.08126089

!    total energy              =     -33.45884088 Ry
     estimated scf accuracy    <          2.5E-09 Ry

     convergence has been achieved in   3 iterations

     Using ACE for calculation of exact exchange
     ACE projected onto     8 (nbndproj) and applied to     8 (nbnd) bands

     total energy              =     -33.45884194 Ry
     Harris-Foulkes estimate   =     -33.45884194 Ry
     est. exchange err (dexx)  =       0.00000106 Ry
     - averaged Fock potential =       2.30598937 Ry
     + Fock energy (ACE)       =      -1.15295889 Ry

     EXX: now go back to refine exchange calculation

     total cpu time spent up to now is      162.6 secs

     per-process dynamical memory:    74.9 Mb

     Self-consistent Calculation

     iteration #  1     ecut=    45.00 Ry     beta= 0.70
     Davidson diagonalization with overlap
     ethr =  1.01E-09,  avg # of iterations =  2.0

     total cpu time spent up to now is      163.8 secs

     total energy              =     -33.45884201 Ry
     estimated scf accuracy    <       0.00000002 Ry

     iteration #  2     ecut=    45.00 Ry     beta= 0.70
     Davidson diagonalization with overlap
     ethr =  2.33E-10,  avg # of iterations =  1.0

     total cpu time spent up to now is      164.7 secs

     End of self-consistent calculation

     Number of k-points >= 100: set verbosity='high' to print the bands.

     highest occupied, lowest unoccupied level (ev):    12.82469625   18.08184594

!    total energy              =     -33.45884201 Ry
     estimated scf accuracy    <          4.0E-10 Ry

     convergence has been achieved in   2 iterations

     Using ACE for calculation of exact exchange
     ACE projected onto     8 (nbndproj) and applied to     8 (nbnd) bands

!!   total energy              =     -33.45884201 Ry
     Harris-Foulkes estimate   =     -33.45884201 Ry
     est. exchange err (dexx)  =          5.4E-09 Ry
     - averaged Fock potential =       2.30590993 Ry
     + Fock energy (ACE)       =      -1.15295105 Ry

     EXX self-consistency reached

     Forces acting on atoms (cartesian axes, Ry/au):

     atom    1 type  1   force =    -0.00208669    0.00208669    0.00208669
     atom    2 type  1   force =     0.00208669   -0.00208669   -0.00208669

     Total force =     0.005111     Total SCF correction =     0.000000


     Computing stress (Cartesian axis) and pressure

     Message from routine exx_stress:
     USPP stress not tested
          total   stress  (Ry/bohr**3)                   (kbar)     P=      164.50
   0.00111827   0.00000560   0.00000560          164.50        0.82        0.82
   0.00000560   0.00111827  -0.00000560            0.82      164.50       -0.82
   0.00000560  -0.00000560   0.00111827            0.82       -0.82      164.50


     Writing all to output data dir ./tmp/diamond-HSE06.save/ :
     XML data file, charge density
     init_run     :      0.29s CPU      0.36s WALL (       1 calls)
     electrons    :     21.16s CPU     25.49s WALL (       4 calls)
     forces       :      0.03s CPU      0.04s WALL (       1 calls)
     stress       :      4.82s CPU      5.56s WALL (       1 calls)

     Called by init_run:
     aceinit0     :      0.00s CPU      0.00s WALL (       1 calls)
     wfcinit      :      0.28s CPU      0.34s WALL (       1 calls)
     potinit      :      0.01s CPU      0.01s WALL (       1 calls)
     hinit0       :      0.01s CPU      0.01s WALL (       1 calls)

     Called by electrons:
     c_bands      :     18.53s CPU     22.24s WALL (      19 calls)
     sum_band     :      2.44s CPU      3.00s WALL (      19 calls)
     v_of_rho     :      0.01s CPU      0.01s WALL (      21 calls)
     newd         :      0.01s CPU      0.01s WALL (      20 calls)
     PAW_pot      :      0.19s CPU      0.21s WALL (      21 calls)
     mix_rho      :      0.00s CPU      0.00s WALL (      19 calls)

     Called by c_bands:
     init_us_2    :      0.18s CPU      0.21s WALL (   39424 calls)
     cegterg      :     18.16s CPU     21.80s WALL (    9728 calls)

     Called by *egterg:
     cdiaghg      :      2.71s CPU      3.20s WALL (   32699 calls)
     h_psi        :     13.87s CPU     16.70s WALL (   34747 calls)
     s_psi        :      0.13s CPU      0.16s WALL (   34747 calls)
     g_psi        :      0.04s CPU      0.05s WALL (   24507 calls)

     Called by h_psi:
     h_psi:calbec :      0.52s CPU      0.63s WALL (   34747 calls)
     vloc_psi     :     12.49s CPU     15.04s WALL (   34747 calls)
     vloc_psi:tg_ :      0.07s CPU      0.09s WALL (   34747 calls)
     add_vuspsi   :      0.15s CPU      0.19s WALL (   34747 calls)

     General routines
     calbec       :      0.92s CPU      1.11s WALL (   87380 calls)
     fft          :      0.01s CPU      0.01s WALL (     250 calls)
     ffts         :      0.00s CPU      0.00s WALL (      19 calls)
     fftw         :     13.38s CPU     16.15s WALL (  544978 calls)
     fftc         :     61.95s CPU     67.56s WALL ( 2228224 calls)
     fftcw        :      1.86s CPU      2.11s WALL (   81920 calls)
 
     Parallel routines
     fft_scatt_xy :      5.35s CPU      5.93s WALL ( 2855391 calls)
     fft_scatt_yz :     53.04s CPU     58.89s WALL ( 2855391 calls)
     fft_scatt_tg :      1.33s CPU      1.62s WALL (  544978 calls)

     EXX routines
     exx_grid     :      0.03s CPU      0.03s WALL (       1 calls)
     exxinit      :      2.60s CPU      2.78s WALL (       4 calls)
     vexx         :    166.87s CPU    181.76s WALL (    2048 calls)
     matcalc      :      0.37s CPU      0.45s WALL (   32153 calls)
     aceupdate    :      0.02s CPU      0.02s WALL (    2048 calls)
     vexxace      :      0.47s CPU      0.58s WALL (   26521 calls)
     aceinit      :    166.94s CPU    181.84s WALL (    2048 calls)

     EXX+US  routines
     becxx        :      0.01s CPU      0.01s WALL (       4 calls)
     addusxx      :     32.08s CPU     35.23s WALL ( 1048576 calls)
     newdxx       :     33.22s CPU     36.16s WALL ( 1048576 calls)
     qvan_init    :      0.85s CPU      0.93s WALL (   16384 calls)
     nlxx_pot     :      0.14s CPU      0.16s WALL (   16384 calls)

     EXX+PAW routines
     PAW_newdxx   :     28.80s CPU     31.34s WALL ( 1048576 calls)
 
     PWSCF        :   3m16.11s CPU   3m36.46s WALL

 
   This run was terminated on:  20:35:49  27Jul2026            

=------------------------------------------------------------------------------=
   JOB DONE.
=------------------------------------------------------------------------------=
