  215  215  200    2
  0.5731707E+01  0.1072114E-08  0.1072114E-08  0.1072114E-08  0.5000000E-15
  1.000000000000000E-004
  CAR 
 unknown system                          
    862      1    648
 
  0.1276756E-14  0.1276756E-14  0.1276756E-14  0.1000000E+01
      1        -11.879724      -11.874566   1.000000   1.000000
      2        -11.066997      -11.063889   1.000000   1.000000
      3        -10.871141      -10.868517   1.000000   1.000000
      4        -10.871141      -10.868517   1.000000   1.000000
      5        -10.828377      -10.821352   1.000000   1.000000
      6        -10.828377      -10.821352   1.000000   1.000000
      7        -10.746674      -10.735436   1.000000   1.000000
      8        -10.227136      -10.223746   1.000000   1.000000
      9         -9.871790       -9.869623   1.000000   1.000000
     10         -9.871790       -9.869623   1.000000   1.000000
     11         -9.863504       -9.861311   1.000000   1.000000
     12         -9.863504       -9.861311   1.000000   1.000000
     13         -9.849377       -9.844976   1.000000   1.000000
     14         -9.825968       -9.819537   1.000000   1.000000
     15         -9.825968       -9.819537   1.000000   1.000000
     16         -9.814373       -9.811183   1.000000   1.000000
     17         -9.772736       -9.756555   1.000000   1.000000
     18         -9.772736       -9.756555   1.000000   1.000000
     19         -9.602602       -9.580577   1.000000   1.000000
     20         -9.109373       -9.104645   1.000000   1.000000
     21         -8.849035       -8.844294   1.000000   1.000000
     22         -8.844647       -8.838398   1.000000   1.000000
     23         -8.844647       -8.838398   1.000000   1.000000
     24         -8.820903       -8.814467   1.000000   1.000000
     25         -8.819999       -8.804947   1.000000   1.000000
     26         -8.819999       -8.804947   1.000000   1.000000
     27         -8.660057       -8.636697   1.000000   1.000000
     28         -8.053874       -8.041909   1.000000   1.000000
     29         -7.858500       -7.853075   1.000000   1.000000
     30         -7.858499       -7.853075   1.000000   1.000000
     31         -7.837367       -7.827679   1.000000   1.000000
     32         -7.837367       -7.827679   1.000000   1.000000
     33         -7.780026       -7.772385   1.000000   1.000000
     34         -7.465607       -7.453514   1.000000   1.000000
     35         -6.971884       -6.968448   1.000000   1.000000
     36         -6.971884       -6.968448   1.000000   1.000000
     37         -6.962255       -6.959588   1.000000   1.000000
     38         -6.962255       -6.959588   1.000000   1.000000
     39         -6.960195       -6.959280   1.000000   1.000000
     40         -6.947546       -6.944426   1.000000   1.000000
     41         -6.947321       -6.943573   1.000000   1.000000
     42         -6.947321       -6.943573   1.000000   1.000000
     43         -6.935074       -6.933628   1.000000   1.000000
     44         -6.928949       -6.926673   1.000000   1.000000
     45         -6.928949       -6.926673   1.000000   1.000000
     46         -6.923177       -6.919047   1.000000   1.000000
     47         -6.923177       -6.919047   1.000000   1.000000
     48         -6.920708       -6.918305   1.000000   1.000000
     49         -6.895965       -6.884359   1.000000   1.000000
     50         -6.895965       -6.884359   1.000000   1.000000
     51         -6.884016       -6.873249   1.000000   1.000000
     52         -6.881793       -6.871215   1.000000   1.000000
     53         -6.881793       -6.871215   1.000000   1.000000
     54         -6.857158       -6.854145   1.000000   1.000000
     55         -6.797953       -6.772530   1.000000   1.000000
     56         -6.797953       -6.772530   1.000000   1.000000
     57         -6.622853       -6.610732   1.000000   1.000000
     58         -6.426405       -6.422858   1.000000   1.000000
     59         -6.203975       -6.201964   1.000000   1.000000
     60         -6.203975       -6.201964   1.000000   1.000000
     61         -6.173102       -6.168623   1.000000   1.000000
     62         -6.173102       -6.168623   1.000000   1.000000
     63         -6.170357       -6.167822   1.000000   1.000000
     64         -6.162613       -6.160161   1.000000   1.000000
     65         -6.153685       -6.148299   1.000000   1.000000
     66         -6.153685       -6.148299   1.000000   1.000000
     67         -6.148119       -6.139238   1.000000   1.000000
     68         -6.142271       -6.137820   1.000000   1.000000
     69         -6.142271       -6.137820   1.000000   1.000000
     70         -6.118961       -6.112289   1.000000   1.000000
     71         -6.117052       -6.112289   1.000000   1.000000
     72         -6.117052       -6.111683   1.000000   1.000000
     73         -6.095711       -6.091417   1.000000   1.000000
     74         -6.095711       -6.091417   1.000000   1.000000
     75         -6.066196       -6.053138   1.000000   1.000000
     76         -6.066196       -6.053138   1.000000   1.000000
     77         -6.062113       -6.051100   1.000000   1.000000
     78         -6.028379       -6.019425   1.000000   1.000000
     79         -5.923832       -5.860274   1.000000   1.000000
     80         -5.923832       -5.860274   1.000000   1.000000
     81         -5.253886       -5.194153   1.000000   1.000000
     82         -4.666161       -4.658503   1.000000   1.000000
     83         -4.500010       -4.496066   1.000000   1.000000
     84         -4.500010       -4.496066   1.000000   1.000000
     85         -4.463240       -4.454088   1.000000   1.000000
     86         -4.463240       -4.454088   1.000000   1.000000
     87         -4.454306       -4.449989   1.000000   1.000000
     88         -4.452952       -4.446518   1.000000   1.000000
     89         -4.452952       -4.446518   1.000000   1.000000
     90         -4.442202       -4.436335   1.000000   1.000000
     91         -4.399687       -4.368525   1.000000   1.000000
     92         -4.399687       -4.368525   1.000000   1.000000
     93         -4.051578       -3.992804   1.000000   1.000000
     94         -3.248763       -3.236622   1.000000   1.000000
     95         -3.197857       -3.194319   1.000000   1.000000
     96         -3.197857       -3.194319   1.000000   1.000000
     97         -3.172184       -3.164918   1.000000   1.000000
     98         -3.172184       -3.164918   1.000000   1.000000
     99         -3.131889       -3.125026   1.000000   1.000000
    100         -2.920823       -2.901366   1.000000   1.000000
    101         -2.746756       -2.743764   1.000000   1.000000
    102         -2.746756       -2.743764   1.000000   1.000000
    103         -2.704789       -2.704297   1.000000   1.000000
    104         -2.696597       -2.694701   1.000000   1.000000
    105         -2.696597       -2.694701   1.000000   1.000000
    106         -2.684385       -2.681862   1.000000   1.000000
    107         -2.681187       -2.678451   1.000000   1.000000
    108         -2.681187       -2.678451   1.000000   1.000000
    109         -2.677227       -2.675377   1.000000   1.000000
    110         -2.666662       -2.662761   1.000000   1.000000
    111         -2.666662       -2.662761   1.000000   1.000000
    112         -2.652315       -2.649080   1.000000   1.000000
    113         -2.652315       -2.649080   1.000000   1.000000
    114         -2.633003       -2.626700   1.000000   1.000000
    115         -2.603405       -2.591378   1.000000   1.000000
    116         -2.590105       -2.580959   1.000000   1.000000
    117         -2.590105       -2.580959   1.000000   1.000000
    118         -2.557883       -2.552829   1.000000   1.000000
    119         -2.556026       -2.548519   1.000000   1.000000
    120         -2.556026       -2.548519   1.000000   1.000000
    121         -2.545093       -2.522903   1.000000   1.000000
    122         -2.545093       -2.522903   1.000000   1.000000
    123         -2.502380       -2.499738   1.000000   1.000000
    124         -2.476918       -2.473403   1.000000   1.000000
    125         -2.476918       -2.473403   1.000000   1.000000
    126         -2.470685       -2.463313   1.000000   1.000000
    127         -2.454883       -2.452250   1.000000   1.000000
    128         -2.454707       -2.450901   1.000000   1.000000
    129         -2.454707       -2.450901   1.000000   1.000000
    130         -2.446288       -2.443756   1.000000   1.000000
    131         -2.443605       -2.437608   1.000000   1.000000
    132         -2.443605       -2.437608   1.000000   1.000000
    133         -2.436335       -2.426065   1.000000   1.000000
    134         -2.421278       -2.416432   1.000000   1.000000
    135         -2.421278       -2.416432   1.000000   1.000000
    136         -2.399492       -2.393942   1.000000   1.000000
    137         -2.399492       -2.393942   1.000000   1.000000
    138         -2.398961       -2.391982   1.000000   1.000000
    139         -2.390414       -2.381686   1.000000   1.000000
    140         -2.390414       -2.381686   1.000000   1.000000
    141         -2.387226       -2.370087   1.000000   1.000000
    142         -2.387226       -2.370087   1.000000   1.000000
    143         -2.376187       -2.343621   1.000000   1.000000
    144         -2.155754       -2.140438   1.000000   1.000000
    145         -2.048598       -1.998456   1.000000   1.000000
    146         -2.048598       -1.998456   1.000000   1.000000
    147         -1.656208       -1.634911   1.000000   1.000000
    148         -1.399838       -1.394218   1.000000   1.000000
    149         -1.399838       -1.394218   1.000000   1.000000
    150         -1.399468       -1.383007   1.000000   1.000000
    151         -1.353713       -1.350992   1.000000   1.000000
    152         -1.351889       -1.348071   1.000000   1.000000
    153         -1.351889       -1.348071   1.000000   1.000000
    154         -1.346173       -1.336339   1.000000   1.000000
    155         -1.323835       -1.318132   1.000000   1.000000
    156         -1.323835       -1.318132   1.000000   1.000000
    157         -1.200356       -1.141186   1.000000   1.000000
    158         -1.200356       -1.141186   1.000000   1.000000
    159         -0.234843       -0.167496   1.000000   1.000000
    160          0.123191        0.128831   1.000000   1.000000
    161          0.123191        0.128831   1.000000   1.000000
    162          0.136813        0.147786   1.000000   1.000000
    163          0.198005        0.199803   1.000000   1.000000
    164          0.203205        0.211177   1.000000   1.000000
    165          0.207485        0.211177   1.000000   1.000000
    166          0.207485        0.211468   1.000000   1.000000
    167          0.212856        0.216409   1.000000   1.000000
    168          0.212870        0.216409   1.000000   1.000000
    169          0.212870        0.220042   1.000000   1.000000
    170          0.220957        0.223676   1.000000   1.000000
    171          0.230179        0.235914   1.000000   1.000000
    172          0.231055        0.235914   1.000000   1.000000
    173          0.231055        0.237736   1.000000   1.000000
    174          0.250556        0.260910   1.000000   1.000000
    175          0.250556        0.260910   1.000000   1.000000
    176          0.370199        0.384998   1.000000   1.000000
    177          0.370199        0.384998   1.000000   1.000000
    178          0.378949        0.390105   1.000000   1.000000
    179          0.401259        0.420745   1.000000   1.000000
    180          0.753863        0.760068   1.000000   1.000000
    181          0.753863        0.760068   1.000000   1.000000
    182          0.775912        0.796445   1.000000   1.000000
    183          0.854143        0.855269   1.000000   1.000000
    184          0.857679        0.860849   1.000000   1.000000
    185          0.862020        0.864271   1.000000   1.000000
    186          0.862020        0.864271   1.000000   1.000000
    187          0.863019        0.869436   1.000000   1.000000
    188          0.863019        0.869436   1.000000   1.000000
    189          0.874000        0.877698   1.000000   1.000000
    190          0.874000        0.877698   1.000000   1.000000
    191          0.877090        0.880543   1.000000   1.000000
    192          0.885071        0.890474   1.000000   1.000000
    193          0.885071        0.890474   1.000000   1.000000
    194          0.888602        0.900930   1.000000   1.000000
    195          0.894429        0.901376   1.000000   1.000000
    196          0.894429        0.901376   1.000000   1.000000
    197          0.910669        0.921260   1.000000   1.000000
    198          0.918360        0.930498   1.000000   1.000000
    199          0.918360        0.930558   1.000000   1.000000
    200          0.920474        0.930558   1.000000   1.000000
    201          1.118669        1.177038   1.000000   1.000000
    202          1.118669        1.177038   1.000000   1.000000
    203          1.656241        1.660590   1.000000   1.000000
    204          1.656241        1.660590   1.000000   1.000000
    205          1.668423        1.682836   1.000000   1.000000
    206          1.722625        1.725064   1.000000   1.000000
    207          1.723775        1.725064   1.000000   1.000000
    208          1.723775        1.725963   1.000000   1.000000
    209          1.727395        1.728728   1.000000   1.000000
    210          1.734034        1.736619   1.000000   1.000000
    211          1.734034        1.736619   1.000000   1.000000
    212          1.745722        1.749635   1.000000   1.000000
    213          1.745722        1.749635   1.000000   1.000000
    214          1.751858        1.754131   1.000000   1.000000
    215          1.764081        1.767304   1.000000   1.000000
    216          1.764081        1.767304   1.000000   1.000000
    217          1.815641        1.822207   1.000000   1.000000
    218          1.815641        1.822207   1.000000   1.000000
    219          1.819184        1.829803   1.000000   1.000000
    220          1.831085        1.838781   1.000000   1.000000
    221          1.838420        1.844640   1.000000   1.000000
    222          1.869515        1.882510   1.000000   1.000000
    223          1.869515        1.882510   1.000000   1.000000
    224          1.935300        1.937959   1.000000   1.000000
    225          1.948451        1.958383   1.000000   1.000000
    226          1.948451        1.958383   1.000000   1.000000
    227          2.012075        2.048024   1.000000   1.000000
    228          2.146196        2.151718   1.000000   1.000000
    229          2.146196        2.151718   1.000000   1.000000
    230          2.226388        2.238166   1.000000   1.000000
    231          2.246077        2.247970   1.000000   1.000000
    232          2.246077        2.247970   1.000000   1.000000
    233          2.259393        2.264340   1.000000   1.000000
    234          2.262095        2.265419   1.000000   1.000000
    235          2.262095        2.265419   1.000000   1.000000
    236          2.268198        2.273627   1.000000   1.000000
    237          2.268198        2.275584   1.000000   1.000000
    238          2.268820        2.275584   1.000000   1.000000
    239          2.275656        2.282529   1.000000   1.000000
    240          2.285810        2.293295   1.000000   1.000000
    241          2.292882        2.297709   1.000000   1.000000
    242          2.292882        2.297709   1.000000   1.000000
    243          2.308939        2.320654   1.000000   1.000000
    244          2.308940        2.320654   1.000000   1.000000
    245          2.312600        2.321357   1.000000   1.000000
    246          2.321798        2.326801   1.000000   1.000000
    247          2.336767        2.348584   1.000000   1.000000
    248          2.336767        2.348584   1.000000   1.000000
    249          2.338592        2.360851   1.000000   1.000000
    250          2.368989        2.385365   1.000000   1.000000
    251          2.368989        2.385365   1.000000   1.000000
    252          2.406958        2.419578   1.000000   1.000000
    253          2.406958        2.419578   1.000000   1.000000
    254          2.702595        2.725084   1.000000   1.000000
    255          2.739482        2.782851   1.000000   1.000000
    256          2.739482        2.782851   1.000000   1.000000
    257          3.252928        3.259338   1.000000   1.000000
    258          3.252928        3.259338   1.000000   1.000000
    259          3.314535        3.323663   1.000000   1.000000
    260          3.332318        3.340108   1.000000   1.000000
    261          3.341548        3.357816   1.000000   1.000000
    262          3.341548        3.357816   1.000000   1.000000
    263          3.436026        3.511343   1.000000   1.000000
    264          3.773322        3.785530   1.000000   1.000000
    265          3.773322        3.785530   1.000000   1.000000
    266          3.851486        3.859548   1.000000   1.000000
    267          3.856885        3.859548   1.000000   1.000000
    268          3.856885        3.859923   1.000000   1.000000
    269          3.871381        3.876101   1.000000   1.000000
    270          3.872734        3.880326   1.000000   1.000000
    271          3.872734        3.880326   1.000000   1.000000
    272          3.897876        3.912435   1.000000   1.000000
    273          3.952741        3.967930   1.000000   1.000000
    274          3.952741        3.967930   1.000000   1.000000
    275          4.121819        4.126182   1.000000   1.000000
    276          4.121819        4.126182   1.000000   1.000000
    277          4.236123        4.251143   1.000000   1.000000
    278          4.262770        4.274135   1.000000   1.000000
    279          4.269124        4.274135   1.000000   1.000000
    280          4.270692        4.274265   1.000000   1.000000
    281          4.270692        4.285428   1.000000   1.000000
    282          4.274569        4.286335   1.000000   1.000000
    283          4.274569        4.286335   1.000000   1.000000
    284          4.302360        4.311609   1.000000   1.000000
    285          4.329699        4.339451   1.000000   1.000000
    286          4.329699        4.339451   1.000000   1.000000
    287          4.335184        4.348209   1.000000   1.000000
    288          4.471698        4.480845   1.000000   1.000000
    289          4.471698        4.480845   1.000000   1.000000
    290          4.492067        4.494691   1.000000   1.000000
    291          4.521420        4.524048   1.000000   1.000000
    292          4.526445        4.528698   1.000000   1.000000
    293          4.526445        4.528698   1.000000   1.000000
    294          4.535097        4.537929   1.000000   1.000000
    295          4.540009        4.542342   1.000000   1.000000
    296          4.540009        4.542342   1.000000   1.000000
    297          4.543494        4.545732   1.000000   1.000000
    298          4.543494        4.545732   1.000000   1.000000
    299          4.554095        4.558201   1.000000   1.000000
    300          4.555840        4.558689   1.000000   1.000000
    301          4.562571        4.565368   1.000000   1.000000
    302          4.562571        4.565368   1.000000   1.000000
    303          4.590132        4.595670   1.000000   1.000000
    304          4.590132        4.595670   1.000000   1.000000
    305          4.599735        4.608208   1.000000   1.000000
    306          4.599735        4.609026   1.000000   1.000000
    307          4.603093        4.609026   1.000000   1.000000
    308          4.609191        4.618385   1.000000   1.000000
    309          4.609191        4.618385   1.000000   1.000000
    310          4.617002        4.621863   1.000000   1.000000
    311          4.668469        4.674064   1.000000   1.000000
    312          4.668469        4.674064   1.000000   1.000000
    313          4.695686        4.702917   1.000000   1.000000
    314          4.719950        4.731062   1.000000   1.000000
    315          4.730042        4.733172   1.000000   1.000000
    316          4.735016        4.736943   1.000000   1.000000
    317          4.735016        4.736943   1.000000   1.000000
    318          4.737394        4.739843   1.000000   1.000000
    319          4.739275        4.741545   1.000000   1.000000
    320          4.739275        4.741545   1.000000   1.000000
    321          4.741786        4.744822   1.000000   1.000000
    322          4.741786        4.744822   1.000000   1.000000
    323          4.749234        4.752920   1.000000   1.000000
    324          4.752279        4.756623   1.000000   1.000000
    325          4.752279        4.756623   1.000000   1.000000
    326          4.754579        4.758957   1.000000   1.000000
    327          4.761508        4.765628   1.000000   1.000000
    328          4.761508        4.765628   1.000000   1.000000
    329          4.764335        4.768223   1.000000   1.000000
    330          4.764335        4.769921   1.000000   1.000000
    331          4.764545        4.769921   1.000000   1.000000
    332          4.774586        4.780840   1.000000   1.000000
    333          4.776762        4.781960   1.000000   1.000000
    334          4.776762        4.781960   1.000000   1.000000
    335          4.781487        4.797402   1.000000   1.000000
    336          4.790649        4.799924   1.000000   1.000000
    337          4.790649        4.801386   1.000000   1.000000
    338          4.792710        4.801386   1.000000   1.000000
    339          4.813618        4.822789   1.000000   1.000000
    340          4.813618        4.822789   1.000000   1.000000
    341          4.821919        4.830223   1.000000   1.000000
    342          4.831612        4.840618   1.000000   1.000000
    343          4.831612        4.840618   1.000000   1.000000
    344          4.849535        4.855580   1.000000   1.000000
    345          4.849535        4.855580   1.000000   1.000000
    346          4.879297        4.894399   1.000000   1.000000
    347          4.883375        4.894399   1.000000   1.000000
    348          4.883375        4.901937   1.000000   1.000000
    349          4.905722        4.922770   1.000000   1.000000
    350          4.935161        4.948266   1.000000   1.000000
    351          4.935161        4.956247   1.000000   1.000000
    352          4.941885        4.956247   1.000000   1.000000
    353          4.954679        4.967281   1.000000   1.000000
    354          5.035687        5.073893   1.000000   1.000000
    355          5.035687        5.073893   1.000000   1.000000
    356          5.313871        5.325277   1.000000   1.000000
    357          5.319542        5.338270   1.000000   1.000000
    358          5.319542        5.338270   1.000000   1.000000
    359          5.493563        5.499066   1.000000   1.000000
    360          5.493563        5.499066   1.000000   1.000000
    361          5.555783        5.558538   1.000000   1.000000
    362          5.557062        5.559412   1.000000   1.000000
    363          5.557062        5.559412   1.000000   1.000000
    364          5.566513        5.568468   1.000000   1.000000
    365          5.591898        5.598540   1.000000   1.000000
    366          5.594552        5.598540   1.000000   1.000000
    367          5.594552        5.598609   1.000000   1.000000
    368          5.599370        5.607624   1.000000   1.000000
    369          5.615145        5.621881   1.000000   1.000000
    370          5.615145        5.621881   1.000000   1.000000
    371          5.624682        5.636496   1.000000   1.000000
    372          5.624682        5.638798   1.000000   1.000000
    373          5.629744        5.638798   1.000000   1.000000
    374          5.632717        5.651039   1.000000   1.000000
    375          5.632717        5.651039   1.000000   1.000000
    376          5.657479        5.663713   1.000000   1.000000
    377          5.693936        5.720057   1.000000   1.000000
    378          5.693936        5.720057   1.000000   1.000000
    379          5.759288        5.793995   1.000000   1.000000
    380          6.420768        6.437178   1.000000   1.000000
    381          6.531745        6.600907   1.000000   1.000000
    382          6.531745        6.600907   1.000000   1.000000
    383          6.854456        6.933425   1.000000   1.000000
    384          6.920008        6.933425   1.000000   1.000000
    385          6.920008        6.974773   1.000000   1.000000
    386          6.972751        6.974773   1.000000   1.000000
    387          6.972751        6.980154   1.000000   1.000000
    388          6.974456        6.983021   1.000000   1.000000
    389          6.993181        6.996250   1.000000   1.000000
    390          6.996347        7.010162   1.000000   1.000000
    391          6.996347        7.010162   1.000000   1.000000
    392          6.998267        7.026415   1.000000   1.000000
    393          7.067778        7.073131   1.000000   1.000000
    394          7.067778        7.073131   1.000000   1.000000
    395          7.077764        7.085843   1.000000   1.000000
    396          7.167258        7.171630   1.000000   1.000000
    397          7.167258        7.171630   1.000000   1.000000
    398          7.225911        7.232299   1.000000   1.000000
    399          7.230303        7.234109   1.000000   1.000000
    400          7.230303        7.234109   1.000000   1.000000
    401          7.236625        7.242439   1.000000   1.000000
    402          7.236625        7.242439   1.000000   1.000000
    403          7.241882        7.254058   1.000000   1.000000
    404          7.241882        7.254058   1.000000   1.000000
    405          7.251613        7.257015   1.000000   1.000000
    406          7.267024        7.279772   1.000000   1.000000
    407          7.267024        7.279772   1.000000   1.000000
    408          7.293040        7.304263   1.000000   1.000000
    409          7.294772        7.308581   1.000000   1.000000
    410          7.294772        7.308581   1.000000   1.000000
    411          7.301063        7.319854   1.000000   1.000000
    412          7.323647        7.330838   1.000000   1.000000
    413          7.323648        7.330838   1.000000   1.000000
    414          7.893690        7.905761   1.000000   1.000000
    415          7.914217        7.943637   1.000000   1.000000
    416          7.914217        7.943637   1.000000   1.000000
    417          8.139322        8.146462   1.000000   1.000000
    418          8.139322        8.146462   1.000000   1.000000
    419          8.152243        8.154068   1.000000   1.000000
    420          8.175907        8.180532   1.000000   1.000000
    421          8.176740        8.181607   1.000000   1.000000
    422          8.176740        8.181607   1.000000   1.000000
    423          8.201401        8.214747   1.000000   1.000000
    424          8.236221        8.253802   1.000000   1.000000
    425          8.237491        8.253802   1.000000   1.000000
    426          8.237491        8.571799   1.000000   1.000000
    427          9.311419        9.424217   1.000000   1.000000
    428          9.401867        9.440205   1.000000   1.000000
    429          9.401867        9.440205   1.000000   1.000000
    430         10.256467       10.786591   1.000000   1.000000
    431         11.409235       12.670888   1.000000   0.000000
    432         11.409235       12.670888   1.000000   0.000000
    433         13.675205       13.679093   0.000000   0.000000
    434         13.675205       13.679093   0.000000   0.000000
    435         13.693420       13.704143   0.000000   0.000000
    436         13.728850       13.740977   0.000000   0.000000
    437         13.728850       13.740977   0.000000   0.000000
    438         13.752229       13.761662   0.000000   0.000000
    439         14.243778       14.248954   0.000000   0.000000
    440         14.309948       14.317874   0.000000   0.000000
    441         14.309948       14.317874   0.000000   0.000000
    442         14.328755       14.335390   0.000000   0.000000
    443         14.328755       14.335390   0.000000   0.000000
    444         14.389462       14.398192   0.000000   0.000000
    445         14.458905       14.463626   0.000000   0.000000
    446         14.458905       14.463626   0.000000   0.000000
    447         14.511584       14.539011   0.000000   0.000000
    448         14.555700       14.573683   0.000000   0.000000
    449         14.555700       14.573683   0.000000   0.000000
    450         14.584949       14.593923   0.000000   0.000000
    451         15.189917       15.209881   0.000000   0.000000
    452         15.189917       15.209881   0.000000   0.000000
    453         15.204537       15.214268   0.000000   0.000000
    454         15.765080       15.773158   0.000000   0.000000
    455         15.843793       15.847085   0.000000   0.000000
    456         15.843793       15.847086   0.000000   0.000000
    457         15.859922       15.862803   0.000000   0.000000
    458         15.892367       15.901754   0.000000   0.000000
    459         15.892367       15.901754   0.000000   0.000000
    460         15.901636       15.907904   0.000000   0.000000
    461         15.901636       15.907904   0.000000   0.000000
    462         15.916008       15.920167   0.000000   0.000000
    463         15.923751       15.928924   0.000000   0.000000
    464         15.923751       15.928924   0.000000   0.000000
    465         15.961107       15.967572   0.000000   0.000000
    466         16.393455       16.397808   0.000000   0.000000
    467         16.558250       16.560975   0.000000   0.000000
    468         16.558250       16.560975   0.000000   0.000000
    469         16.590325       16.592059   0.000000   0.000000
    470         16.591505       16.594567   0.000000   0.000000
    471         16.591505       16.594567   0.000000   0.000000
    472         16.597109       16.599298   0.000000   0.000000
    473         16.598819       16.603866   0.000000   0.000000
    474         16.598819       16.603866   0.000000   0.000000
    475         16.606142       16.612971   0.000000   0.000000
    476         16.606142       16.612971   0.000000   0.000000
    477         16.621236       16.627522   0.000000   0.000000
    478         16.625130       16.630491   0.000000   0.000000
    479         16.625130       16.630491   0.000000   0.000000
    480         16.628639       16.632011   0.000000   0.000000
    481         16.654705       16.660941   0.000000   0.000000
    482         16.655746       16.665344   0.000000   0.000000
    483         16.655746       16.665344   0.000000   0.000000
    484         16.700878       16.708229   0.000000   0.000000
    485         16.700878       16.708229   0.000000   0.000000
    486         16.713276       16.720771   0.000000   0.000000
    487         16.741382       16.748922   0.000000   0.000000
    488         16.741412       16.748922   0.000000   0.000000
    489         16.741412       16.749779   0.000000   0.000000
    490         17.022871       17.027209   0.000000   0.000000
    491         17.037472       17.043368   0.000000   0.000000
    492         17.037472       17.043368   0.000000   0.000000
    493         17.083093       17.084734   0.000000   0.000000
    494         17.085279       17.087456   0.000000   0.000000
    495         17.102182       17.104163   0.000000   0.000000
    496         17.102182       17.104163   0.000000   0.000000
    497         17.106849       17.109790   0.000000   0.000000
    498         17.109832       17.112041   0.000000   0.000000
    499         17.109832       17.112041   0.000000   0.000000
    500         17.121029       17.123438   0.000000   0.000000
    501         17.121029       17.123438   0.000000   0.000000
    502         17.148368       17.150265   0.000000   0.000000
    503         17.159569       17.162954   0.000000   0.000000
    504         17.159569       17.162954   0.000000   0.000000
    505         17.182854       17.186499   0.000000   0.000000
    506         17.182854       17.186499   0.000000   0.000000
    507         17.183487       17.187454   0.000000   0.000000
    508         17.198120       17.202635   0.000000   0.000000
    509         17.198808       17.202635   0.000000   0.000000
    510         17.198808       17.207328   0.000000   0.000000
    511         17.203344       17.207512   0.000000   0.000000
    512         17.227033       17.232555   0.000000   0.000000
    513         17.227033       17.235967   0.000000   0.000000
    514         17.228951       17.235967   0.000000   0.000000
    515         17.238534       17.250620   0.000000   0.000000
    516         17.238534       17.250620   0.000000   0.000000
    517         17.243330       17.260561   0.000000   0.000000
    518         17.243330       17.260561   0.000000   0.000000
    519         17.270803       17.277809   0.000000   0.000000
    520         17.270803       17.277809   0.000000   0.000000
    521         17.277577       17.281466   0.000000   0.000000
    522         17.287906       17.293445   0.000000   0.000000
    523         17.287906       17.293445   0.000000   0.000000
    524         17.298134       17.309895   0.000000   0.000000
    525         17.320428       17.327477   0.000000   0.000000
    526         17.377082       17.389332   0.000000   0.000000
    527         17.391953       17.398293   0.000000   0.000000
    528         17.391953       17.398293   0.000000   0.000000
    529         17.449776       17.457600   0.000000   0.000000
    530         17.449776       17.457600   0.000000   0.000000
    531         17.463886       17.469882   0.000000   0.000000
    532         17.577897       17.582315   0.000000   0.000000
    533         17.661440       17.666817   0.000000   0.000000
    534         17.661440       17.666817   0.000000   0.000000
    535         17.676960       17.681044   0.000000   0.000000
    536         17.705405       17.708941   0.000000   0.000000
    537         17.705405       17.708941   0.000000   0.000000
    538         17.710302       17.715061   0.000000   0.000000
    539         17.713552       17.716965   0.000000   0.000000
    540         17.713552       17.716965   0.000000   0.000000
    541         17.716723       17.719186   0.000000   0.000000
    542         17.725567       17.732420   0.000000   0.000000
    543         17.725567       17.732420   0.000000   0.000000
    544         17.742166       17.747321   0.000000   0.000000
    545         17.742166       17.747321   0.000000   0.000000
    546         17.753107       17.757645   0.000000   0.000000
    547         17.766707       17.773079   0.000000   0.000000
    548         17.766707       17.773079   0.000000   0.000000
    549         17.776860       17.784762   0.000000   0.000000
    550         17.781459       17.786108   0.000000   0.000000
    551         17.781459       17.786108   0.000000   0.000000
    552         17.786303       17.791196   0.000000   0.000000
    553         17.797036       17.806765   0.000000   0.000000
    554         17.797036       17.806765   0.000000   0.000000
    555         17.807695       17.812485   0.000000   0.000000
    556         17.807695       17.812485   0.000000   0.000000
    557         17.810224       17.817192   0.000000   0.000000
    558         17.817686       17.836791   0.000000   0.000000
    559         17.817686       17.836791   0.000000   0.000000
    560         17.835496       17.843090   0.000000   0.000000
    561         17.835496       17.843090   0.000000   0.000000
    562         17.840622       17.852290   0.000000   0.000000
    563         17.843404       17.858511   0.000000   0.000000
    564         17.866620       17.890998   0.000000   0.000000
    565         17.866620       17.890998   0.000000   0.000000
    566         17.885178       17.913437   0.000000   0.000000
    567         17.972434       17.979180   0.000000   0.000000
    568         17.991497       18.004444   0.000000   0.000000
    569         17.991497       18.004444   0.000000   0.000000
    570         18.010948       18.013088   0.000000   0.000000
    571         18.025286       18.029913   0.000000   0.000000
    572         18.025286       18.029913   0.000000   0.000000
    573         18.028019       18.030021   0.000000   0.000000
    574         18.052914       18.061182   0.000000   0.000000
    575         18.052914       18.061182   0.000000   0.000000
    576         18.056619       18.066833   0.000000   0.000000
    577         18.062968       18.071656   0.000000   0.000000
    578         18.062968       18.071656   0.000000   0.000000
    579         18.084805       18.096377   0.000000   0.000000
    580         18.117588       18.121840   0.000000   0.000000
    581         18.117588       18.121840   0.000000   0.000000
    582         18.141195       18.147297   0.000000   0.000000
    583         18.160741       18.182370   0.000000   0.000000
    584         18.183994       18.204498   0.000000   0.000000
    585         18.183994       18.204498   0.000000   0.000000
    586         18.336540       18.349509   0.000000   0.000000
    587         18.336540       18.355187   0.000000   0.000000
    588         18.342104       18.355187   0.000000   0.000000
    589         18.353499       18.376139   0.000000   0.000000
    590         18.353499       18.376139   0.000000   0.000000
    591         18.489520       18.492393   0.000000   0.000000
    592         18.489521       18.492394   0.000000   0.000000
    593         18.493424       18.496204   0.000000   0.000000
    594         18.544676       18.558175   0.000000   0.000000
    595         18.544676       18.558175   0.000000   0.000000
    596         18.571233       18.581044   0.000000   0.000000
    597         18.572281       18.581044   0.000000   0.000000
    598         18.572281       18.581610   0.000000   0.000000
    599         18.576516       18.582579   0.000000   0.000000
    600         18.695663       18.707448   0.000000   0.000000
    601         18.713949       18.723477   0.000000   0.000000
    602         18.713949       18.723477   0.000000   0.000000
    603         18.776637       18.790696   0.000000   0.000000
    604         18.830840       18.838513   0.000000   0.000000
    605         18.830840       18.838513   0.000000   0.000000
    606         18.847356       18.855535   0.000000   0.000000
    607         18.858406       18.862056   0.000000   0.000000
    608         18.858406       18.862056   0.000000   0.000000
    609         19.038961       19.057108   0.000000   0.000000
    610         19.038961       19.083182   0.000000   0.000000
    611         19.039121       19.083182   0.000000   0.000000
    612         19.168781       19.235689   0.000000   0.000000
    613         19.330452       19.349126   0.000000   0.000000
    614         19.330453       19.349126   0.000000   0.000000
    615         19.337907       19.360506   0.000000   0.000000
    616         19.473844       19.479233   0.000000   0.000000
    617         19.473844       19.479233   0.000000   0.000000
    618         19.486615       19.488813   0.000000   0.000000
    619         19.493319       19.495899   0.000000   0.000000
    620         19.493319       19.495899   0.000000   0.000000
    621         19.500937       19.505721   0.000000   0.000000
    622         19.500937       19.505721   0.000000   0.000000
    623         19.511497       19.517666   0.000000   0.000000
    624         19.517466       19.520008   0.000000   0.000000
    625         19.517466       19.520008   0.000000   0.000000
    626         19.519263       19.524306   0.000000   0.000000
    627         19.531301       19.537135   0.000000   0.000000
    628         19.557742       19.570284   0.000000   0.000000
    629         19.578186       19.594049   0.000000   0.000000
    630         19.578186       19.594049   0.000000   0.000000
    631         19.582550       19.604083   0.000000   0.000000
    632         19.638113       19.665162   0.000000   0.000000
    633         19.664959       19.715407   0.000000   0.000000
    634         19.664959       19.715407   0.000000   0.000000
    635         19.717705       19.738915   0.000000   0.000000
    636         19.717705       19.738915   0.000000   0.000000
    637         19.795648       19.811870   0.000000   0.000000
    638         19.815753       19.849926   0.000000   0.000000
    639         19.815753       19.849926   0.000000   0.000000
    640         20.149631       20.152344   0.000000   0.000000
    641         20.160755       20.165141   0.000000   0.000000
    642         20.160776       20.165201   0.000000   0.000000
    643         20.165372       20.171972   0.000000   0.000000
    644         20.178029       20.181661   0.000000   0.000000
    645         20.187291       20.191694   0.000000   0.000000
    646         20.187511       20.193360   0.000000   0.000000
    647         20.204334       20.206366   0.000000   0.000000
    648         20.208752       20.223035   0.000000   0.000000
