       N       E                     dE             d eps       ncg     rms          rms(c)
DAV:   1     0.251333761129E+04    0.25133E+04   -0.44665E+05  2592   0.128E+03
DAV:   2    -0.168321922338E+04   -0.41966E+04   -0.39553E+04  3112   0.266E+02
DAV:   3    -0.190816078791E+04   -0.22494E+03   -0.22243E+03  3360   0.556E+01
DAV:   4    -0.191200012854E+04   -0.38393E+01   -0.38218E+01  3392   0.724E+00
DAV:   5    -0.191207263013E+04   -0.72502E-01   -0.72414E-01  3336   0.995E-01    0.908E+01
DAV:   6    -0.189817641274E+04    0.13896E+02   -0.88802E+01  2992   0.104E+01    0.510E+01
DAV:   7    -0.192910168040E+04   -0.30925E+02   -0.59971E+01  2928   0.840E+00    0.236E+01
DAV:   8    -0.193412515632E+04   -0.50235E+01   -0.92402E+00  3096   0.377E+00    0.714E+00
DAV:   9    -0.193417147725E+04   -0.46321E-01   -0.32159E-01  3120   0.840E-01    0.360E+00
DAV:  10    -0.193414549488E+04    0.25982E-01   -0.20471E-01  3104   0.557E-01    0.624E-01
DAV:  11    -0.193415783917E+04   -0.12344E-01   -0.28131E-02  3104   0.263E-01    0.200E-01
DAV:  12    -0.193415874800E+04   -0.90883E-03   -0.12360E-03  3272   0.591E-02    0.105E-01
DAV:  13    -0.193415930963E+04   -0.56163E-03   -0.58312E-04  3320   0.395E-02    0.525E-02
DAV:  14    -0.193415946574E+04   -0.15611E-03   -0.15135E-04  3048   0.174E-02    0.261E-02
DAV:  15    -0.193415949083E+04   -0.25083E-04   -0.23887E-05  3016   0.698E-03    0.107E-02
DAV:  16    -0.193415949240E+04   -0.15742E-05   -0.46720E-06  2968   0.333E-03    0.393E-03
DAV:  17    -0.193415949237E+04    0.31534E-07   -0.83271E-07  1624   0.143E-03
   1 F= -.19341595E+04 E0= -.19341595E+04  d E =-.193416E+04  mag=     2.0005
       N       E                     dE             d eps       ncg     rms          rms(c)
DAV:   1    -0.193411692139E+04    0.42571E-01   -0.27365E+02  2672   0.171E+01    0.488E+00
DAV:   2    -0.193451721774E+04   -0.40030E+00   -0.54192E+00  3392   0.272E+00    0.241E+00
DAV:   3    -0.193448363325E+04    0.33584E-01   -0.28739E-01  3312   0.641E-01    0.132E+00
DAV:   4    -0.193446658817E+04    0.17045E-01   -0.78890E-02  3232   0.334E-01    0.721E-01
DAV:   5    -0.193446855094E+04   -0.19628E-02   -0.11454E-02  3272   0.131E-01    0.325E-01
DAV:   6    -0.193446852270E+04    0.28237E-04   -0.92362E-04  3392   0.388E-02    0.161E-01
DAV:   7    -0.193446857286E+04   -0.50164E-04   -0.34507E-04  3368   0.316E-02    0.670E-02
DAV:   8    -0.193446857187E+04    0.99246E-06   -0.19178E-04  3304   0.177E-02    0.239E-02
DAV:   9    -0.193446857294E+04   -0.10654E-05   -0.25238E-05  3096   0.554E-03    0.987E-03
DAV:  10    -0.193446857273E+04    0.21030E-06   -0.29269E-06  2744   0.244E-03
   2 F= -.19344686E+04 E0= -.19344686E+04  d E =-.309080E+00  mag=     2.0000
       N       E                     dE             d eps       ncg     rms          rms(c)
DAV:   1    -0.193473864588E+04   -0.27007E+00   -0.46028E+01  2672   0.728E+00    0.152E+00
DAV:   2    -0.193480077925E+04   -0.62133E-01   -0.90441E-01  3384   0.112E+00    0.101E+00
DAV:   3    -0.193479465578E+04    0.61235E-02   -0.44051E-02  3376   0.241E-01    0.669E-01
DAV:   4    -0.193479207601E+04    0.25798E-02   -0.84142E-03  3248   0.110E-01    0.420E-01
DAV:   5    -0.193479197829E+04    0.97717E-04   -0.13931E-03  3288   0.454E-02    0.187E-01
DAV:   6    -0.193479198581E+04   -0.75156E-05   -0.37213E-04  3264   0.248E-02    0.459E-02
DAV:   7    -0.193479200222E+04   -0.16413E-04   -0.10603E-04  3288   0.135E-02    0.231E-02
DAV:   8    -0.193479199922E+04    0.29974E-05   -0.19624E-05  3152   0.574E-03    0.104E-02
DAV:   9    -0.193479199912E+04    0.10431E-06   -0.34755E-06  2600   0.229E-03
   3 F= -.19347920E+04 E0= -.19347920E+04  d E =-.632507E+00  mag=     2.0000
       N       E                     dE             d eps       ncg     rms          rms(c)
DAV:   1    -0.193480372922E+04   -0.11730E-01   -0.67365E+01  2672   0.922E+00    0.176E+00
DAV:   2    -0.193488461538E+04   -0.80886E-01   -0.10444E+00  3392   0.121E+00    0.104E+00
DAV:   3    -0.193488102879E+04    0.35866E-02   -0.54354E-02  3360   0.285E-01    0.563E-01
DAV:   4    -0.193488014386E+04    0.88494E-03   -0.11482E-02  3280   0.138E-01    0.326E-01
DAV:   5    -0.193488033416E+04   -0.19030E-03   -0.13862E-03  3312   0.481E-02    0.165E-01
DAV:   6    -0.193488031270E+04    0.21460E-04   -0.15484E-04  3368   0.206E-02    0.655E-02
DAV:   7    -0.193488034740E+04   -0.34702E-04   -0.10677E-04  3344   0.158E-02    0.258E-02
DAV:   8    -0.193488034681E+04    0.59047E-06   -0.26108E-05  3328   0.673E-03    0.102E-02
DAV:   9    -0.193488034677E+04    0.34561E-07   -0.33411E-06  2184   0.230E-03
   4 F= -.19348803E+04 E0= -.19348803E+04  d E =-.883477E-01  mag=     2.0000
       N       E                     dE             d eps       ncg     rms          rms(c)
DAV:   1    -0.193492226703E+04   -0.41920E-01   -0.97103E+00  2672   0.348E+00    0.695E-01
DAV:   2    -0.193493377043E+04   -0.11503E-01   -0.15362E-01  3384   0.464E-01    0.391E-01
DAV:   3    -0.193493337721E+04    0.39323E-03   -0.83761E-03  3376   0.106E-01    0.254E-01
DAV:   4    -0.193493325429E+04    0.12292E-03   -0.10949E-03  3272   0.429E-02    0.162E-01
DAV:   5    -0.193493325862E+04   -0.43274E-05   -0.19109E-04  3352   0.178E-02    0.768E-02
DAV:   6    -0.193493325857E+04    0.44907E-07   -0.39608E-05  3304   0.866E-03    0.182E-02
DAV:   7    -0.193493326390E+04   -0.53254E-05   -0.14230E-05  3128   0.519E-03    0.827E-03
DAV:   8    -0.193493326341E+04    0.48998E-06   -0.17200E-06  2160   0.206E-03
   5 F= -.19349333E+04 E0= -.19349333E+04  d E =-.141264E+00  mag=     2.0000
       N       E                     dE             d eps       ncg     rms          rms(c)
DAV:   1    -0.193494757773E+04   -0.14314E-01   -0.10230E+01  2656   0.403E+00    0.650E-01
DAV:   2    -0.193496074798E+04   -0.13170E-01   -0.17418E-01  3392   0.504E-01    0.370E-01
DAV:   3    -0.193495989594E+04    0.85204E-03   -0.52321E-03  3376   0.103E-01    0.207E-01
DAV:   4    -0.193495979465E+04    0.10129E-03   -0.14694E-03  3320   0.521E-02    0.994E-02
DAV:   5    -0.193495984506E+04   -0.50409E-04   -0.17752E-04  3208   0.189E-02    0.470E-02
DAV:   6    -0.193495984736E+04   -0.22969E-05   -0.20480E-05  3360   0.626E-03    0.172E-02
DAV:   7    -0.193495984885E+04   -0.14957E-05   -0.67238E-06  3144   0.387E-03    0.764E-03
DAV:   8    -0.193495984882E+04    0.34473E-07   -0.18019E-06  2104   0.205E-03
   6 F= -.19349598E+04 E0= -.19349598E+04  d E =-.265854E-01  mag=     2.0000
       N       E                     dE             d eps       ncg     rms          rms(c)
DAV:   1    -0.193496363848E+04   -0.37896E-02   -0.80654E-01  2656   0.113E+00    0.187E-01
DAV:   2    -0.193496468726E+04   -0.10488E-02   -0.13938E-02  3392   0.142E-01    0.105E-01
DAV:   3    -0.193496462000E+04    0.67260E-04   -0.41290E-04  3368   0.288E-02    0.606E-02
DAV:   4    -0.193496460961E+04    0.10397E-04   -0.11373E-04  3320   0.145E-02    0.300E-02
DAV:   5    -0.193496461360E+04   -0.39958E-05   -0.14183E-05  3240   0.539E-03    0.136E-02
DAV:   6    -0.193496461383E+04   -0.22631E-06   -0.15430E-06  2312   0.173E-03
   7 F= -.19349646E+04 E0= -.19349646E+04  d E =-.313504E-01  mag=     2.0000
       N       E                     dE             d eps       ncg     rms          rms(c)
DAV:   1    -0.193497166348E+04   -0.70499E-02   -0.26938E+00  2648   0.215E+00    0.332E-01
DAV:   2    -0.193497482012E+04   -0.31566E-02   -0.47134E-02  3384   0.264E-01    0.199E-01
DAV:   3    -0.193497441199E+04    0.40813E-03   -0.15073E-03  3376   0.587E-02    0.101E-01
DAV:   4    -0.193497438573E+04    0.26254E-04   -0.44620E-04  3328   0.271E-02    0.436E-02
DAV:   5    -0.193497439036E+04   -0.46263E-05   -0.33755E-05  3248   0.835E-03    0.236E-02
DAV:   6    -0.193497439131E+04   -0.95250E-06   -0.51980E-06  3216   0.341E-03
   8 F= -.19349744E+04 E0= -.19349744E+04  d E =-.977748E-02  mag=     2.0000
       N       E                     dE             d eps       ncg     rms          rms(c)
DAV:   1    -0.193497468991E+04   -0.29956E-03   -0.66567E-02  2720   0.338E-01    0.523E-02
DAV:   2    -0.193497476214E+04   -0.72225E-04   -0.11454E-03  3384   0.413E-02    0.312E-02
DAV:   3    -0.193497475136E+04    0.10782E-04   -0.38154E-05  3376   0.931E-03    0.157E-02
DAV:   4    -0.193497475063E+04    0.72614E-06   -0.11209E-05  3280   0.430E-03    0.717E-03
DAV:   5    -0.193497475073E+04   -0.96363E-07   -0.80902E-07  1792   0.136E-03
   9 F= -.19349748E+04 E0= -.19349748E+04  d E =-.101369E-01  mag=     2.0000
       N       E                     dE             d eps       ncg     rms          rms(c)
DAV:   1    -0.193497883828E+04   -0.40877E-02   -0.11459E+00  2624   0.142E+00    0.201E-01
DAV:   2    -0.193498005990E+04   -0.12216E-02   -0.17915E-02  3376   0.161E-01    0.124E-01
DAV:   3    -0.193497991550E+04    0.14440E-03   -0.53984E-04  3368   0.354E-02    0.590E-02
DAV:   4    -0.193497990900E+04    0.65014E-05   -0.17233E-04  3320   0.172E-02    0.225E-02
DAV:   5    -0.193497991083E+04   -0.18374E-05   -0.15153E-05  3216   0.583E-03    0.130E-02
DAV:   6    -0.193497991131E+04   -0.47764E-06   -0.24227E-06  2512   0.247E-03
  10 F= -.19349799E+04 E0= -.19349799E+04  d E =-.516058E-02  mag=     2.0000
       N       E                     dE             d eps       ncg     rms          rms(c)
DAV:   1    -0.193497992681E+04   -0.15973E-04   -0.50569E-03  2688   0.946E-02    0.135E-02
DAV:   2    -0.193497993305E+04   -0.62379E-05   -0.81851E-05  3376   0.109E-02    0.836E-03
DAV:   3    -0.193497993249E+04    0.55702E-06   -0.20492E-06  2648   0.232E-03
  11 F= -.19349799E+04 E0= -.19349799E+04  d E =-.518176E-02  mag=     2.0000
       N       E                     dE             d eps       ncg     rms          rms(c)
DAV:   1    -0.193498196756E+04   -0.20345E-02   -0.89129E-01  2608   0.125E+00    0.181E-01
DAV:   2    -0.193498287732E+04   -0.90976E-03   -0.14088E-02  3408   0.143E-01    0.114E-01
DAV:   3    -0.193498273388E+04    0.14344E-03   -0.46319E-04  3360   0.317E-02    0.511E-02
DAV:   4    -0.193498272992E+04    0.39673E-05   -0.12105E-04  3312   0.143E-02    0.221E-02
DAV:   5    -0.193498273147E+04   -0.15548E-05   -0.11786E-05  3184   0.465E-03    0.121E-02
DAV:   6    -0.193498273156E+04   -0.89887E-07   -0.11934E-06  1936   0.169E-03
  12 F= -.19349827E+04 E0= -.19349827E+04  d E =-.279907E-02  mag=     2.0000
       N       E                     dE             d eps       ncg     rms          rms(c)
DAV:   1    -0.193498273881E+04   -0.73352E-05   -0.26611E-03  2672   0.682E-02    0.995E-03
DAV:   2    -0.193498274107E+04   -0.22595E-05   -0.40755E-05  3392   0.775E-03    0.623E-03
DAV:   3    -0.193498274056E+04    0.50607E-06   -0.13576E-06  2376   0.178E-03
  13 F= -.19349827E+04 E0= -.19349827E+04  d E =-.280807E-02  mag=     2.0000
       N       E                     dE             d eps       ncg     rms          rms(c)
DAV:   1    -0.193498431251E+04   -0.15714E-02   -0.49779E-01  2608   0.935E-01    0.128E-01
DAV:   2    -0.193498474842E+04   -0.43591E-03   -0.68279E-03  3360   0.978E-02    0.812E-02
DAV:   3    -0.193498468395E+04    0.64465E-04   -0.21199E-04  3304   0.218E-02    0.352E-02
DAV:   4    -0.193498468442E+04   -0.46648E-06   -0.60040E-05  3312   0.101E-02    0.163E-02
DAV:   5    -0.193498468541E+04   -0.99507E-06   -0.51066E-06  2856   0.330E-03
  14 F= -.19349847E+04 E0= -.19349847E+04  d E =-.194485E-02  mag=     2.0000
       N       E                     dE             d eps       ncg     rms          rms(c)
DAV:   1    -0.193498473991E+04   -0.55489E-04   -0.34968E-02  2672   0.248E-01    0.348E-02
DAV:   2    -0.193498477346E+04   -0.33558E-04   -0.48824E-04  3352   0.262E-02    0.220E-02
DAV:   3    -0.193498476947E+04    0.39972E-05   -0.14612E-05  3312   0.578E-03    0.996E-03
DAV:   4    -0.193498476958E+04   -0.11301E-06   -0.43209E-06  2792   0.282E-03
  15 F= -.19349848E+04 E0= -.19349848E+04  d E =-.202902E-02  mag=     2.0000
       N       E                     dE             d eps       ncg     rms          rms(c)
DAV:   1    -0.193498560452E+04   -0.83505E-03   -0.47501E-01  2608   0.911E-01    0.127E-01
DAV:   2    -0.193498604258E+04   -0.43806E-03   -0.69334E-03  3392   0.992E-02    0.812E-02
DAV:   3    -0.193498597298E+04    0.69596E-04   -0.21542E-04  3352   0.219E-02    0.336E-02
DAV:   4    -0.193498597279E+04    0.19102E-06   -0.59630E-05  3312   0.974E-03    0.134E-02
DAV:   5    -0.193498597344E+04   -0.64920E-06   -0.50607E-06  2808   0.323E-03
  16 F= -.19349860E+04 E0= -.19349860E+04  d E =-.120386E-02  mag=     2.0000
       N       E                     dE             d eps       ncg     rms          rms(c)
DAV:   1    -0.193498597458E+04   -0.17864E-05   -0.45163E-04  2656   0.280E-02    0.435E-03
DAV:   2    -0.193498597469E+04   -0.10717E-06   -0.61529E-06  3392   0.297E-03
  17 F= -.19349860E+04 E0= -.19349860E+04  d E =-.120511E-02  mag=     2.0000
       N       E                     dE             d eps       ncg     rms          rms(c)
DAV:   1    -0.193498651973E+04   -0.54515E-03   -0.30114E-01  2624   0.730E-01    0.100E-01
DAV:   2    -0.193498677401E+04   -0.25429E-03   -0.40594E-03  3368   0.754E-02    0.629E-02
DAV:   3    -0.193498673461E+04    0.39405E-04   -0.11455E-04  3336   0.159E-02    0.268E-02
DAV:   4    -0.193498673388E+04    0.72979E-06   -0.31809E-05  3320   0.726E-03    0.914E-03
DAV:   5    -0.193498673420E+04   -0.32490E-06   -0.30884E-06  2408   0.249E-03
  18 F= -.19349867E+04 E0= -.19349867E+04  d E =-.759517E-03  mag=     2.0000
       N       E                     dE             d eps       ncg     rms          rms(c)
DAV:   1    -0.193498673567E+04   -0.17877E-05   -0.44144E-04  2672   0.280E-02    0.461E-03
DAV:   2    -0.193498673622E+04   -0.55153E-06   -0.64915E-06  3376   0.303E-03
  19 F= -.19349867E+04 E0= -.19349867E+04  d E =-.761531E-03  mag=     2.0000
       N       E                     dE             d eps       ncg     rms          rms(c)
DAV:   1    -0.193498689573E+04   -0.16007E-03   -0.19239E-01  2640   0.582E-01    0.843E-02
DAV:   2    -0.193498707823E+04   -0.18249E-03   -0.28878E-03  3392   0.646E-02    0.523E-02
DAV:   3    -0.193498704963E+04    0.28598E-04   -0.94407E-05  3368   0.144E-02    0.234E-02
DAV:   4    -0.193498704892E+04    0.70843E-06   -0.25572E-05  3344   0.661E-03    0.897E-03
DAV:   5    -0.193498704925E+04   -0.33434E-06   -0.25082E-06  2264   0.233E-03
  20 F= -.19349870E+04 E0= -.19349870E+04  d E =-.313037E-03  mag=     2.0000
       N       E                     dE             d eps       ncg     rms          rms(c)
DAV:   1    -0.193498708032E+04   -0.31404E-04   -0.12924E-02  2640   0.151E-01    0.213E-02
DAV:   2    -0.193498709160E+04   -0.11277E-04   -0.19187E-04  3392   0.167E-02    0.133E-02
DAV:   3    -0.193498708948E+04    0.21238E-05   -0.64324E-06  3328   0.374E-03    0.581E-03
DAV:   4    -0.193498708938E+04    0.97774E-07   -0.16172E-06  2048   0.166E-03
  21 F= -.19349871E+04 E0= -.19349871E+04  d E =-.353162E-03  mag=     2.0000
       N       E                     dE             d eps       ncg     rms          rms(c)
DAV:   1    -0.193498713786E+04   -0.48383E-04   -0.36168E-02  2672   0.253E-01    0.368E-02
DAV:   2    -0.193498718214E+04   -0.44284E-04   -0.64110E-04  3376   0.309E-02    0.231E-02
DAV:   3    -0.193498717605E+04    0.60894E-05   -0.19847E-05  3400   0.686E-03    0.112E-02
DAV:   4    -0.193498717555E+04    0.50191E-06   -0.67532E-06  3088   0.335E-03
  22 F= -.19349872E+04 E0= -.19349872E+04  d E =-.861735E-04  mag=     2.0000
       N       E                     dE             d eps       ncg     rms          rms(c)
DAV:   1    -0.193498719060E+04   -0.14542E-04   -0.32150E-03  2688   0.755E-02    0.104E-02
DAV:   2    -0.193498719417E+04   -0.35710E-05   -0.56630E-05  3376   0.921E-03    0.683E-03
DAV:   3    -0.193498719358E+04    0.58487E-06   -0.17103E-06  2536   0.209E-03
  23 F= -.19349872E+04 E0= -.19349872E+04  d E =-.104203E-03  mag=     2.0000
