       N       E                     dE             d eps       ncg     rms          rms(c)
DAV:   1     0.248432039834E+04    0.24843E+04   -0.44760E+05  2608   0.127E+03
DAV:   2    -0.171002653248E+04   -0.41943E+04   -0.39425E+04  3120   0.265E+02
DAV:   3    -0.193435637442E+04   -0.22433E+03   -0.22186E+03  3384   0.551E+01
DAV:   4    -0.193809618428E+04   -0.37398E+01   -0.37219E+01  3344   0.711E+00
DAV:   5    -0.193817861715E+04   -0.82433E-01   -0.82333E-01  3336   0.101E+00    0.914E+01
DAV:   6    -0.192524009982E+04    0.12939E+02   -0.87614E+01  2960   0.101E+01    0.515E+01
DAV:   7    -0.195689803623E+04   -0.31658E+02   -0.60887E+01  2896   0.834E+00    0.237E+01
DAV:   8    -0.196190178141E+04   -0.50037E+01   -0.89756E+00  3088   0.367E+00    0.718E+00
DAV:   9    -0.196193088810E+04   -0.29107E-01   -0.24183E-01  3168   0.743E-01    0.351E+00
DAV:  10    -0.196190590284E+04    0.24985E-01   -0.20398E-01  3008   0.528E-01    0.566E-01
DAV:  11    -0.196191835675E+04   -0.12454E-01   -0.19931E-02  3048   0.234E-01    0.178E-01
DAV:  12    -0.196191951238E+04   -0.11556E-02   -0.13325E-03  3136   0.492E-02    0.868E-02
DAV:  13    -0.196192004727E+04   -0.53489E-03   -0.47645E-04  2896   0.334E-02    0.337E-02
DAV:  14    -0.196192007101E+04   -0.23744E-04   -0.40115E-05  3264   0.755E-03    0.449E-03
DAV:  15    -0.196192007167E+04   -0.66079E-06   -0.11642E-06  2296   0.142E-03
   1 F= -.19619201E+04 E0= -.19619201E+04  d E =-.196192E+04  mag=     0.0001
