
     Program PWSCF v.7.4.1 starts on 27Jul2026 at 12:56:57 

     This program is part of the open-source Quantum ESPRESSO suite
     for quantum simulation of materials; please cite
         "P. Giannozzi et al., J. Phys.:Condens. Matter 21 395502 (2009);
         "P. Giannozzi et al., J. Phys.:Condens. Matter 29 465901 (2017);
         "P. Giannozzi et al., J. Chem. Phys. 152 154105 (2020);
          URL http://www.quantum-espresso.org", 
     in publications or presentations arising from this work. More details at
     http://www.quantum-espresso.org/quote

     Parallel version (MPI), running on    28 processors

     MPI processes distributed on     1 nodes
     124220 MiB available memory on the printing compute node when the environment starts
 
     Reading input from diamond_scf.in

     Current dimensions of program PWSCF are:
     Max number of different atomic species (ntypx) = 10
     Max number of k-points (npk) =  40000
     Max angular momentum in pseudopotentials (lmaxx) =  4
     file C.pbe-n-kjpaw_psl.1.0.0.UPF: wavefunction(s)  2S 2P renormalized

     IMPORTANT: XC functional enforced from input :
     Exchange-correlation= HSE
                           (   1   4  12   4   0   0   0)
     EXX-fraction              =        0.25
     Any further DFT definition will be discarded
     Please, verify this is what you really want

     EXX fraction changed:   0.25
     EXX Screening parameter changed:    0.2000000
     Message from routine setup :
     BEWARE: nonlinear core correction is not consistent with hybrid XC
 
     R & G space division:  proc/nbgrp/npool/nimage =      28
     WARNING: too many processors for an effective parallelization!
     wavefunctions fft division:  task group distribution
                                  #TG    x Z-proc =       7      4
     Subspace diagonalization in iterative solution of the eigenvalue problem:
     a serial algorithm will be used

     EXX: q-point mesh:     4    4    4
     EXX: setup a grid of 512 q-points centered on each k-point
     (set verbosity='high' to see the list)
 
     Parallelization info
     --------------------
     sticks:   dense  smooth     PW     G-vecs:    dense   smooth      PW
     Min          10      10      3                  110      110      23
     Max          11      11      4                  113      113      27
     Sum         283     283    109                 3119     3119     701
 
     Using Pencil Decomposition
 


     bravais-lattice index     =            0
     lattice parameter (alat)  =       4.7733  a.u.
     unit-cell volume          =      76.9035 (a.u.)^3
     number of atoms/cell      =            2
     number of atomic types    =            1
     number of electrons       =         8.00
     number of Kohn-Sham states=            8
     kinetic-energy cutoff     =      45.0000  Ry
     charge density cutoff     =     180.0000  Ry
     cutoff for Fock operator  =     180.0000  Ry
     scf convergence threshold =      1.0E-08
     mixing beta               =       0.7000
     number of iterations used =            8  plain     mixing
     Exchange-correlation= HSE
                           (   1   4  12   4   0   0   0)
     EXX-fraction              =        0.25

     celldm(1)=   4.773317  celldm(2)=   0.000000  celldm(3)=   0.000000
     celldm(4)=   0.000000  celldm(5)=   0.000000  celldm(6)=   0.000000

     crystal axes: (cart. coord. in units of alat)
               a(1) = (  -0.707107   0.000000   0.707107 )  
               a(2) = (   0.000000   0.707107   0.707107 )  
               a(3) = (  -0.707107   0.707107   0.000000 )  

     reciprocal axes: (cart. coord. in units 2 pi/alat)
               b(1) = ( -0.707107 -0.707107  0.707107 )  
               b(2) = (  0.707107  0.707107  0.707107 )  
               b(3) = ( -0.707107  0.707107 -0.707107 )  


     PseudoPot. # 1 for C  read from file:
     ../pseudos/C.pbe-n-kjpaw_psl.1.0.0.UPF
     MD5 check sum: 5f16ad9a65e90284d1d834d4ab3b0f7d
     Pseudo is Projector augmented-wave + core cor, Zval =  4.0
     Generated using &quot;atomic&quot; code by A. Dal Corso  v.6.3
     Shape of augmentation charge: PSQ
     Using radial grid of 1073 points,  4 beta functions with: 
                l(1) =   0
                l(2) =   0
                l(3) =   1
                l(4) =   1
     Q(r) pseudized with 0 coefficients 


     atomic species   valence    mass     pseudopotential
     C                 4.00    12.01070     C ( 1.00)

     No symmetry found



   Cartesian axes

     site n.     atom                  positions (alat units)
         1        C      tau(   1) = (   0.0000000   0.0000000   0.0000000  )
         2        C      tau(   2) = (  -0.3541036   0.3541036   0.3541036  )

     number of k points=   512

     Number of k-points >= 100: set verbosity='high' to print them.

     Dense  grid:     3119 G-vectors     FFT dimensions: (  24,  24,  24)

     Estimated max dynamical RAM per process >      16.50 MB

     Estimated total dynamical RAM >     461.87 MB
     EXX: ACE will be initialized later

     Check: negative core charge=   -0.000077

     Initial potential from superposition of free atoms

     starting charge       7.9999, renormalised to       8.0000
     Starting wfcs are random

     total cpu time spent up to now is        1.0 secs

     per-process dynamical memory:    25.5 Mb

     Self-consistent Calculation

     iteration #  1     ecut=    45.00 Ry     beta= 0.70
     Davidson diagonalization with overlap
     ethr =  1.00E-02,  avg # of iterations =  7.4

     total cpu time spent up to now is        3.7 secs

     total energy              =     -36.85859333 Ry
     estimated scf accuracy    <       0.11546876 Ry

     iteration #  2     ecut=    45.00 Ry     beta= 0.70
     Davidson diagonalization with overlap
     ethr =  1.44E-03,  avg # of iterations =  1.0

     total cpu time spent up to now is        4.6 secs

     total energy              =     -36.86670967 Ry
     estimated scf accuracy    <       0.00247569 Ry

     iteration #  3     ecut=    45.00 Ry     beta= 0.70
     Davidson diagonalization with overlap
     ethr =  3.09E-05,  avg # of iterations =  2.3

     total cpu time spent up to now is        5.8 secs

     total energy              =     -36.86712571 Ry
     estimated scf accuracy    <       0.00006659 Ry

     iteration #  4     ecut=    45.00 Ry     beta= 0.70
     Davidson diagonalization with overlap
     ethr =  8.32E-07,  avg # of iterations =  2.3

     total cpu time spent up to now is        7.0 secs

     total energy              =     -36.86713154 Ry
     estimated scf accuracy    <       0.00000964 Ry

     iteration #  5     ecut=    45.00 Ry     beta= 0.70
     Davidson diagonalization with overlap
     ethr =  1.21E-07,  avg # of iterations =  1.0

     total cpu time spent up to now is        7.8 secs

     total energy              =     -36.86713353 Ry
     estimated scf accuracy    <       0.00000017 Ry

     iteration #  6     ecut=    45.00 Ry     beta= 0.70
     Davidson diagonalization with overlap
     ethr =  2.14E-09,  avg # of iterations =  2.0

     total cpu time spent up to now is        9.0 secs

     End of self-consistent calculation

     Number of k-points >= 100: set verbosity='high' to print the bands.

     highest occupied, lowest unoccupied level (ev):    13.31257187   17.40870396

!    total energy              =     -36.86713357 Ry
     estimated scf accuracy    <          7.5E-09 Ry

     convergence has been achieved in   6 iterations

     Using ACE for calculation of exact exchange

     EXX grid:     3119 G-vectors     FFT dimensions: (  24,  24,  24)
     ACE projected onto     8 (nbndproj) and applied to     8 (nbnd) bands

     EXX: now go back to refine exchange calculation

     total cpu time spent up to now is      371.8 secs

     per-process dynamical memory:    99.4 Mb

     Self-consistent Calculation

     iteration #  1     ecut=    45.00 Ry     beta= 0.70
     Davidson diagonalization with overlap
     ethr =  2.14E-09,  avg # of iterations =  6.0

     total cpu time spent up to now is      374.2 secs

     total energy              =     -33.57456128 Ry
     estimated scf accuracy    <       0.00024637 Ry

     iteration #  2     ecut=    45.00 Ry     beta= 0.70
     Davidson diagonalization with overlap
     ethr =  3.08E-06,  avg # of iterations =  3.9

     total cpu time spent up to now is      376.0 secs

     total energy              =     -33.46176951 Ry
     estimated scf accuracy    <       0.00052785 Ry

     iteration #  3     ecut=    45.00 Ry     beta= 0.70
     Davidson diagonalization with overlap
     ethr =  3.08E-06,  avg # of iterations =  2.0

     total cpu time spent up to now is      377.3 secs

     total energy              =     -33.46056741 Ry
     estimated scf accuracy    <       0.00181238 Ry

     iteration #  4     ecut=    45.00 Ry     beta= 0.70
     Davidson diagonalization with overlap
     ethr =  3.08E-06,  avg # of iterations =  2.1

     total cpu time spent up to now is      378.6 secs

     total energy              =     -33.46084008 Ry
     estimated scf accuracy    <       0.00003986 Ry

     iteration #  5     ecut=    45.00 Ry     beta= 0.70
     Davidson diagonalization with overlap
     ethr =  4.98E-07,  avg # of iterations =  1.0

     total cpu time spent up to now is      379.5 secs

     total energy              =     -33.46084324 Ry
     estimated scf accuracy    <       0.00000019 Ry

     iteration #  6     ecut=    45.00 Ry     beta= 0.70
     Davidson diagonalization with overlap
     ethr =  2.38E-09,  avg # of iterations =  2.0

     total cpu time spent up to now is      380.7 secs

     total energy              =     -33.46084333 Ry
     estimated scf accuracy    <       0.00000001 Ry

     iteration #  7     ecut=    45.00 Ry     beta= 0.70
     Davidson diagonalization with overlap
     ethr =  1.71E-10,  avg # of iterations =  2.0

     total cpu time spent up to now is      381.8 secs

     total energy              =     -33.46084329 Ry
     estimated scf accuracy    <       0.00000009 Ry

     iteration #  8     ecut=    45.00 Ry     beta= 0.70
     Davidson diagonalization with overlap
     ethr =  1.71E-10,  avg # of iterations =  2.0

     total cpu time spent up to now is      383.0 secs

     End of self-consistent calculation

     Number of k-points >= 100: set verbosity='high' to print the bands.

     highest occupied, lowest unoccupied level (ev):    13.07481894   17.94020099

!    total energy              =     -33.46084330 Ry
     estimated scf accuracy    <          5.7E-10 Ry

     convergence has been achieved in   8 iterations

     Using ACE for calculation of exact exchange
     ACE projected onto     8 (nbndproj) and applied to     8 (nbnd) bands

     total energy              =     -33.46111882 Ry
     Harris-Foulkes estimate   =     -33.46111882 Ry
     est. exchange err (dexx)  =       0.00027552 Ry
     - averaged Fock potential =       2.31137525 Ry
     + Fock energy (ACE)       =      -1.15575503 Ry

     EXX: now go back to refine exchange calculation

     total cpu time spent up to now is      744.6 secs

     per-process dynamical memory:   100.2 Mb

     Self-consistent Calculation

     iteration #  1     ecut=    45.00 Ry     beta= 0.70
     Davidson diagonalization with overlap
     ethr =  1.71E-10,  avg # of iterations =  5.0

     total cpu time spent up to now is      746.5 secs

     total energy              =     -33.46113507 Ry
     estimated scf accuracy    <       0.00000422 Ry

     iteration #  2     ecut=    45.00 Ry     beta= 0.70
     Davidson diagonalization with overlap
     ethr =  5.28E-08,  avg # of iterations =  1.0

     total cpu time spent up to now is      747.4 secs

     total energy              =     -33.46113542 Ry
     estimated scf accuracy    <       0.00000009 Ry

     iteration #  3     ecut=    45.00 Ry     beta= 0.70
     Davidson diagonalization with overlap
     ethr =  1.08E-09,  avg # of iterations =  2.0

     total cpu time spent up to now is      748.5 secs

     End of self-consistent calculation

     Number of k-points >= 100: set verbosity='high' to print the bands.

     highest occupied, lowest unoccupied level (ev):    13.05982328   17.94870485

!    total energy              =     -33.46113544 Ry
     estimated scf accuracy    <          2.6E-09 Ry

     convergence has been achieved in   3 iterations

     Using ACE for calculation of exact exchange
     ACE projected onto     8 (nbndproj) and applied to     8 (nbnd) bands

     total energy              =     -33.46113652 Ry
     Harris-Foulkes estimate   =     -33.46113652 Ry
     est. exchange err (dexx)  =       0.00000108 Ry
     - averaged Fock potential =       2.31148165 Ry
     + Fock energy (ACE)       =      -1.15572770 Ry

     EXX: now go back to refine exchange calculation

     total cpu time spent up to now is     1109.4 secs

     per-process dynamical memory:   100.2 Mb

     Self-consistent Calculation

     iteration #  1     ecut=    45.00 Ry     beta= 0.70
     Davidson diagonalization with overlap
     ethr =  1.08E-09,  avg # of iterations =  2.0

     total cpu time spent up to now is     1110.6 secs

     total energy              =     -33.46113659 Ry
     estimated scf accuracy    <       0.00000001 Ry

     iteration #  2     ecut=    45.00 Ry     beta= 0.70
     Davidson diagonalization with overlap
     ethr =  1.84E-10,  avg # of iterations =  1.0

     total cpu time spent up to now is     1111.5 secs

     End of self-consistent calculation

     Number of k-points >= 100: set verbosity='high' to print the bands.

     highest occupied, lowest unoccupied level (ev):    13.05912752   17.94927513

!    total energy              =     -33.46113659 Ry
     estimated scf accuracy    <          4.3E-10 Ry

     convergence has been achieved in   2 iterations

     Using ACE for calculation of exact exchange
     ACE projected onto     8 (nbndproj) and applied to     8 (nbnd) bands

!!   total energy              =     -33.46113659 Ry
     Harris-Foulkes estimate   =     -33.46113659 Ry
     est. exchange err (dexx)  =          5.1E-09 Ry
     - averaged Fock potential =       2.31145244 Ry
     + Fock energy (ACE)       =      -1.15572475 Ry

     EXX self-consistency reached

     Forces acting on atoms (cartesian axes, Ry/au):

     atom    1 type  1   force =    -0.00212597    0.00212597    0.00212597
     atom    2 type  1   force =     0.00212597   -0.00212597   -0.00212597

     Total force =     0.005208     Total SCF correction =     0.000000


     Computing stress (Cartesian axis) and pressure

     Message from routine exx_stress:
     USPP stress not tested
          total   stress  (Ry/bohr**3)                   (kbar)     P=      160.07
   0.00108812   0.00000600   0.00000600          160.07        0.88        0.88
   0.00000600   0.00108812  -0.00000600            0.88      160.07       -0.88
   0.00000600  -0.00000600   0.00108812            0.88       -0.88      160.07


     Writing all to output data dir ./tmp/diamond-HSE06.save/ :
     XML data file, charge density
     init_run     :      0.31s CPU      0.49s WALL (       1 calls)
     electrons    :     20.80s CPU     25.25s WALL (       4 calls)
     forces       :      0.03s CPU      0.03s WALL (       1 calls)
     stress       :     37.57s CPU     43.60s WALL (       1 calls)

     Called by init_run:
     aceinit0     :      0.00s CPU      0.00s WALL (       1 calls)
     wfcinit      :      0.28s CPU      0.38s WALL (       1 calls)
     potinit      :      0.02s CPU      0.05s WALL (       1 calls)
     hinit0       :      0.01s CPU      0.03s WALL (       1 calls)

     Called by electrons:
     c_bands      :     18.21s CPU     21.98s WALL (      19 calls)
     sum_band     :      2.38s CPU      2.97s WALL (      19 calls)
     v_of_rho     :      0.01s CPU      0.02s WALL (      21 calls)
     newd         :      0.00s CPU      0.02s WALL (      20 calls)
     PAW_pot      :      0.22s CPU      0.31s WALL (      21 calls)
     mix_rho      :      0.00s CPU      0.00s WALL (      19 calls)

     Called by c_bands:
     init_us_2    :      0.19s CPU      0.22s WALL (   39424 calls)
     cegterg      :     17.85s CPU     21.54s WALL (    9728 calls)

     Called by *egterg:
     cdiaghg      :      2.62s CPU      3.16s WALL (   32785 calls)
     h_psi        :     13.66s CPU     16.53s WALL (   34833 calls)
     s_psi        :      0.13s CPU      0.16s WALL (   34833 calls)
     g_psi        :      0.04s CPU      0.05s WALL (   24593 calls)

     Called by h_psi:
     h_psi:calbec :      0.50s CPU      0.62s WALL (   34833 calls)
     vloc_psi     :     12.31s CPU     14.88s WALL (   34833 calls)
     vloc_psi:tg_ :      0.07s CPU      0.09s WALL (   34833 calls)
     add_vuspsi   :      0.15s CPU      0.18s WALL (   34833 calls)

     General routines
     calbec       :      0.91s CPU      1.11s WALL (   87552 calls)
     fft          :      0.01s CPU      0.03s WALL (     250 calls)
     ffts         :      0.00s CPU      0.00s WALL (      19 calls)
     fftw         :     13.16s CPU     15.97s WALL (  544098 calls)
     fftc         :    497.41s CPU    541.79s WALL (17825792 calls)
     fftcw        :      6.79s CPU      7.83s WALL (  311296 calls)
 
     Parallel routines
     fft_scatt_xy :     35.34s CPU     38.68s WALL (18681455 calls)
     fft_scatt_yz :    365.54s CPU    400.31s WALL (18681455 calls)
     fft_scatt_tg :      1.37s CPU      1.68s WALL (  544098 calls)

     EXX routines
     exx_grid     :      0.19s CPU      0.19s WALL (       1 calls)
     exxinit      :      2.67s CPU      3.07s WALL (       4 calls)
     vexx         :   1326.74s CPU   1442.76s WALL (    2048 calls)
     matcalc      :      0.37s CPU      0.45s WALL (   32239 calls)
     aceupdate    :      0.04s CPU      0.05s WALL (    2048 calls)
     vexxace      :      0.47s CPU      0.57s WALL (   26607 calls)
     aceinit      :   1326.84s CPU   1442.87s WALL (    2048 calls)

     EXX+US  routines
     becxx        :      0.01s CPU      0.04s WALL (       4 calls)
     addusxx      :    254.57s CPU    278.95s WALL ( 8388608 calls)
     newdxx       :    265.72s CPU    288.89s WALL ( 8388608 calls)
     qvan_init    :      6.86s CPU      7.47s WALL (  131072 calls)
     nlxx_pot     :      0.15s CPU      0.16s WALL (   16384 calls)

     EXX+PAW routines
     PAW_newdxx   :    230.30s CPU    250.31s WALL ( 8388608 calls)
 
     PWSCF        :  23m 8.75s CPU  25m16.10s WALL

 
   This run was terminated on:  13:22:13  27Jul2026            

=------------------------------------------------------------------------------=
   JOB DONE.
=------------------------------------------------------------------------------=
