    2    2    1    1
  0.5639752E+01  0.2517300E-09  0.2517300E-09  0.2517300E-09  0.5000000E-15
  1.000000000000000E-004
  CAR 
 unknown system                          
      8     84      8
 
  0.1276756E-14  0.1276756E-14  0.1276756E-14  0.4551661E-03
      1        -11.740949   1.000000
      2          9.812796   1.000000
      3          9.812840   1.000000
      4          9.812840   1.000000
      5         15.418989   0.000000
      6         15.419047   0.000000
      7         15.419047   0.000000
      8         23.275336   0.000000
 
  0.7692308E-01  0.1264845E-14  0.1272804E-14  0.3641329E-02
      1        -11.576439   1.000000
      2          8.742664   1.000000
      3          9.532438   1.000000
      4          9.532476   1.000000
      5         15.786393   0.000000
      6         15.786446   0.000000
      7         16.053319   0.000000
      8         23.412702   0.000000
 
  0.1538462E+00  0.8366620E-14  0.1271012E-14  0.3641329E-02
      1        -11.084513   1.000000
      2          6.465152   1.000000
      3          8.900026   1.000000
      4          8.900062   1.000000
      5         16.618328   0.000000
      6         16.618385   0.000000
      7         17.091350   0.000000
      8         23.810467   0.000000
 
  0.2307692E+00  0.8378565E-14  0.1293698E-14  0.3641329E-02
      1        -10.270952   1.000000
      2          3.855009   1.000000
      3          8.215338   1.000000
      4          8.215372   1.000000
      5         17.457897   0.000000
      6         17.457957   0.000000
      7         17.867754   0.000000
      8         24.389058   0.000000
 
  0.3076923E+00  0.1267798E-14  0.1284147E-14  0.3641329E-02
      1         -9.149385   1.000000
      2          1.244207   1.000000
      3          7.637094   1.000000
      4          7.637126   1.000000
      5         18.009693   0.000000
      6         18.009753   0.000000
      7         18.342086   0.000000
      8         24.977622   0.000000
 
  0.3846154E+00  0.1267114E-14  0.1286592E-14  0.3641329E-02
      1         -7.757249   1.000000
      2         -1.193466   1.000000
      3          7.231362   1.000000
      4          7.231393   1.000000
      5         18.239899   0.000000
      6         18.239955   0.000000
      7         18.605423   0.000000
      8         25.381574   0.000000
 
  0.4615385E+00  0.1223206E-14  0.1240638E-14  0.3641329E-02
      1         -6.290460   1.000000
      2         -3.196761   1.000000
      3          7.024158   1.000000
      4          7.024188   1.000000
      5         18.292768   0.000000
      6         18.292823   0.000000
      7         18.723712   0.000000
      8         25.550909   0.000000
 
  0.7692308E-01  0.7692308E-01  0.1259667E-14  0.2730997E-02
      1        -11.521752   1.000000
      2          9.011656   1.000000
      3          9.011683   1.000000
      4          9.286741   1.000000
      5         15.249580   0.000000
      6         16.408537   0.000000
      7         16.408580   0.000000
      8         23.385233   0.000000
 
  0.1538462E+00  0.7692308E-01  0.1275798E-14  0.1092399E-01
      1        -11.138946   1.000000
      2          7.235282   1.000000
      3          8.276410   1.000000
      4          9.000954   1.000000
      5         15.502353   0.000000
      6         17.382732   0.000000
      7         17.416872   0.000000
      8         23.473388   0.000000
 
  0.2307692E+00  0.7692308E-01  0.1280125E-14  0.1092399E-01
      1        -10.432575   1.000000
      2          4.771442   1.000000
      3          7.581169   1.000000
      4          8.411525   1.000000
      5         16.274347   0.000000
      6         18.281854   0.000000
      7         18.304561   0.000000
      8         23.669200   0.000000
 
  0.3076923E+00  0.7692308E-01  0.1262310E-14  0.1092399E-01
      1         -9.413142   1.000000
      2          2.184905   1.000000
      3          7.050177   1.000000
      4          7.717513   1.000000
      5         17.047457   0.000000
      6         18.829946   0.000000
      7         18.885413   0.000000
      8         24.061326   0.000000
 
  0.3846154E+00  0.7692308E-01  0.1256108E-14  0.1092399E-01
      1         -8.106463   1.000000
      2         -0.301184   1.000000
      3          6.734954   1.000000
      4          7.089867   1.000000
      5         17.550012   0.000000
      6         19.055413   0.000000
      7         19.133292   0.000000
      8         24.698057   0.000000
 
  0.4615385E+00  0.7692308E-01  0.1224416E-14  0.1092399E-01
      1         -6.614826   1.000000
      2         -2.491918   1.000000
      3          6.610101   1.000000
      4          6.651521   1.000000
      5         17.843144   0.000000
      6         18.947774   0.000000
      7         19.272811   0.000000
      8         25.312412   0.000000
 
 -0.4615385E+00  0.7692308E-01  0.1333966E-14  0.1092399E-01
      1         -5.849112   1.000000
      2         -3.434456   1.000000
      3          6.321074   1.000000
      4          6.796630   1.000000
      5         18.086409   0.000000
      6         18.724348   0.000000
      7         19.292051   0.000000
      8         25.564380   0.000000
 
 -0.3846154E+00  0.7692308E-01  0.1282782E-14  0.1092399E-01
      1         -7.116286   1.000000
      2         -1.811934   1.000000
      3          6.248243   1.000000
      4          7.153634   1.000000
      5         18.330071   0.000000
      6         18.441082   0.000000
      7         19.198075   0.000000
      8         25.348249   0.000000
 
 -0.3076923E+00  0.7692308E-01  0.1284459E-14  0.1092399E-01
      1         -8.571277   1.000000
      2          0.511045   1.000000
      3          6.405265   1.000000
      4          7.692367   1.000000
      5         18.027950   0.000000
      6         18.473715   0.000000
      7         18.954935   0.000000
      8         24.790793   0.000000
 
 -0.2307692E+00  0.7692308E-01  0.1284427E-14  0.1092399E-01
      1         -9.786922   1.000000
      2          3.051107   1.000000
      3          6.792970   1.000000
      4          8.358834   1.000000
      5         17.377938   0.000000
      6         18.336485   0.000000
      7         18.456986   0.000000
      8         24.213086   0.000000
 
 -0.1538462E+00  0.7692308E-01  0.1293620E-14  0.1092399E-01
      1        -10.703616   1.000000
      2          5.623588   1.000000
      3          7.395905   1.000000
      4          9.045844   1.000000
      5         16.544286   0.000000
      6         17.600413   0.000000
      7         17.824090   0.000000
      8         23.818964   0.000000
 
 -0.7692308E-01  0.7692308E-01  0.1279194E-14  0.5461994E-02
      1        -11.302803   1.000000
      2          7.822185   1.000000
      3          8.275581   1.000000
      4          9.535612   1.000000
      5         15.863545   0.000000
      6         16.587341   0.000000
      7         16.927589   0.000000
      8         23.563204   0.000000
 
  0.1538462E+00  0.1538462E+00  0.1253962E-14  0.2730997E-02
      1        -10.866205   1.000000
      2          7.485328   1.000000
      3          7.485352   1.000000
      4          7.872902   1.000000
      5         14.835905   0.000000
      6         18.488846   0.000000
      7         18.488897   0.000000
      8         22.854583   0.000000
 
  0.2307692E+00  0.1538462E+00  0.1277781E-14  0.1092399E-01
      1        -10.269342   1.000000
      2          5.592498   1.000000
      3          6.761758   1.000000
      4          7.488001   1.000000
      5         15.044840   0.000000
      6         19.524875   0.000000
      7         19.562976   0.000000
      8         22.199483   0.000000
 
  0.3076923E+00  0.1538462E+00  0.1259582E-14  0.1092399E-01
      1         -9.356811   1.000000
      2          3.206032   1.000000
      3          6.224953   1.000000
      4          6.833802   1.000000
      5         15.796329   0.000000
      6         20.221038   0.000000
      7         20.302634   0.000000
      8         21.958603   0.000000
 
  0.3846154E+00  0.1538462E+00  0.1304429E-14  0.1092399E-01
      1         -8.148158   1.000000
      2          0.781065   1.000000
      3          5.927951   1.000000
      4          6.062574   1.000000
      5         16.485566   0.000000
      6         20.567755   0.000000
      7         20.605276   0.000000
      8         22.520247   0.000000
 
  0.4615385E+00  0.1538462E+00  0.1244213E-14  0.1092399E-01
      1         -6.705225   1.000000
      2         -1.471144   1.000000
      3          5.363040   1.000000
      4          5.888927   1.000000
      5         16.918275   0.000000
      6         20.437128   0.000000
      7         20.778211   0.000000
      8         23.787109   0.000000
 
 -0.4615385E+00  0.1538462E+00  0.1340270E-14  0.1092399E-01
      1         -5.460510   1.000000
      2         -3.044874   1.000000
      3          4.832162   1.000000
      4          6.104387   1.000000
      5         17.281304   0.000000
      6         20.079648   0.000000
      7         20.813885   0.000000
      8         25.074270   0.000000
 
 -0.3846154E+00  0.1538462E+00  0.1251914E-14  0.1092399E-01
      1         -6.217570   1.000000
      2         -2.110123   1.000000
      3          4.523418   1.000000
      4          6.552515   1.000000
      5         17.710397   0.000000
      6         19.590136   0.000000
      7         20.737346   0.000000
      8         25.334769   0.000000
 
 -0.3076923E+00  0.1538462E+00  0.1282115E-14  0.1092399E-01
      1         -7.691923   1.000000
      2          0.036285   1.000000
      3          4.469369   1.000000
      4          7.189455   1.000000
      5         18.171231   0.000000
      6         18.946023   0.000000
      7         20.494269   0.000000
      8         24.519192   0.000000
 
 -0.2307692E+00  0.1538462E+00  0.1276085E-14  0.1092399E-01
      1         -8.987938   1.000000
      2          2.431594   1.000000
      3          4.700732   1.000000
      4          7.935227   1.000000
      5         18.098674   0.000000
      6         18.480355   0.000000
      7         19.881938   0.000000
      8         23.769627   0.000000
 
 -0.1538462E+00  0.1538462E+00  0.1282789E-14  0.5461994E-02
      1        -10.001009   1.000000
      2          4.615607   1.000000
      3          5.455361   1.000000
      4          8.640065   1.000000
      5         17.170038   0.000000
      6         18.400613   0.000000
      7         18.795141   0.000000
      8         23.648776   0.000000
 
  0.2307692E+00  0.2307692E+00  0.1311840E-14  0.2730997E-02
      1         -9.782957   1.000000
      2          5.860709   1.000000
      3          5.999497   1.000000
      4          5.999518   1.000000
      5         14.371367   0.000000
      6         20.731709   0.000000
      7         20.856497   0.000000
      8         20.856559   0.000000
 
  0.3076923E+00  0.2307692E+00  0.1280147E-14  0.1092399E-01
      1         -8.980204   1.000000
      2          3.967421   1.000000
      3          5.423687   1.000000
      4          5.574180   1.000000
      5         14.623190   0.000000
      6         19.813516   0.000000
      7         21.842220   0.000000
      8         21.858322   0.000000
 
  0.3846154E+00  0.2307692E+00  0.1259683E-14  0.1092399E-01
      1         -7.876865   1.000000
      2          1.830578   1.000000
      3          4.737019   1.000000
      4          5.095491   1.000000
      5         15.363997   0.000000
      6         19.847965   0.000000
      7         22.355477   0.000000
      8         22.409668   0.000000
 
  0.4615385E+00  0.2307692E+00  0.1255746E-14  0.1092399E-01
      1         -6.515201   1.000000
      2         -0.308574   1.000000
      3          3.835439   1.000000
      4          5.038970   1.000000
      5         15.927392   0.000000
      6         21.072802   0.000000
      7         22.338730   0.000000
      8         22.671625   0.000000
 
 -0.4615385E+00  0.2307692E+00  0.1323279E-14  0.1092399E-01
      1         -5.104557   1.000000
      2         -2.121509   1.000000
      3          3.079249   1.000000
      4          5.254731   1.000000
      5         16.336619   0.000000
      6         21.944654   0.000000
      7         22.704656   0.000000
      8         23.109535   0.000000
 
 -0.3846154E+00  0.2307692E+00  0.1264772E-14  0.1092399E-01
      1         -5.131758   1.000000
      2         -2.059645   1.000000
      3          2.562269   1.000000
      4          5.722942   1.000000
      5         16.828311   0.000000
      6         21.287514   0.000000
      7         22.690487   0.000000
      8         24.861302   0.000000
 
 -0.3076923E+00  0.2307692E+00  0.1256233E-14  0.1092399E-01
      1         -6.539146   1.000000
      2         -0.189952   1.000000
      3          2.348585   1.000000
      4          6.397812   1.000000
      5         17.449727   0.000000
      6         20.379247   0.000000
      7         22.459434   0.000000
      8         24.433427   0.000000
 
 -0.2307692E+00  0.2307692E+00  0.1260531E-14  0.5461994E-02
      1         -7.891025   1.000000
      2          1.717771   1.000000
      3          2.752813   1.000000
      4          7.190699   1.000000
      5         18.087505   0.000000
      6         19.243075   0.000000
      7         21.488458   0.000000
      8         23.664640   0.000000
 
  0.3076923E+00  0.3076923E+00  0.1291681E-14  0.2730997E-02
      1         -8.288449   1.000000
      2          3.469061   1.000000
      3          4.794493   1.000000
      4          4.794513   1.000000
      5         14.036980   0.000000
      6         18.290645   0.000000
      7         23.195040   0.000000
      8         23.195114   0.000000
 
  0.3846154E+00  0.3076923E+00  0.1251725E-14  0.1092399E-01
      1         -7.294680   1.000000
      2          2.003797   1.000000
      3          4.008995   1.000000
      4          4.410125   1.000000
      5         14.389550   0.000000
      6         17.647614   0.000000
      7         24.029705   0.000000
      8         24.061421   0.000000
 
  0.4615385E+00  0.3076923E+00  0.1220032E-14  0.1092399E-01
      1         -6.030213   1.000000
      2          0.396932   1.000000
      3          2.795568   1.000000
      4          4.302126   1.000000
      5         15.074651   0.000000
      6         18.270764   0.000000
      7         24.238666   0.000000
      8         24.482723   0.000000
 
 -0.4615385E+00  0.3076923E+00  0.1306865E-14  0.1092399E-01
      1         -4.612551   1.000000
      2         -1.184721   1.000000
      3          1.647882   1.000000
      4          4.476702   1.000000
      5         15.519810   0.000000
      6         20.199450   0.000000
      7         23.886521   0.000000
      8         24.627260   0.000000
 
 -0.3846154E+00  0.3076923E+00  0.1280543E-14  0.1092399E-01
      1         -3.992477   1.000000
      2         -1.764958   1.000000
      3          0.850950   1.000000
      4          4.918794   1.000000
      5         16.000739   0.000000
      6         22.669208   0.000000
      7         23.075702   0.000000
      8         24.655090   0.000000
 
 -0.3076923E+00  0.3076923E+00  0.1269185E-14  0.5461994E-02
      1         -5.183841   1.000000
      2         -0.557548   1.000000
      3          0.755183   1.000000
      4          5.587187   1.000000
      5         16.660553   0.000000
      6         21.864290   0.000000
      7         24.126406   0.000000
      8         24.518662   0.000000
 
  0.3846154E+00  0.3846154E+00  0.1263258E-14  0.2730997E-02
      1         -6.411457   1.000000
      2          0.878851   1.000000
      3          3.959347   1.000000
      4          3.959365   1.000000
      5         13.966973   0.000000
      6         16.349056   0.000000
      7         25.237504   0.000000
      8         25.237592   0.000000
 
  0.4615385E+00  0.3846154E+00  0.1230797E-14  0.1092399E-01
      1         -5.252405   1.000000
      2         -0.424499   1.000000
      3          3.188522   1.000000
      4          3.783530   1.000000
      5         14.442620   0.000000
      6         16.097351   0.000000
      7         25.742354   0.000000
      8         25.836940   0.000000
 
 -0.4615385E+00  0.3846154E+00  0.1308835E-14  0.1092399E-01
      1         -3.892504   1.000000
      2         -1.596601   1.000000
      3          1.826596   1.000000
      4          3.895151   1.000000
      5         14.950535   0.000000
      6         17.444566   0.000000
      7         25.496360   0.000000
      8         25.967025   0.000000
 
 -0.3846154E+00  0.3846154E+00  0.1264564E-14  0.5461994E-02
      1         -3.062084   1.000000
      2         -2.108503   1.000000
      3          0.609914   1.000000
      4          4.284969   1.000000
      5         15.371123   0.000000
      6         19.915281   0.000000
      7         24.564244   0.000000
      8         25.679366   0.000000
 
  0.4615385E+00  0.4615385E+00  0.1166559E-14  0.2730997E-02
      1         -4.199706   1.000000
      2         -1.730419   1.000000
      3          3.533696   1.000000
      4          3.533714   1.000000
      5         14.265598   0.000000
      6         15.028124   0.000000
      7         26.527554   0.000000
      8         26.527655   0.000000
 
 -0.4615385E+00  0.4615385E+00  0.1303800E-14  0.5461994E-02
      1         -2.951131   1.000000
      2         -2.892538   1.000000
      3          2.935273   1.000000
      4          3.571932   1.000000
      5         14.672027   0.000000
      6         15.366333   0.000000
      7         26.437257   0.000000
      8         26.574116   0.000000
 
  0.2307692E+00  0.1538462E+00  0.7692308E-01  0.1092399E-01
      1        -10.649020   1.000000
      2          6.200026   1.000000
      3          6.821054   1.000000
      4          8.657228   1.000000
      5         15.693648   0.000000
      6         18.360692   0.000000
      7         18.441886   0.000000
      8         23.230220   0.000000
 
  0.3076923E+00  0.1538462E+00  0.7692308E-01  0.2184797E-01
      1         -9.839370   1.000000
      2          4.000281   1.000000
      3          5.990711   1.000000
      4          8.079444   1.000000
      5         16.455633   0.000000
      6         18.941629   0.000000
      7         19.481603   0.000000
      8         23.071879   0.000000
 
  0.3846154E+00  0.1538462E+00  0.7692308E-01  0.2184797E-01
      1         -8.724441   1.000000
      2          1.519720   1.000000
      3          5.553996   1.000000
      4          7.362969   1.000000
      5         17.260879   0.000000
      6         19.101083   0.000000
      7         20.184427   0.000000
      8         23.440216   0.000000
 
  0.4615385E+00  0.1538462E+00  0.7692308E-01  0.2184797E-01
      1         -7.343340   1.000000
      2         -0.848685   1.000000
      3          5.352825   1.000000
      4          6.717930   1.000000
      5         17.777240   0.000000
      6         18.984997   0.000000
      7         20.534090   0.000000
      8         24.373556   0.000000
 
 -0.4615385E+00  0.1538462E+00  0.7692308E-01  0.2184797E-01
      1         -5.895580   1.000000
      2         -2.808501   1.000000
      3          5.321619   1.000000
      4          6.305812   1.000000
      5         18.010215   0.000000
      6         18.829613   0.000000
      7         20.672292   0.000000
      8         25.259596   0.000000
 
  0.3076923E+00  0.2307692E+00  0.7692308E-01  0.1092399E-01
      1         -9.569375   1.000000
      2          4.569721   1.000000
      3          5.381164   1.000000
      4          6.974243   1.000000
      5         15.269161   0.000000
      6         20.285532   0.000000
      7         20.833235   0.000000
      8         21.302874   0.000000
 
  0.3846154E+00  0.2307692E+00  0.7692308E-01  0.2184797E-01
      1         -8.560875   1.000000
      2          2.542587   1.000000
      3          4.646011   1.000000
      4          6.318991   1.000000
      5         16.078577   0.000000
      6         20.472989   0.000000
      7         21.132744   0.000000
      8         21.881033   0.000000
 
  0.4615385E+00  0.2307692E+00  0.7692308E-01  0.2184797E-01
      1         -7.272459   1.000000
      2          0.279393   1.000000
      3          4.279502   1.000000
      4          5.655258   1.000000
      5         16.799802   0.000000
      6         20.377374   0.000000
      7         21.813641   0.000000
      8         22.592014   0.000000
 
 -0.4615385E+00  0.2307692E+00  0.7692308E-01  0.2184797E-01
      1         -5.812009   1.000000
      2         -1.784342   1.000000
      3          3.962335   1.000000
      4          5.330141   1.000000
      5         17.234478   0.000000
      6         20.147519   0.000000
      7         22.469429   0.000000
      8         23.680676   0.000000
 
 -0.3846154E+00  0.2307692E+00  0.7692308E-01  0.2184797E-01
      1         -5.080455   1.000000
      2         -2.662906   1.000000
      3          3.626539   1.000000
      4          5.487304   1.000000
      5         17.623969   0.000000
      6         19.782187   0.000000
      7         22.504175   0.000000
      8         24.914150   0.000000
 
 -0.3076923E+00  0.2307692E+00  0.7692308E-01  0.2184797E-01
      1         -6.309505   1.000000
      2         -1.106698   1.000000
      3          3.420890   1.000000
      4          5.997464   1.000000
      5         18.094985   0.000000
      6         19.265049   0.000000
      7         22.284421   0.000000
      8         24.372702   0.000000
 
 -0.2307692E+00  0.2307692E+00  0.7692308E-01  0.2184797E-01
      1         -7.735446   1.000000
      2          1.074244   1.000000
      3          3.469810   1.000000
      4          6.716723   1.000000
      5         18.292844   0.000000
      6         18.786178   0.000000
      7         21.842230   0.000000
      8         23.134377   0.000000
 
 -0.1538462E+00  0.2307692E+00  0.7692308E-01  0.1092399E-01
      1         -8.933240   1.000000
      2          3.105704   1.000000
      3          4.078504   1.000000
      4          7.489190   1.000000
      5         17.321898   0.000000
      6         19.060818   0.000000
      7         20.847867   0.000000
      8         22.674975   0.000000
 
  0.3846154E+00  0.3076923E+00  0.7692308E-01  0.1092399E-01
      1         -8.081646   1.000000
      2          2.874647   1.000000
      3          4.212973   1.000000
      4          5.118780   1.000000
      5         14.948309   0.000000
      6         18.979641   0.000000
      7         22.366506   0.000000
      8         23.215313   0.000000
 
  0.4615385E+00  0.3076923E+00  0.7692308E-01  0.2184797E-01
      1         -6.896335   1.000000
      2          1.187312   1.000000
      3          3.372544   1.000000
      4          4.533634   1.000000
      5         15.798929   0.000000
      6         19.132547   0.000000
      7         22.454081   0.000000
      8         24.095790   0.000000
 
 -0.4615385E+00  0.3076923E+00  0.7692308E-01  0.2184797E-01
      1         -5.491811   1.000000
      2         -0.677630   1.000000
      3          2.590266   1.000000
      4          4.340191   1.000000
      5         16.386009   0.000000
      6         20.546129   0.000000
      7         22.277491   0.000000
      8         24.415740   0.000000
 
 -0.3846154E+00  0.3076923E+00  0.7692308E-01  0.2184797E-01
      1         -4.316118   1.000000
      2         -2.033075   1.000000
      3          1.906445   1.000000
      4          4.579421   1.000000
      5         16.820754   0.000000
      6         21.633181   0.000000
      7         22.895272   0.000000
      8         24.285510   0.000000
 
 -0.3076923E+00  0.3076923E+00  0.7692308E-01  0.2184797E-01
      1         -5.064103   1.000000
      2         -1.118510   1.000000
      3          1.489699   1.000000
      4          5.129900   1.000000
      5         17.369361   0.000000
      6         20.967720   0.000000
      7         23.681409   0.000000
      8         24.436938   0.000000
 
 -0.2307692E+00  0.3076923E+00  0.7692308E-01  0.1092399E-01
      1         -6.478902   1.000000
      2          0.514288   1.000000
      3          1.703373   1.000000
      4          5.890494   1.000000
      5         18.049868   0.000000
      6         19.779637   0.000000
      7         23.199183   0.000000
      8         23.537891   0.000000
 
  0.4615385E+00  0.3846154E+00  0.7692308E-01  0.1092399E-01
      1         -6.218149   1.000000
      2          0.780485   1.000000
      3          3.416365   1.000000
      4          3.779433   1.000000
      5         14.874103   0.000000
      6         17.129454   0.000000
      7         24.346894   0.000000
      8         25.233321   0.000000
 
 -0.4615385E+00  0.3846154E+00  0.7692308E-01  0.2184797E-01
      1         -4.899912   1.000000
      2         -0.497905   1.000000
      3          2.218589   1.000000
      4          3.573916   1.000000
      5         15.697195   0.000000
      6         17.875898   0.000000
      7         24.255003   0.000000
      8         25.630218   0.000000
 
 -0.3846154E+00  0.3846154E+00  0.7692308E-01  0.2184797E-01
      1         -3.571896   1.000000
      2         -1.635224   1.000000
      3          0.966739   1.000000
      4          3.817501   1.000000
      5         16.146660   0.000000
      6         20.030200   0.000000
      7         23.817757   0.000000
      8         25.228363   0.000000
 
 -0.3076923E+00  0.3846154E+00  0.7692308E-01  0.1092399E-01
      1         -3.778332   1.000000
      2         -1.396179   1.000000
      3          0.391596   1.000000
      4          4.360722   1.000000
      5         16.669793   0.000000
      6         22.438046   0.000000
      7         22.942203   0.000000
      8         24.481406   0.000000
 
 -0.4615385E+00  0.4615385E+00  0.7692308E-01  0.1092399E-01
      1         -4.035168   1.000000
      2         -1.636022   1.000000
      3          3.043478   1.000000
      4          3.138050   1.000000
      5         15.151574   0.000000
      6         15.873190   0.000000
      7         25.873482   0.000000
      8         26.293517   0.000000
 
 -0.3846154E+00  0.4615385E+00  0.7692308E-01  0.1092399E-01
      1         -2.793712   1.000000
      2         -2.560384   1.000000
      3          1.816592   1.000000
      4          3.306572   1.000000
      5         15.703490   0.000000
      6         17.411598   0.000000
      7         25.416218   0.000000
      8         25.809445   0.000000
 
  0.4615385E+00  0.3076923E+00  0.1538462E+00  0.1092399E-01
      1         -7.469041   1.000000
      2          1.729072   1.000000
      3          2.968281   1.000000
      4          5.597803   1.000000
      5         17.139889   0.000000
      6         19.966778   0.000000
      7         21.236957   0.000000
      8         23.292929   0.000000
 
 -0.4615385E+00  0.3076923E+00  0.1538462E+00  0.2184797E-01
      1         -6.125589   1.000000
      2         -0.016560   1.000000
      3          2.442472   1.000000
      4          4.825954   1.000000
      5         18.127860   0.000000
      6         19.691508   0.000000
      7         21.875916   0.000000
      8         24.216880   0.000000
 
 -0.3846154E+00  0.3076923E+00  0.1538462E+00  0.2184797E-01
      1         -4.735707   1.000000
      2         -1.771032   1.000000
      3          2.389485   1.000000
      4          4.320683   1.000000
      5         18.415401   0.000000
      6         19.699713   0.000000
      7         23.207254   0.000000
      8         24.364031   0.000000
 
 -0.4615385E+00  0.3846154E+00  0.1538462E+00  0.1092399E-01
      1         -5.653494   1.000000
      2          0.327804   1.000000
      3          2.246274   1.000000
      4          3.649989   1.000000
      5         17.108942   0.000000
      6         19.027861   0.000000
      7         22.267290   0.000000
      8         25.159874   0.000000
 
 -0.3846154E+00  0.3846154E+00  0.1538462E+00  0.2184797E-01
      1         -4.263055   1.000000
      2         -0.964153   1.000000
      3          1.544101   1.000000
      4          3.139906   1.000000
      5         18.006283   0.000000
      6         20.209941   0.000000
      7         22.046506   0.000000
      8         24.919718   0.000000
 
 -0.3076923E+00  0.3846154E+00  0.1538462E+00  0.2184797E-01
      1         -3.611882   1.000000
      2         -1.580941   1.000000
      3          1.043677   1.000000
      4          3.308129   1.000000
      5         18.427886   0.000000
      6         20.986957   0.000000
      7         23.005263   0.000000
      8         23.493399   0.000000
 
 -0.2307692E+00  0.3846154E+00  0.1538462E+00  0.1092399E-01
      1         -4.779670   1.000000
      2         -0.505444   1.000000
      3          1.091805   1.000000
      4          3.945448   1.000000
      5         18.937168   0.000000
      6         19.929331   0.000000
      7         22.273341   0.000000
      8         24.644529   0.000000
 
 -0.3846154E+00  0.4615385E+00  0.1538462E+00  0.1092399E-01
      1         -3.580233   1.000000
      2         -1.461223   1.000000
      3          2.004100   1.000000
      4          2.391618   1.000000
      5         17.363764   0.000000
      6         17.988960   0.000000
      7         23.981748   0.000000
      8         25.325297   0.000000
 
 -0.3076923E+00  0.4615385E+00  0.1538462E+00  0.1092399E-01
      1         -2.681335   1.000000
      2         -2.026168   1.000000
      3          1.000129   1.000000
      4          2.571604   1.000000
      5         17.969604   0.000000
      6         20.084274   0.000000
      7         23.340934   0.000000
      8         23.919950   0.000000
 
 -0.3076923E+00  0.4615385E+00  0.2307692E+00  0.1092399E-01
      1         -2.999617   1.000000
      2         -1.544433   1.000000
      3          1.116168   1.000000
      4          2.099920   1.000000
      5         20.031913   0.000000
      6         20.128122   0.000000
      7         21.976743   0.000000
      8         23.275539   0.000000
