       N       E                     dE             d eps       ncg     rms          rms(c)
DAV:   1    -0.614696234801E-01   -0.61470E-01   -0.50041E+03  1408   0.964E+02
DAV:   2    -0.187108020626E+02   -0.18649E+02   -0.17588E+02  2096   0.109E+02
DAV:   3    -0.188337333922E+02   -0.12293E+00   -0.12293E+00  1448   0.116E+01
DAV:   4    -0.188338936035E+02   -0.16021E-03   -0.16021E-03  1880   0.454E-01
DAV:   5    -0.188338936735E+02   -0.70051E-07   -0.70051E-07  1408   0.630E-03    0.561E+00
RMM:   6    -0.183442978711E+02    0.48960E+00   -0.28121E-01  1369   0.473E+00    0.333E+00
RMM:   7    -0.181799190086E+02    0.16438E+00   -0.43378E-01  1501   0.623E+00    0.738E-01
RMM:   8    -0.181836479492E+02   -0.37289E-02   -0.22958E-02  1390   0.180E+00    0.116E-01
RMM:   9    -0.181838572975E+02   -0.20935E-03   -0.35568E-03  1505   0.647E-01    0.510E-02
RMM:  10    -0.181838842233E+02   -0.26926E-04   -0.40565E-04  1417   0.224E-01    0.213E-02
RMM:  11    -0.181838869803E+02   -0.27570E-05   -0.58969E-05  1494   0.840E-02    0.527E-03
RMM:  12    -0.181838880414E+02   -0.10611E-05   -0.78339E-06  1398   0.326E-02    0.592E-03
RMM:  13    -0.181838882701E+02   -0.22870E-06   -0.58967E-07   960   0.860E-03
   1 F= -.18183888E+02 E0= -.18183888E+02  d E =-.238068E-11
