<?xml version="1.0" encoding="ISO-8859-1"?>
<modeling>
 <generator>
  <i name="program" type="string">vasp </i>
  <i name="version" type="string">6.5.1  </i>
  <i name="subversion" type="string">10Mar25 (build Feb 13 2026 23:13:13) complex                          parallel </i>
  <i name="platform" type="string">LinuxIFC </i>
  <i name="date" type="string">2026 06 23 </i>
  <i name="time" type="string">04:04:26 </i>
 </generator>
 <incar>
  <i type="string" name="PREC">Normal</i>
  <i type="string" name="ALGO">Fast</i>
  <i type="int" name="ISPIN">     1</i>
  <i type="int" name="NELMIN">     4</i>
  <i name="EDIFF">      0.00000100</i>
  <i type="int" name="NSW">     0</i>
  <i name="ENCUT">    750.00000000</i>
  <i type="logical" name="LREAL"> F  </i>
  <i type="int" name="ISMEAR">     0</i>
  <i name="SIGMA">      0.20000000</i>
  <i type="logical" name="LWAVE"> F  </i>
 </incar>
 <primitive_cell>
  <structure name="primitive_cell" >
   <crystal>
    <varray name="basis" >
     <v>       2.51730013       0.00000000       0.00000000 </v>
     <v>       1.25865006       2.18004586       0.00000000 </v>
     <v>       1.25865006       0.72668195       2.05536695 </v>
    </varray>
    <i name="volume">     11.27950384 </i>
    <varray name="rec_basis" >
     <v>       0.39725100      -0.22935297      -0.16217704 </v>
     <v>       0.00000000       0.45870595      -0.16217704 </v>
     <v>       0.00000000       0.00000000       0.48653113 </v>
    </varray>
   </crystal>
   <varray name="positions" >
    <v>       0.25000000       0.25000000       0.25000000 </v>
    <v>       0.00000000       0.00000000       0.00000000 </v>
   </varray>
  </structure>
  <varray name="primitive_index" >
   <v type="int" >        1 </v>
   <v type="int" >        2 </v>
  </varray>
 </primitive_cell>
 <kpoints>
  <generation param="Gamma">
   <v type="int" name="divisions">      10       10       10 </v>
   <v name="usershift">      0.00000000       0.00000000       0.00000000 </v>
   <v name="genvec1">      0.10000000      -0.00000000      -0.00000000 </v>
   <v name="genvec2">      0.00000000       0.10000000      -0.00000000 </v>
   <v name="genvec3">      0.00000000       0.00000000       0.10000000 </v>
   <v name="shift">      0.00000000       0.00000000       0.00000000 </v>
  </generation>
  <varray name="kpointlist" >
   <v>       0.00000000       0.00000000       0.00000000 </v>
   <v>       0.10000000       0.00000000       0.00000000 </v>
   <v>       0.20000000       0.00000000       0.00000000 </v>
   <v>       0.30000000       0.00000000       0.00000000 </v>
   <v>       0.40000000       0.00000000       0.00000000 </v>
   <v>       0.50000000       0.00000000       0.00000000 </v>
   <v>       0.10000000       0.10000000       0.00000000 </v>
   <v>       0.20000000       0.10000000       0.00000000 </v>
   <v>       0.30000000       0.10000000       0.00000000 </v>
   <v>       0.40000000       0.10000000       0.00000000 </v>
   <v>       0.50000000       0.10000000       0.00000000 </v>
   <v>      -0.40000000       0.10000000       0.00000000 </v>
   <v>      -0.30000000       0.10000000       0.00000000 </v>
   <v>      -0.20000000       0.10000000       0.00000000 </v>
   <v>      -0.10000000       0.10000000       0.00000000 </v>
   <v>       0.20000000       0.20000000       0.00000000 </v>
   <v>       0.30000000       0.20000000       0.00000000 </v>
   <v>       0.40000000       0.20000000       0.00000000 </v>
   <v>       0.50000000       0.20000000       0.00000000 </v>
   <v>      -0.40000000       0.20000000       0.00000000 </v>
   <v>      -0.30000000       0.20000000       0.00000000 </v>
   <v>      -0.20000000       0.20000000       0.00000000 </v>
   <v>       0.30000000       0.30000000       0.00000000 </v>
   <v>       0.40000000       0.30000000       0.00000000 </v>
   <v>       0.50000000       0.30000000       0.00000000 </v>
   <v>      -0.40000000       0.30000000       0.00000000 </v>
   <v>      -0.30000000       0.30000000       0.00000000 </v>
   <v>       0.40000000       0.40000000       0.00000000 </v>
   <v>       0.50000000       0.40000000       0.00000000 </v>
   <v>      -0.40000000       0.40000000       0.00000000 </v>
   <v>       0.50000000       0.50000000       0.00000000 </v>
   <v>       0.30000000       0.20000000       0.10000000 </v>
   <v>       0.40000000       0.20000000       0.10000000 </v>
   <v>       0.50000000       0.20000000       0.10000000 </v>
   <v>      -0.40000000       0.20000000       0.10000000 </v>
   <v>       0.40000000       0.30000000       0.10000000 </v>
   <v>       0.50000000       0.30000000       0.10000000 </v>
   <v>      -0.40000000       0.30000000       0.10000000 </v>
   <v>      -0.30000000       0.30000000       0.10000000 </v>
   <v>      -0.20000000       0.30000000       0.10000000 </v>
   <v>       0.50000000       0.40000000       0.10000000 </v>
   <v>      -0.40000000       0.40000000       0.10000000 </v>
   <v>      -0.30000000       0.40000000       0.10000000 </v>
   <v>      -0.40000000       0.50000000       0.10000000 </v>
   <v>      -0.40000000       0.40000000       0.20000000 </v>
   <v>      -0.30000000       0.40000000       0.20000000 </v>
   <v>      -0.30000000       0.50000000       0.20000000 </v>
  </varray>
  <varray name="weights" >
   <v>       0.00100000 </v>
   <v>       0.00800000 </v>
   <v>       0.00800000 </v>
   <v>       0.00800000 </v>
   <v>       0.00800000 </v>
   <v>       0.00400000 </v>
   <v>       0.00600000 </v>
   <v>       0.02400000 </v>
   <v>       0.02400000 </v>
   <v>       0.02400000 </v>
   <v>       0.02400000 </v>
   <v>       0.02400000 </v>
   <v>       0.02400000 </v>
   <v>       0.02400000 </v>
   <v>       0.01200000 </v>
   <v>       0.00600000 </v>
   <v>       0.02400000 </v>
   <v>       0.02400000 </v>
   <v>       0.02400000 </v>
   <v>       0.02400000 </v>
   <v>       0.02400000 </v>
   <v>       0.01200000 </v>
   <v>       0.00600000 </v>
   <v>       0.02400000 </v>
   <v>       0.02400000 </v>
   <v>       0.02400000 </v>
   <v>       0.01200000 </v>
   <v>       0.00600000 </v>
   <v>       0.02400000 </v>
   <v>       0.01200000 </v>
   <v>       0.00300000 </v>
   <v>       0.02400000 </v>
   <v>       0.04800000 </v>
   <v>       0.04800000 </v>
   <v>       0.02400000 </v>
   <v>       0.02400000 </v>
   <v>       0.04800000 </v>
   <v>       0.04800000 </v>
   <v>       0.04800000 </v>
   <v>       0.02400000 </v>
   <v>       0.02400000 </v>
   <v>       0.04800000 </v>
   <v>       0.02400000 </v>
   <v>       0.01200000 </v>
   <v>       0.02400000 </v>
   <v>       0.02400000 </v>
   <v>       0.01200000 </v>
  </varray>
 </kpoints>
 <parameters>
  <separator name="general" >
   <i type="string" name="SYSTEM">unknown system</i>
   <i type="logical" name="LCOMPAT"> F  </i>
  </separator>
  <separator name="electronic" >
   <i type="string" name="PREC">normal</i>
   <i name="ENMAX">    750.00000000</i>
   <i name="ENAUG">    644.87300000</i>
   <i name="EDIFF">      0.00000100</i>
   <i type="int" name="IALGO">    68</i>
   <i type="int" name="IWAVPR">    10</i>
   <i type="int" name="NBANDS">     8</i>
   <i type="int" name="NBANDSLOW">    -1</i>
   <i type="int" name="NBANDSHIGH">    -1</i>
   <i name="NELECT">      8.00000000</i>
   <i type="int" name="TURBO">     0</i>
   <i type="int" name="IRESTART">     0</i>
   <i type="int" name="NREBOOT">     0</i>
   <i type="int" name="NMIN">     0</i>
   <i name="EREF">      0.00000000</i>
   <separator name="electronic smearing" >
    <i type="int" name="ISMEAR">     0</i>
    <i name="SIGMA">      0.20000000</i>
    <i name="KSPACING">      0.50000000</i>
    <i type="logical" name="KGAMMA"> T  </i>
    <i type="logical" name="KBLOWUP"> T  </i>
   </separator>
   <separator name="electronic projectors" >
    <i type="logical" name="LREAL"> F  </i>
    <v name="ROPT">      0.00000000</v>
    <i type="int" name="LMAXPAW">  -100</i>
    <i type="int" name="LMAXMIX">     2</i>
    <i type="logical" name="NLSPLINE"> F  </i>
   </separator>
   <separator name="electronic startup" >
    <i type="int" name="ISTART">     0</i>
    <i type="int" name="ICHARG">     2</i>
    <i type="int" name="INIWAV">     1</i>
   </separator>
   <separator name="electronic spin" >
    <i type="int" name="ISPIN">     1</i>
    <i type="logical" name="LNONCOLLINEAR"> F  </i>
    <v name="MAGMOM">      1.00000000      1.00000000</v>
    <i name="NUPDOWN">     -1.00000000</i>
    <i type="logical" name="LSORBIT"> F  </i>
    <v name="SAXIS">      0.00000000      0.00000000      1.00000000</v>
    <i type="logical" name="LSPIRAL"> F  </i>
    <v name="QSPIRAL">      0.00000000      0.00000000      0.00000000</v>
    <i type="logical" name="LZEROZ"> F  </i>
   </separator>
   <separator name="electronic exchange-correlation" >
    <i type="logical" name="LASPH"> F  </i>
   </separator>
   <separator name="electronic convergence" >
    <i type="int" name="NELM">    60</i>
    <i type="int" name="NELMDL">    -5</i>
    <i type="int" name="NELMIN">     4</i>
    <i name="ENINI">    750.00000000</i>
    <separator name="electronic convergence detail" >
     <i type="logical" name="LDIAG"> T  </i>
     <i type="logical" name="LSUBROT"> F  </i>
     <i type="logical" name="LROBUST"> F  </i>
     <i type="int" name="ISEARCH">     0</i>
     <i name="WEIMIN">      0.00000000</i>
     <i name="EBREAK">      0.00000003</i>
     <i name="DEPER">      0.30000000</i>
     <i type="int" name="NRMM">     4</i>
     <i name="TIME">      0.40000000</i>
    </separator>
   </separator>
   <separator name="electronic mixer" >
    <i name="AMIX">      0.40000000</i>
    <i name="BMIX">      1.00000000</i>
    <i name="AMIN">      0.10000000</i>
    <i name="AMIX_MAG">      1.60000000</i>
    <i name="BMIX_MAG">      1.00000000</i>
    <separator name="electronic mixer details" >
     <i type="int" name="IMIX">     4</i>
     <i type="logical" name="MIXFIRST"> F  </i>
     <i type="int" name="MAXMIX">   -45</i>
     <i name="WC">    100.00000000</i>
     <i type="int" name="INIMIX">     1</i>
     <i type="int" name="MIXPRE">     1</i>
     <i type="int" name="MREMOVE">     5</i>
    </separator>
   </separator>
   <separator name="electronic dipolcorrection" >
    <i type="logical" name="LDIPOL"> F  </i>
    <i type="logical" name="LMONO"> F  </i>
    <i type="int" name="IDIPOL">     0</i>
    <i name="EPSILON">      1.00000000</i>
    <v name="DIPOL">   -100.00000000   -100.00000000   -100.00000000</v>
    <i name="EFIELD">      0.00000000</i>
    <i type="logical" name="LVACPOTAV"> F  </i>
   </separator>
  </separator>
  <separator name="grids" >
   <i type="int" name="NGX">    18</i>
   <i type="int" name="NGY">    18</i>
   <i type="int" name="NGZ">    18</i>
   <i type="int" name="NGXF">    36</i>
   <i type="int" name="NGYF">    36</i>
   <i type="int" name="NGZF">    36</i>
   <i type="logical" name="ADDGRID"> F  </i>
  </separator>
  <separator name="ionic" >
   <i type="int" name="NSW">     0</i>
   <i type="int" name="IBRION">    -1</i>
   <i type="int" name="MDALGO">     0</i>
   <i type="int" name="ISIF">     2</i>
   <i name="PSTRESS">      0.00000000</i>
   <i name="EDIFFG">      0.00001000</i>
   <i type="int" name="NFREE">     0</i>
   <i name="POTIM">      0.50000000</i>
   <i name="SMASS">     -3.00000000</i>
   <i name="SCALEE">      1.00000000</i>
  </separator>
  <separator name="ionic md" >
   <i name="TEBEG">      0.00010000</i>
   <i name="TEEND">      0.00010000</i>
   <i type="int" name="NBLOCK">     1</i>
   <i type="int" name="KBLOCK">     1</i>
   <i type="int" name="NPACO">   256</i>
   <i name="APACO">     10.00000000</i>
  </separator>
  <separator name="symmetry" >
   <i type="int" name="ISYM">     2</i>
   <i name="SYMPREC">      0.00001000</i>
  </separator>
  <separator name="dos" >
   <i type="int" name="LORBIT">     0</i>
   <v name="RWIGS">     -1.00000000</v>
   <i type="int" name="NEDOS">   301</i>
   <i name="EMIN">     10.00000000</i>
   <i name="EMAX">    -10.00000000</i>
   <i name="EFERMI">      0.00000000</i>
  </separator>
  <separator name="writing" >
   <i type="int" name="NWRITE">     2</i>
   <i type="logical" name="LWAVE"> F  </i>
   <i type="logical" name="LDOWNSAMPLE"> F  </i>
   <i type="logical" name="LCHARG"> T  </i>
   <i type="logical" name="LPARD"> F  </i>
   <i type="logical" name="LVTOT"> F  </i>
   <i type="logical" name="LVHAR"> F  </i>
   <i type="logical" name="LELF"> F  </i>
   <i type="logical" name="LOPTICS"> F  </i>
   <v name="STM">      0.00000000      0.00000000      0.00000000      0.00000000      0.00000000      0.00000000      0.00000000</v>
  </separator>
  <separator name="performance" >
   <i type="int" name="NPAR">     4</i>
   <i type="int" name="NSIM">     4</i>
   <i type="int" name="NBLK">    -1</i>
   <i type="logical" name="LPLANE"> T  </i>
   <i type="logical" name="LSCALAPACK"> T  </i>
   <i type="logical" name="LSCAAWARE"> F  </i>
   <i type="logical" name="LSCALU"> F  </i>
   <i type="logical" name="LASYNC"> F  </i>
   <i type="logical" name="LORBITALREAL"> F  </i>
  </separator>
  <separator name="miscellaneous" >
   <i type="int" name="IDIOT">     3</i>
   <i type="int" name="PHON_NSTRUCT">    -1</i>
   <i type="logical" name="LMUSIC"> F  </i>
   <v name="POMASS">     12.01100000</v>
   <v name="DARWINR">      0.00000000</v>
   <v name="DARWINV">      1.00000000</v>
   <i type="logical" name="LCORR"> T  </i>
  </separator>
  <i type="logical" name="GGA_COMPAT"> T  </i>
  <i type="logical" name="LBERRY"> F  </i>
  <i type="int" name="ICORELEVEL">     0</i>
  <i type="logical" name="LDAU"> F  </i>
  <i type="int" name="I_CONSTRAINED_M">     0</i>
  <separator name="electronic exchange-correlation" >
   <i type="string" name="GGA    ">PE</i>
   <i type="string" name="XC_C">1</i>
   <i type="int" name="VOSKOWN">     0</i>
   <i type="logical" name="LHFCALC"> F  </i>
   <i type="string" name="PRECFOCK"></i>
   <i type="logical" name="LSYMGRAD"> F  </i>
   <i type="logical" name="LHFONE"> F  </i>
   <i type="logical" name="LRHFCALC"> F  </i>
   <i type="logical" name="LTHOMAS"> F  </i>
   <i type="logical" name="LMODELHF"> F  </i>
   <i type="logical" name="LFOCKACE"> F  </i>
   <i name="ENCUT4O">     -1.00000000</i>
   <i type="int" name="EXXOEP">     0</i>
   <i type="int" name="FOURORBIT">     0</i>
   <i name="AEXX">      0.00000000</i>
   <i name="HFALPHA">      0.00000000</i>
   <i name="MCALPHA">      0.00000000</i>
   <i name="ALDAX">      1.00000000</i>
   <i name="AGGAX">      1.00000000</i>
   <i name="AMGGAX">      1.00000000</i>
   <i name="ALDAC">      1.00000000</i>
   <i name="AGGAC">      1.00000000</i>
   <i name="AMGGAC">      1.00000000</i>
   <i type="int" name="NKREDX">     1</i>
   <i type="int" name="NKREDY">     1</i>
   <i type="int" name="NKREDZ">     1</i>
   <i type="logical" name="SHIFTRED"> F  </i>
   <i type="logical" name="ODDONLY"> F  </i>
   <i type="logical" name="EVENONLY"> F  </i>
   <i type="int" name="LMAXFOCK">     0</i>
   <i type="int" name="NMAXFOCKAE">     0</i>
   <i type="logical" name="LFOCKAEDFT"> F  </i>
   <i name="HFSCREEN">      0.00000000</i>
   <i name="HFSCREENC">      0.00000000</i>
   <i type="int" name="NBANDSGWLOW">     0</i>
  </separator>
  <separator name="vdW DFT" >
   <i type="logical" name="LUSE_VDW"> F  </i>
   <i type="int" name="IVDW_NL">    -1</i>
   <i type="logical" name="LSPIN_VDW"> F  </i>
   <i name="ZAB_VDW">     -0.84910000</i>
   <i name="GAMMA_VDW">      1.39626340</i>
   <i name="ALPHA_VDW">      0.00000000</i>
   <i name="PARAM1">      0.12340000</i>
   <i name="PARAM2">      1.00000000</i>
   <i name="BPARAM">      6.30000000</i>
   <i name="CPARAM">      0.00930000</i>
  </separator>
  <separator name="model GW" >
   <i type="int" name="MODEL_GW">     0</i>
   <i name="MODEL_EPS0">      3.38385115</i>
   <i name="MODEL_ALPHA">      1.00000000</i>
  </separator>
  <separator name="linear response parameters" >
   <i type="logical" name="LEPSILON"> F  </i>
   <i type="logical" name="LRPA"> F  </i>
   <i type="logical" name="LNABLA"> F  </i>
   <i type="logical" name="LVEL"> F  </i>
   <i name="CSHIFT">      0.10000000</i>
   <i name="OMEGAMAX">     -1.00000000</i>
   <i name="DEG_THRESHOLD">      0.00200000</i>
   <i name="RTIME">     -0.10000000</i>
   <i name="WPLASMAI">      0.00000000</i>
   <v name="DFIELD">      0.00000000      0.00000000      0.00000000</v>
   <v name="WPLASMA">      0.00000000      0.00000000      0.00000000      0.00000000      0.00000000      0.00000000      0.00000000      0.00000000      0.00000000</v>
  </separator>
  <separator name="orbital magnetization" >
   <i type="logical" name="NUCIND"> F  </i>
   <v name="MAGPOS">      0.00000000      0.00000000      0.00000000</v>
   <i type="logical" name="LNICSALL"> T  </i>
   <i type="logical" name="ORBITALMAG"> F  </i>
   <i type="logical" name="LMAGBLOCH"> F  </i>
   <i type="logical" name="LCHIMAG"> F  </i>
   <i type="logical" name="LGAUGE"> T  </i>
   <i type="int" name="MAGATOM">     0</i>
   <v name="MAGDIPOL">      0.00000000      0.00000000      0.00000000</v>
   <v name="AVECCONST">      0.00000000      0.00000000      0.00000000</v>
  </separator>
  <separator name="response functions" >
   <i type="logical" name="LALL_IN_ONE"> F  </i>
   <i type="int" name="IALL_IN_ONE">    -1</i>
   <i type="int" name="NBANDS_WAVE">    -1</i>
   <i type="logical" name="LFINITE_TEMPERATURE"> F  </i>
   <i type="logical" name="LADDER"> F  </i>
   <i type="logical" name="LRPAFORCE"> F  </i>
   <i type="logical" name="LFXC"> F  </i>
   <i type="logical" name="LHARTREE"> T  </i>
   <i type="int" name="IBSE">     2</i>
   <v type="int" name="KPOINT">    -1     0     0     0</v>
   <i type="logical" name="LTCTC"> F  </i>
   <i type="logical" name="LTCTE"> F  </i>
   <i type="logical" name="LTETE"> F  </i>
   <i type="logical" name="LTRIPLET"> F  </i>
   <i type="logical" name="LFXCEPS"> F  </i>
   <i type="logical" name="LFXHEG"> F  </i>
   <i type="int" name="NATURALO">     2</i>
   <i type="logical" name="LHOLEGF"> F  </i>
   <i type="logical" name="L2ORDER"> F  </i>
   <i type="logical" name="LDMP1"> F  </i>
   <i type="logical" name="LMP2LT"> F  </i>
   <i type="logical" name="LSMP2LT"> F  </i>
   <i type="logical" name="LGWLF"> F  </i>
   <i name="ENCUTGW">     -1.60000002</i>
   <i name="ENCUTGWSOFT">     -1.60000002</i>
   <i name="ENCUTLF">     -1.00000000</i>
   <i type="logical" name="ESF_SPLINES"> F  </i>
   <i name="ESF_CONV">      0.01000000</i>
   <i type="int" name="ESF_NINTER">    15</i>
   <i type="int" name="LMAXMP2">    -1</i>
   <i name="SCISSOR">      0.00000000</i>
   <i type="int" name="NOMEGA">     0</i>
   <i type="int" name="NOMEGAR">     0</i>
   <i type="int" name="NBANDSGW">    -1</i>
   <i type="int" name="NBANDSO">    -1</i>
   <i type="int" name="NBANDSV">    -1</i>
   <i type="int" name="NELMGW">     1</i>
   <i type="int" name="NELMHF">     1</i>
   <i type="int" name="DIM">     3</i>
   <i type="int" name="IESPILON">     4</i>
   <i type="int" name="ANTIRES">     0</i>
   <i name="OMEGAMAX">    -30.00000000</i>
   <i name="OMEGAMIN">    -30.00000000</i>
   <i name="OMEGATL">   -200.00000000</i>
   <i type="int" name="OMEGAGRID">     0</i>
   <i name="CSHIFT">     -0.10000000</i>
   <i type="logical" name="LSELFENERGY"> F  </i>
   <i type="logical" name="LSPECTRAL"> F  </i>
   <i type="logical" name="LSPECTRALGW"> F  </i>
   <i type="logical" name="LSINGLES"> F  </i>
   <i type="logical" name="LFERMIGW"> F  </i>
   <i type="logical" name="ODDONLYGW"> F  </i>
   <i type="logical" name="EVENONLYGW"> F  </i>
   <i type="int" name="NKREDLFX">     1</i>
   <i type="int" name="NKREDLFY">     1</i>
   <i type="int" name="NKREDLFZ">     1</i>
   <i type="int" name="MAXMEM">  2800</i>
   <i type="int" name="TELESCOPE">     0</i>
   <i type="int" name="NTAUPAR">    -1</i>
   <i type="int" name="NOMEGAPAR">    -1</i>
   <i name="DAMP_NEWTON">      0.80000001</i>
   <i name="LAMBDA">      1.00000000</i>
  </separator>
  <separator name="External order field" >
   <i name="OFIELD_KAPPA">      0.00000000</i>
   <v name="OFIELD_K">      0.00000000      0.00000000      0.00000000</v>
   <i name="OFIELD_Q6_NEAR">      0.00000000</i>
   <i name="OFIELD_Q6_FAR">      0.00000000</i>
   <i name="OFIELD_A">      0.00000000</i>
  </separator>
  <separator name="optional k-points parameters" >
   <i type="int" name="KPOINTS_OPT_MODE">     1</i>
   <i type="logical" name="LKPOINTS_OPT"> F  </i>
  </separator>
 </parameters>
 <atominfo>
  <atoms>       2 </atoms>
  <types>       1 </types>
  <array name="atoms" >
   <dimension dim="1">ion</dimension>
   <field type="string">element</field>
   <field type="int">atomtype</field>
   <set>
    <rc><c>C </c><c>   1</c></rc>
    <rc><c>C </c><c>   1</c></rc>
   </set>
  </array>
  <array name="atomtypes" >
   <dimension dim="1">type</dimension>
   <field type="int">atomspertype</field>
   <field type="string">element</field>
   <field>mass</field>
   <field>valence</field>
   <field type="string">pseudopotential</field>
   <set>
    <rc><c>   2</c><c>C </c><c>     12.01100000</c><c>      4.00000000</c><c>  PAW_PBE C 08Apr2002                   </c></rc>
   </set>
  </array>
 </atominfo>
 <structure name="initialpos" >
  <crystal>
   <varray name="basis" >
    <v>       2.51730013       0.00000000       0.00000000 </v>
    <v>       1.25865006       2.18004586       0.00000000 </v>
    <v>       1.25865006       0.72668195       2.05536695 </v>
   </varray>
   <i name="volume">     11.27950384 </i>
   <varray name="rec_basis" >
    <v>       0.39725100      -0.22935297      -0.16217704 </v>
    <v>       0.00000000       0.45870595      -0.16217704 </v>
    <v>       0.00000000       0.00000000       0.48653113 </v>
   </varray>
  </crystal>
  <varray name="positions" >
   <v>       0.25000000       0.25000000       0.25000000 </v>
   <v>       0.00000000       0.00000000       0.00000000 </v>
  </varray>
 </structure>
 <calculation>
  <scstep>
   <time name="dav">    0.06    0.06</time>
   <time name="total">    0.06    0.07</time>
   <energy>
    <i name="alphaZ">     29.13132251 </i>
    <i name="ewald">   -348.62358043 </i>
    <i name="hartreedc">    -17.48913657 </i>
    <i name="XCdc">     27.44127266 </i>
    <i name="pawpsdc">    217.04409276 </i>
    <i name="pawaedc">   -218.18290438 </i>
    <i name="eentropy">     -0.00748058 </i>
    <i name="bandstr">     22.99053838 </i>
    <i name="atom">    294.30761017 </i>
    <i name="e_fr_energy">      6.61173453 </i>
    <i name="e_wo_entrp">      6.61921511 </i>
    <i name="e_0_energy">      6.61547482 </i>
   </energy>
  </scstep>
  <scstep>
   <time name="dav">    0.08    0.09</time>
   <time name="total">    0.08    0.09</time>
   <energy>
    <i name="e_fr_energy">    -18.68917433 </i>
    <i name="e_wo_entrp">    -18.68917433 </i>
    <i name="e_0_energy">    -18.68917433 </i>
   </energy>
  </scstep>
  <scstep>
   <time name="dav">    0.05    0.06</time>
   <time name="total">    0.06    0.06</time>
   <energy>
    <i name="e_fr_energy">    -18.84377749 </i>
    <i name="e_wo_entrp">    -18.84377749 </i>
    <i name="e_0_energy">    -18.84377749 </i>
   </energy>
  </scstep>
  <scstep>
   <time name="dav">    0.07    0.07</time>
   <time name="total">    0.07    0.07</time>
   <energy>
    <i name="e_fr_energy">    -18.84397855 </i>
    <i name="e_wo_entrp">    -18.84397855 </i>
    <i name="e_0_energy">    -18.84397855 </i>
   </energy>
  </scstep>
  <scstep>
   <time name="dav">    0.05    0.05</time>
   <time name="total">    0.06    0.06</time>
   <energy>
    <i name="e_fr_energy">    -18.84397860 </i>
    <i name="e_wo_entrp">    -18.84397860 </i>
    <i name="e_0_energy">    -18.84397860 </i>
   </energy>
  </scstep>
  <scstep>
   <time name="diag">    0.04    0.04</time>
   <time name="diis">    0.02    0.02</time>
   <time name="orth">    0.00    0.00</time>
   <time name="total">    0.07    0.07</time>
   <energy>
    <i name="e_fr_energy">    -18.35625390 </i>
    <i name="e_wo_entrp">    -18.35625390 </i>
    <i name="e_0_energy">    -18.35625390 </i>
   </energy>
  </scstep>
  <scstep>
   <time name="diag">    0.03    0.03</time>
   <time name="diis">    0.02    0.02</time>
   <time name="orth">    0.00    0.00</time>
   <time name="total">    0.07    0.07</time>
   <energy>
    <i name="e_fr_energy">    -18.19239023 </i>
    <i name="e_wo_entrp">    -18.19239023 </i>
    <i name="e_0_energy">    -18.19239023 </i>
   </energy>
  </scstep>
  <scstep>
   <time name="diag">    0.03    0.03</time>
   <time name="diis">    0.02    0.02</time>
   <time name="orth">    0.00    0.00</time>
   <time name="total">    0.06    0.06</time>
   <energy>
    <i name="e_fr_energy">    -18.19609319 </i>
    <i name="e_wo_entrp">    -18.19609319 </i>
    <i name="e_0_energy">    -18.19609319 </i>
   </energy>
  </scstep>
  <scstep>
   <time name="diag">    0.03    0.03</time>
   <time name="diis">    0.02    0.02</time>
   <time name="orth">    0.00    0.00</time>
   <time name="total">    0.06    0.07</time>
   <energy>
    <i name="e_fr_energy">    -18.19630432 </i>
    <i name="e_wo_entrp">    -18.19630432 </i>
    <i name="e_0_energy">    -18.19630432 </i>
   </energy>
  </scstep>
  <scstep>
   <time name="diag">    0.03    0.03</time>
   <time name="diis">    0.02    0.02</time>
   <time name="orth">    0.00    0.00</time>
   <time name="total">    0.06    0.06</time>
   <energy>
    <i name="e_fr_energy">    -18.19633071 </i>
    <i name="e_wo_entrp">    -18.19633071 </i>
    <i name="e_0_energy">    -18.19633071 </i>
   </energy>
  </scstep>
  <scstep>
   <time name="diag">    0.03    0.03</time>
   <time name="diis">    0.02    0.02</time>
   <time name="orth">    0.00    0.00</time>
   <time name="total">    0.06    0.06</time>
   <energy>
    <i name="e_fr_energy">    -18.19633432 </i>
    <i name="e_wo_entrp">    -18.19633432 </i>
    <i name="e_0_energy">    -18.19633432 </i>
   </energy>
  </scstep>
  <scstep>
   <time name="diag">    0.03    0.03</time>
   <time name="diis">    0.02    0.02</time>
   <time name="orth">    0.00    0.00</time>
   <time name="total">    0.06    0.06</time>
   <energy>
    <i name="e_fr_energy">    -18.19633535 </i>
    <i name="e_wo_entrp">    -18.19633535 </i>
    <i name="e_0_energy">    -18.19633535 </i>
   </energy>
  </scstep>
  <scstep>
   <time name="diag">    0.03    0.03</time>
   <time name="diis">    0.02    0.02</time>
   <time name="orth">    0.00    0.00</time>
   <time name="total">    0.05    0.05</time>
   <energy>
    <i name="alphaZ">     29.13132251 </i>
    <i name="ewald">   -348.62358043 </i>
    <i name="hartreedc">    -26.32296089 </i>
    <i name="XCdc">     28.24926892 </i>
    <i name="pawpsdc">    770.93958480 </i>
    <i name="pawaedc">   -772.27335623 </i>
    <i name="eentropy">     -0.00000000 </i>
    <i name="bandstr">      6.39577553 </i>
    <i name="atom">    294.30761017 </i>
    <i name="e_fr_energy">    -18.19633562 </i>
    <i name="e_wo_entrp">    -18.19633562 </i>
    <i name="e_0_energy">    -18.19633562 </i>
   </energy>
  </scstep>
  <structure>
   <crystal>
    <varray name="basis" >
     <v>       2.51730013       0.00000000       0.00000000 </v>
     <v>       1.25865006       2.18004586       0.00000000 </v>
     <v>       1.25865006       0.72668195       2.05536695 </v>
    </varray>
    <i name="volume">     11.27950384 </i>
    <varray name="rec_basis" >
     <v>       0.39725100      -0.22935297      -0.16217704 </v>
     <v>       0.00000000       0.45870595      -0.16217704 </v>
     <v>       0.00000000       0.00000000       0.48653113 </v>
    </varray>
   </crystal>
   <varray name="positions" >
    <v>       0.25000000       0.25000000       0.25000000 </v>
    <v>       0.00000000       0.00000000       0.00000000 </v>
   </varray>
  </structure>
  <varray name="forces" >
   <v>       0.00000000       0.00000000       0.00000000 </v>
   <v>      -0.00000000      -0.00000000      -0.00000000 </v>
  </varray>
  <varray name="stress" >
   <v>      41.68614530       0.00000000       0.00000000 </v>
   <v>       0.00000000      41.68614530      -0.00000000 </v>
   <v>       0.00000000      -0.00000000      41.68614530 </v>
  </varray>
  <energy>
   <i name="e_fr_energy">    -18.19633562 </i>
   <i name="e_wo_entrp">    -18.19633562 </i>
   <i name="e_0_energy">    -18.19633562 </i>
  </energy>
  <time name="totalsc">    0.90    0.94</time>
  <eigenvalues>
   <array>
    <dimension dim="1">band</dimension>
    <dimension dim="2">kpoint</dimension>
    <dimension dim="3">spin</dimension>
    <field>eigene</field>
    <field>occ</field>
    <set>
     <set comment="spin 1">
      <set comment="kpoint 1">
       <r>  -11.7433    1.0000 </r>
       <r>    9.8075    1.0000 </r>
       <r>    9.8075    1.0000 </r>
       <r>    9.8075    1.0000 </r>
       <r>   15.4143    0.0000 </r>
       <r>   15.4143    0.0000 </r>
       <r>   15.4143    0.0000 </r>
       <r>   23.2693    0.0000 </r>
      </set>
      <set comment="kpoint 2">
       <r>  -11.4655    1.0000 </r>
       <r>    8.1247    1.0000 </r>
       <r>    9.3584    1.0000 </r>
       <r>    9.3584    1.0000 </r>
       <r>   16.0042    0.0000 </r>
       <r>   16.0042    0.0000 </r>
       <r>   16.3671    0.0000 </r>
       <r>   23.5000    0.0000 </r>
      </set>
      <set comment="kpoint 3">
       <r>  -10.6372    1.0000 </r>
       <r>    4.9070    1.0000 </r>
       <r>    8.4776    1.0000 </r>
       <r>    8.4776    1.0000 </r>
       <r>   17.1406    0.0000 </r>
       <r>   17.1406    0.0000 </r>
       <r>   17.5927    0.0000 </r>
       <r>   24.1387    0.0000 </r>
      </set>
      <set comment="kpoint 4">
       <r>   -9.2781    1.0000 </r>
       <r>    1.4955    1.0000 </r>
       <r>    7.6829    1.0000 </r>
       <r>    7.6829    1.0000 </r>
       <r>   17.9654    0.0000 </r>
       <r>   17.9654    0.0000 </r>
       <r>   18.3008    0.0000 </r>
       <r>   24.9163    0.0000 </r>
      </set>
      <set comment="kpoint 5">
       <r>   -7.4594    1.0000 </r>
       <r>   -1.6492    1.0000 </r>
       <r>    7.1687    1.0000 </r>
       <r>    7.1687    1.0000 </r>
       <r>   18.2545    0.0000 </r>
       <r>   18.2545    0.0000 </r>
       <r>   18.6344    0.0000 </r>
       <r>   25.4232    0.0000 </r>
      </set>
      <set comment="kpoint 6">
       <r>   -5.9365    1.0000 </r>
       <r>   -3.6274    1.0000 </r>
       <r>    6.9927    1.0000 </r>
       <r>    6.9927    1.0000 </r>
       <r>   18.2914    0.0000 </r>
       <r>   18.2914    0.0000 </r>
       <r>   18.7328    0.0000 </r>
       <r>   25.5579    0.0000 </r>
      </set>
      <set comment="kpoint 7">
       <r>  -11.3730    1.0000 </r>
       <r>    8.5735    1.0000 </r>
       <r>    8.5735    1.0000 </r>
       <r>    8.9369    1.0000 </r>
       <r>   15.1391    0.0000 </r>
       <r>   16.9660    0.0000 </r>
       <r>   16.9660    0.0000 </r>
       <r>   23.3666    0.0000 </r>
      </set>
      <set comment="kpoint 8">
       <r>  -10.7284    1.0000 </r>
       <r>    6.0263    1.0000 </r>
       <r>    7.6011    1.0000 </r>
       <r>    8.4670    1.0000 </r>
       <r>   15.5672    0.0000 </r>
       <r>   18.2743    0.0000 </r>
       <r>   18.2957    0.0000 </r>
       <r>   23.2682    0.0000 </r>
      </set>
      <set comment="kpoint 9">
       <r>   -9.5456    1.0000 </r>
       <r>    2.7424    1.0000 </r>
       <r>    6.8519    1.0000 </r>
       <r>    7.5954    1.0000 </r>
       <r>   16.6096    0.0000 </r>
       <r>   19.1340    0.0000 </r>
       <r>   19.2263    0.0000 </r>
       <r>   23.4557    0.0000 </r>
      </set>
      <set comment="kpoint 10">
       <r>   -7.8698    1.0000 </r>
       <r>   -0.4683    1.0000 </r>
       <r>    6.4740    1.0000 </r>
       <r>    6.7219    1.0000 </r>
       <r>   17.3284    0.0000 </r>
       <r>   19.4431    0.0000 </r>
       <r>   19.5399    0.0000 </r>
       <r>   24.3434    0.0000 </r>
      </set>
      <set comment="kpoint 11">
       <r>   -5.9927    1.0000 </r>
       <r>   -3.0776    1.0000 </r>
       <r>    6.0848    1.0000 </r>
       <r>    6.5027    1.0000 </r>
       <r>   17.7332    0.0000 </r>
       <r>   19.1941    0.0000 </r>
       <r>   19.6711    0.0000 </r>
       <r>   25.3445    0.0000 </r>
      </set>
      <set comment="kpoint 12">
       <r>   -6.5765    1.0000 </r>
       <r>   -2.3424    1.0000 </r>
       <r>    5.7897    1.0000 </r>
       <r>    6.9169    1.0000 </r>
       <r>   18.1321    0.0000 </r>
       <r>   18.7732    0.0000 </r>
       <r>   19.6093    0.0000 </r>
       <r>   25.4196    0.0000 </r>
      </set>
      <set comment="kpoint 13">
       <r>   -8.4781    1.0000 </r>
       <r>    0.5796    1.0000 </r>
       <r>    5.8896    1.0000 </r>
       <r>    7.6512    1.0000 </r>
       <r>   18.1571    0.0000 </r>
       <r>   18.4601    0.0000 </r>
       <r>   19.3070    0.0000 </r>
       <r>   24.6116    0.0000 </r>
      </set>
      <set comment="kpoint 14">
       <r>   -9.9985    1.0000 </r>
       <r>    3.8640    1.0000 </r>
       <r>    6.4028    1.0000 </r>
       <r>    8.5655    1.0000 </r>
       <r>   17.1808    0.0000 </r>
       <r>   18.3333    0.0000 </r>
       <r>   18.5122    0.0000 </r>
       <r>   23.9125    0.0000 </r>
      </set>
      <set comment="kpoint 15">
       <r>  -11.0042    1.0000 </r>
       <r>    6.8646    1.0000 </r>
       <r>    7.4648    1.0000 </r>
       <r>    9.3303    1.0000 </r>
       <r>   16.1628    0.0000 </r>
       <r>   17.1889    0.0000 </r>
       <r>   17.5058    0.0000 </r>
       <r>   23.6612    0.0000 </r>
      </set>
      <set comment="kpoint 16">
       <r>  -10.2697    1.0000 </r>
       <r>    6.5634    1.0000 </r>
       <r>    6.5634    1.0000 </r>
       <r>    6.7165    1.0000 </r>
       <r>   14.5471    0.0000 </r>
       <r>   19.8931    0.0000 </r>
       <r>   19.8931    0.0000 </r>
       <r>   21.7037    0.0000 </r>
      </set>
      <set comment="kpoint 17">
       <r>   -9.2710    1.0000 </r>
       <r>    3.9568    1.0000 </r>
       <r>    5.7702    1.0000 </r>
       <r>    6.1476    1.0000 </r>
       <r>   14.9766    0.0000 </r>
       <r>   20.6424    0.0000 </r>
       <r>   21.1340    0.0000 </r>
       <r>   21.1693    0.0000 </r>
      </set>
      <set comment="kpoint 18">
       <r>   -7.7648    1.0000 </r>
       <r>    0.9827    1.0000 </r>
       <r>    5.0865    1.0000 </r>
       <r>    5.3828    1.0000 </r>
       <r>   15.9263    0.0000 </r>
       <r>   21.0839    0.0000 </r>
       <r>   21.6437    0.0000 </r>
       <r>   21.7380    0.0000 </r>
      </set>
      <set comment="kpoint 19">
       <r>   -5.8921    1.0000 </r>
       <r>   -1.7674    1.0000 </r>
       <r>    4.0834    1.0000 </r>
       <r>    5.4478    1.0000 </r>
       <r>   16.5065    0.0000 </r>
       <r>   21.3838    0.0000 </r>
       <r>   21.9323    0.0000 </r>
       <r>   23.1201    0.0000 </r>
      </set>
      <set comment="kpoint 20">
       <r>   -5.3421    1.0000 </r>
       <r>   -2.4257    1.0000 </r>
       <r>    3.4094    1.0000 </r>
       <r>    5.9471    1.0000 </r>
       <r>   17.0790    0.0000 </r>
       <r>   20.6999    0.0000 </r>
       <r>   21.9061    0.0000 </r>
       <r>   25.1047    0.0000 </r>
      </set>
      <set comment="kpoint 21">
       <r>   -7.1774    1.0000 </r>
       <r>    0.0929    1.0000 </r>
       <r>    3.1872    1.0000 </r>
       <r>    6.7992    1.0000 </r>
       <r>   17.8182    0.0000 </r>
       <r>   19.6774    0.0000 </r>
       <r>   21.5930    0.0000 </r>
       <r>   24.3309    0.0000 </r>
      </set>
      <set comment="kpoint 22">
       <r>   -8.8285    1.0000 </r>
       <r>    2.8070    1.0000 </r>
       <r>    3.7736    1.0000 </r>
       <r>    7.8120    1.0000 </r>
       <r>   18.3268    0.0000 </r>
       <r>   18.4271    0.0000 </r>
       <r>   20.3472    0.0000 </r>
       <r>   23.5495    0.0000 </r>
      </set>
      <set comment="kpoint 23">
       <r>   -8.4594    1.0000 </r>
       <r>    3.7150    1.0000 </r>
       <r>    4.8946    1.0000 </r>
       <r>    4.8946    1.0000 </r>
       <r>   14.0573    0.0000 </r>
       <r>   18.5151    0.0000 </r>
       <r>   22.9621    0.0000 </r>
       <r>   22.9621    0.0000 </r>
      </set>
      <set comment="kpoint 24">
       <r>   -7.1357    1.0000 </r>
       <r>    1.7318    1.0000 </r>
       <r>    3.7940    1.0000 </r>
       <r>    4.4214    1.0000 </r>
       <r>   14.6164    0.0000 </r>
       <r>   17.8507    0.0000 </r>
       <r>   23.9539    0.0000 </r>
       <r>   24.0147    0.0000 </r>
      </set>
      <set comment="kpoint 25">
       <r>   -5.3856    1.0000 </r>
       <r>   -0.4588    1.0000 </r>
       <r>    2.2525    1.0000 </r>
       <r>    4.4176    1.0000 </r>
       <r>   15.3826    0.0000 </r>
       <r>   19.3949    0.0000 </r>
       <r>   23.9315    0.0000 </r>
       <r>   24.3998    0.0000 </r>
      </set>
      <set comment="kpoint 26">
       <r>   -4.0255    1.0000 </r>
       <r>   -1.9010    1.0000 </r>
       <r>    1.1000    1.0000 </r>
       <r>    4.8794    1.0000 </r>
       <r>   15.9630    0.0000 </r>
       <r>   22.4389    0.0000 </r>
       <r>   23.0882    0.0000 </r>
       <r>   24.4822    0.0000 </r>
      </set>
      <set comment="kpoint 27">
       <r>   -5.4692    1.0000 </r>
       <r>   -0.3665    1.0000 </r>
       <r>    0.9002    1.0000 </r>
       <r>    5.7355    1.0000 </r>
       <r>   16.8074    0.0000 </r>
       <r>   21.5814    0.0000 </r>
       <r>   24.0007    0.0000 </r>
       <r>   24.3998    0.0000 </r>
      </set>
      <set comment="kpoint 28">
       <r>   -5.9983    1.0000 </r>
       <r>    0.3480    1.0000 </r>
       <r>    3.8359    1.0000 </r>
       <r>    3.8359    1.0000 </r>
       <r>   13.9911    0.0000 </r>
       <r>   16.0336    0.0000 </r>
       <r>   25.5636    0.0000 </r>
       <r>   25.5636    0.0000 </r>
      </set>
      <set comment="kpoint 29">
       <r>   -4.4120    1.0000 </r>
       <r>   -1.2911    1.0000 </r>
       <r>    2.7215    1.0000 </r>
       <r>    3.7191    1.0000 </r>
       <r>   14.6639    0.0000 </r>
       <r>   16.1358    0.0000 </r>
       <r>   25.9410    0.0000 </r>
       <r>   26.1318    0.0000 </r>
      </set>
      <set comment="kpoint 30">
       <r>   -2.9408    1.0000 </r>
       <r>   -2.3323    1.0000 </r>
       <r>    0.9846    1.0000 </r>
       <r>    4.0845    1.0000 </r>
       <r>   15.1755    0.0000 </r>
       <r>   18.8382    0.0000 </r>
       <r>   25.0316    0.0000 </r>
       <r>   25.8858    0.0000 </r>
      </set>
      <set comment="kpoint 31">
       <r>   -2.9957    1.0000 </r>
       <r>   -2.9957    1.0000 </r>
       <r>    3.4753    1.0000 </r>
       <r>    3.4753    1.0000 </r>
       <r>   14.5803    0.0000 </r>
       <r>   14.5803    0.0000 </r>
       <r>   26.6984    0.0000 </r>
       <r>   26.6984    0.0000 </r>
      </set>
      <set comment="kpoint 32">
       <r>   -9.9064    1.0000 </r>
       <r>    4.7560    1.0000 </r>
       <r>    5.5636    1.0000 </r>
       <r>    7.8987    1.0000 </r>
       <r>   15.9607    0.0000 </r>
       <r>   19.2490    0.0000 </r>
       <r>   19.8384    0.0000 </r>
       <r>   22.5062    0.0000 </r>
      </set>
      <set comment="kpoint 33">
       <r>   -8.5604    1.0000 </r>
       <r>    1.9179    1.0000 </r>
       <r>    4.6911    1.0000 </r>
       <r>    7.0003    1.0000 </r>
       <r>   17.0907    0.0000 </r>
       <r>   19.4231    0.0000 </r>
       <r>   21.0866    0.0000 </r>
       <r>   22.5719    0.0000 </r>
      </set>
      <set comment="kpoint 34">
       <r>   -6.7672    1.0000 </r>
       <r>   -1.0609    1.0000 </r>
       <r>    4.4536    1.0000 </r>
       <r>    6.1287    1.0000 </r>
       <r>   17.8320    0.0000 </r>
       <r>   19.1628    0.0000 </r>
       <r>   21.6349    0.0000 </r>
       <r>   23.9933    0.0000 </r>
      </set>
      <set comment="kpoint 35">
       <r>   -5.2848    1.0000 </r>
       <r>   -2.9615    1.0000 </r>
       <r>    4.4477    1.0000 </r>
       <r>    5.7430    1.0000 </r>
       <r>   18.0217    0.0000 </r>
       <r>   19.0172    0.0000 </r>
       <r>   21.7945    0.0000 </r>
       <r>   25.1431    0.0000 </r>
      </set>
      <set comment="kpoint 36">
       <r>   -8.1092    1.0000 </r>
       <r>    2.7164    1.0000 </r>
       <r>    3.9678    1.0000 </r>
       <r>    5.4505    1.0000 </r>
       <r>   15.5301    0.0000 </r>
       <r>   19.6101    0.0000 </r>
       <r>   21.6795    0.0000 </r>
       <r>   22.9913    0.0000 </r>
      </set>
      <set comment="kpoint 37">
       <r>   -6.4739    1.0000 </r>
       <r>    0.3687    1.0000 </r>
       <r>    3.0810    1.0000 </r>
       <r>    4.6063    1.0000 </r>
       <r>   16.6676    0.0000 </r>
       <r>   20.1263    0.0000 </r>
       <r>   21.6737    0.0000 </r>
       <r>   24.0772    0.0000 </r>
      </set>
      <set comment="kpoint 38">
       <r>   -4.6767    1.0000 </r>
       <r>   -1.9082    1.0000 </r>
       <r>    2.4366    1.0000 </r>
       <r>    4.4402    1.0000 </r>
       <r>   17.2791    0.0000 </r>
       <r>   20.8623    0.0000 </r>
       <r>   22.8113    0.0000 </r>
       <r>   24.2460    0.0000 </r>
      </set>
      <set comment="kpoint 39">
       <r>   -5.2537    1.0000 </r>
       <r>   -1.1817    1.0000 </r>
       <r>    1.9666    1.0000 </r>
       <r>    5.0156    1.0000 </r>
       <r>   17.9229    0.0000 </r>
       <r>   20.1704    0.0000 </r>
       <r>   23.3584    0.0000 </r>
       <r>   24.4114    0.0000 </r>
      </set>
      <set comment="kpoint 40">
       <r>   -7.0808    1.0000 </r>
       <r>    1.1051    1.0000 </r>
       <r>    2.2724    1.0000 </r>
       <r>    6.0040    1.0000 </r>
       <r>   18.7156    0.0000 </r>
       <r>   18.7693    0.0000 </r>
       <r>   22.4807    0.0000 </r>
       <r>   23.1650    0.0000 </r>
      </set>
      <set comment="kpoint 41">
       <r>   -5.6801    1.0000 </r>
       <r>    0.2572    1.0000 </r>
       <r>    2.9875    1.0000 </r>
       <r>    3.4813    1.0000 </r>
       <r>   15.4626    0.0000 </r>
       <r>   17.3339    0.0000 </r>
       <r>   24.1485    0.0000 </r>
       <r>   25.5055    0.0000 </r>
      </set>
      <set comment="kpoint 42">
       <r>   -3.9029    1.0000 </r>
       <r>   -1.2878    1.0000 </r>
       <r>    1.4200    1.0000 </r>
       <r>    3.3575    1.0000 </r>
       <r>   16.4344    0.0000 </r>
       <r>   19.0832    0.0000 </r>
       <r>   23.7932    0.0000 </r>
       <r>   25.3896    0.0000 </r>
      </set>
      <set comment="kpoint 43">
       <r>   -3.6047    1.0000 </r>
       <r>   -1.4605    1.0000 </r>
       <r>    0.4429    1.0000 </r>
       <r>    3.9765    1.0000 </r>
       <r>   17.0566    0.0000 </r>
       <r>   22.1461    0.0000 </r>
       <r>   22.8446    0.0000 </r>
       <r>   24.1714    0.0000 </r>
      </set>
      <set comment="kpoint 44">
       <r>   -2.7689    1.0000 </r>
       <r>   -2.7689    1.0000 </r>
       <r>    2.7622    1.0000 </r>
       <r>    2.7622    1.0000 </r>
       <r>   15.9981    0.0000 </r>
       <r>   15.9981    0.0000 </r>
       <r>   25.9248    0.0000 </r>
       <r>   25.9248    0.0000 </r>
      </set>
      <set comment="kpoint 45">
       <r>   -4.7836    1.0000 </r>
       <r>   -0.3842    1.0000 </r>
       <r>    1.4453    1.0000 </r>
       <r>    3.3914    1.0000 </r>
       <r>   18.7970    0.0000 </r>
       <r>   19.6891    0.0000 </r>
       <r>   21.6317    0.0000 </r>
       <r>   24.9769    0.0000 </r>
      </set>
      <set comment="kpoint 46">
       <r>   -3.4072    1.0000 </r>
       <r>   -1.5982    1.0000 </r>
       <r>    1.1306    1.0000 </r>
       <r>    2.8066    1.0000 </r>
       <r>   19.2838    0.0000 </r>
       <r>   20.4055    0.0000 </r>
       <r>   22.8870    0.0000 </r>
       <r>   23.1141    0.0000 </r>
      </set>
      <set comment="kpoint 47">
       <r>   -2.2975    1.0000 </r>
       <r>   -2.2975    1.0000 </r>
       <r>    1.6381    1.0000 </r>
       <r>    1.6381    1.0000 </r>
       <r>   19.2158    0.0000 </r>
       <r>   19.2158    0.0000 </r>
       <r>   23.3697    0.0000 </r>
       <r>   23.3697    0.0000 </r>
      </set>
     </set>
    </set>
   </array>
  </eigenvalues>
  <separator name="orbital magnetization" >
   <v name="MAGDIPOLOUT">      0.00000000      0.00000000      0.00000000</v>
  </separator>
  <dos>
   <i name="efermi">     10.59024712 </i>
   <total>
    <array>
     <dimension dim="1">gridpoints</dimension>
     <dimension dim="2">spin</dimension>
     <field>energy</field>
     <field>total</field>
     <field>integrated</field>
     <set>
      <set comment="spin 1">
       <r>   -13.7433     0.0000     0.0000 </r>
       <r>   -13.6018     0.0000     0.0000 </r>
       <r>   -13.4603     0.0000     0.0000 </r>
       <r>   -13.3189     0.0000     0.0000 </r>
       <r>   -13.1774     0.0000     0.0000 </r>
       <r>   -13.0359     0.0000     0.0000 </r>
       <r>   -12.8944     0.0000     0.0000 </r>
       <r>   -12.7530     0.0000     0.0000 </r>
       <r>   -12.6115     0.0000     0.0000 </r>
       <r>   -12.4700     0.0000     0.0000 </r>
       <r>   -12.3286     0.0000     0.0000 </r>
       <r>   -12.1871     0.0000     0.0000 </r>
       <r>   -12.0456     0.0002     0.0000 </r>
       <r>   -11.9041     0.0017     0.0003 </r>
       <r>   -11.7627     0.0066     0.0012 </r>
       <r>   -11.6212     0.0215     0.0043 </r>
       <r>   -11.4797     0.0548     0.0120 </r>
       <r>   -11.3382     0.0737     0.0224 </r>
       <r>   -11.1968     0.0561     0.0304 </r>
       <r>   -11.0553     0.0608     0.0390 </r>
       <r>   -10.9138     0.0969     0.0527 </r>
       <r>   -10.7724     0.1482     0.0736 </r>
       <r>   -10.6309     0.1755     0.0985 </r>
       <r>   -10.4894     0.1110     0.1142 </r>
       <r>   -10.3479     0.0507     0.1213 </r>
       <r>   -10.2065     0.0629     0.1303 </r>
       <r>   -10.0650     0.1447     0.1507 </r>
       <r>    -9.9235     0.2457     0.1855 </r>
       <r>    -9.7820     0.2168     0.2162 </r>
       <r>    -9.6406     0.1447     0.2366 </r>
       <r>    -9.4991     0.1623     0.2596 </r>
       <r>    -9.3576     0.1948     0.2871 </r>
       <r>    -9.2162     0.2008     0.3156 </r>
       <r>    -9.0747     0.1291     0.3338 </r>
       <r>    -8.9332     0.0680     0.3434 </r>
       <r>    -8.7917     0.1036     0.3581 </r>
       <r>    -8.6503     0.2338     0.3912 </r>
       <r>    -8.5088     0.4000     0.4478 </r>
       <r>    -8.3673     0.3543     0.4979 </r>
       <r>    -8.2259     0.1910     0.5249 </r>
       <r>    -8.0844     0.1690     0.5488 </r>
       <r>    -7.9429     0.2188     0.5798 </r>
       <r>    -7.8014     0.2662     0.6174 </r>
       <r>    -7.6600     0.2227     0.6489 </r>
       <r>    -7.5185     0.1188     0.6657 </r>
       <r>    -7.3770     0.1018     0.6801 </r>
       <r>    -7.2355     0.2222     0.7116 </r>
       <r>    -7.0941     0.3801     0.7654 </r>
       <r>    -6.9526     0.3524     0.8152 </r>
       <r>    -6.8111     0.3120     0.8593 </r>
       <r>    -6.6697     0.3904     0.9146 </r>
       <r>    -6.5282     0.4462     0.9777 </r>
       <r>    -6.3867     0.3818     1.0317 </r>
       <r>    -6.2452     0.1937     1.0591 </r>
       <r>    -6.1038     0.1398     1.0789 </r>
       <r>    -5.9623     0.2670     1.1167 </r>
       <r>    -5.8208     0.3264     1.1629 </r>
       <r>    -5.6793     0.2701     1.2011 </r>
       <r>    -5.5379     0.2771     1.2403 </r>
       <r>    -5.3964     0.4670     1.3063 </r>
       <r>    -5.2549     0.6525     1.3987 </r>
       <r>    -5.1135     0.4742     1.4657 </r>
       <r>    -4.9720     0.1926     1.4930 </r>
       <r>    -4.8305     0.1977     1.5209 </r>
       <r>    -4.6890     0.3592     1.5718 </r>
       <r>    -4.5476     0.3585     1.6225 </r>
       <r>    -4.4061     0.2378     1.6561 </r>
       <r>    -4.2646     0.1502     1.6774 </r>
       <r>    -4.1232     0.1494     1.6985 </r>
       <r>    -3.9817     0.2915     1.7397 </r>
       <r>    -3.8402     0.3747     1.7928 </r>
       <r>    -3.6987     0.2907     1.8339 </r>
       <r>    -3.5573     0.2414     1.8680 </r>
       <r>    -3.4158     0.2285     1.9004 </r>
       <r>    -3.2743     0.1829     1.9262 </r>
       <r>    -3.1328     0.2044     1.9552 </r>
       <r>    -2.9914     0.3343     2.0025 </r>
       <r>    -2.8499     0.3694     2.0547 </r>
       <r>    -2.7084     0.2636     2.0920 </r>
       <r>    -2.5670     0.1902     2.1189 </r>
       <r>    -2.4255     0.3040     2.1619 </r>
       <r>    -2.2840     0.4363     2.2237 </r>
       <r>    -2.1425     0.3375     2.2714 </r>
       <r>    -2.0011     0.3087     2.3151 </r>
       <r>    -1.8596     0.4834     2.3835 </r>
       <r>    -1.7181     0.5098     2.4556 </r>
       <r>    -1.5767     0.4235     2.5155 </r>
       <r>    -1.4352     0.4519     2.5794 </r>
       <r>    -1.2937     0.6457     2.6708 </r>
       <r>    -1.1522     0.7860     2.7820 </r>
       <r>    -1.0108     0.6137     2.8688 </r>
       <r>    -0.8693     0.2788     2.9083 </r>
       <r>    -0.7278     0.0864     2.9205 </r>
       <r>    -0.5863     0.1490     2.9416 </r>
       <r>    -0.4449     0.3707     2.9940 </r>
       <r>    -0.3034     0.4116     3.0523 </r>
       <r>    -0.1619     0.2078     3.0817 </r>
       <r>    -0.0205     0.1099     3.0972 </r>
       <r>     0.1210     0.2098     3.1269 </r>
       <r>     0.2625     0.4011     3.1836 </r>
       <r>     0.4040     0.5637     3.2634 </r>
       <r>     0.5454     0.5008     3.3342 </r>
       <r>     0.6869     0.2879     3.3750 </r>
       <r>     0.8284     0.2079     3.4044 </r>
       <r>     0.9699     0.3831     3.4586 </r>
       <r>     1.1113     0.5816     3.5409 </r>
       <r>     1.2528     0.5387     3.6171 </r>
       <r>     1.3943     0.4946     3.6870 </r>
       <r>     1.5357     0.5362     3.7629 </r>
       <r>     1.6772     0.4807     3.8309 </r>
       <r>     1.8187     0.4959     3.9011 </r>
       <r>     1.9602     0.6005     3.9860 </r>
       <r>     2.1016     0.5323     4.0613 </r>
       <r>     2.2431     0.4261     4.1216 </r>
       <r>     2.3846     0.4607     4.1868 </r>
       <r>     2.5260     0.4680     4.2530 </r>
       <r>     2.6675     0.5732     4.3341 </r>
       <r>     2.8090     0.7738     4.4436 </r>
       <r>     2.9505     0.7159     4.5448 </r>
       <r>     3.0919     0.6137     4.6317 </r>
       <r>     3.2334     0.6295     4.7207 </r>
       <r>     3.3749     0.7285     4.8238 </r>
       <r>     3.5164     0.7116     4.9245 </r>
       <r>     3.6578     0.5622     5.0040 </r>
       <r>     3.7993     0.6651     5.0981 </r>
       <r>     3.9408     0.8446     5.2176 </r>
       <r>     4.0822     0.7536     5.3242 </r>
       <r>     4.2237     0.5291     5.3990 </r>
       <r>     4.3652     0.7034     5.4986 </r>
       <r>     4.5067     1.1252     5.6577 </r>
       <r>     4.6481     1.1265     5.8171 </r>
       <r>     4.7896     0.8900     5.9430 </r>
       <r>     4.9311     0.7330     6.0467 </r>
       <r>     5.0725     0.6215     6.1346 </r>
       <r>     5.2140     0.4269     6.1950 </r>
       <r>     5.3555     0.3764     6.2483 </r>
       <r>     5.4970     0.5160     6.3213 </r>
       <r>     5.6384     0.5881     6.4045 </r>
       <r>     5.7799     0.7056     6.5043 </r>
       <r>     5.9214     0.8731     6.6278 </r>
       <r>     6.0629     0.9762     6.7659 </r>
       <r>     6.2043     0.8519     6.8864 </r>
       <r>     6.3458     0.5688     6.9669 </r>
       <r>     6.4873     0.5062     7.0385 </r>
       <r>     6.6287     0.5362     7.1144 </r>
       <r>     6.7702     0.6110     7.2008 </r>
       <r>     6.9117     0.7544     7.3076 </r>
       <r>     7.0532     0.6892     7.4050 </r>
       <r>     7.1946     0.4022     7.4620 </r>
       <r>     7.3361     0.1942     7.4894 </r>
       <r>     7.4776     0.2525     7.5252 </r>
       <r>     7.6191     0.4839     7.5936 </r>
       <r>     7.7605     0.5412     7.6702 </r>
       <r>     7.9020     0.3788     7.7238 </r>
       <r>     8.0435     0.2115     7.7537 </r>
       <r>     8.1849     0.1115     7.7695 </r>
       <r>     8.3264     0.1318     7.7881 </r>
       <r>     8.4679     0.2986     7.8303 </r>
       <r>     8.6094     0.3877     7.8852 </r>
       <r>     8.7508     0.2327     7.9181 </r>
       <r>     8.8923     0.0815     7.9296 </r>
       <r>     9.0338     0.0434     7.9358 </r>
       <r>     9.1752     0.0570     7.9438 </r>
       <r>     9.3167     0.1236     7.9613 </r>
       <r>     9.4582     0.1458     7.9820 </r>
       <r>     9.5997     0.0733     7.9923 </r>
       <r>     9.7411     0.0242     7.9958 </r>
       <r>     9.8826     0.0173     7.9982 </r>
       <r>    10.0241     0.0100     7.9996 </r>
       <r>    10.1656     0.0024     8.0000 </r>
       <r>    10.3070     0.0002     8.0000 </r>
       <r>    10.4485     0.0000     8.0000 </r>
       <r>    10.5900     0.0000     8.0000 </r>
       <r>    10.7314     0.0000     8.0000 </r>
       <r>    10.8729     0.0000     8.0000 </r>
       <r>    11.0144     0.0000     8.0000 </r>
       <r>    11.1559     0.0000     8.0000 </r>
       <r>    11.2973     0.0000     8.0000 </r>
       <r>    11.4388     0.0000     8.0000 </r>
       <r>    11.5803     0.0000     8.0000 </r>
       <r>    11.7217     0.0000     8.0000 </r>
       <r>    11.8632     0.0000     8.0000 </r>
       <r>    12.0047     0.0000     8.0000 </r>
       <r>    12.1462     0.0000     8.0000 </r>
       <r>    12.2876     0.0000     8.0000 </r>
       <r>    12.4291     0.0000     8.0000 </r>
       <r>    12.5706     0.0000     8.0000 </r>
       <r>    12.7121     0.0000     8.0000 </r>
       <r>    12.8535     0.0000     8.0000 </r>
       <r>    12.9950     0.0000     8.0000 </r>
       <r>    13.1365     0.0000     8.0000 </r>
       <r>    13.2779     0.0000     8.0000 </r>
       <r>    13.4194     0.0000     8.0000 </r>
       <r>    13.5609     0.0001     8.0000 </r>
       <r>    13.7024     0.0021     8.0003 </r>
       <r>    13.8438     0.0159     8.0026 </r>
       <r>    13.9853     0.0487     8.0095 </r>
       <r>    14.1268     0.0623     8.0183 </r>
       <r>    14.2683     0.0390     8.0238 </r>
       <r>    14.4097     0.0612     8.0324 </r>
       <r>    14.5512     0.2011     8.0609 </r>
       <r>    14.6927     0.3218     8.1064 </r>
       <r>    14.8341     0.2569     8.1428 </r>
       <r>    14.9756     0.1953     8.1704 </r>
       <r>    15.1171     0.2072     8.1997 </r>
       <r>    15.2586     0.2378     8.2333 </r>
       <r>    15.4000     0.3678     8.2854 </r>
       <r>    15.5415     0.4925     8.3551 </r>
       <r>    15.6830     0.3955     8.4110 </r>
       <r>    15.8244     0.3503     8.4606 </r>
       <r>    15.9659     0.6168     8.5478 </r>
       <r>    16.1074     0.7305     8.6512 </r>
       <r>    16.2489     0.5230     8.7252 </r>
       <r>    16.3903     0.4657     8.7911 </r>
       <r>    16.5318     0.6177     8.8784 </r>
       <r>    16.6733     0.6509     8.9705 </r>
       <r>    16.8148     0.5035     9.0418 </r>
       <r>    16.9562     0.5036     9.1130 </r>
       <r>    17.0977     0.8498     9.2332 </r>
       <r>    17.2392     1.0831     9.3865 </r>
       <r>    17.3806     0.8863     9.5118 </r>
       <r>    17.5221     0.5155     9.5848 </r>
       <r>    17.6636     0.4320     9.6459 </r>
       <r>    17.8051     0.7651     9.7541 </r>
       <r>    17.9465     1.0488     9.9025 </r>
       <r>    18.0880     0.9737    10.0403 </r>
       <r>    18.2295     0.9413    10.1734 </r>
       <r>    18.3710     0.9907    10.3136 </r>
       <r>    18.5124     0.8375    10.4321 </r>
       <r>    18.6539     0.6945    10.5303 </r>
       <r>    18.7954     0.7399    10.6350 </r>
       <r>    18.9368     0.7665    10.7434 </r>
       <r>    19.0783     1.0068    10.8858 </r>
       <r>    19.2198     1.4560    11.0918 </r>
       <r>    19.3613     1.5143    11.3061 </r>
       <r>    19.5027     1.2810    11.4873 </r>
       <r>    19.6442     1.1002    11.6429 </r>
       <r>    19.7857     0.8534    11.7637 </r>
       <r>    19.9271     0.5411    11.8402 </r>
       <r>    20.0686     0.4856    11.9089 </r>
       <r>    20.2101     0.5986    11.9936 </r>
       <r>    20.3516     0.5083    12.0655 </r>
       <r>    20.4930     0.3487    12.1148 </r>
       <r>    20.6345     0.3373    12.1626 </r>
       <r>    20.7760     0.4327    12.2238 </r>
       <r>    20.9175     0.5250    12.2980 </r>
       <r>    21.0589     0.6656    12.3922 </r>
       <r>    21.2004     0.7133    12.4931 </r>
       <r>    21.3419     0.5195    12.5666 </r>
       <r>    21.4833     0.5758    12.6481 </r>
       <r>    21.6248     1.1131    12.8056 </r>
       <r>    21.7663     1.3748    13.0001 </r>
       <r>    21.9078     0.9548    13.1351 </r>
       <r>    22.0492     0.4963    13.2054 </r>
       <r>    22.1907     0.2795    13.2449 </r>
       <r>    22.3322     0.2818    13.2848 </r>
       <r>    22.4736     0.5130    13.3573 </r>
       <r>    22.6151     0.6816    13.4538 </r>
       <r>    22.7566     0.6748    13.5492 </r>
       <r>    22.8981     0.7782    13.6593 </r>
       <r>    23.0395     0.8850    13.7845 </r>
       <r>    23.1810     0.9271    13.9157 </r>
       <r>    23.3225     0.9227    14.0462 </r>
       <r>    23.4640     0.8201    14.1622 </r>
       <r>    23.6054     0.5856    14.2451 </r>
       <r>    23.7469     0.5456    14.3223 </r>
       <r>    23.8884     0.8991    14.4495 </r>
       <r>    24.0298     1.3319    14.6379 </r>
       <r>    24.1713     1.4221    14.8391 </r>
       <r>    24.3128     1.3158    15.0252 </r>
       <r>    24.4543     1.1504    15.1880 </r>
       <r>    24.5957     0.7415    15.2929 </r>
       <r>    24.7372     0.3330    15.3400 </r>
       <r>    24.8787     0.2257    15.3719 </r>
       <r>    25.0202     0.3734    15.4247 </r>
       <r>    25.1616     0.5098    15.4969 </r>
       <r>    25.3031     0.6081    15.5829 </r>
       <r>    25.4446     0.7474    15.6886 </r>
       <r>    25.5860     0.6160    15.7758 </r>
       <r>    25.7275     0.3247    15.8217 </r>
       <r>    25.8690     0.2908    15.8629 </r>
       <r>    26.0105     0.3811    15.9168 </r>
       <r>    26.1519     0.3065    15.9601 </r>
       <r>    26.2934     0.1501    15.9814 </r>
       <r>    26.4349     0.0439    15.9876 </r>
       <r>    26.5763     0.0191    15.9903 </r>
       <r>    26.7178     0.0309    15.9947 </r>
       <r>    26.8593     0.0270    15.9985 </r>
       <r>    27.0008     0.0094    15.9998 </r>
       <r>    27.1422     0.0013    16.0000 </r>
       <r>    27.2837     0.0001    16.0000 </r>
       <r>    27.4252     0.0000    16.0000 </r>
       <r>    27.5667     0.0000    16.0000 </r>
       <r>    27.7081     0.0000    16.0000 </r>
       <r>    27.8496     0.0000    16.0000 </r>
       <r>    27.9911     0.0000    16.0000 </r>
       <r>    28.1325     0.0000    16.0000 </r>
       <r>    28.2740     0.0000    16.0000 </r>
       <r>    28.4155     0.0000    16.0000 </r>
       <r>    28.5570     0.0000    16.0000 </r>
       <r>    28.6984     0.0000    16.0000 </r>
      </set>
     </set>
    </array>
   </total>
  </dos>
 </calculation>
 <structure name="finalpos" >
  <crystal>
   <varray name="basis" >
    <v>       2.51730013       0.00000000       0.00000000 </v>
    <v>       1.25865006       2.18004586       0.00000000 </v>
    <v>       1.25865006       0.72668195       2.05536695 </v>
   </varray>
   <i name="volume">     11.27950384 </i>
   <varray name="rec_basis" >
    <v>       0.39725100      -0.22935297      -0.16217704 </v>
    <v>       0.00000000       0.45870595      -0.16217704 </v>
    <v>       0.00000000       0.00000000       0.48653113 </v>
   </varray>
  </crystal>
  <varray name="positions" >
   <v>       0.25000000       0.25000000       0.25000000 </v>
   <v>       0.00000000       0.00000000       0.00000000 </v>
  </varray>
 </structure>
</modeling>
