       N       E                     dE             d eps       ncg     rms          rms(c)
DAV:   1     0.118537277360E+02    0.11854E+02   -0.71958E+03   768   0.160E+03
DAV:   2    -0.185643934154E+02   -0.30418E+02   -0.29484E+02  1112   0.153E+02
DAV:   3    -0.188467341942E+02   -0.28234E+00   -0.28234E+00   880   0.188E+01
DAV:   4    -0.188471223973E+02   -0.38820E-03   -0.38820E-03  1032   0.720E-01
DAV:   5    -0.188471227255E+02   -0.32824E-06   -0.32824E-06   848   0.143E-02    0.558E+00
RMM:   6    -0.183594703340E+02    0.48765E+00   -0.27924E-01   764   0.473E+00    0.331E+00
RMM:   7    -0.181955761382E+02    0.16389E+00   -0.43222E-01   839   0.625E+00    0.726E-01
RMM:   8    -0.181992774988E+02   -0.37014E-02   -0.23049E-02   786   0.183E+00    0.116E-01
RMM:   9    -0.181994899144E+02   -0.21242E-03   -0.36315E-03   832   0.667E-01    0.514E-02
RMM:  10    -0.181995165203E+02   -0.26606E-04   -0.41317E-04   787   0.230E-01    0.204E-02
RMM:  11    -0.181995202319E+02   -0.37116E-05   -0.60087E-05   840   0.872E-02    0.533E-03
RMM:  12    -0.181995212945E+02   -0.10626E-05   -0.78624E-06   757   0.334E-02    0.601E-03
RMM:  13    -0.181995215344E+02   -0.23997E-06   -0.60996E-07   539   0.904E-03
   1 F= -.18199522E+02 E0= -.18199522E+02  d E =-.743911E-10
