 vasp.6.5.1 10Mar25 (build Feb 13 2026 23:13:13) complex                        
  
 executed on             LinuxIFC date 2026.06.23  04:04:36
 running   28 mpi-ranks, with    1 threads/rank, on    1 nodes
 distrk:  each k-point on   28 cores,    1 groups
 distr:  one band on NCORE=   7 cores,    4 groups


--------------------------------------------------------------------------------------------------------


 INCAR:
   ALGO = Fast
   NELMIN = 4
   EDIFF = 1E-6
   ENCUT = 950
   PREC = Normal
   LREAL = .FALSE.
   ISMEAR = 0
   SIGMA = 0.2
   ISPIN = 1
   NSW = 0
   LWAVE = .FALSE.
   NPAR = 4
   NCORE = 7

 POTCAR:    PAW_PBE C 08Apr2002                   
 POTCAR:    PAW_PBE C 08Apr2002                   
   SHA256 =  253f7b50bb8d59471dbedb8285d89021f4a42ed1a2c5d38a03a736e69125dd95 C/POTCAR              
   COPYR  = (c) Copyright 08Apr2002 Georg Kresse                                                    
   COPYR  = This file is part of the software VASP. Any use, copying, and all other rights are regul
   COPYR  = If you do not have a valid VASP license, you may not use, copy or distribute this file. 
   VRHFIN =C: s2p2                                                                                  
   LEXCH  = PE                                                                                      
   EATOM  =   147.1560 eV,   10.8157 Ry                                                             
                                                                                                    
   TITEL  = PAW_PBE C 08Apr2002                                                                     
   LULTRA =        F    use ultrasoft PP ?                                                          
   IUNSCR =        1    unscreen: 0-lin 1-nonlin 2-no                                               
   RPACOR =    1.200    partial core radius                                                         
   POMASS =   12.011; ZVAL   =    4.000    mass and valenz                                          
   RCORE  =    1.500    outmost cutoff radius                                                       
   RWIGS  =    1.630; RWIGS  =    0.863    wigner-seitz radius (au A)                               
   ENMAX  =  400.000; ENMIN  =  300.000 eV                                                          
   ICORE  =        2    local potential                                                             
   LCOR   =        T    correct aug charges                                                         
   LPAW   =        T    paw PP                                                                      
   EAUG   =  644.873                                                                                
   DEXC   =    0.000                                                                                
   RMAX   =    1.529    core radius for proj-oper                                                   
   RAUG   =    1.300    factor for augmentation sphere                                              
   RDEP   =    1.501    radius for radial grids                                                     
   RDEPT  =    1.300    core radius for aug-charge                                                  
                                                                                                    
   Atomic configuration                                                                             
    4 entries                                                                                       
     n  l   j            E        occ.                                                              
     1  0  0.50      -273.3789   2.0000                                                             
     2  0  0.50       -13.7508   2.0000                                                             
     2  1  0.50        -5.2854   2.0000                                                             
     3  2  1.50        -5.4423   0.0000                                                             
   Description                                                                                      
     l       E           TYP  RCUT    TYP  RCUT                                                     
     0    -13.7508458     23  1.200                                                                 
     0     -8.2022199     23  1.200                                                                 
     1     -5.2854383     23  1.500                                                                 
     1     34.0145650     23  1.500                                                                 
     2     -5.4423304      7  1.500                                                                 
  local pseudopotential read in
  partial core-charges read in
  partial kinetic energy density read in
  atomic valenz-charges read in
  non local Contribution for L=           0  read in
    real space projection operators read in
  non local Contribution for L=           0  read in
    real space projection operators read in
  non local Contribution for L=           1  read in
    real space projection operators read in
  non local Contribution for L=           1  read in
    real space projection operators read in
    PAW grid and wavefunctions read in
 
   number of l-projection  operators is LMAX  =           4
   number of lm-projection operators is LMMAX =           8
 
  PAW_PBE C 08Apr2002                   :
 energy of atom  1       EATOM= -147.1560
 kinetic energy error for atom=    0.0010 (will be added to EATOM!!)
 
 
 POSCAR: C8
  positions in direct lattice
  No initial velocities read in


 exchange-correlation table for PE
   RHO(1)=    0.500       N(1)  =     2000
   RHO(2)=  100.500       N(2)  =     4000
 


--------------------------------------------------------------------------------------------------------


 ion  position               nearest neighbor table
   1  0.250  0.250  0.250-   2 1.54   2 1.54   2 1.54   2 1.54
   2  0.000  0.000  0.000-   1 1.54   1 1.54   1 1.54   1 1.54
 
  LATTYP: Found a face centered cubic cell.
 ALAT       =     3.5599999829
  
  Lattice vectors:
  
 A1 = (   2.5173001289,   0.0000000000,   0.0000000000)
 A2 = (   1.2586500645,   2.1800458606,   0.0000000000)
 A3 = (   1.2586500645,   0.7266819535,   2.0553669484)


Analysis of symmetry for initial positions (statically):
=====================================================================
 Subroutine PRICEL returns:
 Original cell was already a primitive cell.
 

 Routine SETGRP: Setting up the symmetry group for a 
 face centered cubic supercell.


 Subroutine GETGRP returns: Found 48 space group operations
 (whereof 24 operations were pure point group operations)
 out of a pool of 48 trial point group operations.


The static configuration has the point symmetry T_d .
 The point group associated with its full space group is O_h .


Analysis of symmetry for dynamics (positions and initial velocities):
=====================================================================
 Subroutine PRICEL returns:
 Original cell was already a primitive cell.
 

 Routine SETGRP: Setting up the symmetry group for a 
 face centered cubic supercell.


 Subroutine GETGRP returns: Found 48 space group operations
 (whereof 24 operations were pure point group operations)
 out of a pool of 48 trial point group operations.


The dynamic configuration has the point symmetry T_d .
 The point group associated with its full space group is O_h .


 Subroutine INISYM returns: Found 48 space group operations
 (whereof 24 operations are pure point group operations),
 and found     1 'primitive' translations


----------------------------------------------------------------------------------------

                                     Primitive cell                                     

  volume of cell :      11.2795

  direct lattice vectors                    reciprocal lattice vectors
     2.517300129  0.000000000  0.000000000     0.397251003 -0.229352973 -0.162177043
     1.258650065  2.180045861  0.000000000     0.000000000  0.458705947 -0.162177043
     1.258650065  0.726681953  2.055366948     0.000000000  0.000000000  0.486531128

  length of vectors
     2.517300129  2.517300129  2.517300129     0.486531128  0.486531128  0.486531128

  position of ions in fractional coordinates (direct lattice)
     0.250000000  0.250000000  0.250000000
     0.000000000  0.000000000  0.000000000

  ion indices of the primitive-cell ions
   primitive index   ion index
                 1           1
                 2           2

----------------------------------------------------------------------------------------

 
 
 KPOINTS: k-density: 4.0                          

Automatic generation of k-mesh.
 Grid dimensions read from file:
 generate k-points for:   10   10   10

 Generating k-lattice:

  Cartesian coordinates                     Fractional coordinates (reciprocal lattice)
     0.039725100 -0.022935297 -0.016217704     0.100000000 -0.000000000 -0.000000000
     0.000000000  0.045870595 -0.016217704     0.000000000  0.100000000 -0.000000000
     0.000000000  0.000000000  0.048653113     0.000000000  0.000000000  0.100000000

  Length of vectors
     0.048653113  0.048653113  0.048653113

  Shift w.r.t. Gamma in fractional coordinates (k-lattice)
     0.000000000  0.000000000  0.000000000

 
 Subroutine IBZKPT returns following result:
 ===========================================
 
 Found     47 irreducible k-points:
 
 Following reciprocal coordinates:
            Coordinates               Weight
  0.000000  0.000000  0.000000      1.000000
  0.100000  0.000000  0.000000      8.000000
  0.200000  0.000000  0.000000      8.000000
  0.300000  0.000000  0.000000      8.000000
  0.400000  0.000000  0.000000      8.000000
  0.500000  0.000000  0.000000      4.000000
  0.100000  0.100000  0.000000      6.000000
  0.200000  0.100000  0.000000     24.000000
  0.300000  0.100000  0.000000     24.000000
  0.400000  0.100000  0.000000     24.000000
  0.500000  0.100000  0.000000     24.000000
 -0.400000  0.100000  0.000000     24.000000
 -0.300000  0.100000  0.000000     24.000000
 -0.200000  0.100000  0.000000     24.000000
 -0.100000  0.100000  0.000000     12.000000
  0.200000  0.200000  0.000000      6.000000
  0.300000  0.200000  0.000000     24.000000
  0.400000  0.200000  0.000000     24.000000
  0.500000  0.200000  0.000000     24.000000
 -0.400000  0.200000  0.000000     24.000000
 -0.300000  0.200000  0.000000     24.000000
 -0.200000  0.200000  0.000000     12.000000
  0.300000  0.300000  0.000000      6.000000
  0.400000  0.300000  0.000000     24.000000
  0.500000  0.300000  0.000000     24.000000
 -0.400000  0.300000  0.000000     24.000000
 -0.300000  0.300000  0.000000     12.000000
  0.400000  0.400000  0.000000      6.000000
  0.500000  0.400000  0.000000     24.000000
 -0.400000  0.400000  0.000000     12.000000
  0.500000  0.500000  0.000000      3.000000
  0.300000  0.200000  0.100000     24.000000
  0.400000  0.200000  0.100000     48.000000
  0.500000  0.200000  0.100000     48.000000
 -0.400000  0.200000  0.100000     24.000000
  0.400000  0.300000  0.100000     24.000000
  0.500000  0.300000  0.100000     48.000000
 -0.400000  0.300000  0.100000     48.000000
 -0.300000  0.300000  0.100000     48.000000
 -0.200000  0.300000  0.100000     24.000000
  0.500000  0.400000  0.100000     24.000000
 -0.400000  0.400000  0.100000     48.000000
 -0.300000  0.400000  0.100000     24.000000
 -0.400000  0.500000  0.100000     12.000000
 -0.400000  0.400000  0.200000     24.000000
 -0.300000  0.400000  0.200000     24.000000
 -0.300000  0.500000  0.200000     12.000000
 
 Following cartesian coordinates:
            Coordinates               Weight
  0.000000  0.000000  0.000000      1.000000
  0.039725 -0.022935 -0.016218      8.000000
  0.079450 -0.045871 -0.032435      8.000000
  0.119175 -0.068806 -0.048653      8.000000
  0.158900 -0.091741 -0.064871      8.000000
  0.198626 -0.114676 -0.081089      4.000000
  0.039725  0.022935 -0.032435      6.000000
  0.079450 -0.000000 -0.048653     24.000000
  0.119175 -0.022935 -0.064871     24.000000
  0.158900 -0.045871 -0.081089     24.000000
  0.198626 -0.068806 -0.097306     24.000000
 -0.158900  0.137612  0.048653     24.000000
 -0.119175  0.114676  0.032435     24.000000
 -0.079450  0.091741  0.016218     24.000000
 -0.039725  0.068806  0.000000     12.000000
  0.079450  0.045871 -0.064871      6.000000
  0.119175  0.022935 -0.081089     24.000000
  0.158900 -0.000000 -0.097306     24.000000
  0.198626 -0.022935 -0.113524     24.000000
 -0.158900  0.183482  0.032435     24.000000
 -0.119175  0.160547  0.016218     24.000000
 -0.079450  0.137612  0.000000     12.000000
  0.119175  0.068806 -0.097306      6.000000
  0.158900  0.045871 -0.113524     24.000000
  0.198626  0.022935 -0.129742     24.000000
 -0.158900  0.229353  0.016218     24.000000
 -0.119175  0.206418  0.000000     12.000000
  0.158900  0.091741 -0.129742      6.000000
  0.198626  0.068806 -0.145959     24.000000
 -0.158900  0.275224  0.000000     12.000000
  0.198626  0.114676 -0.162177      3.000000
  0.119175  0.022935 -0.032435     24.000000
  0.158900 -0.000000 -0.048653     48.000000
  0.198626 -0.022935 -0.064871     48.000000
 -0.158900  0.183482  0.081089     24.000000
  0.158900  0.045871 -0.064871     24.000000
  0.198626  0.022935 -0.081089     48.000000
 -0.158900  0.229353  0.064871     48.000000
 -0.119175  0.206418  0.048653     48.000000
 -0.079450  0.183482  0.032435     24.000000
  0.198626  0.068806 -0.097306     24.000000
 -0.158900  0.275224  0.048653     48.000000
 -0.119175  0.252288  0.032435     24.000000
 -0.158900  0.321094  0.032435     12.000000
 -0.158900  0.275224  0.097306     24.000000
 -0.119175  0.252288  0.081089     24.000000
 -0.119175  0.298159  0.064871     12.000000
 


--------------------------------------------------------------------------------------------------------




 Dimension of arrays:
   k-points           NKPTS =     47   k-points in BZ     NKDIM =     47   number of bands    NBANDS=      8
   number of dos      NEDOS =    301   number of ions     NIONS =      2
   non local maximal  LDIM  =      4   non local SUM 2l+1 LMDIM =      8
   total plane-waves  NPLWV =   8000
   max r-space proj   IRMAX =      1   max aug-charges    IRDMAX=   8568
   dimension x,y,z NGX =    20 NGY =   20 NGZ =   20
   dimension x,y,z NGXF=    40 NGYF=   40 NGZF=   40
   support grid    NGXF=    40 NGYF=   40 NGZF=   40
   ions per type =               2
   NGX,Y,Z   is equivalent  to a cutoff of  13.21, 13.21, 13.21 a.u.
   NGXF,Y,Z  is equivalent  to a cutoff of  26.42, 26.42, 26.42 a.u.

 SYSTEM =  unknown system                          
 POSCAR =  C8                                      

 Startparameter for this run:
   NWRITE =      2    write-flag & timer
   PREC   = normal    normal or accurate (medium, high low for compatibility)
   ISTART =      0    job   : 0-new  1-cont  2-samecut
   ICHARG =      2    charge: 1-file 2-atom 10-const
   ISPIN  =      1    spin polarized calculation?
   LNONCOLLINEAR =      F non collinear calculations
   LSORBIT =      F    spin-orbit coupling
   INIWAV =      1    electr: 0-lowe 1-rand  2-diag
   LASPH  =      F    aspherical Exc in radial PAW
 Electronic Relaxation 1
   ENCUT  =  950.0 eV  69.82 Ry    8.36 a.u.   6.33  6.33  6.33*2*pi/ulx,y,z
   ENINI  =  950.0     initial cutoff
   ENAUG  =  644.9 eV  augmentation charge cutoff
   NELM   =     60;   NELMIN=  4; NELMDL= -5     # of ELM steps 
   EDIFF  = 0.1E-05   stopping-criterion for ELM
   LREAL  =      F    real-space projection
   NLSPLINE    = F    spline interpolate recip. space projectors
   LCOMPAT=      F    compatible to vasp.4.4
   GGA_COMPAT  = T    GGA compatible to vasp.4.4-vasp.4.6
   LMAXPAW     = -100 max onsite density
   LMAXMIX     =    2 max onsite mixed and CHGCAR
   VOSKOWN=      0    Vosko Wilk Nusair interpolation
   ROPT   =    0.00000
 Ionic relaxation
   EDIFFG = 0.1E-04   stopping-criterion for IOM
   NSW    =      0    number of steps for IOM
   NBLOCK =      1;   KBLOCK =      1    inner block; outer block 
   IBRION =     -1    ionic relax: 0-MD 1-quasi-New 2-CG
   NFREE  =      0    steps in history (QN), initial steepest desc. (CG)
   ISIF   =      2    stress and relaxation
   IWAVPR =     10    prediction:  0-non 1-charg 2-wave 3-comb
   ISYM   =      2    0-nonsym 1-usesym 2-fastsym
   LCORR  =      T    Harris-Foulkes like correction to forces

   POTIM  = 0.5000    time-step for ionic-motion
   TEIN   =    0.0    initial temperature
   TEBEG  =    0.0;   TEEND  =   0.0 temperature during run
   SMASS  =  -3.00    Nose mass-parameter (am)
   estimated Nose-frequenzy (Omega)   =  0.10E-29 period in steps = 0.13E+47 mass=  -0.145E-27a.u.
   SCALEE = 1.0000    scale energy and forces
   NPACO  =    256;   APACO  = 10.0  distance and # of slots for P.C.
   PSTRESS=    0.0 pullay stress

  Mass of Ions in am
   POMASS =  12.01
  Ionic Valenz
   ZVAL   =   4.00
  Atomic Wigner-Seitz radii
   RWIGS  =  -1.00
  virtual crystal weights 
   VCA    =   1.00
   NELECT =       8.0000    total number of electrons
   NUPDOWN=      -1.0000    fix difference up-down

 DOS related values:
   EMIN   =  10.00;   EMAX   =-10.00  energy-range for DOS
   EFERMI =   0.00;   METHOD = LEGACY      
   ISMEAR =     0;   SIGMA  =   0.20  broadening in eV -4-tet -1-fermi 0-gaus
   EFERMI_NEDOS =   21; number of points for ismear=-14 and -15

 Electronic relaxation 2 (details)
   IALGO  =     68    algorithm
   LDIAG  =      T    sub-space diagonalisation (order eigenvalues)
   LSUBROT=      F    optimize rotation matrix (better conditioning)
   LROBUST=      F    robust break criterion during scf (extrapolated energy error)
   ISEARCH=      0    line search for conjugate gradient (0, 1=use gradient)
   TURBO    =      0    0=normal 1=particle mesh
   IRESTART =      0    0=no restart 2=restart with 2 vectors
   NREBOOT  =      0    no. of reboots
   NMIN     =      0    reboot dimension
   EREF     =   0.00    reference energy to select bands
   IMIX   =      4    mixing-type and parameters
     AMIX     =   0.40;   BMIX     =  1.00
     AMIX_MAG =   1.60;   BMIX_MAG =  1.00
     AMIN     =   0.10
     WC   =   100.;   INIMIX=   1;  MIXPRE=   1;  MAXMIX= -45

 Intra band minimization:
   WEIMIN = 0.0000     energy-eigenvalue tresh-hold
   EBREAK =  0.31E-07  absolut break condition
   DEPER  =   0.30     relativ break condition  

   TIME   =   0.40     timestep for ELM

  volume/ion in A,a.u.               =       5.64        38.06
  Fermi-wavevector in a.u.,A,eV,Ry     =   1.459962  2.758928 29.000661  2.131488
  Thomas-Fermi vector in A             =   2.576467
 
 Write flags
   LWAVE        =      F    write WAVECAR
   LDOWNSAMPLE  =      F    k-point downsampling of WAVECAR
   LCHARG       =      T    write CHGCAR
   LVTOT        =      F    write LOCPOT, total local potential
   LVHAR        =      F    write LOCPOT, Hartree potential only
   WRT_POTENTIAL= false  ! write potential to hdf5 file
   LELF         =      F    write electronic localiz. function (ELF)
   LORBIT       =      0    0 simple, 1 ext, 2 COOP (PROOUT), +10 PAW based schemes


 Python interface
   PLUGINS active      =      F    recompile with -DPLUGINS to activate
 
 Dipole corrections
   LMONO      =      F    monopole corrections only (constant potential shift)
   LDIPOL     =      F    correct potential (dipole corrections)
   IDIPOL     =      0    1-x, 2-y, 3-z, 4-all directions 
   EPSILON    =  1.0000000 bulk dielectric constant
   LVACPOTAV  =      F  vacuum potentials using an averaging scheme for the charge density
   VACPOTFLAT =  0.1000000 required flatness to determine vacuum potential
 
Coulomb truncation method
  LTRUNCATE          =      F  Coulomb kernel truncation to be used

 
 Exchange correlation treatment:
   GGA     = PE    functional components
   XC_C    = 1    coefficients multiplying the functional components
   LIBXC   =     F    Libxc                    
   VOSKOWN =     0    Vosko Wilk Nusair interpolation
   LHFCALC =     F    Hartree Fock is set to
   LHFONE  =     F    Hartree Fock one center treatment
   AEXX    =    0.0000 exact exchange contribution

 Parameters of functionals:
   PE:
     No parameter
 
 Van der Waals corrections
   IVDW    =     0    specifies the selected vdW correction

 Linear response parameters
   LEPSILON=     F    determine dielectric tensor
   LRPA    =     F    only Hartree local field effects (RPA)
   LNABLA  =     F    use nabla operator in PAW spheres
   LVEL    =     F    velocity operator in full k-point grid
   CSHIFT  =0.1000    complex shift for real part using Kramers Kronig
   OMEGAMAX=  -1.0    maximum frequency
   DEG_THRESHOLD= 0.2000000E-02 threshold for treating states as degnerate
   RTIME   =   -0.100 relaxation time in fs
  (WPLASMAI=    0.000 imaginary part of plasma frequency in eV, 0.658/RTIME)
   DFIELD  = 0.0000000 0.0000000 0.0000000 field for delta impulse in time
 
  Optional k-point grid parameters
   LKPOINTS_OPT  =     F    use optional k-point grid
   KPOINTS_OPT_MODE=     1    mode for optional k-point grid
 
 Orbital magnetization related:
   ORBITALMAG=     F  switch on orbital magnetization
   LCHIMAG   =     F  perturbation theory with respect to B field
   DQ        =  0.001000  dq finite difference perturbation B field
   LLRAUG    =     F  two centre corrections for induced B field
   LBONE     =     F  B-component reconstruction in AE one-centre
   LVGVCALC  =     T  calculate vGv susceptibility
   LVGVAPPL  =     F  apply vGv susceptibility instead of pGv for G=0

 Random number generation:
   RANDOM_GENERATOR = DEFAULT
   PCG_SEED         = not used


--------------------------------------------------------------------------------------------------------


 Static calculation
 charge density and potential will be updated during run
 non-spin polarized calculation
 RMM-DIIS sequential band-by-band and
  variant of blocked Davidson during initial phase
 perform sub-space diagonalisation
    before iterative eigenvector-optimisation
 modified Broyden-mixing scheme, WC =      100.0
 initial mixing is a Kerker type mixing with AMIX =  0.4000 and BMIX =      1.0000
 Hartree-type preconditioning will be used
 using additional bands            4
 reciprocal scheme for non local part
 use partial core corrections
 calculate Harris-corrections to forces 
   (improved forces if not selfconsistent)
 use gradient corrections 
 use of overlap-Matrix (Vanderbilt PP)
 Gauss-broadening in eV      SIGMA  =   0.20


--------------------------------------------------------------------------------------------------------


  energy-cutoff  :      950.00
  volume of cell :       11.28
      direct lattice vectors                 reciprocal lattice vectors
     2.517300129  0.000000000  0.000000000     0.397251003 -0.229352973 -0.162177043
     1.258650065  2.180045861  0.000000000     0.000000000  0.458705947 -0.162177043
     1.258650065  0.726681953  2.055366948     0.000000000  0.000000000  0.486531128

  length of vectors
     2.517300129  2.517300129  2.517300129     0.486531128  0.486531128  0.486531128


 
 k-points in units of 2pi/SCALE and weight: k-density: 4.0                          
   0.00000000  0.00000000  0.00000000       0.001
   0.03972510 -0.02293530 -0.01621770       0.008
   0.07945020 -0.04587059 -0.03243541       0.008
   0.11917530 -0.06880589 -0.04865311       0.008
   0.15890040 -0.09174119 -0.06487082       0.008
   0.19862550 -0.11467649 -0.08108852       0.004
   0.03972510  0.02293530 -0.03243541       0.006
   0.07945020 -0.00000000 -0.04865311       0.024
   0.11917530 -0.02293530 -0.06487082       0.024
   0.15890040 -0.04587059 -0.08108852       0.024
   0.19862550 -0.06880589 -0.09730623       0.024
  -0.15890040  0.13761178  0.04865311       0.024
  -0.11917530  0.11467649  0.03243541       0.024
  -0.07945020  0.09174119  0.01621770       0.024
  -0.03972510  0.06880589  0.00000000       0.012
   0.07945020  0.04587059 -0.06487082       0.006
   0.11917530  0.02293530 -0.08108852       0.024
   0.15890040 -0.00000000 -0.09730623       0.024
   0.19862550 -0.02293530 -0.11352393       0.024
  -0.15890040  0.18348238  0.03243541       0.024
  -0.11917530  0.16054708  0.01621770       0.024
  -0.07945020  0.13761178  0.00000000       0.012
   0.11917530  0.06880589 -0.09730623       0.006
   0.15890040  0.04587059 -0.11352393       0.024
   0.19862550  0.02293530 -0.12974163       0.024
  -0.15890040  0.22935297  0.01621770       0.024
  -0.11917530  0.20641768  0.00000000       0.012
   0.15890040  0.09174119 -0.12974163       0.006
   0.19862550  0.06880589 -0.14595934       0.024
  -0.15890040  0.27522357  0.00000000       0.012
   0.19862550  0.11467649 -0.16217704       0.003
   0.11917530  0.02293530 -0.03243541       0.024
   0.15890040 -0.00000000 -0.04865311       0.048
   0.19862550 -0.02293530 -0.06487082       0.048
  -0.15890040  0.18348238  0.08108852       0.024
   0.15890040  0.04587059 -0.06487082       0.024
   0.19862550  0.02293530 -0.08108852       0.048
  -0.15890040  0.22935297  0.06487082       0.048
  -0.11917530  0.20641768  0.04865311       0.048
  -0.07945020  0.18348238  0.03243541       0.024
   0.19862550  0.06880589 -0.09730623       0.024
  -0.15890040  0.27522357  0.04865311       0.048
  -0.11917530  0.25228827  0.03243541       0.024
  -0.15890040  0.32109416  0.03243541       0.012
  -0.15890040  0.27522357  0.09730623       0.024
  -0.11917530  0.25228827  0.08108852       0.024
  -0.11917530  0.29815887  0.06487082       0.012
 
 k-points in reciprocal lattice and weights: k-density: 4.0                          
   0.00000000  0.00000000  0.00000000       0.001
   0.10000000  0.00000000  0.00000000       0.008
   0.20000000  0.00000000  0.00000000       0.008
   0.30000000  0.00000000  0.00000000       0.008
   0.40000000  0.00000000  0.00000000       0.008
   0.50000000  0.00000000  0.00000000       0.004
   0.10000000  0.10000000  0.00000000       0.006
   0.20000000  0.10000000  0.00000000       0.024
   0.30000000  0.10000000  0.00000000       0.024
   0.40000000  0.10000000  0.00000000       0.024
   0.50000000  0.10000000  0.00000000       0.024
  -0.40000000  0.10000000  0.00000000       0.024
  -0.30000000  0.10000000  0.00000000       0.024
  -0.20000000  0.10000000  0.00000000       0.024
  -0.10000000  0.10000000  0.00000000       0.012
   0.20000000  0.20000000  0.00000000       0.006
   0.30000000  0.20000000  0.00000000       0.024
   0.40000000  0.20000000  0.00000000       0.024
   0.50000000  0.20000000  0.00000000       0.024
  -0.40000000  0.20000000  0.00000000       0.024
  -0.30000000  0.20000000  0.00000000       0.024
  -0.20000000  0.20000000  0.00000000       0.012
   0.30000000  0.30000000  0.00000000       0.006
   0.40000000  0.30000000  0.00000000       0.024
   0.50000000  0.30000000  0.00000000       0.024
  -0.40000000  0.30000000  0.00000000       0.024
  -0.30000000  0.30000000  0.00000000       0.012
   0.40000000  0.40000000  0.00000000       0.006
   0.50000000  0.40000000  0.00000000       0.024
  -0.40000000  0.40000000  0.00000000       0.012
   0.50000000  0.50000000  0.00000000       0.003
   0.30000000  0.20000000  0.10000000       0.024
   0.40000000  0.20000000  0.10000000       0.048
   0.50000000  0.20000000  0.10000000       0.048
  -0.40000000  0.20000000  0.10000000       0.024
   0.40000000  0.30000000  0.10000000       0.024
   0.50000000  0.30000000  0.10000000       0.048
  -0.40000000  0.30000000  0.10000000       0.048
  -0.30000000  0.30000000  0.10000000       0.048
  -0.20000000  0.30000000  0.10000000       0.024
   0.50000000  0.40000000  0.10000000       0.024
  -0.40000000  0.40000000  0.10000000       0.048
  -0.30000000  0.40000000  0.10000000       0.024
  -0.40000000  0.50000000  0.10000000       0.012
  -0.40000000  0.40000000  0.20000000       0.024
  -0.30000000  0.40000000  0.20000000       0.024
  -0.30000000  0.50000000  0.20000000       0.012
 
 position of ions in fractional coordinates (direct lattice) 
   0.25000000  0.25000000  0.25000000
   0.00000000  0.00000000  0.00000000
 
 position of ions in cartesian coordinates  (Angst):
   1.25865006  0.72668195  0.51384174
   0.00000000  0.00000000  0.00000000
 


--------------------------------------------------------------------------------------------------------


 k-point     1 :   0.0000 0.0000 0.0000  plane waves:     749
 k-point     2 :   0.1000 0.0000 0.0000  plane waves:     743
 k-point     3 :   0.2000 0.0000 0.0000  plane waves:     751
 k-point     4 :   0.3000 0.0000 0.0000  plane waves:     757
 k-point     5 :   0.4000 0.0000 0.0000  plane waves:     763
 k-point     6 :   0.5000 0.0000 0.0000  plane waves:     754
 k-point     7 :   0.1000 0.1000 0.0000  plane waves:     745
 k-point     8 :   0.2000 0.1000 0.0000  plane waves:     752
 k-point     9 :   0.3000 0.1000 0.0000  plane waves:     756
 k-point    10 :   0.4000 0.1000 0.0000  plane waves:     760
 k-point    11 :   0.5000 0.1000 0.0000  plane waves:     755
 k-point    12 :  -0.4000 0.1000 0.0000  plane waves:     755
 k-point    13 :  -0.3000 0.1000 0.0000  plane waves:     754
 k-point    14 :  -0.2000 0.1000 0.0000  plane waves:     757
 k-point    15 :  -0.1000 0.1000 0.0000  plane waves:     759
 k-point    16 :   0.2000 0.2000 0.0000  plane waves:     745
 k-point    17 :   0.3000 0.2000 0.0000  plane waves:     746
 k-point    18 :   0.4000 0.2000 0.0000  plane waves:     752
 k-point    19 :   0.5000 0.2000 0.0000  plane waves:     747
 k-point    20 :  -0.4000 0.2000 0.0000  plane waves:     747
 k-point    21 :  -0.3000 0.2000 0.0000  plane waves:     751
 k-point    22 :  -0.2000 0.2000 0.0000  plane waves:     746
 k-point    23 :   0.3000 0.3000 0.0000  plane waves:     745
 k-point    24 :   0.4000 0.3000 0.0000  plane waves:     752
 k-point    25 :   0.5000 0.3000 0.0000  plane waves:     756
 k-point    26 :  -0.4000 0.3000 0.0000  plane waves:     741
 k-point    27 :  -0.3000 0.3000 0.0000  plane waves:     752
 k-point    28 :   0.4000 0.4000 0.0000  plane waves:     753
 k-point    29 :   0.5000 0.4000 0.0000  plane waves:     753
 k-point    30 :  -0.4000 0.4000 0.0000  plane waves:     746
 k-point    31 :   0.5000 0.5000 0.0000  plane waves:     740
 k-point    32 :   0.3000 0.2000 0.1000  plane waves:     752
 k-point    33 :   0.4000 0.2000 0.1000  plane waves:     758
 k-point    34 :   0.5000 0.2000 0.1000  plane waves:     752
 k-point    35 :  -0.4000 0.2000 0.1000  plane waves:     752
 k-point    36 :   0.4000 0.3000 0.1000  plane waves:     750
 k-point    37 :   0.5000 0.3000 0.1000  plane waves:     750
 k-point    38 :  -0.4000 0.3000 0.1000  plane waves:     745
 k-point    39 :  -0.3000 0.3000 0.1000  plane waves:     749
 k-point    40 :  -0.2000 0.3000 0.1000  plane waves:     756
 k-point    41 :   0.5000 0.4000 0.1000  plane waves:     750
 k-point    42 :  -0.4000 0.4000 0.1000  plane waves:     743
 k-point    43 :  -0.3000 0.4000 0.1000  plane waves:     740
 k-point    44 :  -0.4000 0.5000 0.1000  plane waves:     750
 k-point    45 :  -0.4000 0.4000 0.2000  plane waves:     750
 k-point    46 :  -0.3000 0.4000 0.2000  plane waves:     740
 k-point    47 :  -0.3000 0.5000 0.2000  plane waves:     746

 maximum and minimum number of plane-waves per node :       115      101

 maximum number of plane-waves:       763
 maximum index in each direction: 
   IXMAX=    6   IYMAX=    6   IZMAX=    6
   IXMIN=   -6   IYMIN=   -6   IZMIN=   -6


 parallel 3D FFT for wavefunctions:
    minimum data exchange during FFTs selected (reduces bandwidth)
 parallel 3D FFT for charge:
    minimum data exchange during FFTs selected (reduces bandwidth)


 total amount of memory used by VASP MPI-rank0    30867. kBytes
=======================================================================

   base                                    :      30000. kBytes
   nonl-proj                               :        340. kBytes
   fftplans                                :        137. kBytes
   grid                                    :        207. kBytes
   one-center                              :          3. kBytes
   wavefun                                 :        180. kBytes
 
     INWAV:  cpu time      0.0000: real time      0.0004
 Broyden mixing: mesh for mixing (old mesh)
   NGX = 13   NGY = 13   NGZ = 13
  (NGX  = 40   NGY  = 40   NGZ  = 40)
  gives a total of   2197 points

 initial charge density was supplied:
 charge density of overlapping atoms calculated
 number of electron       8.0000000 magnetization 
 keeping initial charge density in first step


--------------------------------------------------------------------------------------------------------


 Maximum index for augmentation-charges          536 (set IRDMAX)


--------------------------------------------------------------------------------------------------------


 First call to EWALD:  gamma=   0.790
 Maximum number of real-space cells   3x   3x   3
 Maximum number of reciprocal cells   3x   3x   3

    FEWALD:  cpu time      0.0009: real time      0.0009


--------------------------------------- Ionic step        1  -------------------------------------------




--------------------------------------- Iteration      1(   1)  ---------------------------------------


    POTLOK:  cpu time      0.0058: real time      0.0059
    SETDIJ:  cpu time      0.0015: real time      0.0015
     EDDAV:  cpu time      0.0577: real time      0.0581
       DOS:  cpu time      0.0007: real time      0.0007
    --------------------------------------------
      LOOP:  cpu time      0.0657: real time      0.0662

 eigenvalue-minimisations  :   768
 total energy-change (2. order) : 0.1185373E+02  (-0.7195816E+03)
 number of electron       8.0000000 magnetization 
 augmentation part        8.0000000 magnetization 

 Free energy of the ion-electron system (eV)
  ---------------------------------------------------
  alpha Z        PSCENC =        29.13132251
  Ewald energy   TEWEN  =      -348.62358043
  -Hartree energ DENC   =       -17.48913657
  -exchange      EXHF   =         0.00000000
  -V(xc)+E(xc)   XCENC  =        27.44127193
  PAW double counting   =       217.04409276     -218.18290438
  entropy T*S    EENTRO =        -0.00469523
  eigenvalues    EBANDS =        28.22733557
  atomic energy  EATOM  =       294.31002157
  Solvation  Ediel_sol  =         0.00000000
  ---------------------------------------------------
  free energy    TOTEN  =        11.85372774 eV

  energy without entropy =       11.85842296  energy(sigma->0) =       11.85607535


--------------------------------------------------------------------------------------------------------




--------------------------------------- Iteration      1(   2)  ---------------------------------------


     EDDAV:  cpu time      0.0788: real time      0.0799
       DOS:  cpu time      0.0002: real time      0.0002
    --------------------------------------------
      LOOP:  cpu time      0.0790: real time      0.0801

 eigenvalue-minimisations  :  1112
 total energy-change (2. order) :-0.3041812E+02  (-0.2948425E+02)
 number of electron       8.0000000 magnetization 
 augmentation part        8.0000000 magnetization 

 Free energy of the ion-electron system (eV)
  ---------------------------------------------------
  alpha Z        PSCENC =        29.13132251
  Ewald energy   TEWEN  =      -348.62358043
  -Hartree energ DENC   =       -17.48913657
  -exchange      EXHF   =         0.00000000
  -V(xc)+E(xc)   XCENC  =        27.44127193
  PAW double counting   =       217.04409276     -218.18290438
  entropy T*S    EENTRO =        -0.00000000
  eigenvalues    EBANDS =        -2.19548081
  atomic energy  EATOM  =       294.31002157
  Solvation  Ediel_sol  =         0.00000000
  ---------------------------------------------------
  free energy    TOTEN  =       -18.56439342 eV

  energy without entropy =      -18.56439342  energy(sigma->0) =      -18.56439342


--------------------------------------------------------------------------------------------------------




--------------------------------------- Iteration      1(   3)  ---------------------------------------


     EDDAV:  cpu time      0.0613: real time      0.0619
       DOS:  cpu time      0.0002: real time      0.0002
    --------------------------------------------
      LOOP:  cpu time      0.0615: real time      0.0621

 eigenvalue-minimisations  :   880
 total energy-change (2. order) :-0.2823408E+00  (-0.2823408E+00)
 number of electron       8.0000000 magnetization 
 augmentation part        8.0000000 magnetization 

 Free energy of the ion-electron system (eV)
  ---------------------------------------------------
  alpha Z        PSCENC =        29.13132251
  Ewald energy   TEWEN  =      -348.62358043
  -Hartree energ DENC   =       -17.48913657
  -exchange      EXHF   =         0.00000000
  -V(xc)+E(xc)   XCENC  =        27.44127193
  PAW double counting   =       217.04409276     -218.18290438
  entropy T*S    EENTRO =        -0.00000000
  eigenvalues    EBANDS =        -2.47782159
  atomic energy  EATOM  =       294.31002157
  Solvation  Ediel_sol  =         0.00000000
  ---------------------------------------------------
  free energy    TOTEN  =       -18.84673419 eV

  energy without entropy =      -18.84673419  energy(sigma->0) =      -18.84673419


--------------------------------------------------------------------------------------------------------




--------------------------------------- Iteration      1(   4)  ---------------------------------------


     EDDAV:  cpu time      0.0702: real time      0.0707
       DOS:  cpu time      0.0002: real time      0.0002
    --------------------------------------------
      LOOP:  cpu time      0.0704: real time      0.0709

 eigenvalue-minimisations  :  1032
 total energy-change (2. order) :-0.3882030E-03  (-0.3882029E-03)
 number of electron       8.0000000 magnetization 
 augmentation part        8.0000000 magnetization 

 Free energy of the ion-electron system (eV)
  ---------------------------------------------------
  alpha Z        PSCENC =        29.13132251
  Ewald energy   TEWEN  =      -348.62358043
  -Hartree energ DENC   =       -17.48913657
  -exchange      EXHF   =         0.00000000
  -V(xc)+E(xc)   XCENC  =        27.44127193
  PAW double counting   =       217.04409276     -218.18290438
  entropy T*S    EENTRO =        -0.00000000
  eigenvalues    EBANDS =        -2.47820979
  atomic energy  EATOM  =       294.31002157
  Solvation  Ediel_sol  =         0.00000000
  ---------------------------------------------------
  free energy    TOTEN  =       -18.84712240 eV

  energy without entropy =      -18.84712240  energy(sigma->0) =      -18.84712240


--------------------------------------------------------------------------------------------------------




--------------------------------------- Iteration      1(   5)  ---------------------------------------


     EDDAV:  cpu time      0.0584: real time      0.0588
       DOS:  cpu time      0.0002: real time      0.0002
    CHARGE:  cpu time      0.0033: real time      0.0033
    MIXING:  cpu time      0.0003: real time      0.0003
    --------------------------------------------
      LOOP:  cpu time      0.0622: real time      0.0627

 eigenvalue-minimisations  :   848
 total energy-change (2. order) :-0.3282404E-06  (-0.3282351E-06)
 number of electron       7.9999999 magnetization 
 augmentation part        0.2002586 magnetization 

 Broyden mixing:
  rms(total) = 0.55849E+00    rms(broyden)= 0.55849E+00
  rms(prec ) = 0.18710E+01
  weight for this iteration     100.00

 Free energy of the ion-electron system (eV)
  ---------------------------------------------------
  alpha Z        PSCENC =        29.13132251
  Ewald energy   TEWEN  =      -348.62358043
  -Hartree energ DENC   =       -17.48913657
  -exchange      EXHF   =         0.00000000
  -V(xc)+E(xc)   XCENC  =        27.44127193
  PAW double counting   =       217.04409276     -218.18290438
  entropy T*S    EENTRO =        -0.00000000
  eigenvalues    EBANDS =        -2.47821012
  atomic energy  EATOM  =       294.31002157
  Solvation  Ediel_sol  =         0.00000000
  ---------------------------------------------------
  free energy    TOTEN  =       -18.84712273 eV

  energy without entropy =      -18.84712273  energy(sigma->0) =      -18.84712273


--------------------------------------------------------------------------------------------------------




--------------------------------------- Iteration      1(   6)  ---------------------------------------


    POTLOK:  cpu time      0.0036: real time      0.0038
    SETDIJ:  cpu time      0.0011: real time      0.0011
    EDDIAG:  cpu time      0.0434: real time      0.0437
  RMM-DIIS:  cpu time      0.0222: real time      0.0224
    ORTHCH:  cpu time      0.0026: real time      0.0026
       DOS:  cpu time      0.0002: real time      0.0002
    CHARGE:  cpu time      0.0030: real time      0.0030
    MIXING:  cpu time      0.0003: real time      0.0003
    --------------------------------------------
      LOOP:  cpu time      0.0764: real time      0.0771

 eigenvalue-minimisations  :   764
 total energy-change (2. order) : 0.4876524E+00  (-0.2792353E-01)
 number of electron       7.9999999 magnetization 
 augmentation part        0.1973191 magnetization 

 Broyden mixing:
  rms(total) = 0.33072E+00    rms(broyden)= 0.33072E+00
  rms(prec ) = 0.10235E+01
  weight for this iteration     100.00

 eigenvalues of (default mixing * dielectric matrix)
  average eigenvalue GAMMA=   2.3492
  2.3492

 Free energy of the ion-electron system (eV)
  ---------------------------------------------------
  alpha Z        PSCENC =        29.13132251
  Ewald energy   TEWEN  =      -348.62358043
  -Hartree energ DENC   =       -21.31943456
  -exchange      EXHF   =         0.00000000
  -V(xc)+E(xc)   XCENC  =        27.78417073
  PAW double counting   =       378.95287889     -380.20905958
  entropy T*S    EENTRO =        -0.00000000
  eigenvalues    EBANDS =         1.61421054
  atomic energy  EATOM  =       294.31002157
  Solvation  Ediel_sol  =         0.00000000
  ---------------------------------------------------
  free energy    TOTEN  =       -18.35947033 eV

  energy without entropy =      -18.35947033  energy(sigma->0) =      -18.35947033


--------------------------------------------------------------------------------------------------------




--------------------------------------- Iteration      1(   7)  ---------------------------------------


    POTLOK:  cpu time      0.0032: real time      0.0034
    SETDIJ:  cpu time      0.0011: real time      0.0011
    EDDIAG:  cpu time      0.0344: real time      0.0346
  RMM-DIIS:  cpu time      0.0245: real time      0.0246
    ORTHCH:  cpu time      0.0026: real time      0.0026
       DOS:  cpu time      0.0002: real time      0.0002
    CHARGE:  cpu time      0.0028: real time      0.0028
    MIXING:  cpu time      0.0002: real time      0.0002
    --------------------------------------------
      LOOP:  cpu time      0.0690: real time      0.0696

 eigenvalue-minimisations  :   839
 total energy-change (2. order) : 0.1638942E+00  (-0.4322201E-01)
 number of electron       7.9999999 magnetization 
 augmentation part        0.1920835 magnetization 

 Broyden mixing:
  rms(total) = 0.72640E-01    rms(broyden)= 0.72640E-01
  rms(prec ) = 0.11208E+00
  weight for this iteration     100.00

 eigenvalues of (default mixing * dielectric matrix)
  average eigenvalue GAMMA=   2.5619
  2.2573  2.8666

 Free energy of the ion-electron system (eV)
  ---------------------------------------------------
  alpha Z        PSCENC =        29.13132251
  Ewald energy   TEWEN  =      -348.62358043
  -Hartree energ DENC   =       -26.35388454
  -exchange      EXHF   =         0.00000000
  -V(xc)+E(xc)   XCENC  =        28.24534147
  PAW double counting   =       680.45320173     -681.83028425
  entropy T*S    EENTRO =        -0.00000000
  eigenvalues    EBANDS =         6.47228581
  atomic energy  EATOM  =       294.31002157
  Solvation  Ediel_sol  =         0.00000000
  ---------------------------------------------------
  free energy    TOTEN  =       -18.19557614 eV

  energy without entropy =      -18.19557614  energy(sigma->0) =      -18.19557614


--------------------------------------------------------------------------------------------------------




--------------------------------------- Iteration      1(   8)  ---------------------------------------


    POTLOK:  cpu time      0.0032: real time      0.0033
    SETDIJ:  cpu time      0.0012: real time      0.0012
    EDDIAG:  cpu time      0.0331: real time      0.0334
  RMM-DIIS:  cpu time      0.0237: real time      0.0238
    ORTHCH:  cpu time      0.0026: real time      0.0026
       DOS:  cpu time      0.0002: real time      0.0002
    CHARGE:  cpu time      0.0028: real time      0.0028
    MIXING:  cpu time      0.0002: real time      0.0002
    --------------------------------------------
      LOOP:  cpu time      0.0670: real time      0.0676

 eigenvalue-minimisations  :   786
 total energy-change (2. order) :-0.3701361E-02  (-0.2304930E-02)
 number of electron       7.9999999 magnetization 
 augmentation part        0.1907797 magnetization 

 Broyden mixing:
  rms(total) = 0.11617E-01    rms(broyden)= 0.11617E-01
  rms(prec ) = 0.27308E-01
  weight for this iteration     100.00

 eigenvalues of (default mixing * dielectric matrix)
  average eigenvalue GAMMA=   2.0421
  2.5709  1.7777  1.7777

 Free energy of the ion-electron system (eV)
  ---------------------------------------------------
  alpha Z        PSCENC =        29.13132251
  Ewald energy   TEWEN  =      -348.62358043
  -Hartree energ DENC   =       -26.22787448
  -exchange      EXHF   =         0.00000000
  -V(xc)+E(xc)   XCENC  =        28.24054756
  PAW double counting   =       777.71973559     -779.05325361
  entropy T*S    EENTRO =        -0.00000000
  eigenvalues    EBANDS =         6.30380379
  atomic energy  EATOM  =       294.31002157
  Solvation  Ediel_sol  =         0.00000000
  ---------------------------------------------------
  free energy    TOTEN  =       -18.19927750 eV

  energy without entropy =      -18.19927750  energy(sigma->0) =      -18.19927750


--------------------------------------------------------------------------------------------------------




--------------------------------------- Iteration      1(   9)  ---------------------------------------


    POTLOK:  cpu time      0.0031: real time      0.0033
    SETDIJ:  cpu time      0.0011: real time      0.0011
    EDDIAG:  cpu time      0.0321: real time      0.0324
  RMM-DIIS:  cpu time      0.0254: real time      0.0255
    ORTHCH:  cpu time      0.0026: real time      0.0026
       DOS:  cpu time      0.0002: real time      0.0002
    CHARGE:  cpu time      0.0028: real time      0.0029
    MIXING:  cpu time      0.0002: real time      0.0002
    --------------------------------------------
      LOOP:  cpu time      0.0676: real time      0.0681

 eigenvalue-minimisations  :   832
 total energy-change (2. order) :-0.2124156E-03  (-0.3631455E-03)
 number of electron       7.9999999 magnetization 
 augmentation part        0.1903380 magnetization 

 Broyden mixing:
  rms(total) = 0.51400E-02    rms(broyden)= 0.51400E-02
  rms(prec ) = 0.13378E-01
  weight for this iteration     100.00

 eigenvalues of (default mixing * dielectric matrix)
  average eigenvalue GAMMA=   1.5923
  2.5823  1.8125  1.8125  0.1617

 Free energy of the ion-electron system (eV)
  ---------------------------------------------------
  alpha Z        PSCENC =        29.13132251
  Ewald energy   TEWEN  =      -348.62358043
  -Hartree energ DENC   =       -26.36500368
  -exchange      EXHF   =         0.00000000
  -V(xc)+E(xc)   XCENC  =        28.25243169
  PAW double counting   =       768.46626005     -769.80677838
  entropy T*S    EENTRO =        -0.00000000
  eigenvalues    EBANDS =         6.43583675
  atomic energy  EATOM  =       294.31002157
  Solvation  Ediel_sol  =         0.00000000
  ---------------------------------------------------
  free energy    TOTEN  =       -18.19948991 eV

  energy without entropy =      -18.19948991  energy(sigma->0) =      -18.19948991


--------------------------------------------------------------------------------------------------------




--------------------------------------- Iteration      1(  10)  ---------------------------------------


    POTLOK:  cpu time      0.0032: real time      0.0033
    SETDIJ:  cpu time      0.0011: real time      0.0011
    EDDIAG:  cpu time      0.0317: real time      0.0320
  RMM-DIIS:  cpu time      0.0228: real time      0.0230
    ORTHCH:  cpu time      0.0026: real time      0.0026
       DOS:  cpu time      0.0002: real time      0.0002
    CHARGE:  cpu time      0.0028: real time      0.0028
    MIXING:  cpu time      0.0003: real time      0.0002
    --------------------------------------------
      LOOP:  cpu time      0.0647: real time      0.0652

 eigenvalue-minimisations  :   787
 total energy-change (2. order) :-0.2660589E-04  (-0.4131718E-04)
 number of electron       7.9999999 magnetization 
 augmentation part        0.1902541 magnetization 

 Broyden mixing:
  rms(total) = 0.20429E-02    rms(broyden)= 0.20429E-02
  rms(prec ) = 0.55679E-02
  weight for this iteration     100.00

 eigenvalues of (default mixing * dielectric matrix)
  average eigenvalue GAMMA=   1.9331
  3.1212  2.4339  2.1253  1.0393  0.9461

 Free energy of the ion-electron system (eV)
  ---------------------------------------------------
  alpha Z        PSCENC =        29.13132251
  Ewald energy   TEWEN  =      -348.62358043
  -Hartree energ DENC   =       -26.29839765
  -exchange      EXHF   =         0.00000000
  -V(xc)+E(xc)   XCENC  =        28.24719562
  PAW double counting   =       771.56500374     -772.89775858
  entropy T*S    EENTRO =        -0.00000000
  eigenvalues    EBANDS =         6.36667670
  atomic energy  EATOM  =       294.31002157
  Solvation  Ediel_sol  =         0.00000000
  ---------------------------------------------------
  free energy    TOTEN  =       -18.19951652 eV

  energy without entropy =      -18.19951652  energy(sigma->0) =      -18.19951652


--------------------------------------------------------------------------------------------------------




--------------------------------------- Iteration      1(  11)  ---------------------------------------


    POTLOK:  cpu time      0.0033: real time      0.0034
    SETDIJ:  cpu time      0.0011: real time      0.0011
    EDDIAG:  cpu time      0.0314: real time      0.0316
  RMM-DIIS:  cpu time      0.0248: real time      0.0249
    ORTHCH:  cpu time      0.0026: real time      0.0026
       DOS:  cpu time      0.0002: real time      0.0002
    CHARGE:  cpu time      0.0028: real time      0.0028
    MIXING:  cpu time      0.0002: real time      0.0002
    --------------------------------------------
      LOOP:  cpu time      0.0664: real time      0.0669

 eigenvalue-minimisations  :   840
 total energy-change (2. order) :-0.3711603E-05  (-0.6008737E-05)
 number of electron       7.9999999 magnetization 
 augmentation part        0.1902247 magnetization 

 Broyden mixing:
  rms(total) = 0.53317E-03    rms(broyden)= 0.53317E-03
  rms(prec ) = 0.72687E-03
  weight for this iteration     100.00

 eigenvalues of (default mixing * dielectric matrix)
  average eigenvalue GAMMA=   2.5668
  5.5053  3.4220  2.5298  2.0492  0.9827  0.9117

 Free energy of the ion-electron system (eV)
  ---------------------------------------------------
  alpha Z        PSCENC =        29.13132251
  Ewald energy   TEWEN  =      -348.62358043
  -Hartree energ DENC   =       -26.32506784
  -exchange      EXHF   =         0.00000000
  -V(xc)+E(xc)   XCENC  =        28.24960313
  PAW double counting   =       770.03267464     -771.36607925
  entropy T*S    EENTRO =        -0.00000000
  eigenvalues    EBANDS =         6.39158543
  atomic energy  EATOM  =       294.31002157
  Solvation  Ediel_sol  =         0.00000000
  ---------------------------------------------------
  free energy    TOTEN  =       -18.19952023 eV

  energy without entropy =      -18.19952023  energy(sigma->0) =      -18.19952023


--------------------------------------------------------------------------------------------------------




--------------------------------------- Iteration      1(  12)  ---------------------------------------


    POTLOK:  cpu time      0.0032: real time      0.0033
    SETDIJ:  cpu time      0.0011: real time      0.0011
    EDDIAG:  cpu time      0.0314: real time      0.0316
  RMM-DIIS:  cpu time      0.0228: real time      0.0229
    ORTHCH:  cpu time      0.0027: real time      0.0027
       DOS:  cpu time      0.0002: real time      0.0002
    CHARGE:  cpu time      0.0028: real time      0.0028
    MIXING:  cpu time      0.0003: real time      0.0003
    --------------------------------------------
      LOOP:  cpu time      0.0644: real time      0.0649

 eigenvalue-minimisations  :   757
 total energy-change (2. order) :-0.1062563E-05  (-0.7862387E-06)
 number of electron       7.9999999 magnetization 
 augmentation part        0.1902051 magnetization 

 Broyden mixing:
  rms(total) = 0.60131E-03    rms(broyden)= 0.60131E-03
  rms(prec ) = 0.10889E-02
  weight for this iteration     100.00

 eigenvalues of (default mixing * dielectric matrix)
  average eigenvalue GAMMA=   2.0830
  4.3295  2.5247  2.5247  2.1383  1.0878  1.0878  0.8880

 Free energy of the ion-electron system (eV)
  ---------------------------------------------------
  alpha Z        PSCENC =        29.13132251
  Ewald energy   TEWEN  =      -348.62358043
  -Hartree energ DENC   =       -26.32672864
  -exchange      EXHF   =         0.00000000
  -V(xc)+E(xc)   XCENC  =        28.24972583
  PAW double counting   =       770.34298715     -771.67663994
  entropy T*S    EENTRO =        -0.00000000
  eigenvalues    EBANDS =         6.39337066
  atomic energy  EATOM  =       294.31002157
  Solvation  Ediel_sol  =         0.00000000
  ---------------------------------------------------
  free energy    TOTEN  =       -18.19952129 eV

  energy without entropy =      -18.19952129  energy(sigma->0) =      -18.19952129


--------------------------------------------------------------------------------------------------------




--------------------------------------- Iteration      1(  13)  ---------------------------------------


    POTLOK:  cpu time      0.0032: real time      0.0033
    SETDIJ:  cpu time      0.0011: real time      0.0011
    EDDIAG:  cpu time      0.0313: real time      0.0315
  RMM-DIIS:  cpu time      0.0174: real time      0.0175
    ORTHCH:  cpu time      0.0025: real time      0.0026
       DOS:  cpu time      0.0002: real time      0.0002
    --------------------------------------------
      LOOP:  cpu time      0.0556: real time      0.0561

 eigenvalue-minimisations  :   539
 total energy-change (2. order) :-0.2399747E-06  (-0.6099615E-07)
 number of electron       7.9999999 magnetization 
 augmentation part        0.1902051 magnetization 

 Free energy of the ion-electron system (eV)
  ---------------------------------------------------
  alpha Z        PSCENC =        29.13132251
  Ewald energy   TEWEN  =      -348.62358043
  -Hartree energ DENC   =       -26.32400031
  -exchange      EXHF   =         0.00000000
  -V(xc)+E(xc)   XCENC  =        28.24954654
  PAW double counting   =       771.09994644     -772.43305047
  entropy T*S    EENTRO =        -0.00000000
  eigenvalues    EBANDS =         6.39027262
  atomic energy  EATOM  =       294.31002157
  Solvation  Ediel_sol  =         0.00000000
  ---------------------------------------------------
  free energy    TOTEN  =       -18.19952153 eV

  energy without entropy =      -18.19952153  energy(sigma->0) =      -18.19952153


--------------------------------------------------------------------------------------------------------




 average (electrostatic) potential at core
  the test charge radii are     0.6991
  (the norm of the test charge is              1.0000)
       1 -45.3103       2 -45.3103
 
 
 
 E-fermi :  10.5895     XC(G=0): -13.2789     alpha+bet :-17.7709

 val. band max:        9.8063735395   @ k =   0.0000   0.0000   0.0000
 cond. band min:      13.9900890028   @ k =   0.4000   0.4000   0.0000
 fundamental gap:      4.1837154634
 Fermi energy:        10.5894626862

 k-point     1 :       0.0000    0.0000    0.0000
  band No.  band energies     occupation 
      1     -11.7432      2.00000
      2       9.8064      2.00000
      3       9.8064      2.00000
      4       9.8064      2.00000
      5      15.4133      0.00000
      6      15.4133      0.00000
      7      15.4133      0.00000
      8      23.2690      0.00000

 k-point     2 :       0.1000    0.0000    0.0000
  band No.  band energies     occupation 
      1     -11.4655      2.00000
      2       8.1237      2.00000
      3       9.3573      2.00000
      4       9.3573      2.00000
      5      16.0032      0.00000
      6      16.0032      0.00000
      7      16.3661      0.00000
      8      23.4995      0.00000

 k-point     3 :       0.2000    0.0000    0.0000
  band No.  band energies     occupation 
      1     -10.6372      2.00000
      2       4.9062      2.00000
      3       8.4764      2.00000
      4       8.4764      2.00000
      5      17.1396      0.00000
      6      17.1396      0.00000
      7      17.5916      0.00000
      8      24.1379      0.00000

 k-point     4 :       0.3000    0.0000    0.0000
  band No.  band energies     occupation 
      1      -9.2782      2.00000
      2       1.4947      2.00000
      3       7.6818      2.00000
      4       7.6818      2.00000
      5      17.9642      0.00000
      6      17.9642      0.00000
      7      18.2998      0.00000
      8      24.9153      0.00000

 k-point     5 :       0.4000    0.0000    0.0000
  band No.  band energies     occupation 
      1      -7.4596      2.00000
      2      -1.6499      2.00000
      3       7.1676      2.00000
      4       7.1676      2.00000
      5      18.2532      0.00000
      6      18.2532      0.00000
      7      18.6336      0.00000
      8      25.4221      0.00000

 k-point     6 :       0.5000    0.0000    0.0000
  band No.  band energies     occupation 
      1      -5.9366      2.00000
      2      -3.6279      2.00000
      3       6.9921      2.00000
      4       6.9921      2.00000
      5      18.2902      0.00000
      6      18.2902      0.00000
      7      18.7323      0.00000
      8      25.5570      0.00000

 k-point     7 :       0.1000    0.1000    0.0000
  band No.  band energies     occupation 
      1     -11.3730      2.00000
      2       8.5724      2.00000
      3       8.5724      2.00000
      4       8.9358      2.00000
      5      15.1382      0.00000
      6      16.9650      0.00000
      7      16.9650      0.00000
      8      23.3660      0.00000

 k-point     8 :       0.2000    0.1000    0.0000
  band No.  band energies     occupation 
      1     -10.7284      2.00000
      2       6.0253      2.00000
      3       7.6000      2.00000
      4       8.4660      2.00000
      5      15.5663      0.00000
      6      18.2733      0.00000
      7      18.2946      0.00000
      8      23.2675      0.00000

 k-point     9 :       0.3000    0.1000    0.0000
  band No.  band energies     occupation 
      1      -9.5457      2.00000
      2       2.7416      2.00000
      3       6.8507      2.00000
      4       7.5943      2.00000
      5      16.6085      0.00000
      6      19.1329      0.00000
      7      19.2250      0.00000
      8      23.4548      0.00000

 k-point    10 :       0.4000    0.1000    0.0000
  band No.  band energies     occupation 
      1      -7.8700      2.00000
      2      -0.4689      2.00000
      3       6.4730      2.00000
      4       6.7209      2.00000
      5      17.3272      0.00000
      6      19.4417      0.00000
      7      19.5389      0.00000
      8      24.3423      0.00000

 k-point    11 :       0.5000    0.1000    0.0000
  band No.  band energies     occupation 
      1      -5.9928      2.00000
      2      -3.0781      2.00000
      3       6.0839      2.00000
      4       6.5017      2.00000
      5      17.7320      0.00000
      6      19.1927      0.00000
      7      19.6704      0.00000
      8      25.3435      0.00000

 k-point    12 :      -0.4000    0.1000    0.0000
  band No.  band energies     occupation 
      1      -6.5767      2.00000
      2      -2.3430      2.00000
      3       5.7888      2.00000
      4       6.9160      2.00000
      5      18.1309      0.00000
      6      18.7720      0.00000
      7      19.6084      0.00000
      8      25.4186      0.00000

 k-point    13 :      -0.3000    0.1000    0.0000
  band No.  band energies     occupation 
      1      -8.4783      2.00000
      2       0.5789      2.00000
      3       5.8886      2.00000
      4       7.6503      2.00000
      5      18.1560      0.00000
      6      18.4589      0.00000
      7      19.3059      0.00000
      8      24.6106      0.00000

 k-point    14 :      -0.2000    0.1000    0.0000
  band No.  band energies     occupation 
      1      -9.9985      2.00000
      2       3.8631      2.00000
      3       6.4018      2.00000
      4       8.5644      2.00000
      5      17.1798      0.00000
      6      18.3322      0.00000
      7      18.5111      0.00000
      8      23.9117      0.00000

 k-point    15 :      -0.1000    0.1000    0.0000
  band No.  band energies     occupation 
      1     -11.0042      2.00000
      2       6.8637      2.00000
      3       7.4637      2.00000
      4       9.3291      2.00000
      5      16.1618      0.00000
      6      17.1879      0.00000
      7      17.5048      0.00000
      8      23.6606      0.00000

 k-point    16 :       0.2000    0.2000    0.0000
  band No.  band energies     occupation 
      1     -10.2697      2.00000
      2       6.5623      2.00000
      3       6.5623      2.00000
      4       6.7158      2.00000
      5      14.5462      0.00000
      6      19.8919      0.00000
      7      19.8919      0.00000
      8      21.7030      0.00000

 k-point    17 :       0.3000    0.2000    0.0000
  band No.  band energies     occupation 
      1      -9.2711      2.00000
      2       3.9560      2.00000
      3       5.7692      2.00000
      4       6.1467      2.00000
      5      14.9756      0.00000
      6      20.6415      0.00000
      7      21.1328      0.00000
      8      21.1680      0.00000

 k-point    18 :       0.4000    0.2000    0.0000
  band No.  band energies     occupation 
      1      -7.7650      2.00000
      2       0.9820      2.00000
      3       5.0856      2.00000
      4       5.3818      2.00000
      5      15.9252      0.00000
      6      21.0830      0.00000
      7      21.6425      0.00000
      8      21.7368      0.00000

 k-point    19 :       0.5000    0.2000    0.0000
  band No.  band energies     occupation 
      1      -5.8923      2.00000
      2      -1.7681      2.00000
      3       4.0826      2.00000
      4       5.4468      2.00000
      5      16.5054      0.00000
      6      21.3824      0.00000
      7      21.9312      0.00000
      8      23.1189      0.00000

 k-point    20 :      -0.4000    0.2000    0.0000
  band No.  band energies     occupation 
      1      -5.3423      2.00000
      2      -2.4263      2.00000
      3       3.4085      2.00000
      4       5.9462      2.00000
      5      17.0779      0.00000
      6      20.6986      0.00000
      7      21.9051      0.00000
      8      25.1036      0.00000

 k-point    21 :      -0.3000    0.2000    0.0000
  band No.  band energies     occupation 
      1      -7.1776      2.00000
      2       0.0922      2.00000
      3       3.1863      2.00000
      4       6.7982      2.00000
      5      17.8171      0.00000
      6      19.6761      0.00000
      7      21.5918      0.00000
      8      24.3299      0.00000

 k-point    22 :      -0.2000    0.2000    0.0000
  band No.  band energies     occupation 
      1      -8.8286      2.00000
      2       2.8063      2.00000
      3       3.7727      2.00000
      4       7.8109      2.00000
      5      18.3257      0.00000
      6      18.4261      0.00000
      7      20.3460      0.00000
      8      23.5487      0.00000

 k-point    23 :       0.3000    0.3000    0.0000
  band No.  band energies     occupation 
      1      -8.4596      2.00000
      2       3.7145      2.00000
      3       4.8935      2.00000
      4       4.8935      2.00000
      5      14.0561      0.00000
      6      18.5141      0.00000
      7      22.9609      0.00000
      8      22.9609      0.00000

 k-point    24 :       0.4000    0.3000    0.0000
  band No.  band energies     occupation 
      1      -7.1358      2.00000
      2       1.7313      2.00000
      3       3.7931      2.00000
      4       4.4204      2.00000
      5      14.6153      0.00000
      6      17.8497      0.00000
      7      23.9526      0.00000
      8      24.0134      0.00000

 k-point    25 :       0.5000    0.3000    0.0000
  band No.  band energies     occupation 
      1      -5.3858      2.00000
      2      -0.4594      2.00000
      3       2.2516      2.00000
      4       4.4166      2.00000
      5      15.3815      0.00000
      6      19.3938      0.00000
      7      23.9302      0.00000
      8      24.3985      0.00000

 k-point    26 :      -0.4000    0.3000    0.0000
  band No.  band energies     occupation 
      1      -4.0258      2.00000
      2      -1.9017      2.00000
      3       1.0992      2.00000
      4       4.8785      2.00000
      5      15.9618      0.00000
      6      22.4377      0.00000
      7      23.0868      0.00000
      8      24.4811      0.00000

 k-point    27 :      -0.3000    0.3000    0.0000
  band No.  band energies     occupation 
      1      -5.4695      2.00000
      2      -0.3670      2.00000
      3       0.8993      2.00000
      4       5.7346      2.00000
      5      16.8062      0.00000
      6      21.5801      0.00000
      7      23.9994      0.00000
      8      24.3988      0.00000

 k-point    28 :       0.4000    0.4000    0.0000
  band No.  band energies     occupation 
      1      -5.9985      2.00000
      2       0.3475      2.00000
      3       3.8349      2.00000
      4       3.8349      2.00000
      5      13.9901      0.00000
      6      16.0325      0.00000
      7      25.5622      0.00000
      8      25.5622      0.00000

 k-point    29 :       0.5000    0.4000    0.0000
  band No.  band energies     occupation 
      1      -4.4123      2.00000
      2      -1.2916      2.00000
      3       2.7205      2.00000
      4       3.7181      2.00000
      5      14.6627      0.00000
      6      16.1347      0.00000
      7      25.9396      0.00000
      8      26.1303      0.00000

 k-point    30 :      -0.4000    0.4000    0.0000
  band No.  band energies     occupation 
      1      -2.9413      2.00000
      2      -2.3328      2.00000
      3       0.9836      2.00000
      4       4.0835      2.00000
      5      15.1743      0.00000
      6      18.8370      0.00000
      7      25.0301      0.00000
      8      25.8844      0.00000

 k-point    31 :       0.5000    0.5000    0.0000
  band No.  band energies     occupation 
      1      -2.9960      2.00000
      2      -2.9960      2.00000
      3       3.4744      2.00000
      4       3.4744      2.00000
      5      14.5793      0.00000
      6      14.5793      0.00000
      7      26.6970      0.00000
      8      26.6970      0.00000

 k-point    32 :       0.3000    0.2000    0.1000
  band No.  band energies     occupation 
      1      -9.9065      2.00000
      2       4.7551      2.00000
      3       5.5626      2.00000
      4       7.8976      2.00000
      5      15.9597      0.00000
      6      19.2478      0.00000
      7      19.8372      0.00000
      8      22.5055      0.00000

 k-point    33 :       0.4000    0.2000    0.1000
  band No.  band energies     occupation 
      1      -8.5606      2.00000
      2       1.9172      2.00000
      3       4.6902      2.00000
      4       6.9993      2.00000
      5      17.0895      0.00000
      6      19.4218      0.00000
      7      21.0854      0.00000
      8      22.5710      0.00000

 k-point    34 :       0.5000    0.2000    0.1000
  band No.  band energies     occupation 
      1      -6.7674      2.00000
      2      -1.0615      2.00000
      3       4.4528      2.00000
      4       6.1279      2.00000
      5      17.8308      0.00000
      6      19.1617      0.00000
      7      21.6337      0.00000
      8      23.9922      0.00000

 k-point    35 :      -0.4000    0.2000    0.1000
  band No.  band energies     occupation 
      1      -5.2849      2.00000
      2      -2.9622      2.00000
      3       4.4468      2.00000
      4       5.7421      2.00000
      5      18.0204      0.00000
      6      19.0161      0.00000
      7      21.7934      0.00000
      8      25.1420      0.00000

 k-point    36 :       0.4000    0.3000    0.1000
  band No.  band energies     occupation 
      1      -8.1094      2.00000
      2       2.7158      2.00000
      3       3.9669      2.00000
      4       5.4495      2.00000
      5      15.5290      0.00000
      6      19.6092      0.00000
      7      21.6782      0.00000
      8      22.9899      0.00000

 k-point    37 :       0.5000    0.3000    0.1000
  band No.  band energies     occupation 
      1      -6.4740      2.00000
      2       0.3681      2.00000
      3       3.0801      2.00000
      4       4.6053      2.00000
      5      16.6666      0.00000
      6      20.1251      0.00000
      7      21.6726      0.00000
      8      24.0759      0.00000

 k-point    38 :      -0.4000    0.3000    0.1000
  band No.  band energies     occupation 
      1      -4.6769      2.00000
      2      -1.9089      2.00000
      3       2.4358      2.00000
      4       4.4393      2.00000
      5      17.2780      0.00000
      6      20.8610      0.00000
      7      22.8101      0.00000
      8      24.2448      0.00000

 k-point    39 :      -0.3000    0.3000    0.1000
  band No.  band energies     occupation 
      1      -5.2540      2.00000
      2      -1.1822      2.00000
      3       1.9658      2.00000
      4       5.0147      2.00000
      5      17.9216      0.00000
      6      20.1692      0.00000
      7      23.3574      0.00000
      8      24.4102      0.00000

 k-point    40 :      -0.2000    0.3000    0.1000
  band No.  band energies     occupation 
      1      -7.0810      2.00000
      2       1.1045      2.00000
      3       2.2715      2.00000
      4       6.0030      2.00000
      5      18.7144      0.00000
      6      18.7681      0.00000
      7      22.4798      0.00000
      8      23.1636      0.00000

 k-point    41 :       0.5000    0.4000    0.1000
  band No.  band energies     occupation 
      1      -5.6803      2.00000
      2       0.2567      2.00000
      3       2.9866      2.00000
      4       3.4803      2.00000
      5      15.4615      0.00000
      6      17.3329      0.00000
      7      24.1471      0.00000
      8      25.5040      0.00000

 k-point    42 :      -0.4000    0.4000    0.1000
  band No.  band energies     occupation 
      1      -3.9033      2.00000
      2      -1.2883      2.00000
      3       1.4190      2.00000
      4       3.3565      2.00000
      5      16.4332      0.00000
      6      19.0821      0.00000
      7      23.7918      0.00000
      8      25.3882      0.00000

 k-point    43 :      -0.3000    0.4000    0.1000
  band No.  band energies     occupation 
      1      -3.6050      2.00000
      2      -1.4610      2.00000
      3       0.4419      2.00000
      4       3.9755      2.00000
      5      17.0554      0.00000
      6      22.1448      0.00000
      7      22.8433      0.00000
      8      24.1702      0.00000

 k-point    44 :      -0.4000    0.5000    0.1000
  band No.  band energies     occupation 
      1      -2.7693      2.00000
      2      -2.7693      2.00000
      3       2.7611      2.00000
      4       2.7611      2.00000
      5      15.9969      0.00000
      6      15.9969      0.00000
      7      25.9232      0.00000
      8      25.9232      0.00000

 k-point    45 :      -0.4000    0.4000    0.2000
  band No.  band energies     occupation 
      1      -4.7839      2.00000
      2      -0.3848      2.00000
      3       1.4443      2.00000
      4       3.3904      2.00000
      5      18.7957      0.00000
      6      19.6878      0.00000
      7      21.6304      0.00000
      8      24.9755      0.00000

 k-point    46 :      -0.3000    0.4000    0.2000
  band No.  band energies     occupation 
      1      -3.4074      2.00000
      2      -1.5987      2.00000
      3       1.1298      2.00000
      4       2.8057      2.00000
      5      19.2825      0.00000
      6      20.4042      0.00000
      7      22.8858      0.00000
      8      23.1128      0.00000

 k-point    47 :      -0.3000    0.5000    0.2000
  band No.  band energies     occupation 
      1      -2.2979      2.00000
      2      -2.2979      2.00000
      3       1.6372      2.00000
      4       1.6372      2.00000
      5      19.2146      0.00000
      6      19.2146      0.00000
      7      23.3684      0.00000
      8      23.3684      0.00000


--------------------------------------------------------------------------------------------------------


 soft charge-density along one line, spin component           1
         0         1         2         3         4         5         6         7         8         9
 total charge-density along one line
 
 pseudopotential strength for first ion, spin component:           1
  9.428  12.519   0.000   0.000   0.000  -0.000  -0.000  -0.000
 12.519  16.624   0.000   0.000   0.000  -0.000  -0.000  -0.000
  0.000   0.000  -3.658   0.000   0.000   7.165  -0.000  -0.000
  0.000   0.000   0.000  -3.658   0.000  -0.000   7.165  -0.000
  0.000   0.000   0.000   0.000  -3.658  -0.000  -0.000   7.165
 -0.000  -0.000   7.165  -0.000  -0.000 -16.128   0.000   0.000
 -0.000  -0.000  -0.000   7.165  -0.000   0.000 -16.128   0.000
 -0.000  -0.000  -0.000  -0.000   7.165   0.000   0.000 -16.128
 total augmentation occupancy for first ion, spin component:           1
  7.441  -3.287  -0.000  -0.000   0.000  -0.000  -0.000  -0.000
 -3.287   1.537   0.000  -0.000  -0.000   0.000  -0.000  -0.000
 -0.000   0.000   1.580  -0.000   0.000   0.133  -0.000   0.000
 -0.000  -0.000  -0.000   1.580   0.000  -0.000   0.133   0.000
  0.000  -0.000   0.000   0.000   1.580   0.000   0.000   0.133
 -0.000   0.000   0.133  -0.000   0.000   0.013  -0.000   0.000
 -0.000  -0.000  -0.000   0.133   0.000  -0.000   0.013   0.000
 -0.000  -0.000   0.000   0.000   0.133   0.000   0.000   0.013


------------------------ aborting loop because EDIFF is reached ----------------------------------------


    CHARGE:  cpu time      0.0029: real time      0.0029
    FORLOC:  cpu time      0.0001: real time      0.0001
    FORNL :  cpu time      0.0020: real time      0.0021
    STRESS:  cpu time      0.0162: real time      0.0163
    FORCOR:  cpu time      0.0027: real time      0.0027
    FORHAR:  cpu time      0.0007: real time      0.0007
    MIXING:  cpu time      0.0002: real time      0.0002
    OFIELD:  cpu time      0.0000: real time      0.0000

  FORCE on cell =-STRESS in cart. coord.  units (eV):
  Direction    XX          YY          ZZ          XY          YZ          ZX
  --------------------------------------------------------------------------------------
  Alpha Z    29.13132    29.13132    29.13132
  Ewald    -116.20791  -116.20791  -116.20791    -0.00000     0.00000    -0.00000
  Hartree     8.77432     8.77432     8.77432    -0.00000    -0.00000    -0.00000
  E(xc)     -30.48068   -30.48068   -30.48068     0.00000     0.00000     0.00000
  Local     -11.02093   -11.02093   -11.02093     0.00000     0.00000     0.00000
  n-local    -7.15067    -6.92504    -7.64706    -0.76078    -0.08162     0.28750
  augment    -0.72870    -0.72869    -0.72869    -0.00000    -0.00000    -0.00000
  Kinetic   125.74442   127.46780   131.08229     5.46805     1.87990     0.69153
  Fock        0.00000     0.00000     0.00000     0.00000     0.00000     0.00000
  -------------------------------------------------------------------------------------
  Total       0.32468     0.32468     0.32468     0.00000    -0.00000     0.00000
  in kB      46.11791    46.11791    46.11791     0.00000    -0.00000     0.00000
  external pressure =       46.12 kB  Pullay stress =        0.00 kB


 VOLUME and BASIS-vectors are now :
 -----------------------------------------------------------------------------
  energy-cutoff  :      950.00
  volume of cell :       11.28
      direct lattice vectors                 reciprocal lattice vectors
     2.517300129  0.000000000  0.000000000     0.397251003 -0.229352973 -0.162177043
     1.258650065  2.180045861  0.000000000     0.000000000  0.458705947 -0.162177043
     1.258650065  0.726681953  2.055366948     0.000000000  0.000000000  0.486531128

  length of vectors
     2.517300129  2.517300129  2.517300129     0.486531128  0.486531128  0.486531128


 FORCES acting on ions
    electron-ion (+dipol)            ewald-force                    non-local-force                 convergence-correction
 -----------------------------------------------------------------------------------------------
   -.786E-07 -.486E-07 0.312E-08   -.514E-08 0.327E-08 -.272E-08   -.509E-16 -.120E-16 -.317E-16   -.391E-09 -.226E-09 -.160E-09
   0.786E-07 0.486E-07 -.312E-08   0.514E-08 -.327E-08 0.272E-08   0.472E-16 -.242E-17 0.295E-16   0.391E-09 0.226E-09 0.160E-09
 -----------------------------------------------------------------------------------------------
   0.110E-12 0.587E-13 0.859E-13   -.598E-16 0.887E-16 0.222E-15   -.370E-17 -.145E-16 -.218E-17   -.382E-15 0.129E-14 -.137E-13
 
 
 POSITION                                       TOTAL-FORCE (eV/Angst)
 -----------------------------------------------------------------------------------
      1.25865      0.72668      0.51384         0.000000     -0.000000     -0.000000
      0.00000      0.00000      0.00000        -0.000000      0.000000      0.000000
 -----------------------------------------------------------------------------------
    total drift:                                0.000000      0.000000      0.000000


--------------------------------------------------------------------------------------------------------



  FREE ENERGIE OF THE ION-ELECTRON SYSTEM (eV)
  ---------------------------------------------------
  free  energy   TOTEN  =       -18.19952153 eV

  energy  without entropy=      -18.19952153  energy(sigma->0) =      -18.19952153
 


--------------------------------------------------------------------------------------------------------


    POTLOK:  cpu time      0.0044: real time      0.0044


--------------------------------------------------------------------------------------------------------


     LOOP+:  cpu time      0.9520: real time      0.9802
    4ORBIT:  cpu time      0.0000: real time      0.0000

 total amount of memory used by VASP MPI-rank0    30867. kBytes
=======================================================================

   base                                    :      30000. kBytes
   nonl-proj                               :        340. kBytes
   fftplans                                :        137. kBytes
   grid                                    :        207. kBytes
   one-center                              :          3. kBytes
   wavefun                                 :        180. kBytes
 
  
  
 General timing and accounting informations for this job:
 ========================================================
  
                  Total CPU time used (sec):        1.468
                            User time (sec):        1.116
                          System time (sec):        0.352
                         Elapsed time (sec):        1.990
  
                   Maximum memory used (kb):      171568.
                   Average memory used (kb):          N/A
  
                          Minor page faults:        10942
                          Major page faults:           28
                 Voluntary context switches:         1313
