C8                                      
   1.00000000000000     
     2.5269958153334406    0.0000000000002224    0.0000000000001572
     1.2634979077171054    2.1884425713588613   -0.0000000000000576
     1.2634979077171054    0.7294808570861046    2.0632834432225025
   C 
     2
Direct
     0.2500000000000000    0.2500000000000000    0.2500000000000000
     0.0000000000000000    0.0000000000000000    0.0000000000000000
 
  0.00000000E+00  0.00000000E+00  0.00000000E+00
  0.00000000E+00  0.00000000E+00  0.00000000E+00
