   2   2   1   0
  0.5705170E+01  0.2526996E-09  0.2526996E-09  0.2526996E-09  0.5000000E-15
  1.000000000000000E-004
  CAR 
 unknown system                          
     28.27151767    -13.65881190  301      9.71734683      1.00000000
    -13.659  0.0000E+00  0.0000E+00
    -13.519  0.0000E+00  0.0000E+00
    -13.379  0.0000E+00  0.0000E+00
    -13.240  0.0000E+00  0.0000E+00
    -13.100  0.0000E+00  0.0000E+00
    -12.960  0.0000E+00  0.0000E+00
    -12.820  0.0000E+00  0.0000E+00
    -12.680  0.0000E+00  0.0000E+00
    -12.541  0.0000E+00  0.0000E+00
    -12.401  0.0000E+00  0.0000E+00
    -12.261  0.0000E+00  0.0000E+00
    -12.121  0.0000E+00  0.0000E+00
    -11.982  0.0000E+00  0.0000E+00
    -11.842  0.0000E+00  0.0000E+00
    -11.702  0.1958E+00  0.5404E-01
    -11.562  0.9495E-01  0.1022E+00
    -11.423  0.4794E-01  0.1311E+00
    -11.283  0.4815E-01  0.1578E+00
    -11.143  0.4495E-01  0.1796E+00
    -11.003  0.4770E-01  0.1978E+00
    -10.863  0.3067E-01  0.2154E+00
    -10.724  0.4769E-01  0.2333E+00
    -10.584  0.3213E-01  0.2467E+00
    -10.444  0.4770E-01  0.2622E+00
    -10.304  0.4770E-01  0.2756E+00
    -10.165  0.1754E-01  0.2869E+00
    -10.025  0.1513E-01  0.2999E+00
     -9.885  0.1590E-01  0.3111E+00
     -9.745  0.1590E-01  0.3222E+00
     -9.606  0.3111E-01  0.3355E+00
     -9.466  0.1590E-01  0.3444E+00
     -9.326  0.4769E-01  0.3578E+00
     -9.186  0.4445E-04  0.3645E+00
     -9.046  0.2835E-01  0.3773E+00
     -8.907  0.3180E-01  0.3867E+00
     -8.767  0.6018E-08  0.3933E+00
     -8.627  0.3256E-01  0.4046E+00
     -8.487  0.1621E-01  0.4134E+00
     -8.348  0.2648E-16  0.4222E+00
     -8.208  0.1014E-01  0.4303E+00
     -8.068  0.3180E-01  0.4400E+00
     -7.928  0.4174E-02  0.4473E+00
     -7.789  0.3180E-01  0.4578E+00
     -7.649  0.1590E-01  0.4644E+00
     -7.509  0.2261E-01  0.4743E+00
     -7.369  0.1590E-01  0.4822E+00
     -7.229  0.2411E-01  0.4900E+00
     -7.090  0.0000E+00  0.4978E+00
     -6.950  0.3889E-06  0.5044E+00
     -6.810  0.1590E-01  0.5133E+00
     -6.670  0.5464E-09  0.5200E+00
     -6.531  0.1590E-01  0.5289E+00
     -6.391  0.6325E-02  0.5364E+00
     -6.251  0.9506E-03  0.5446E+00
     -6.111  0.2018E-01  0.5562E+00
     -5.972  0.5597E+00  0.6449E+00
     -5.832  0.1255E+00  0.7309E+00
     -5.692  0.1285E+00  0.7868E+00
     -5.552  0.1109E+00  0.8333E+00
     -5.413  0.8347E-01  0.8717E+00
     -5.273  0.6614E-01  0.9070E+00
     -5.133  0.6271E-01  0.9421E+00
     -4.993  0.6362E-01  0.9711E+00
     -4.853  0.6127E-01  0.1002E+01
     -4.714  0.8010E-01  0.1029E+01
     -4.574  0.4770E-01  0.1056E+01
     -4.434  0.4902E-01  0.1080E+01
     -4.294  0.4657E-01  0.1107E+01
     -4.155  0.6358E-01  0.1131E+01
     -4.015  0.6455E-01  0.1156E+01
     -3.875  0.6466E-01  0.1178E+01
     -3.735  0.4758E-01  0.1202E+01
     -3.596  0.3424E+00  0.1328E+01
     -3.456  0.1839E+00  0.1428E+01
     -3.316  0.1784E+00  0.1512E+01
     -3.176  0.3203E+00  0.1725E+01
     -3.036  0.7378E+00  0.1916E+01
     -2.897  0.2953E+00  0.2097E+01
     -2.757  0.3269E+00  0.2239E+01
     -2.617  0.2405E+00  0.2365E+01
     -2.477  0.2459E+00  0.2488E+01
     -2.338  0.3276E+00  0.2624E+01
     -2.198  0.1725E+00  0.2762E+01
     -2.058  0.2237E+00  0.2849E+01
     -1.918  0.1904E+00  0.3296E+01
     -1.779  0.4694E-01  0.3375E+01
     -1.639  0.2915E-01  0.3415E+01
     -1.499  0.4972E-03  0.3422E+01
     -1.359  0.1590E-01  0.3431E+01
     -1.219  0.4770E-01  0.3440E+01
     -1.080  0.4720E-01  0.3449E+01
     -0.940  0.1358E-01  0.3453E+01
     -0.800  0.1595E-01  0.3460E+01
     -0.660  0.6926E-13  0.3467E+01
     -0.521  0.1590E-01  0.3476E+01
     -0.381  0.1590E-01  0.3482E+01
     -0.241  0.1914E-01  0.3489E+01
     -0.101  0.1590E-01  0.3496E+01
      0.038  0.0000E+00  0.3502E+01
      0.178  0.2719E-01  0.3510E+01
      0.318  0.6083E-01  0.3537E+01
      0.458  0.3550E+00  0.3721E+01
      0.598  0.1951E+00  0.3829E+01
      0.737  0.1432E+00  0.3909E+01
      0.877  0.1156E+00  0.3978E+01
      1.017  0.1748E+00  0.4062E+01
      1.157  0.1770E+00  0.4136E+01
      1.296  0.1447E+00  0.4198E+01
      1.436  0.2239E+00  0.4314E+01
      1.576  0.1947E+00  0.4407E+01
      1.716  0.1139E+00  0.4480E+01
      1.855  0.1010E+00  0.4550E+01
      1.995  0.1544E+00  0.4615E+01
      2.135  0.9622E-01  0.4673E+01
      2.275  0.7979E-01  0.4733E+01
      2.414  0.1178E+00  0.4792E+01
      2.554  0.1072E+00  0.4855E+01
      2.694  0.1357E+00  0.4912E+01
      2.834  0.1338E+00  0.4972E+01
      2.974  0.1253E+00  0.5029E+01
      3.113  0.9230E-01  0.5088E+01
      3.253  0.1515E+00  0.5161E+01
      3.393  0.4717E+00  0.5293E+01
      3.533  0.1794E+00  0.5372E+01
      3.672  0.1418E+00  0.5431E+01
      3.812  0.1391E+00  0.5491E+01
      3.952  0.1067E+00  0.5548E+01
      4.092  0.9228E-01  0.5606E+01
      4.231  0.1818E+00  0.5677E+01
      4.371  0.1142E+00  0.5785E+01
      4.511  0.1337E+00  0.5848E+01
      4.651  0.9488E-01  0.5911E+01
      4.791  0.1005E+00  0.5974E+01
      4.930  0.9492E-01  0.6031E+01
      5.070  0.1758E+00  0.6089E+01
      5.210  0.1265E+00  0.6140E+01
      5.350  0.9610E-01  0.6196E+01
      5.489  0.9408E-01  0.6249E+01
      5.629  0.1249E+00  0.6304E+01
      5.769  0.9608E-01  0.6358E+01
      5.909  0.6154E-01  0.6411E+01
      6.048  0.9795E-01  0.6469E+01
      6.188  0.1213E+00  0.6530E+01
      6.328  0.1290E+00  0.6591E+01
      6.468  0.1341E+00  0.6657E+01
      6.608  0.1728E+00  0.6733E+01
      6.747  0.1968E+00  0.6821E+01
      6.887  0.6601E+00  0.7021E+01
      7.027  0.1259E+00  0.7093E+01
      7.167  0.7799E-01  0.7144E+01
      7.306  0.9804E-01  0.7189E+01
      7.446  0.7950E-01  0.7229E+01
      7.586  0.6197E-01  0.7264E+01
      7.726  0.8146E-01  0.7302E+01
      7.865  0.3896E-01  0.7337E+01
      8.005  0.5644E-01  0.7370E+01
      8.145  0.6671E-01  0.7409E+01
      8.285  0.4953E-01  0.7442E+01
      8.424  0.1113E+00  0.7482E+01
      8.564  0.3263E-01  0.7513E+01
      8.704  0.1099E+00  0.7555E+01
      8.844  0.7163E-01  0.7590E+01
      8.984  0.7525E-01  0.7633E+01
      9.123  0.5650E-01  0.7675E+01
      9.263  0.1092E+00  0.7724E+01
      9.403  0.1235E+00  0.7779E+01
      9.543  0.1662E+00  0.7854E+01
      9.682  0.2226E+00  0.8000E+01
      9.822  0.0000E+00  0.8000E+01
      9.962  0.0000E+00  0.8000E+01
     10.102  0.0000E+00  0.8000E+01
     10.241  0.0000E+00  0.8000E+01
     10.381  0.0000E+00  0.8000E+01
     10.521  0.0000E+00  0.8000E+01
     10.661  0.0000E+00  0.8000E+01
     10.801  0.0000E+00  0.8000E+01
     10.940  0.0000E+00  0.8000E+01
     11.080  0.0000E+00  0.8000E+01
     11.220  0.0000E+00  0.8000E+01
     11.360  0.0000E+00  0.8000E+01
     11.499  0.0000E+00  0.8000E+01
     11.639  0.0000E+00  0.8000E+01
     11.779  0.0000E+00  0.8000E+01
     11.919  0.0000E+00  0.8000E+01
     12.058  0.0000E+00  0.8000E+01
     12.198  0.0000E+00  0.8000E+01
     12.338  0.0000E+00  0.8000E+01
     12.478  0.0000E+00  0.8000E+01
     12.618  0.0000E+00  0.8000E+01
     12.757  0.0000E+00  0.8000E+01
     12.897  0.0000E+00  0.8000E+01
     13.037  0.0000E+00  0.8000E+01
     13.177  0.0000E+00  0.8000E+01
     13.316  0.0000E+00  0.8000E+01
     13.456  0.0000E+00  0.8000E+01
     13.596  0.0000E+00  0.8000E+01
     13.736  0.5662E-14  0.8000E+01
     13.875  0.8015E-01  0.8056E+01
     14.015  0.4299E-01  0.8084E+01
     14.155  0.3180E-01  0.8104E+01
     14.295  0.2043E-01  0.8123E+01
     14.435  0.1854E+00  0.8173E+01
     14.574  0.6420E-01  0.8220E+01
     14.714  0.5588E-01  0.8257E+01
     14.854  0.3819E-01  0.8288E+01
     14.994  0.6205E-01  0.8320E+01
     15.133  0.7699E-01  0.8353E+01
     15.273  0.3355E+00  0.8480E+01
     15.413  0.3539E+00  0.8656E+01
     15.553  0.2366E+00  0.8780E+01
     15.692  0.2279E+00  0.8885E+01
     15.832  0.1908E+00  0.8982E+01
     15.972  0.1682E+00  0.9068E+01
     16.112  0.1984E+00  0.9154E+01
     16.251  0.1431E+00  0.9229E+01
     16.391  0.2075E+00  0.9309E+01
     16.531  0.1913E+00  0.9382E+01
     16.671  0.1478E+00  0.9454E+01
     16.811  0.1218E+00  0.9526E+01
     16.950  0.1455E+00  0.9600E+01
     17.090  0.1887E+00  0.9673E+01
     17.230  0.1068E+00  0.9739E+01
     17.370  0.1722E+00  0.9820E+01
     17.509  0.1491E+00  0.9899E+01
     17.649  0.1715E+00  0.9977E+01
     17.789  0.2247E+00  0.1007E+02
     17.929  0.3454E+00  0.1024E+02
     18.068  0.6535E+00  0.1047E+02
     18.208  0.2629E+00  0.1072E+02
     18.348  0.2009E+00  0.1084E+02
     18.488  0.2386E+00  0.1100E+02
     18.628  0.1685E+00  0.1109E+02
     18.767  0.8785E-01  0.1117E+02
     18.907  0.1719E+00  0.1125E+02
     19.047  0.1284E+00  0.1131E+02
     19.187  0.1273E+00  0.1138E+02
     19.326  0.1601E+00  0.1145E+02
     19.466  0.1110E+00  0.1151E+02
     19.606  0.1203E+00  0.1157E+02
     19.746  0.1914E+00  0.1163E+02
     19.885  0.2034E+00  0.1170E+02
     20.025  0.2048E+00  0.1176E+02
     20.165  0.1024E+00  0.1182E+02
     20.305  0.1471E+00  0.1193E+02
     20.445  0.9358E+00  0.1231E+02
     20.584  0.5826E-01  0.1246E+02
     20.724  0.7977E-01  0.1249E+02
     20.864  0.8224E-09  0.1252E+02
     21.004  0.9540E-01  0.1257E+02
     21.143  0.2107E-01  0.1260E+02
     21.283  0.9541E-01  0.1264E+02
     21.423  0.9276E-01  0.1267E+02
     21.563  0.1283E+00  0.1271E+02
     21.702  0.4667E-01  0.1274E+02
     21.842  0.8058E-01  0.1278E+02
     21.982  0.2475E+00  0.1294E+02
     22.122  0.2559E+00  0.1306E+02
     22.262  0.1911E+00  0.1316E+02
     22.401  0.2423E+00  0.1326E+02
     22.541  0.2282E+00  0.1335E+02
     22.681  0.2103E+00  0.1344E+02
     22.821  0.1739E+00  0.1353E+02
     22.960  0.3533E+00  0.1374E+02
     23.100  0.2604E+00  0.1386E+02
     23.240  0.4056E+00  0.1398E+02
     23.380  0.2506E+00  0.1414E+02
     23.519  0.2346E+00  0.1426E+02
     23.659  0.1974E+00  0.1437E+02
     23.799  0.2622E+00  0.1449E+02
     23.939  0.3658E+00  0.1464E+02
     24.078  0.8537E-01  0.1472E+02
     24.218  0.7398E-01  0.1479E+02
     24.358  0.1125E+00  0.1485E+02
     24.498  0.9194E-01  0.1492E+02
     24.638  0.1431E+00  0.1500E+02
     24.777  0.1734E+00  0.1508E+02
     24.917  0.2159E+00  0.1517E+02
     25.057  0.2584E+00  0.1529E+02
     25.197  0.5434E+00  0.1546E+02
     25.336  0.4429E+00  0.1571E+02
     25.476  0.3180E-01  0.1573E+02
     25.616  0.4853E-01  0.1575E+02
     25.756  0.3179E-01  0.1577E+02
     25.895  0.6360E-01  0.1580E+02
     26.035  0.9526E-01  0.1583E+02
     26.175  0.9306E-01  0.1587E+02
     26.315  0.1665E+00  0.1593E+02
     26.455  0.0000E+00  0.1600E+02
     26.594  0.0000E+00  0.1600E+02
     26.734  0.0000E+00  0.1600E+02
     26.874  0.0000E+00  0.1600E+02
     27.014  0.0000E+00  0.1600E+02
     27.153  0.0000E+00  0.1600E+02
     27.293  0.0000E+00  0.1600E+02
     27.433  0.0000E+00  0.1600E+02
     27.573  0.0000E+00  0.1600E+02
     27.712  0.0000E+00  0.1600E+02
     27.852  0.0000E+00  0.1600E+02
     27.992  0.0000E+00  0.1600E+02
     28.132  0.0000E+00  0.1600E+02
     28.272  0.0000E+00  0.1600E+02
     28.27151767    -13.65881190  301      9.71734683      1.00000000
    -13.659  0.0000E+00  0.0000E+00  0.0000E+00  0.0000E+00  0.0000E+00  0.0000E+00  0.0000E+00  0.0000E+00  0.0000E+00
    -13.519  0.0000E+00  0.0000E+00  0.0000E+00  0.0000E+00  0.0000E+00  0.0000E+00  0.0000E+00  0.0000E+00  0.0000E+00
    -13.379  0.0000E+00  0.0000E+00  0.0000E+00  0.0000E+00  0.0000E+00  0.0000E+00  0.0000E+00  0.0000E+00  0.0000E+00
    -13.240  0.0000E+00  0.0000E+00  0.0000E+00  0.0000E+00  0.0000E+00  0.0000E+00  0.0000E+00  0.0000E+00  0.0000E+00
    -13.100  0.0000E+00  0.0000E+00  0.0000E+00  0.0000E+00  0.0000E+00  0.0000E+00  0.0000E+00  0.0000E+00  0.0000E+00
    -12.960  0.0000E+00  0.0000E+00  0.0000E+00  0.0000E+00  0.0000E+00  0.0000E+00  0.0000E+00  0.0000E+00  0.0000E+00
    -12.820  0.0000E+00  0.0000E+00  0.0000E+00  0.0000E+00  0.0000E+00  0.0000E+00  0.0000E+00  0.0000E+00  0.0000E+00
    -12.680  0.0000E+00  0.0000E+00  0.0000E+00  0.0000E+00  0.0000E+00  0.0000E+00  0.0000E+00  0.0000E+00  0.0000E+00
    -12.541  0.0000E+00  0.0000E+00  0.0000E+00  0.0000E+00  0.0000E+00  0.0000E+00  0.0000E+00  0.0000E+00  0.0000E+00
    -12.401  0.0000E+00  0.0000E+00  0.0000E+00  0.0000E+00  0.0000E+00  0.0000E+00  0.0000E+00  0.0000E+00  0.0000E+00
    -12.261  0.0000E+00  0.0000E+00  0.0000E+00  0.0000E+00  0.0000E+00  0.0000E+00  0.0000E+00  0.0000E+00  0.0000E+00
    -12.121  0.0000E+00  0.0000E+00  0.0000E+00  0.0000E+00  0.0000E+00  0.0000E+00  0.0000E+00  0.0000E+00  0.0000E+00
    -11.982  0.0000E+00  0.0000E+00  0.0000E+00  0.0000E+00  0.0000E+00  0.0000E+00  0.0000E+00  0.0000E+00  0.0000E+00
    -11.842  0.0000E+00  0.0000E+00  0.0000E+00  0.0000E+00  0.0000E+00  0.0000E+00  0.0000E+00  0.0000E+00  0.0000E+00
    -11.702  0.5399E-01  0.2489E-04  0.2489E-04  0.2489E-04  0.0000E+00  0.0000E+00  0.0000E+00  0.0000E+00  0.0000E+00
    -11.562  0.2605E-01  0.7122E-04  0.7122E-04  0.7122E-04  0.0000E+00  0.0000E+00  0.0000E+00  0.0000E+00  0.0000E+00
    -11.423  0.1309E-01  0.6521E-04  0.6521E-04  0.6521E-04  0.0000E+00  0.0000E+00  0.0000E+00  0.0000E+00  0.0000E+00
    -11.283  0.1309E-01  0.9656E-04  0.9656E-04  0.9656E-04  0.0000E+00  0.0000E+00  0.0000E+00  0.0000E+00  0.0000E+00
    -11.143  0.1216E-01  0.1178E-03  0.1178E-03  0.1178E-03  0.0000E+00  0.0000E+00  0.0000E+00  0.0000E+00  0.0000E+00
    -11.003  0.1286E-01  0.1515E-03  0.1515E-03  0.1515E-03  0.0000E+00  0.0000E+00  0.0000E+00  0.0000E+00  0.0000E+00
    -10.863  0.8231E-02  0.1170E-03  0.1170E-03  0.1170E-03  0.0000E+00  0.0000E+00  0.0000E+00  0.0000E+00  0.0000E+00
    -10.724  0.1274E-01  0.2116E-03  0.2116E-03  0.2116E-03  0.0000E+00  0.0000E+00  0.0000E+00  0.0000E+00  0.0000E+00
    -10.584  0.8543E-02  0.1611E-03  0.1611E-03  0.1611E-03  0.0000E+00  0.0000E+00  0.0000E+00  0.0000E+00  0.0000E+00
    -10.444  0.1263E-01  0.2669E-03  0.2669E-03  0.2669E-03  0.0000E+00  0.0000E+00  0.0000E+00  0.0000E+00  0.0000E+00
    -10.304  0.1258E-01  0.2946E-03  0.2946E-03  0.2946E-03  0.0000E+00  0.0000E+00  0.0000E+00  0.0000E+00  0.0000E+00
    -10.165  0.4598E-02  0.1206E-03  0.1206E-03  0.1206E-03  0.0000E+00  0.0000E+00  0.0000E+00  0.0000E+00  0.0000E+00
    -10.025  0.3946E-02  0.1142E-03  0.1142E-03  0.1142E-03  0.0000E+00  0.0000E+00  0.0000E+00  0.0000E+00  0.0000E+00
     -9.885  0.4143E-02  0.1259E-03  0.1259E-03  0.1259E-03  0.0000E+00  0.0000E+00  0.0000E+00  0.0000E+00  0.0000E+00
     -9.745  0.4114E-02  0.1368E-03  0.1368E-03  0.1368E-03  0.0000E+00  0.0000E+00  0.0000E+00  0.0000E+00  0.0000E+00
     -9.606  0.8024E-02  0.2855E-03  0.2855E-03  0.2855E-03  0.0000E+00  0.0000E+00  0.0000E+00  0.0000E+00  0.0000E+00
     -9.466  0.4107E-02  0.1494E-03  0.1494E-03  0.1494E-03  0.0000E+00  0.0000E+00  0.0000E+00  0.0000E+00  0.0000E+00
     -9.326  0.1222E-01  0.4875E-03  0.4875E-03  0.4875E-03  0.0000E+00  0.0000E+00  0.0000E+00  0.0000E+00  0.0000E+00
     -9.186  0.1140E-04  0.4700E-06  0.4700E-06  0.4700E-06  0.0000E+00  0.0000E+00  0.0000E+00  0.0000E+00  0.0000E+00
     -9.046  0.7189E-02  0.3276E-03  0.3276E-03  0.3276E-03  0.0000E+00  0.0000E+00  0.0000E+00  0.0000E+00  0.0000E+00
     -8.907  0.8092E-02  0.3694E-03  0.3694E-03  0.3694E-03  0.0000E+00  0.0000E+00  0.0000E+00  0.0000E+00  0.0000E+00
     -8.767  0.1530E-08  0.7285E-10  0.7285E-10  0.7285E-10  0.0000E+00  0.0000E+00  0.0000E+00  0.0000E+00  0.0000E+00
     -8.627  0.8201E-02  0.4200E-03  0.4200E-03  0.4200E-03  0.0000E+00  0.0000E+00  0.0000E+00  0.0000E+00  0.0000E+00
     -8.487  0.4069E-02  0.2179E-03  0.2179E-03  0.2179E-03  0.0000E+00  0.0000E+00  0.0000E+00  0.0000E+00  0.0000E+00
     -8.348  0.6539E-17  0.3928E-18  0.3928E-18  0.3928E-18  0.0000E+00  0.0000E+00  0.0000E+00  0.0000E+00  0.0000E+00
     -8.208  0.2500E-02  0.1540E-03  0.1540E-03  0.1540E-03  0.0000E+00  0.0000E+00  0.0000E+00  0.0000E+00  0.0000E+00
     -8.068  0.7921E-02  0.4722E-03  0.4722E-03  0.4722E-03  0.0000E+00  0.0000E+00  0.0000E+00  0.0000E+00  0.0000E+00
     -7.928  0.1034E-02  0.6515E-04  0.6515E-04  0.6515E-04  0.0000E+00  0.0000E+00  0.0000E+00  0.0000E+00  0.0000E+00
     -7.789  0.7955E-02  0.4871E-03  0.4871E-03  0.4871E-03  0.0000E+00  0.0000E+00  0.0000E+00  0.0000E+00  0.0000E+00
     -7.649  0.3922E-02  0.2621E-03  0.2621E-03  0.2621E-03  0.0000E+00  0.0000E+00  0.0000E+00  0.0000E+00  0.0000E+00
     -7.509  0.5652E-02  0.3628E-03  0.3628E-03  0.3628E-03  0.0000E+00  0.0000E+00  0.0000E+00  0.0000E+00  0.0000E+00
     -7.369  0.3810E-02  0.2984E-03  0.2984E-03  0.2984E-03  0.0000E+00  0.0000E+00  0.0000E+00  0.0000E+00  0.0000E+00
     -7.229  0.5895E-02  0.4333E-03  0.4333E-03  0.4333E-03  0.0000E+00  0.0000E+00  0.0000E+00  0.0000E+00  0.0000E+00
     -7.090  0.0000E+00  0.0000E+00  0.0000E+00  0.0000E+00  0.0000E+00  0.0000E+00  0.0000E+00  0.0000E+00  0.0000E+00
     -6.950  0.1008E-06  0.5984E-08  0.5984E-08  0.5984E-08  0.0000E+00  0.0000E+00  0.0000E+00  0.0000E+00  0.0000E+00
     -6.810  0.4147E-02  0.2430E-03  0.2430E-03  0.2430E-03  0.0000E+00  0.0000E+00  0.0000E+00  0.0000E+00  0.0000E+00
     -6.670  0.1435E-09  0.8410E-11  0.8410E-11  0.8410E-11  0.0000E+00  0.0000E+00  0.0000E+00  0.0000E+00  0.0000E+00
     -6.531  0.4245E-02  0.2324E-03  0.2324E-03  0.2324E-03  0.0000E+00  0.0000E+00  0.0000E+00  0.0000E+00  0.0000E+00
     -6.391  0.1722E-02  0.8787E-04  0.8787E-04  0.8787E-04  0.0000E+00  0.0000E+00  0.0000E+00  0.0000E+00  0.0000E+00
     -6.251  0.2312E-03  0.2000E-04  0.2000E-04  0.2000E-04  0.0000E+00  0.0000E+00  0.0000E+00  0.0000E+00  0.0000E+00
     -6.111  0.5560E-02  0.2820E-03  0.2820E-03  0.2820E-03  0.0000E+00  0.0000E+00  0.0000E+00  0.0000E+00  0.0000E+00
     -5.972  0.1632E+00  0.5984E-02  0.5984E-02  0.5984E-02  0.0000E+00  0.0000E+00  0.0000E+00  0.0000E+00  0.0000E+00
     -5.832  0.3573E-01  0.1598E-02  0.1598E-02  0.1598E-02  0.0000E+00  0.0000E+00  0.0000E+00  0.0000E+00  0.0000E+00
     -5.692  0.3626E-01  0.1760E-02  0.1760E-02  0.1760E-02  0.0000E+00  0.0000E+00  0.0000E+00  0.0000E+00  0.0000E+00
     -5.552  0.3096E-01  0.1645E-02  0.1645E-02  0.1645E-02  0.0000E+00  0.0000E+00  0.0000E+00  0.0000E+00  0.0000E+00
     -5.413  0.2298E-01  0.1348E-02  0.1348E-02  0.1348E-02  0.0000E+00  0.0000E+00  0.0000E+00  0.0000E+00  0.0000E+00
     -5.273  0.1797E-01  0.1150E-02  0.1150E-02  0.1150E-02  0.0000E+00  0.0000E+00  0.0000E+00  0.0000E+00  0.0000E+00
     -5.133  0.1691E-01  0.1149E-02  0.1149E-02  0.1149E-02  0.0000E+00  0.0000E+00  0.0000E+00  0.0000E+00  0.0000E+00
     -4.993  0.1707E-01  0.1210E-02  0.1210E-02  0.1210E-02  0.0000E+00  0.0000E+00  0.0000E+00  0.0000E+00  0.0000E+00
     -4.853  0.1633E-01  0.1219E-02  0.1219E-02  0.1219E-02  0.0000E+00  0.0000E+00  0.0000E+00  0.0000E+00  0.0000E+00
     -4.714  0.2137E-01  0.1622E-02  0.1622E-02  0.1622E-02  0.0000E+00  0.0000E+00  0.0000E+00  0.0000E+00  0.0000E+00
     -4.574  0.1285E-01  0.9606E-03  0.9606E-03  0.9606E-03  0.0000E+00  0.0000E+00  0.0000E+00  0.0000E+00  0.0000E+00
     -4.434  0.1311E-01  0.1029E-02  0.1029E-02  0.1029E-02  0.0000E+00  0.0000E+00  0.0000E+00  0.0000E+00  0.0000E+00
     -4.294  0.1159E-01  0.1177E-02  0.1177E-02  0.1177E-02  0.0000E+00  0.0000E+00  0.0000E+00  0.0000E+00  0.0000E+00
     -4.155  0.1600E-01  0.1600E-02  0.1600E-02  0.1600E-02  0.0000E+00  0.0000E+00  0.0000E+00  0.0000E+00  0.0000E+00
     -4.015  0.1614E-01  0.1677E-02  0.1677E-02  0.1677E-02  0.0000E+00  0.0000E+00  0.0000E+00  0.0000E+00  0.0000E+00
     -3.875  0.1670E-01  0.1606E-02  0.1606E-02  0.1606E-02  0.0000E+00  0.0000E+00  0.0000E+00  0.0000E+00  0.0000E+00
     -3.735  0.1230E-01  0.1202E-02  0.1202E-02  0.1202E-02  0.0000E+00  0.0000E+00  0.0000E+00  0.0000E+00  0.0000E+00
     -3.596  0.3848E-01  0.1903E-01  0.1903E-01  0.1903E-01  0.0000E+00  0.0000E+00  0.0000E+00  0.0000E+00  0.0000E+00
     -3.456  0.2165E-01  0.1008E-01  0.1008E-01  0.1008E-01  0.0000E+00  0.0000E+00  0.0000E+00  0.0000E+00  0.0000E+00
     -3.316  0.2742E-01  0.8546E-02  0.8546E-02  0.8546E-02  0.0000E+00  0.0000E+00  0.0000E+00  0.0000E+00  0.0000E+00
     -3.176  0.6593E-01  0.1210E-01  0.1210E-01  0.1210E-01  0.0000E+00  0.0000E+00  0.0000E+00  0.0000E+00  0.0000E+00
     -3.036  0.1530E+00  0.2756E-01  0.2756E-01  0.2756E-01  0.0000E+00  0.0000E+00  0.0000E+00  0.0000E+00  0.0000E+00
     -2.897  0.6018E-01  0.1146E-01  0.1146E-01  0.1146E-01  0.0000E+00  0.0000E+00  0.0000E+00  0.0000E+00  0.0000E+00
     -2.757  0.6258E-01  0.1367E-01  0.1367E-01  0.1367E-01  0.0000E+00  0.0000E+00  0.0000E+00  0.0000E+00  0.0000E+00
     -2.617  0.4699E-01  0.9989E-02  0.9989E-02  0.9989E-02  0.0000E+00  0.0000E+00  0.0000E+00  0.0000E+00  0.0000E+00
     -2.477  0.4846E-01  0.1025E-01  0.1025E-01  0.1025E-01  0.0000E+00  0.0000E+00  0.0000E+00  0.0000E+00  0.0000E+00
     -2.338  0.6900E-01  0.1297E-01  0.1297E-01  0.1297E-01  0.0000E+00  0.0000E+00  0.0000E+00  0.0000E+00  0.0000E+00
     -2.198  0.3063E-01  0.8034E-02  0.8034E-02  0.8034E-02  0.0000E+00  0.0000E+00  0.0000E+00  0.0000E+00  0.0000E+00
     -2.058  0.4444E-01  0.9584E-02  0.9584E-02  0.9584E-02  0.0000E+00  0.0000E+00  0.0000E+00  0.0000E+00  0.0000E+00
     -1.918  0.3206E-01  0.9333E-02  0.9333E-02  0.9333E-02  0.0000E+00  0.0000E+00  0.0000E+00  0.0000E+00  0.0000E+00
     -1.779  0.8489E-02  0.2218E-02  0.2218E-02  0.2218E-02  0.0000E+00  0.0000E+00  0.0000E+00  0.0000E+00  0.0000E+00
     -1.639  0.5328E-02  0.1377E-02  0.1377E-02  0.1377E-02  0.0000E+00  0.0000E+00  0.0000E+00  0.0000E+00  0.0000E+00
     -1.499  0.8942E-04  0.2394E-04  0.2394E-04  0.2394E-04  0.0000E+00  0.0000E+00  0.0000E+00  0.0000E+00  0.0000E+00
     -1.359  0.1787E-02  0.9656E-03  0.9656E-03  0.9656E-03  0.0000E+00  0.0000E+00  0.0000E+00  0.0000E+00  0.0000E+00
     -1.219  0.7662E-02  0.2483E-02  0.2483E-02  0.2483E-02  0.0000E+00  0.0000E+00  0.0000E+00  0.0000E+00  0.0000E+00
     -1.080  0.7501E-02  0.2497E-02  0.2497E-02  0.2497E-02  0.0000E+00  0.0000E+00  0.0000E+00  0.0000E+00  0.0000E+00
     -0.940  0.1507E-02  0.8451E-03  0.8451E-03  0.8451E-03  0.0000E+00  0.0000E+00  0.0000E+00  0.0000E+00  0.0000E+00
     -0.800  0.2679E-02  0.8417E-03  0.8417E-03  0.8417E-03  0.0000E+00  0.0000E+00  0.0000E+00  0.0000E+00  0.0000E+00
     -0.660  0.8696E-14  0.4198E-14  0.4198E-14  0.4198E-14  0.0000E+00  0.0000E+00  0.0000E+00  0.0000E+00  0.0000E+00
     -0.521  0.2597E-02  0.8686E-03  0.8686E-03  0.8686E-03  0.0000E+00  0.0000E+00  0.0000E+00  0.0000E+00  0.0000E+00
     -0.381  0.2981E-02  0.7821E-03  0.7821E-03  0.7821E-03  0.0000E+00  0.0000E+00  0.0000E+00  0.0000E+00  0.0000E+00
     -0.241  0.3230E-02  0.1036E-02  0.1036E-02  0.1036E-02  0.0000E+00  0.0000E+00  0.0000E+00  0.0000E+00  0.0000E+00
     -0.101  0.2488E-02  0.9111E-03  0.9111E-03  0.9111E-03  0.0000E+00  0.0000E+00  0.0000E+00  0.0000E+00  0.0000E+00
      0.038  0.0000E+00  0.0000E+00  0.0000E+00  0.0000E+00  0.0000E+00  0.0000E+00  0.0000E+00  0.0000E+00  0.0000E+00
      0.178  0.3368E-02  0.1728E-02  0.1728E-02  0.1728E-02  0.0000E+00  0.0000E+00  0.0000E+00  0.0000E+00  0.0000E+00
      0.318  0.3962E-02  0.4582E-02  0.4582E-02  0.4582E-02  0.0000E+00  0.0000E+00  0.0000E+00  0.0000E+00  0.0000E+00
      0.458  0.3993E-02  0.3066E-01  0.3066E-01  0.3066E-01  0.0000E+00  0.0000E+00  0.0000E+00  0.0000E+00  0.0000E+00
      0.598  0.1370E-02  0.1709E-01  0.1709E-01  0.1709E-01  0.0000E+00  0.0000E+00  0.0000E+00  0.0000E+00  0.0000E+00
      0.737  0.1255E-02  0.1257E-01  0.1257E-01  0.1257E-01  0.0000E+00  0.0000E+00  0.0000E+00  0.0000E+00  0.0000E+00
      0.877  0.2754E-02  0.9879E-02  0.9879E-02  0.9879E-02  0.0000E+00  0.0000E+00  0.0000E+00  0.0000E+00  0.0000E+00
      1.017  0.1645E-02  0.1551E-01  0.1551E-01  0.1551E-01  0.0000E+00  0.0000E+00  0.0000E+00  0.0000E+00  0.0000E+00
      1.157  0.6678E-02  0.1479E-01  0.1479E-01  0.1479E-01  0.0000E+00  0.0000E+00  0.0000E+00  0.0000E+00  0.0000E+00
      1.296  0.3454E-02  0.1255E-01  0.1255E-01  0.1255E-01  0.0000E+00  0.0000E+00  0.0000E+00  0.0000E+00  0.0000E+00
      1.436  0.1070E-02  0.2046E-01  0.2046E-01  0.2046E-01  0.0000E+00  0.0000E+00  0.0000E+00  0.0000E+00  0.0000E+00
      1.576  0.3835E-02  0.1732E-01  0.1732E-01  0.1732E-01  0.0000E+00  0.0000E+00  0.0000E+00  0.0000E+00  0.0000E+00
      1.716  0.1650E-02  0.1038E-01  0.1038E-01  0.1038E-01  0.0000E+00  0.0000E+00  0.0000E+00  0.0000E+00  0.0000E+00
      1.855  0.2053E-02  0.9176E-02  0.9176E-02  0.9176E-02  0.0000E+00  0.0000E+00  0.0000E+00  0.0000E+00  0.0000E+00
      1.995  0.7324E-02  0.1319E-01  0.1319E-01  0.1319E-01  0.0000E+00  0.0000E+00  0.0000E+00  0.0000E+00  0.0000E+00
      2.135  0.3499E-02  0.8566E-02  0.8566E-02  0.8566E-02  0.0000E+00  0.0000E+00  0.0000E+00  0.0000E+00  0.0000E+00
      2.275  0.2358E-02  0.7295E-02  0.7295E-02  0.7295E-02  0.0000E+00  0.0000E+00  0.0000E+00  0.0000E+00  0.0000E+00
      2.414  0.4574E-02  0.1056E-01  0.1056E-01  0.1056E-01  0.0000E+00  0.0000E+00  0.0000E+00  0.0000E+00  0.0000E+00
      2.554  0.3721E-02  0.9790E-02  0.9790E-02  0.9790E-02  0.0000E+00  0.0000E+00  0.0000E+00  0.0000E+00  0.0000E+00
      2.694  0.4422E-02  0.1257E-01  0.1257E-01  0.1257E-01  0.0000E+00  0.0000E+00  0.0000E+00  0.0000E+00  0.0000E+00
      2.834  0.6829E-02  0.1193E-01  0.1193E-01  0.1193E-01  0.0000E+00  0.0000E+00  0.0000E+00  0.0000E+00  0.0000E+00
      2.974  0.3976E-02  0.1189E-01  0.1189E-01  0.1189E-01  0.0000E+00  0.0000E+00  0.0000E+00  0.0000E+00  0.0000E+00
      3.113  0.2238E-02  0.9053E-02  0.9053E-02  0.9053E-02  0.0000E+00  0.0000E+00  0.0000E+00  0.0000E+00  0.0000E+00
      3.253  0.3142E-02  0.1529E-01  0.1529E-01  0.1529E-01  0.0000E+00  0.0000E+00  0.0000E+00  0.0000E+00  0.0000E+00
      3.393  0.4142E-02  0.4994E-01  0.4994E-01  0.4994E-01  0.0000E+00  0.0000E+00  0.0000E+00  0.0000E+00  0.0000E+00
      3.533  0.4530E-02  0.1781E-01  0.1781E-01  0.1781E-01  0.0000E+00  0.0000E+00  0.0000E+00  0.0000E+00  0.0000E+00
      3.672  0.5812E-02  0.1357E-01  0.1357E-01  0.1357E-01  0.0000E+00  0.0000E+00  0.0000E+00  0.0000E+00  0.0000E+00
      3.812  0.4050E-02  0.1387E-01  0.1387E-01  0.1387E-01  0.0000E+00  0.0000E+00  0.0000E+00  0.0000E+00  0.0000E+00
      3.952  0.2246E-02  0.1084E-01  0.1084E-01  0.1084E-01  0.0000E+00  0.0000E+00  0.0000E+00  0.0000E+00  0.0000E+00
      4.092  0.3693E-03  0.9938E-02  0.9938E-02  0.9938E-02  0.0000E+00  0.0000E+00  0.0000E+00  0.0000E+00  0.0000E+00
      4.231  0.2607E-02  0.1918E-01  0.1918E-01  0.1918E-01  0.0000E+00  0.0000E+00  0.0000E+00  0.0000E+00  0.0000E+00
      4.371  0.3017E-03  0.1255E-01  0.1255E-01  0.1255E-01  0.0000E+00  0.0000E+00  0.0000E+00  0.0000E+00  0.0000E+00
      4.511  0.1133E-02  0.1458E-01  0.1458E-01  0.1458E-01  0.0000E+00  0.0000E+00  0.0000E+00  0.0000E+00  0.0000E+00
      4.651  0.1096E-08  0.1062E-01  0.1062E-01  0.1062E-01  0.0000E+00  0.0000E+00  0.0000E+00  0.0000E+00  0.0000E+00
      4.791  0.3981E-02  0.1018E-01  0.1018E-01  0.1018E-01  0.0000E+00  0.0000E+00  0.0000E+00  0.0000E+00  0.0000E+00
      4.930  0.2026E-02  0.1020E-01  0.1020E-01  0.1020E-01  0.0000E+00  0.0000E+00  0.0000E+00  0.0000E+00  0.0000E+00
      5.070  0.5995E-02  0.1802E-01  0.1802E-01  0.1802E-01  0.0000E+00  0.0000E+00  0.0000E+00  0.0000E+00  0.0000E+00
      5.210  0.1442E-02  0.1390E-01  0.1390E-01  0.1390E-01  0.0000E+00  0.0000E+00  0.0000E+00  0.0000E+00  0.0000E+00
      5.350  0.5988E-03  0.1073E-01  0.1073E-01  0.1073E-01  0.0000E+00  0.0000E+00  0.0000E+00  0.0000E+00  0.0000E+00
      5.489  0.1077E-02  0.1043E-01  0.1043E-01  0.1043E-01  0.0000E+00  0.0000E+00  0.0000E+00  0.0000E+00  0.0000E+00
      5.629  0.1372E-02  0.1385E-01  0.1385E-01  0.1385E-01  0.0000E+00  0.0000E+00  0.0000E+00  0.0000E+00  0.0000E+00
      5.769  0.1279E-02  0.1055E-01  0.1055E-01  0.1055E-01  0.0000E+00  0.0000E+00  0.0000E+00  0.0000E+00  0.0000E+00
      5.909  0.6477E-03  0.6874E-02  0.6874E-02  0.6874E-02  0.0000E+00  0.0000E+00  0.0000E+00  0.0000E+00  0.0000E+00
      6.048  0.8791E-04  0.1127E-01  0.1127E-01  0.1127E-01  0.0000E+00  0.0000E+00  0.0000E+00  0.0000E+00  0.0000E+00
      6.188  0.1444E-02  0.1374E-01  0.1374E-01  0.1374E-01  0.0000E+00  0.0000E+00  0.0000E+00  0.0000E+00  0.0000E+00
      6.328  0.1328E-02  0.1462E-01  0.1462E-01  0.1462E-01  0.0000E+00  0.0000E+00  0.0000E+00  0.0000E+00  0.0000E+00
      6.468  0.7082E-03  0.1569E-01  0.1569E-01  0.1569E-01  0.0000E+00  0.0000E+00  0.0000E+00  0.0000E+00  0.0000E+00
      6.608  0.3477E-03  0.2033E-01  0.2033E-01  0.2033E-01  0.0000E+00  0.0000E+00  0.0000E+00  0.0000E+00  0.0000E+00
      6.747  0.7898E-03  0.2327E-01  0.2327E-01  0.2327E-01  0.0000E+00  0.0000E+00  0.0000E+00  0.0000E+00  0.0000E+00
      6.887  0.2545E-03  0.7956E-01  0.7956E-01  0.7956E-01  0.0000E+00  0.0000E+00  0.0000E+00  0.0000E+00  0.0000E+00
      7.027  0.3430E-04  0.1499E-01  0.1499E-01  0.1499E-01  0.0000E+00  0.0000E+00  0.0000E+00  0.0000E+00  0.0000E+00
      7.167  0.1246E-02  0.9044E-02  0.9044E-02  0.9044E-02  0.0000E+00  0.0000E+00  0.0000E+00  0.0000E+00  0.0000E+00
      7.306  0.1251E-02  0.1130E-01  0.1130E-01  0.1130E-01  0.0000E+00  0.0000E+00  0.0000E+00  0.0000E+00  0.0000E+00
      7.446  0.1764E-02  0.9021E-02  0.9021E-02  0.9021E-02  0.0000E+00  0.0000E+00  0.0000E+00  0.0000E+00  0.0000E+00
      7.586  0.5263E-03  0.7275E-02  0.7275E-02  0.7275E-02  0.0000E+00  0.0000E+00  0.0000E+00  0.0000E+00  0.0000E+00
      7.726  0.4864E-03  0.9509E-02  0.9509E-02  0.9509E-02  0.0000E+00  0.0000E+00  0.0000E+00  0.0000E+00  0.0000E+00
      7.865  0.2091E-03  0.4625E-02  0.4625E-02  0.4625E-02  0.0000E+00  0.0000E+00  0.0000E+00  0.0000E+00  0.0000E+00
      8.005  0.9499E-03  0.6535E-02  0.6535E-02  0.6535E-02  0.0000E+00  0.0000E+00  0.0000E+00  0.0000E+00  0.0000E+00
      8.145  0.6837E-07  0.7979E-02  0.7979E-02  0.7979E-02  0.0000E+00  0.0000E+00  0.0000E+00  0.0000E+00  0.0000E+00
      8.285  0.6827E-05  0.6029E-02  0.6029E-02  0.6029E-02  0.0000E+00  0.0000E+00  0.0000E+00  0.0000E+00  0.0000E+00
      8.424  0.7824E-03  0.1321E-01  0.1321E-01  0.1321E-01  0.0000E+00  0.0000E+00  0.0000E+00  0.0000E+00  0.0000E+00
      8.564  0.1466E-04  0.3962E-02  0.3962E-02  0.3962E-02  0.0000E+00  0.0000E+00  0.0000E+00  0.0000E+00  0.0000E+00
      8.704  0.8241E-03  0.1314E-01  0.1314E-01  0.1314E-01  0.0000E+00  0.0000E+00  0.0000E+00  0.0000E+00  0.0000E+00
      8.844  0.6694E-03  0.8575E-02  0.8575E-02  0.8575E-02  0.0000E+00  0.0000E+00  0.0000E+00  0.0000E+00  0.0000E+00
      8.984  0.1676E-03  0.9101E-02  0.9101E-02  0.9101E-02  0.0000E+00  0.0000E+00  0.0000E+00  0.0000E+00  0.0000E+00
      9.123  0.3593E-06  0.6979E-02  0.6979E-02  0.6979E-02  0.0000E+00  0.0000E+00  0.0000E+00  0.0000E+00  0.0000E+00
      9.263  0.4259E-03  0.1341E-01  0.1341E-01  0.1341E-01  0.0000E+00  0.0000E+00  0.0000E+00  0.0000E+00  0.0000E+00
      9.403  0.2416E-03  0.1526E-01  0.1526E-01  0.1526E-01  0.0000E+00  0.0000E+00  0.0000E+00  0.0000E+00  0.0000E+00
      9.543  0.1213E-03  0.2070E-01  0.2070E-01  0.2070E-01  0.0000E+00  0.0000E+00  0.0000E+00  0.0000E+00  0.0000E+00
      9.682  0.1622E-05  0.2790E-01  0.2790E-01  0.2790E-01  0.0000E+00  0.0000E+00  0.0000E+00  0.0000E+00  0.0000E+00
      9.822  0.0000E+00  0.0000E+00  0.0000E+00  0.0000E+00  0.0000E+00  0.0000E+00  0.0000E+00  0.0000E+00  0.0000E+00
      9.962  0.0000E+00  0.0000E+00  0.0000E+00  0.0000E+00  0.0000E+00  0.0000E+00  0.0000E+00  0.0000E+00  0.0000E+00
     10.102  0.0000E+00  0.0000E+00  0.0000E+00  0.0000E+00  0.0000E+00  0.0000E+00  0.0000E+00  0.0000E+00  0.0000E+00
     10.241  0.0000E+00  0.0000E+00  0.0000E+00  0.0000E+00  0.0000E+00  0.0000E+00  0.0000E+00  0.0000E+00  0.0000E+00
     10.381  0.0000E+00  0.0000E+00  0.0000E+00  0.0000E+00  0.0000E+00  0.0000E+00  0.0000E+00  0.0000E+00  0.0000E+00
     10.521  0.0000E+00  0.0000E+00  0.0000E+00  0.0000E+00  0.0000E+00  0.0000E+00  0.0000E+00  0.0000E+00  0.0000E+00
     10.661  0.0000E+00  0.0000E+00  0.0000E+00  0.0000E+00  0.0000E+00  0.0000E+00  0.0000E+00  0.0000E+00  0.0000E+00
     10.801  0.0000E+00  0.0000E+00  0.0000E+00  0.0000E+00  0.0000E+00  0.0000E+00  0.0000E+00  0.0000E+00  0.0000E+00
     10.940  0.0000E+00  0.0000E+00  0.0000E+00  0.0000E+00  0.0000E+00  0.0000E+00  0.0000E+00  0.0000E+00  0.0000E+00
     11.080  0.0000E+00  0.0000E+00  0.0000E+00  0.0000E+00  0.0000E+00  0.0000E+00  0.0000E+00  0.0000E+00  0.0000E+00
     11.220  0.0000E+00  0.0000E+00  0.0000E+00  0.0000E+00  0.0000E+00  0.0000E+00  0.0000E+00  0.0000E+00  0.0000E+00
     11.360  0.0000E+00  0.0000E+00  0.0000E+00  0.0000E+00  0.0000E+00  0.0000E+00  0.0000E+00  0.0000E+00  0.0000E+00
     11.499  0.0000E+00  0.0000E+00  0.0000E+00  0.0000E+00  0.0000E+00  0.0000E+00  0.0000E+00  0.0000E+00  0.0000E+00
     11.639  0.0000E+00  0.0000E+00  0.0000E+00  0.0000E+00  0.0000E+00  0.0000E+00  0.0000E+00  0.0000E+00  0.0000E+00
     11.779  0.0000E+00  0.0000E+00  0.0000E+00  0.0000E+00  0.0000E+00  0.0000E+00  0.0000E+00  0.0000E+00  0.0000E+00
     11.919  0.0000E+00  0.0000E+00  0.0000E+00  0.0000E+00  0.0000E+00  0.0000E+00  0.0000E+00  0.0000E+00  0.0000E+00
     12.058  0.0000E+00  0.0000E+00  0.0000E+00  0.0000E+00  0.0000E+00  0.0000E+00  0.0000E+00  0.0000E+00  0.0000E+00
     12.198  0.0000E+00  0.0000E+00  0.0000E+00  0.0000E+00  0.0000E+00  0.0000E+00  0.0000E+00  0.0000E+00  0.0000E+00
     12.338  0.0000E+00  0.0000E+00  0.0000E+00  0.0000E+00  0.0000E+00  0.0000E+00  0.0000E+00  0.0000E+00  0.0000E+00
     12.478  0.0000E+00  0.0000E+00  0.0000E+00  0.0000E+00  0.0000E+00  0.0000E+00  0.0000E+00  0.0000E+00  0.0000E+00
     12.618  0.0000E+00  0.0000E+00  0.0000E+00  0.0000E+00  0.0000E+00  0.0000E+00  0.0000E+00  0.0000E+00  0.0000E+00
     12.757  0.0000E+00  0.0000E+00  0.0000E+00  0.0000E+00  0.0000E+00  0.0000E+00  0.0000E+00  0.0000E+00  0.0000E+00
     12.897  0.0000E+00  0.0000E+00  0.0000E+00  0.0000E+00  0.0000E+00  0.0000E+00  0.0000E+00  0.0000E+00  0.0000E+00
     13.037  0.0000E+00  0.0000E+00  0.0000E+00  0.0000E+00  0.0000E+00  0.0000E+00  0.0000E+00  0.0000E+00  0.0000E+00
     13.177  0.0000E+00  0.0000E+00  0.0000E+00  0.0000E+00  0.0000E+00  0.0000E+00  0.0000E+00  0.0000E+00  0.0000E+00
     13.316  0.0000E+00  0.0000E+00  0.0000E+00  0.0000E+00  0.0000E+00  0.0000E+00  0.0000E+00  0.0000E+00  0.0000E+00
     13.456  0.0000E+00  0.0000E+00  0.0000E+00  0.0000E+00  0.0000E+00  0.0000E+00  0.0000E+00  0.0000E+00  0.0000E+00
     13.596  0.0000E+00  0.0000E+00  0.0000E+00  0.0000E+00  0.0000E+00  0.0000E+00  0.0000E+00  0.0000E+00  0.0000E+00
     13.736  0.6177E-15  0.1865E-15  0.1865E-15  0.1865E-15  0.0000E+00  0.0000E+00  0.0000E+00  0.0000E+00  0.0000E+00
     13.875  0.8409E-02  0.2822E-02  0.2822E-02  0.2822E-02  0.0000E+00  0.0000E+00  0.0000E+00  0.0000E+00  0.0000E+00
     14.015  0.4154E-02  0.1727E-02  0.1727E-02  0.1727E-02  0.0000E+00  0.0000E+00  0.0000E+00  0.0000E+00  0.0000E+00
     14.155  0.3067E-02  0.1225E-02  0.1225E-02  0.1225E-02  0.0000E+00  0.0000E+00  0.0000E+00  0.0000E+00  0.0000E+00
     14.295  0.1556E-02  0.1082E-02  0.1082E-02  0.1082E-02  0.0000E+00  0.0000E+00  0.0000E+00  0.0000E+00  0.0000E+00
     14.435  0.2042E-01  0.4515E-02  0.4515E-02  0.4515E-02  0.0000E+00  0.0000E+00  0.0000E+00  0.0000E+00  0.0000E+00
     14.574  0.6371E-02  0.2055E-02  0.2055E-02  0.2055E-02  0.0000E+00  0.0000E+00  0.0000E+00  0.0000E+00  0.0000E+00
     14.714  0.4502E-02  0.2557E-02  0.2557E-02  0.2557E-02  0.0000E+00  0.0000E+00  0.0000E+00  0.0000E+00  0.0000E+00
     14.854  0.2865E-02  0.1873E-02  0.1873E-02  0.1873E-02  0.0000E+00  0.0000E+00  0.0000E+00  0.0000E+00  0.0000E+00
     14.994  0.4024E-02  0.3449E-02  0.3449E-02  0.3449E-02  0.0000E+00  0.0000E+00  0.0000E+00  0.0000E+00  0.0000E+00
     15.133  0.3760E-02  0.5081E-02  0.5081E-02  0.5081E-02  0.0000E+00  0.0000E+00  0.0000E+00  0.0000E+00  0.0000E+00
     15.273  0.1896E-02  0.3180E-01  0.3180E-01  0.3180E-01  0.0000E+00  0.0000E+00  0.0000E+00  0.0000E+00  0.0000E+00
     15.413  0.2137E-01  0.2005E-01  0.2005E-01  0.2005E-01  0.0000E+00  0.0000E+00  0.0000E+00  0.0000E+00  0.0000E+00
     15.553  0.1125E-01  0.1568E-01  0.1568E-01  0.1568E-01  0.0000E+00  0.0000E+00  0.0000E+00  0.0000E+00  0.0000E+00
     15.692  0.1355E-01  0.1312E-01  0.1312E-01  0.1312E-01  0.0000E+00  0.0000E+00  0.0000E+00  0.0000E+00  0.0000E+00
     15.832  0.1212E-01  0.1064E-01  0.1064E-01  0.1064E-01  0.0000E+00  0.0000E+00  0.0000E+00  0.0000E+00  0.0000E+00
     15.972  0.9458E-02  0.1023E-01  0.1023E-01  0.1023E-01  0.0000E+00  0.0000E+00  0.0000E+00  0.0000E+00  0.0000E+00
     16.112  0.1088E-01  0.1252E-01  0.1252E-01  0.1252E-01  0.0000E+00  0.0000E+00  0.0000E+00  0.0000E+00  0.0000E+00
     16.251  0.9371E-02  0.7966E-02  0.7966E-02  0.7966E-02  0.0000E+00  0.0000E+00  0.0000E+00  0.0000E+00  0.0000E+00
     16.391  0.1206E-01  0.1247E-01  0.1247E-01  0.1247E-01  0.0000E+00  0.0000E+00  0.0000E+00  0.0000E+00  0.0000E+00
     16.531  0.8386E-02  0.1364E-01  0.1364E-01  0.1364E-01  0.0000E+00  0.0000E+00  0.0000E+00  0.0000E+00  0.0000E+00
     16.671  0.5834E-02  0.1118E-01  0.1118E-01  0.1118E-01  0.0000E+00  0.0000E+00  0.0000E+00  0.0000E+00  0.0000E+00
     16.811  0.3444E-02  0.1017E-01  0.1017E-01  0.1017E-01  0.0000E+00  0.0000E+00  0.0000E+00  0.0000E+00  0.0000E+00
     16.950  0.8841E-02  0.8927E-02  0.8927E-02  0.8927E-02  0.0000E+00  0.0000E+00  0.0000E+00  0.0000E+00  0.0000E+00
     17.090  0.9893E-02  0.1271E-01  0.1271E-01  0.1271E-01  0.0000E+00  0.0000E+00  0.0000E+00  0.0000E+00  0.0000E+00
     17.230  0.5574E-02  0.7482E-02  0.7482E-02  0.7482E-02  0.0000E+00  0.0000E+00  0.0000E+00  0.0000E+00  0.0000E+00
     17.370  0.9359E-02  0.1162E-01  0.1162E-01  0.1162E-01  0.0000E+00  0.0000E+00  0.0000E+00  0.0000E+00  0.0000E+00
     17.509  0.9792E-02  0.9096E-02  0.9096E-02  0.9096E-02  0.0000E+00  0.0000E+00  0.0000E+00  0.0000E+00  0.0000E+00
     17.649  0.8861E-02  0.1255E-01  0.1255E-01  0.1255E-01  0.0000E+00  0.0000E+00  0.0000E+00  0.0000E+00  0.0000E+00
     17.789  0.1352E-01  0.1510E-01  0.1510E-01  0.1510E-01  0.0000E+00  0.0000E+00  0.0000E+00  0.0000E+00  0.0000E+00
     17.929  0.1296E-01  0.2558E-01  0.2558E-01  0.2558E-01  0.0000E+00  0.0000E+00  0.0000E+00  0.0000E+00  0.0000E+00
     18.068  0.9651E-02  0.5476E-01  0.5476E-01  0.5476E-01  0.0000E+00  0.0000E+00  0.0000E+00  0.0000E+00  0.0000E+00
     18.208  0.1536E-01  0.1877E-01  0.1877E-01  0.1877E-01  0.0000E+00  0.0000E+00  0.0000E+00  0.0000E+00  0.0000E+00
     18.348  0.2281E-01  0.1209E-01  0.1209E-01  0.1209E-01  0.0000E+00  0.0000E+00  0.0000E+00  0.0000E+00  0.0000E+00
     18.488  0.3442E-01  0.1153E-01  0.1153E-01  0.1153E-01  0.0000E+00  0.0000E+00  0.0000E+00  0.0000E+00  0.0000E+00
     18.628  0.1902E-01  0.9205E-02  0.9205E-02  0.9205E-02  0.0000E+00  0.0000E+00  0.0000E+00  0.0000E+00  0.0000E+00
     18.767  0.1375E-01  0.3727E-02  0.3727E-02  0.3727E-02  0.0000E+00  0.0000E+00  0.0000E+00  0.0000E+00  0.0000E+00
     18.907  0.1085E-01  0.1124E-01  0.1124E-01  0.1124E-01  0.0000E+00  0.0000E+00  0.0000E+00  0.0000E+00  0.0000E+00
     19.047  0.1416E-01  0.7006E-02  0.7006E-02  0.7006E-02  0.0000E+00  0.0000E+00  0.0000E+00  0.0000E+00  0.0000E+00
     19.187  0.4849E-02  0.8750E-02  0.8750E-02  0.8750E-02  0.0000E+00  0.0000E+00  0.0000E+00  0.0000E+00  0.0000E+00
     19.326  0.9270E-02  0.9927E-02  0.9927E-02  0.9927E-02  0.0000E+00  0.0000E+00  0.0000E+00  0.0000E+00  0.0000E+00
     19.466  0.5443E-02  0.7594E-02  0.7594E-02  0.7594E-02  0.0000E+00  0.0000E+00  0.0000E+00  0.0000E+00  0.0000E+00
     19.606  0.6049E-02  0.8823E-02  0.8823E-02  0.8823E-02  0.0000E+00  0.0000E+00  0.0000E+00  0.0000E+00  0.0000E+00
     19.746  0.4222E-02  0.1607E-01  0.1607E-01  0.1607E-01  0.0000E+00  0.0000E+00  0.0000E+00  0.0000E+00  0.0000E+00
     19.885  0.1054E-01  0.1607E-01  0.1607E-01  0.1607E-01  0.0000E+00  0.0000E+00  0.0000E+00  0.0000E+00  0.0000E+00
     20.025  0.1099E-01  0.1585E-01  0.1585E-01  0.1585E-01  0.0000E+00  0.0000E+00  0.0000E+00  0.0000E+00  0.0000E+00
     20.165  0.1496E-02  0.7166E-02  0.7166E-02  0.7166E-02  0.0000E+00  0.0000E+00  0.0000E+00  0.0000E+00  0.0000E+00
     20.305  0.7104E-02  0.9591E-02  0.9591E-02  0.9591E-02  0.0000E+00  0.0000E+00  0.0000E+00  0.0000E+00  0.0000E+00
     20.445  0.3994E-01  0.6267E-01  0.6267E-01  0.6267E-01  0.0000E+00  0.0000E+00  0.0000E+00  0.0000E+00  0.0000E+00
     20.584  0.3567E-02  0.4485E-02  0.4485E-02  0.4485E-02  0.0000E+00  0.0000E+00  0.0000E+00  0.0000E+00  0.0000E+00
     20.724  0.9808E-02  0.4707E-02  0.4707E-02  0.4707E-02  0.0000E+00  0.0000E+00  0.0000E+00  0.0000E+00  0.0000E+00
     20.864  0.5150E-10  0.5439E-10  0.5439E-10  0.5439E-10  0.0000E+00  0.0000E+00  0.0000E+00  0.0000E+00  0.0000E+00
     21.004  0.7568E-02  0.7078E-02  0.7078E-02  0.7078E-02  0.0000E+00  0.0000E+00  0.0000E+00  0.0000E+00  0.0000E+00
     21.143  0.1973E-04  0.2207E-02  0.2207E-02  0.2207E-02  0.0000E+00  0.0000E+00  0.0000E+00  0.0000E+00  0.0000E+00
     21.283  0.7335E-02  0.7700E-02  0.7700E-02  0.7700E-02  0.0000E+00  0.0000E+00  0.0000E+00  0.0000E+00  0.0000E+00
     21.423  0.2335E-02  0.9360E-02  0.9360E-02  0.9360E-02  0.0000E+00  0.0000E+00  0.0000E+00  0.0000E+00  0.0000E+00
     21.563  0.8878E-02  0.1075E-01  0.1075E-01  0.1075E-01  0.0000E+00  0.0000E+00  0.0000E+00  0.0000E+00  0.0000E+00
     21.702  0.2682E-02  0.4113E-02  0.4113E-02  0.4113E-02  0.0000E+00  0.0000E+00  0.0000E+00  0.0000E+00  0.0000E+00
     21.842  0.7078E-02  0.6179E-02  0.6179E-02  0.6179E-02  0.0000E+00  0.0000E+00  0.0000E+00  0.0000E+00  0.0000E+00
     21.982  0.2391E-01  0.2015E-01  0.2015E-01  0.2015E-01  0.0000E+00  0.0000E+00  0.0000E+00  0.0000E+00  0.0000E+00
     22.122  0.2215E-01  0.2100E-01  0.2100E-01  0.2100E-01  0.0000E+00  0.0000E+00  0.0000E+00  0.0000E+00  0.0000E+00
     22.262  0.1828E-01  0.1549E-01  0.1549E-01  0.1549E-01  0.0000E+00  0.0000E+00  0.0000E+00  0.0000E+00  0.0000E+00
     22.401  0.2343E-01  0.1902E-01  0.1902E-01  0.1902E-01  0.0000E+00  0.0000E+00  0.0000E+00  0.0000E+00  0.0000E+00
     22.541  0.1551E-01  0.2021E-01  0.2021E-01  0.2021E-01  0.0000E+00  0.0000E+00  0.0000E+00  0.0000E+00  0.0000E+00
     22.681  0.1454E-01  0.1936E-01  0.1936E-01  0.1936E-01  0.0000E+00  0.0000E+00  0.0000E+00  0.0000E+00  0.0000E+00
     22.821  0.1593E-01  0.1477E-01  0.1477E-01  0.1477E-01  0.0000E+00  0.0000E+00  0.0000E+00  0.0000E+00  0.0000E+00
     22.960  0.7191E-01  0.1916E-01  0.1916E-01  0.1916E-01  0.0000E+00  0.0000E+00  0.0000E+00  0.0000E+00  0.0000E+00
     23.100  0.3092E-01  0.2069E-01  0.2069E-01  0.2069E-01  0.0000E+00  0.0000E+00  0.0000E+00  0.0000E+00  0.0000E+00
     23.240  0.4814E-01  0.3072E-01  0.3072E-01  0.3072E-01  0.0000E+00  0.0000E+00  0.0000E+00  0.0000E+00  0.0000E+00
     23.380  0.1951E-01  0.2363E-01  0.2363E-01  0.2363E-01  0.0000E+00  0.0000E+00  0.0000E+00  0.0000E+00  0.0000E+00
     23.519  0.1396E-01  0.2191E-01  0.2191E-01  0.2191E-01  0.0000E+00  0.0000E+00  0.0000E+00  0.0000E+00  0.0000E+00
     23.659  0.1290E-01  0.1900E-01  0.1900E-01  0.1900E-01  0.0000E+00  0.0000E+00  0.0000E+00  0.0000E+00  0.0000E+00
     23.799  0.1368E-01  0.2736E-01  0.2736E-01  0.2736E-01  0.0000E+00  0.0000E+00  0.0000E+00  0.0000E+00  0.0000E+00
     23.939  0.1359E-01  0.3979E-01  0.3979E-01  0.3979E-01  0.0000E+00  0.0000E+00  0.0000E+00  0.0000E+00  0.0000E+00
     24.078  0.8225E-02  0.7280E-02  0.7280E-02  0.7280E-02  0.0000E+00  0.0000E+00  0.0000E+00  0.0000E+00  0.0000E+00
     24.218  0.7197E-02  0.6288E-02  0.6288E-02  0.6288E-02  0.0000E+00  0.0000E+00  0.0000E+00  0.0000E+00  0.0000E+00
     24.358  0.8188E-02  0.1016E-01  0.1016E-01  0.1016E-01  0.0000E+00  0.0000E+00  0.0000E+00  0.0000E+00  0.0000E+00
     24.498  0.7401E-02  0.8491E-02  0.8491E-02  0.8491E-02  0.0000E+00  0.0000E+00  0.0000E+00  0.0000E+00  0.0000E+00
     24.638  0.8141E-02  0.1404E-01  0.1404E-01  0.1404E-01  0.0000E+00  0.0000E+00  0.0000E+00  0.0000E+00  0.0000E+00
     24.777  0.9696E-02  0.1734E-01  0.1734E-01  0.1734E-01  0.0000E+00  0.0000E+00  0.0000E+00  0.0000E+00  0.0000E+00
     24.917  0.1119E-01  0.2220E-01  0.2220E-01  0.2220E-01  0.0000E+00  0.0000E+00  0.0000E+00  0.0000E+00  0.0000E+00
     25.057  0.1142E-01  0.2625E-01  0.2625E-01  0.2625E-01  0.0000E+00  0.0000E+00  0.0000E+00  0.0000E+00  0.0000E+00
     25.197  0.2760E-01  0.5579E-01  0.5579E-01  0.5579E-01  0.0000E+00  0.0000E+00  0.0000E+00  0.0000E+00  0.0000E+00
     25.336  0.1196E-02  0.3990E-01  0.3990E-01  0.3990E-01  0.0000E+00  0.0000E+00  0.0000E+00  0.0000E+00  0.0000E+00
     25.476  0.6833E-03  0.3952E-02  0.3952E-02  0.3952E-02  0.0000E+00  0.0000E+00  0.0000E+00  0.0000E+00  0.0000E+00
     25.616  0.5898E-03  0.6280E-02  0.6280E-02  0.6280E-02  0.0000E+00  0.0000E+00  0.0000E+00  0.0000E+00  0.0000E+00
     25.756  0.4750E-03  0.4107E-02  0.4107E-02  0.4107E-02  0.0000E+00  0.0000E+00  0.0000E+00  0.0000E+00  0.0000E+00
     25.895  0.3750E-03  0.8520E-02  0.8520E-02  0.8520E-02  0.0000E+00  0.0000E+00  0.0000E+00  0.0000E+00  0.0000E+00
     26.035  0.5488E-03  0.1286E-01  0.1286E-01  0.1286E-01  0.0000E+00  0.0000E+00  0.0000E+00  0.0000E+00  0.0000E+00
     26.175  0.3376E-03  0.1274E-01  0.1274E-01  0.1274E-01  0.0000E+00  0.0000E+00  0.0000E+00  0.0000E+00  0.0000E+00
     26.315  0.2178E-03  0.2311E-01  0.2311E-01  0.2311E-01  0.0000E+00  0.0000E+00  0.0000E+00  0.0000E+00  0.0000E+00
     26.455  0.0000E+00  0.0000E+00  0.0000E+00  0.0000E+00  0.0000E+00  0.0000E+00  0.0000E+00  0.0000E+00  0.0000E+00
     26.594  0.0000E+00  0.0000E+00  0.0000E+00  0.0000E+00  0.0000E+00  0.0000E+00  0.0000E+00  0.0000E+00  0.0000E+00
     26.734  0.0000E+00  0.0000E+00  0.0000E+00  0.0000E+00  0.0000E+00  0.0000E+00  0.0000E+00  0.0000E+00  0.0000E+00
     26.874  0.0000E+00  0.0000E+00  0.0000E+00  0.0000E+00  0.0000E+00  0.0000E+00  0.0000E+00  0.0000E+00  0.0000E+00
     27.014  0.0000E+00  0.0000E+00  0.0000E+00  0.0000E+00  0.0000E+00  0.0000E+00  0.0000E+00  0.0000E+00  0.0000E+00
     27.153  0.0000E+00  0.0000E+00  0.0000E+00  0.0000E+00  0.0000E+00  0.0000E+00  0.0000E+00  0.0000E+00  0.0000E+00
     27.293  0.0000E+00  0.0000E+00  0.0000E+00  0.0000E+00  0.0000E+00  0.0000E+00  0.0000E+00  0.0000E+00  0.0000E+00
     27.433  0.0000E+00  0.0000E+00  0.0000E+00  0.0000E+00  0.0000E+00  0.0000E+00  0.0000E+00  0.0000E+00  0.0000E+00
     27.573  0.0000E+00  0.0000E+00  0.0000E+00  0.0000E+00  0.0000E+00  0.0000E+00  0.0000E+00  0.0000E+00  0.0000E+00
     27.712  0.0000E+00  0.0000E+00  0.0000E+00  0.0000E+00  0.0000E+00  0.0000E+00  0.0000E+00  0.0000E+00  0.0000E+00
     27.852  0.0000E+00  0.0000E+00  0.0000E+00  0.0000E+00  0.0000E+00  0.0000E+00  0.0000E+00  0.0000E+00  0.0000E+00
     27.992  0.0000E+00  0.0000E+00  0.0000E+00  0.0000E+00  0.0000E+00  0.0000E+00  0.0000E+00  0.0000E+00  0.0000E+00
     28.132  0.0000E+00  0.0000E+00  0.0000E+00  0.0000E+00  0.0000E+00  0.0000E+00  0.0000E+00  0.0000E+00  0.0000E+00
     28.272  0.0000E+00  0.0000E+00  0.0000E+00  0.0000E+00  0.0000E+00  0.0000E+00  0.0000E+00  0.0000E+00  0.0000E+00
     28.27151767    -13.65881190  301      9.71734683      1.00000000
    -13.659  0.0000E+00  0.0000E+00  0.0000E+00  0.0000E+00  0.0000E+00  0.0000E+00  0.0000E+00  0.0000E+00  0.0000E+00
    -13.519  0.0000E+00  0.0000E+00  0.0000E+00  0.0000E+00  0.0000E+00  0.0000E+00  0.0000E+00  0.0000E+00  0.0000E+00
    -13.379  0.0000E+00  0.0000E+00  0.0000E+00  0.0000E+00  0.0000E+00  0.0000E+00  0.0000E+00  0.0000E+00  0.0000E+00
    -13.240  0.0000E+00  0.0000E+00  0.0000E+00  0.0000E+00  0.0000E+00  0.0000E+00  0.0000E+00  0.0000E+00  0.0000E+00
    -13.100  0.0000E+00  0.0000E+00  0.0000E+00  0.0000E+00  0.0000E+00  0.0000E+00  0.0000E+00  0.0000E+00  0.0000E+00
    -12.960  0.0000E+00  0.0000E+00  0.0000E+00  0.0000E+00  0.0000E+00  0.0000E+00  0.0000E+00  0.0000E+00  0.0000E+00
    -12.820  0.0000E+00  0.0000E+00  0.0000E+00  0.0000E+00  0.0000E+00  0.0000E+00  0.0000E+00  0.0000E+00  0.0000E+00
    -12.680  0.0000E+00  0.0000E+00  0.0000E+00  0.0000E+00  0.0000E+00  0.0000E+00  0.0000E+00  0.0000E+00  0.0000E+00
    -12.541  0.0000E+00  0.0000E+00  0.0000E+00  0.0000E+00  0.0000E+00  0.0000E+00  0.0000E+00  0.0000E+00  0.0000E+00
    -12.401  0.0000E+00  0.0000E+00  0.0000E+00  0.0000E+00  0.0000E+00  0.0000E+00  0.0000E+00  0.0000E+00  0.0000E+00
    -12.261  0.0000E+00  0.0000E+00  0.0000E+00  0.0000E+00  0.0000E+00  0.0000E+00  0.0000E+00  0.0000E+00  0.0000E+00
    -12.121  0.0000E+00  0.0000E+00  0.0000E+00  0.0000E+00  0.0000E+00  0.0000E+00  0.0000E+00  0.0000E+00  0.0000E+00
    -11.982  0.0000E+00  0.0000E+00  0.0000E+00  0.0000E+00  0.0000E+00  0.0000E+00  0.0000E+00  0.0000E+00  0.0000E+00
    -11.842  0.0000E+00  0.0000E+00  0.0000E+00  0.0000E+00  0.0000E+00  0.0000E+00  0.0000E+00  0.0000E+00  0.0000E+00
    -11.702  0.5399E-01  0.2489E-04  0.2489E-04  0.2489E-04  0.0000E+00  0.0000E+00  0.0000E+00  0.0000E+00  0.0000E+00
    -11.562  0.2605E-01  0.7122E-04  0.7122E-04  0.7122E-04  0.0000E+00  0.0000E+00  0.0000E+00  0.0000E+00  0.0000E+00
    -11.423  0.1309E-01  0.6521E-04  0.6521E-04  0.6521E-04  0.0000E+00  0.0000E+00  0.0000E+00  0.0000E+00  0.0000E+00
    -11.283  0.1309E-01  0.9656E-04  0.9656E-04  0.9656E-04  0.0000E+00  0.0000E+00  0.0000E+00  0.0000E+00  0.0000E+00
    -11.143  0.1216E-01  0.1178E-03  0.1178E-03  0.1178E-03  0.0000E+00  0.0000E+00  0.0000E+00  0.0000E+00  0.0000E+00
    -11.003  0.1286E-01  0.1515E-03  0.1515E-03  0.1515E-03  0.0000E+00  0.0000E+00  0.0000E+00  0.0000E+00  0.0000E+00
    -10.863  0.8231E-02  0.1170E-03  0.1170E-03  0.1170E-03  0.0000E+00  0.0000E+00  0.0000E+00  0.0000E+00  0.0000E+00
    -10.724  0.1274E-01  0.2116E-03  0.2116E-03  0.2116E-03  0.0000E+00  0.0000E+00  0.0000E+00  0.0000E+00  0.0000E+00
    -10.584  0.8543E-02  0.1611E-03  0.1611E-03  0.1611E-03  0.0000E+00  0.0000E+00  0.0000E+00  0.0000E+00  0.0000E+00
    -10.444  0.1263E-01  0.2669E-03  0.2669E-03  0.2669E-03  0.0000E+00  0.0000E+00  0.0000E+00  0.0000E+00  0.0000E+00
    -10.304  0.1258E-01  0.2946E-03  0.2946E-03  0.2946E-03  0.0000E+00  0.0000E+00  0.0000E+00  0.0000E+00  0.0000E+00
    -10.165  0.4598E-02  0.1206E-03  0.1206E-03  0.1206E-03  0.0000E+00  0.0000E+00  0.0000E+00  0.0000E+00  0.0000E+00
    -10.025  0.3946E-02  0.1142E-03  0.1142E-03  0.1142E-03  0.0000E+00  0.0000E+00  0.0000E+00  0.0000E+00  0.0000E+00
     -9.885  0.4143E-02  0.1259E-03  0.1259E-03  0.1259E-03  0.0000E+00  0.0000E+00  0.0000E+00  0.0000E+00  0.0000E+00
     -9.745  0.4114E-02  0.1368E-03  0.1368E-03  0.1368E-03  0.0000E+00  0.0000E+00  0.0000E+00  0.0000E+00  0.0000E+00
     -9.606  0.8024E-02  0.2855E-03  0.2855E-03  0.2855E-03  0.0000E+00  0.0000E+00  0.0000E+00  0.0000E+00  0.0000E+00
     -9.466  0.4107E-02  0.1494E-03  0.1494E-03  0.1494E-03  0.0000E+00  0.0000E+00  0.0000E+00  0.0000E+00  0.0000E+00
     -9.326  0.1222E-01  0.4875E-03  0.4875E-03  0.4875E-03  0.0000E+00  0.0000E+00  0.0000E+00  0.0000E+00  0.0000E+00
     -9.186  0.1140E-04  0.4700E-06  0.4700E-06  0.4700E-06  0.0000E+00  0.0000E+00  0.0000E+00  0.0000E+00  0.0000E+00
     -9.046  0.7189E-02  0.3276E-03  0.3276E-03  0.3276E-03  0.0000E+00  0.0000E+00  0.0000E+00  0.0000E+00  0.0000E+00
     -8.907  0.8092E-02  0.3694E-03  0.3694E-03  0.3694E-03  0.0000E+00  0.0000E+00  0.0000E+00  0.0000E+00  0.0000E+00
     -8.767  0.1530E-08  0.7285E-10  0.7285E-10  0.7285E-10  0.0000E+00  0.0000E+00  0.0000E+00  0.0000E+00  0.0000E+00
     -8.627  0.8201E-02  0.4200E-03  0.4200E-03  0.4200E-03  0.0000E+00  0.0000E+00  0.0000E+00  0.0000E+00  0.0000E+00
     -8.487  0.4069E-02  0.2179E-03  0.2179E-03  0.2179E-03  0.0000E+00  0.0000E+00  0.0000E+00  0.0000E+00  0.0000E+00
     -8.348  0.6539E-17  0.3928E-18  0.3928E-18  0.3928E-18  0.0000E+00  0.0000E+00  0.0000E+00  0.0000E+00  0.0000E+00
     -8.208  0.2500E-02  0.1540E-03  0.1540E-03  0.1540E-03  0.0000E+00  0.0000E+00  0.0000E+00  0.0000E+00  0.0000E+00
     -8.068  0.7921E-02  0.4722E-03  0.4722E-03  0.4722E-03  0.0000E+00  0.0000E+00  0.0000E+00  0.0000E+00  0.0000E+00
     -7.928  0.1034E-02  0.6515E-04  0.6515E-04  0.6515E-04  0.0000E+00  0.0000E+00  0.0000E+00  0.0000E+00  0.0000E+00
     -7.789  0.7955E-02  0.4871E-03  0.4871E-03  0.4871E-03  0.0000E+00  0.0000E+00  0.0000E+00  0.0000E+00  0.0000E+00
     -7.649  0.3922E-02  0.2621E-03  0.2621E-03  0.2621E-03  0.0000E+00  0.0000E+00  0.0000E+00  0.0000E+00  0.0000E+00
     -7.509  0.5652E-02  0.3628E-03  0.3628E-03  0.3628E-03  0.0000E+00  0.0000E+00  0.0000E+00  0.0000E+00  0.0000E+00
     -7.369  0.3810E-02  0.2984E-03  0.2984E-03  0.2984E-03  0.0000E+00  0.0000E+00  0.0000E+00  0.0000E+00  0.0000E+00
     -7.229  0.5895E-02  0.4333E-03  0.4333E-03  0.4333E-03  0.0000E+00  0.0000E+00  0.0000E+00  0.0000E+00  0.0000E+00
     -7.090  0.0000E+00  0.0000E+00  0.0000E+00  0.0000E+00  0.0000E+00  0.0000E+00  0.0000E+00  0.0000E+00  0.0000E+00
     -6.950  0.1008E-06  0.5984E-08  0.5984E-08  0.5984E-08  0.0000E+00  0.0000E+00  0.0000E+00  0.0000E+00  0.0000E+00
     -6.810  0.4147E-02  0.2430E-03  0.2430E-03  0.2430E-03  0.0000E+00  0.0000E+00  0.0000E+00  0.0000E+00  0.0000E+00
     -6.670  0.1435E-09  0.8410E-11  0.8410E-11  0.8410E-11  0.0000E+00  0.0000E+00  0.0000E+00  0.0000E+00  0.0000E+00
     -6.531  0.4245E-02  0.2324E-03  0.2324E-03  0.2324E-03  0.0000E+00  0.0000E+00  0.0000E+00  0.0000E+00  0.0000E+00
     -6.391  0.1722E-02  0.8787E-04  0.8787E-04  0.8787E-04  0.0000E+00  0.0000E+00  0.0000E+00  0.0000E+00  0.0000E+00
     -6.251  0.2312E-03  0.2000E-04  0.2000E-04  0.2000E-04  0.0000E+00  0.0000E+00  0.0000E+00  0.0000E+00  0.0000E+00
     -6.111  0.5560E-02  0.2820E-03  0.2820E-03  0.2820E-03  0.0000E+00  0.0000E+00  0.0000E+00  0.0000E+00  0.0000E+00
     -5.972  0.1632E+00  0.5984E-02  0.5984E-02  0.5984E-02  0.0000E+00  0.0000E+00  0.0000E+00  0.0000E+00  0.0000E+00
     -5.832  0.3573E-01  0.1598E-02  0.1598E-02  0.1598E-02  0.0000E+00  0.0000E+00  0.0000E+00  0.0000E+00  0.0000E+00
     -5.692  0.3626E-01  0.1760E-02  0.1760E-02  0.1760E-02  0.0000E+00  0.0000E+00  0.0000E+00  0.0000E+00  0.0000E+00
     -5.552  0.3096E-01  0.1645E-02  0.1645E-02  0.1645E-02  0.0000E+00  0.0000E+00  0.0000E+00  0.0000E+00  0.0000E+00
     -5.413  0.2298E-01  0.1348E-02  0.1348E-02  0.1348E-02  0.0000E+00  0.0000E+00  0.0000E+00  0.0000E+00  0.0000E+00
     -5.273  0.1797E-01  0.1150E-02  0.1150E-02  0.1150E-02  0.0000E+00  0.0000E+00  0.0000E+00  0.0000E+00  0.0000E+00
     -5.133  0.1691E-01  0.1149E-02  0.1149E-02  0.1149E-02  0.0000E+00  0.0000E+00  0.0000E+00  0.0000E+00  0.0000E+00
     -4.993  0.1707E-01  0.1210E-02  0.1210E-02  0.1210E-02  0.0000E+00  0.0000E+00  0.0000E+00  0.0000E+00  0.0000E+00
     -4.853  0.1633E-01  0.1219E-02  0.1219E-02  0.1219E-02  0.0000E+00  0.0000E+00  0.0000E+00  0.0000E+00  0.0000E+00
     -4.714  0.2137E-01  0.1622E-02  0.1622E-02  0.1622E-02  0.0000E+00  0.0000E+00  0.0000E+00  0.0000E+00  0.0000E+00
     -4.574  0.1285E-01  0.9606E-03  0.9606E-03  0.9606E-03  0.0000E+00  0.0000E+00  0.0000E+00  0.0000E+00  0.0000E+00
     -4.434  0.1311E-01  0.1029E-02  0.1029E-02  0.1029E-02  0.0000E+00  0.0000E+00  0.0000E+00  0.0000E+00  0.0000E+00
     -4.294  0.1159E-01  0.1177E-02  0.1177E-02  0.1177E-02  0.0000E+00  0.0000E+00  0.0000E+00  0.0000E+00  0.0000E+00
     -4.155  0.1600E-01  0.1600E-02  0.1600E-02  0.1600E-02  0.0000E+00  0.0000E+00  0.0000E+00  0.0000E+00  0.0000E+00
     -4.015  0.1614E-01  0.1677E-02  0.1677E-02  0.1677E-02  0.0000E+00  0.0000E+00  0.0000E+00  0.0000E+00  0.0000E+00
     -3.875  0.1670E-01  0.1606E-02  0.1606E-02  0.1606E-02  0.0000E+00  0.0000E+00  0.0000E+00  0.0000E+00  0.0000E+00
     -3.735  0.1230E-01  0.1202E-02  0.1202E-02  0.1202E-02  0.0000E+00  0.0000E+00  0.0000E+00  0.0000E+00  0.0000E+00
     -3.596  0.3848E-01  0.1903E-01  0.1903E-01  0.1903E-01  0.0000E+00  0.0000E+00  0.0000E+00  0.0000E+00  0.0000E+00
     -3.456  0.2165E-01  0.1008E-01  0.1008E-01  0.1008E-01  0.0000E+00  0.0000E+00  0.0000E+00  0.0000E+00  0.0000E+00
     -3.316  0.2742E-01  0.8546E-02  0.8546E-02  0.8546E-02  0.0000E+00  0.0000E+00  0.0000E+00  0.0000E+00  0.0000E+00
     -3.176  0.6593E-01  0.1210E-01  0.1210E-01  0.1210E-01  0.0000E+00  0.0000E+00  0.0000E+00  0.0000E+00  0.0000E+00
     -3.036  0.1530E+00  0.2756E-01  0.2756E-01  0.2756E-01  0.0000E+00  0.0000E+00  0.0000E+00  0.0000E+00  0.0000E+00
     -2.897  0.6018E-01  0.1146E-01  0.1146E-01  0.1146E-01  0.0000E+00  0.0000E+00  0.0000E+00  0.0000E+00  0.0000E+00
     -2.757  0.6258E-01  0.1367E-01  0.1367E-01  0.1367E-01  0.0000E+00  0.0000E+00  0.0000E+00  0.0000E+00  0.0000E+00
     -2.617  0.4699E-01  0.9989E-02  0.9989E-02  0.9989E-02  0.0000E+00  0.0000E+00  0.0000E+00  0.0000E+00  0.0000E+00
     -2.477  0.4846E-01  0.1025E-01  0.1025E-01  0.1025E-01  0.0000E+00  0.0000E+00  0.0000E+00  0.0000E+00  0.0000E+00
     -2.338  0.6900E-01  0.1297E-01  0.1297E-01  0.1297E-01  0.0000E+00  0.0000E+00  0.0000E+00  0.0000E+00  0.0000E+00
     -2.198  0.3063E-01  0.8034E-02  0.8034E-02  0.8034E-02  0.0000E+00  0.0000E+00  0.0000E+00  0.0000E+00  0.0000E+00
     -2.058  0.4444E-01  0.9584E-02  0.9584E-02  0.9584E-02  0.0000E+00  0.0000E+00  0.0000E+00  0.0000E+00  0.0000E+00
     -1.918  0.3206E-01  0.9333E-02  0.9333E-02  0.9333E-02  0.0000E+00  0.0000E+00  0.0000E+00  0.0000E+00  0.0000E+00
     -1.779  0.8489E-02  0.2218E-02  0.2218E-02  0.2218E-02  0.0000E+00  0.0000E+00  0.0000E+00  0.0000E+00  0.0000E+00
     -1.639  0.5328E-02  0.1377E-02  0.1377E-02  0.1377E-02  0.0000E+00  0.0000E+00  0.0000E+00  0.0000E+00  0.0000E+00
     -1.499  0.8942E-04  0.2394E-04  0.2394E-04  0.2394E-04  0.0000E+00  0.0000E+00  0.0000E+00  0.0000E+00  0.0000E+00
     -1.359  0.1787E-02  0.9656E-03  0.9656E-03  0.9656E-03  0.0000E+00  0.0000E+00  0.0000E+00  0.0000E+00  0.0000E+00
     -1.219  0.7662E-02  0.2483E-02  0.2483E-02  0.2483E-02  0.0000E+00  0.0000E+00  0.0000E+00  0.0000E+00  0.0000E+00
     -1.080  0.7501E-02  0.2497E-02  0.2497E-02  0.2497E-02  0.0000E+00  0.0000E+00  0.0000E+00  0.0000E+00  0.0000E+00
     -0.940  0.1507E-02  0.8451E-03  0.8451E-03  0.8451E-03  0.0000E+00  0.0000E+00  0.0000E+00  0.0000E+00  0.0000E+00
     -0.800  0.2679E-02  0.8417E-03  0.8417E-03  0.8417E-03  0.0000E+00  0.0000E+00  0.0000E+00  0.0000E+00  0.0000E+00
     -0.660  0.8696E-14  0.4198E-14  0.4198E-14  0.4198E-14  0.0000E+00  0.0000E+00  0.0000E+00  0.0000E+00  0.0000E+00
     -0.521  0.2597E-02  0.8686E-03  0.8686E-03  0.8686E-03  0.0000E+00  0.0000E+00  0.0000E+00  0.0000E+00  0.0000E+00
     -0.381  0.2981E-02  0.7821E-03  0.7821E-03  0.7821E-03  0.0000E+00  0.0000E+00  0.0000E+00  0.0000E+00  0.0000E+00
     -0.241  0.3230E-02  0.1036E-02  0.1036E-02  0.1036E-02  0.0000E+00  0.0000E+00  0.0000E+00  0.0000E+00  0.0000E+00
     -0.101  0.2488E-02  0.9111E-03  0.9111E-03  0.9111E-03  0.0000E+00  0.0000E+00  0.0000E+00  0.0000E+00  0.0000E+00
      0.038  0.0000E+00  0.0000E+00  0.0000E+00  0.0000E+00  0.0000E+00  0.0000E+00  0.0000E+00  0.0000E+00  0.0000E+00
      0.178  0.3368E-02  0.1728E-02  0.1728E-02  0.1728E-02  0.0000E+00  0.0000E+00  0.0000E+00  0.0000E+00  0.0000E+00
      0.318  0.3962E-02  0.4582E-02  0.4582E-02  0.4582E-02  0.0000E+00  0.0000E+00  0.0000E+00  0.0000E+00  0.0000E+00
      0.458  0.3993E-02  0.3066E-01  0.3066E-01  0.3066E-01  0.0000E+00  0.0000E+00  0.0000E+00  0.0000E+00  0.0000E+00
      0.598  0.1370E-02  0.1709E-01  0.1709E-01  0.1709E-01  0.0000E+00  0.0000E+00  0.0000E+00  0.0000E+00  0.0000E+00
      0.737  0.1255E-02  0.1257E-01  0.1257E-01  0.1257E-01  0.0000E+00  0.0000E+00  0.0000E+00  0.0000E+00  0.0000E+00
      0.877  0.2754E-02  0.9879E-02  0.9879E-02  0.9879E-02  0.0000E+00  0.0000E+00  0.0000E+00  0.0000E+00  0.0000E+00
      1.017  0.1645E-02  0.1551E-01  0.1551E-01  0.1551E-01  0.0000E+00  0.0000E+00  0.0000E+00  0.0000E+00  0.0000E+00
      1.157  0.6678E-02  0.1479E-01  0.1479E-01  0.1479E-01  0.0000E+00  0.0000E+00  0.0000E+00  0.0000E+00  0.0000E+00
      1.296  0.3454E-02  0.1255E-01  0.1255E-01  0.1255E-01  0.0000E+00  0.0000E+00  0.0000E+00  0.0000E+00  0.0000E+00
      1.436  0.1070E-02  0.2046E-01  0.2046E-01  0.2046E-01  0.0000E+00  0.0000E+00  0.0000E+00  0.0000E+00  0.0000E+00
      1.576  0.3835E-02  0.1732E-01  0.1732E-01  0.1732E-01  0.0000E+00  0.0000E+00  0.0000E+00  0.0000E+00  0.0000E+00
      1.716  0.1650E-02  0.1038E-01  0.1038E-01  0.1038E-01  0.0000E+00  0.0000E+00  0.0000E+00  0.0000E+00  0.0000E+00
      1.855  0.2053E-02  0.9176E-02  0.9176E-02  0.9176E-02  0.0000E+00  0.0000E+00  0.0000E+00  0.0000E+00  0.0000E+00
      1.995  0.7324E-02  0.1319E-01  0.1319E-01  0.1319E-01  0.0000E+00  0.0000E+00  0.0000E+00  0.0000E+00  0.0000E+00
      2.135  0.3499E-02  0.8566E-02  0.8566E-02  0.8566E-02  0.0000E+00  0.0000E+00  0.0000E+00  0.0000E+00  0.0000E+00
      2.275  0.2358E-02  0.7295E-02  0.7295E-02  0.7295E-02  0.0000E+00  0.0000E+00  0.0000E+00  0.0000E+00  0.0000E+00
      2.414  0.4574E-02  0.1056E-01  0.1056E-01  0.1056E-01  0.0000E+00  0.0000E+00  0.0000E+00  0.0000E+00  0.0000E+00
      2.554  0.3721E-02  0.9790E-02  0.9790E-02  0.9790E-02  0.0000E+00  0.0000E+00  0.0000E+00  0.0000E+00  0.0000E+00
      2.694  0.4422E-02  0.1257E-01  0.1257E-01  0.1257E-01  0.0000E+00  0.0000E+00  0.0000E+00  0.0000E+00  0.0000E+00
      2.834  0.6829E-02  0.1193E-01  0.1193E-01  0.1193E-01  0.0000E+00  0.0000E+00  0.0000E+00  0.0000E+00  0.0000E+00
      2.974  0.3976E-02  0.1189E-01  0.1189E-01  0.1189E-01  0.0000E+00  0.0000E+00  0.0000E+00  0.0000E+00  0.0000E+00
      3.113  0.2238E-02  0.9053E-02  0.9053E-02  0.9053E-02  0.0000E+00  0.0000E+00  0.0000E+00  0.0000E+00  0.0000E+00
      3.253  0.3142E-02  0.1529E-01  0.1529E-01  0.1529E-01  0.0000E+00  0.0000E+00  0.0000E+00  0.0000E+00  0.0000E+00
      3.393  0.4142E-02  0.4994E-01  0.4994E-01  0.4994E-01  0.0000E+00  0.0000E+00  0.0000E+00  0.0000E+00  0.0000E+00
      3.533  0.4530E-02  0.1781E-01  0.1781E-01  0.1781E-01  0.0000E+00  0.0000E+00  0.0000E+00  0.0000E+00  0.0000E+00
      3.672  0.5812E-02  0.1357E-01  0.1357E-01  0.1357E-01  0.0000E+00  0.0000E+00  0.0000E+00  0.0000E+00  0.0000E+00
      3.812  0.4050E-02  0.1387E-01  0.1387E-01  0.1387E-01  0.0000E+00  0.0000E+00  0.0000E+00  0.0000E+00  0.0000E+00
      3.952  0.2246E-02  0.1084E-01  0.1084E-01  0.1084E-01  0.0000E+00  0.0000E+00  0.0000E+00  0.0000E+00  0.0000E+00
      4.092  0.3693E-03  0.9938E-02  0.9938E-02  0.9938E-02  0.0000E+00  0.0000E+00  0.0000E+00  0.0000E+00  0.0000E+00
      4.231  0.2607E-02  0.1918E-01  0.1918E-01  0.1918E-01  0.0000E+00  0.0000E+00  0.0000E+00  0.0000E+00  0.0000E+00
      4.371  0.3017E-03  0.1255E-01  0.1255E-01  0.1255E-01  0.0000E+00  0.0000E+00  0.0000E+00  0.0000E+00  0.0000E+00
      4.511  0.1133E-02  0.1458E-01  0.1458E-01  0.1458E-01  0.0000E+00  0.0000E+00  0.0000E+00  0.0000E+00  0.0000E+00
      4.651  0.1096E-08  0.1062E-01  0.1062E-01  0.1062E-01  0.0000E+00  0.0000E+00  0.0000E+00  0.0000E+00  0.0000E+00
      4.791  0.3981E-02  0.1018E-01  0.1018E-01  0.1018E-01  0.0000E+00  0.0000E+00  0.0000E+00  0.0000E+00  0.0000E+00
      4.930  0.2026E-02  0.1020E-01  0.1020E-01  0.1020E-01  0.0000E+00  0.0000E+00  0.0000E+00  0.0000E+00  0.0000E+00
      5.070  0.5995E-02  0.1802E-01  0.1802E-01  0.1802E-01  0.0000E+00  0.0000E+00  0.0000E+00  0.0000E+00  0.0000E+00
      5.210  0.1442E-02  0.1390E-01  0.1390E-01  0.1390E-01  0.0000E+00  0.0000E+00  0.0000E+00  0.0000E+00  0.0000E+00
      5.350  0.5988E-03  0.1073E-01  0.1073E-01  0.1073E-01  0.0000E+00  0.0000E+00  0.0000E+00  0.0000E+00  0.0000E+00
      5.489  0.1077E-02  0.1043E-01  0.1043E-01  0.1043E-01  0.0000E+00  0.0000E+00  0.0000E+00  0.0000E+00  0.0000E+00
      5.629  0.1372E-02  0.1385E-01  0.1385E-01  0.1385E-01  0.0000E+00  0.0000E+00  0.0000E+00  0.0000E+00  0.0000E+00
      5.769  0.1279E-02  0.1055E-01  0.1055E-01  0.1055E-01  0.0000E+00  0.0000E+00  0.0000E+00  0.0000E+00  0.0000E+00
      5.909  0.6477E-03  0.6874E-02  0.6874E-02  0.6874E-02  0.0000E+00  0.0000E+00  0.0000E+00  0.0000E+00  0.0000E+00
      6.048  0.8791E-04  0.1127E-01  0.1127E-01  0.1127E-01  0.0000E+00  0.0000E+00  0.0000E+00  0.0000E+00  0.0000E+00
      6.188  0.1444E-02  0.1374E-01  0.1374E-01  0.1374E-01  0.0000E+00  0.0000E+00  0.0000E+00  0.0000E+00  0.0000E+00
      6.328  0.1328E-02  0.1462E-01  0.1462E-01  0.1462E-01  0.0000E+00  0.0000E+00  0.0000E+00  0.0000E+00  0.0000E+00
      6.468  0.7082E-03  0.1569E-01  0.1569E-01  0.1569E-01  0.0000E+00  0.0000E+00  0.0000E+00  0.0000E+00  0.0000E+00
      6.608  0.3477E-03  0.2033E-01  0.2033E-01  0.2033E-01  0.0000E+00  0.0000E+00  0.0000E+00  0.0000E+00  0.0000E+00
      6.747  0.7898E-03  0.2327E-01  0.2327E-01  0.2327E-01  0.0000E+00  0.0000E+00  0.0000E+00  0.0000E+00  0.0000E+00
      6.887  0.2545E-03  0.7956E-01  0.7956E-01  0.7956E-01  0.0000E+00  0.0000E+00  0.0000E+00  0.0000E+00  0.0000E+00
      7.027  0.3430E-04  0.1499E-01  0.1499E-01  0.1499E-01  0.0000E+00  0.0000E+00  0.0000E+00  0.0000E+00  0.0000E+00
      7.167  0.1246E-02  0.9044E-02  0.9044E-02  0.9044E-02  0.0000E+00  0.0000E+00  0.0000E+00  0.0000E+00  0.0000E+00
      7.306  0.1251E-02  0.1130E-01  0.1130E-01  0.1130E-01  0.0000E+00  0.0000E+00  0.0000E+00  0.0000E+00  0.0000E+00
      7.446  0.1764E-02  0.9021E-02  0.9021E-02  0.9021E-02  0.0000E+00  0.0000E+00  0.0000E+00  0.0000E+00  0.0000E+00
      7.586  0.5263E-03  0.7275E-02  0.7275E-02  0.7275E-02  0.0000E+00  0.0000E+00  0.0000E+00  0.0000E+00  0.0000E+00
      7.726  0.4864E-03  0.9509E-02  0.9509E-02  0.9509E-02  0.0000E+00  0.0000E+00  0.0000E+00  0.0000E+00  0.0000E+00
      7.865  0.2091E-03  0.4625E-02  0.4625E-02  0.4625E-02  0.0000E+00  0.0000E+00  0.0000E+00  0.0000E+00  0.0000E+00
      8.005  0.9499E-03  0.6535E-02  0.6535E-02  0.6535E-02  0.0000E+00  0.0000E+00  0.0000E+00  0.0000E+00  0.0000E+00
      8.145  0.6837E-07  0.7979E-02  0.7979E-02  0.7979E-02  0.0000E+00  0.0000E+00  0.0000E+00  0.0000E+00  0.0000E+00
      8.285  0.6827E-05  0.6029E-02  0.6029E-02  0.6029E-02  0.0000E+00  0.0000E+00  0.0000E+00  0.0000E+00  0.0000E+00
      8.424  0.7824E-03  0.1321E-01  0.1321E-01  0.1321E-01  0.0000E+00  0.0000E+00  0.0000E+00  0.0000E+00  0.0000E+00
      8.564  0.1466E-04  0.3962E-02  0.3962E-02  0.3962E-02  0.0000E+00  0.0000E+00  0.0000E+00  0.0000E+00  0.0000E+00
      8.704  0.8241E-03  0.1314E-01  0.1314E-01  0.1314E-01  0.0000E+00  0.0000E+00  0.0000E+00  0.0000E+00  0.0000E+00
      8.844  0.6694E-03  0.8575E-02  0.8575E-02  0.8575E-02  0.0000E+00  0.0000E+00  0.0000E+00  0.0000E+00  0.0000E+00
      8.984  0.1676E-03  0.9101E-02  0.9101E-02  0.9101E-02  0.0000E+00  0.0000E+00  0.0000E+00  0.0000E+00  0.0000E+00
      9.123  0.3593E-06  0.6979E-02  0.6979E-02  0.6979E-02  0.0000E+00  0.0000E+00  0.0000E+00  0.0000E+00  0.0000E+00
      9.263  0.4259E-03  0.1341E-01  0.1341E-01  0.1341E-01  0.0000E+00  0.0000E+00  0.0000E+00  0.0000E+00  0.0000E+00
      9.403  0.2416E-03  0.1526E-01  0.1526E-01  0.1526E-01  0.0000E+00  0.0000E+00  0.0000E+00  0.0000E+00  0.0000E+00
      9.543  0.1213E-03  0.2070E-01  0.2070E-01  0.2070E-01  0.0000E+00  0.0000E+00  0.0000E+00  0.0000E+00  0.0000E+00
      9.682  0.1622E-05  0.2790E-01  0.2790E-01  0.2790E-01  0.0000E+00  0.0000E+00  0.0000E+00  0.0000E+00  0.0000E+00
      9.822  0.0000E+00  0.0000E+00  0.0000E+00  0.0000E+00  0.0000E+00  0.0000E+00  0.0000E+00  0.0000E+00  0.0000E+00
      9.962  0.0000E+00  0.0000E+00  0.0000E+00  0.0000E+00  0.0000E+00  0.0000E+00  0.0000E+00  0.0000E+00  0.0000E+00
     10.102  0.0000E+00  0.0000E+00  0.0000E+00  0.0000E+00  0.0000E+00  0.0000E+00  0.0000E+00  0.0000E+00  0.0000E+00
     10.241  0.0000E+00  0.0000E+00  0.0000E+00  0.0000E+00  0.0000E+00  0.0000E+00  0.0000E+00  0.0000E+00  0.0000E+00
     10.381  0.0000E+00  0.0000E+00  0.0000E+00  0.0000E+00  0.0000E+00  0.0000E+00  0.0000E+00  0.0000E+00  0.0000E+00
     10.521  0.0000E+00  0.0000E+00  0.0000E+00  0.0000E+00  0.0000E+00  0.0000E+00  0.0000E+00  0.0000E+00  0.0000E+00
     10.661  0.0000E+00  0.0000E+00  0.0000E+00  0.0000E+00  0.0000E+00  0.0000E+00  0.0000E+00  0.0000E+00  0.0000E+00
     10.801  0.0000E+00  0.0000E+00  0.0000E+00  0.0000E+00  0.0000E+00  0.0000E+00  0.0000E+00  0.0000E+00  0.0000E+00
     10.940  0.0000E+00  0.0000E+00  0.0000E+00  0.0000E+00  0.0000E+00  0.0000E+00  0.0000E+00  0.0000E+00  0.0000E+00
     11.080  0.0000E+00  0.0000E+00  0.0000E+00  0.0000E+00  0.0000E+00  0.0000E+00  0.0000E+00  0.0000E+00  0.0000E+00
     11.220  0.0000E+00  0.0000E+00  0.0000E+00  0.0000E+00  0.0000E+00  0.0000E+00  0.0000E+00  0.0000E+00  0.0000E+00
     11.360  0.0000E+00  0.0000E+00  0.0000E+00  0.0000E+00  0.0000E+00  0.0000E+00  0.0000E+00  0.0000E+00  0.0000E+00
     11.499  0.0000E+00  0.0000E+00  0.0000E+00  0.0000E+00  0.0000E+00  0.0000E+00  0.0000E+00  0.0000E+00  0.0000E+00
     11.639  0.0000E+00  0.0000E+00  0.0000E+00  0.0000E+00  0.0000E+00  0.0000E+00  0.0000E+00  0.0000E+00  0.0000E+00
     11.779  0.0000E+00  0.0000E+00  0.0000E+00  0.0000E+00  0.0000E+00  0.0000E+00  0.0000E+00  0.0000E+00  0.0000E+00
     11.919  0.0000E+00  0.0000E+00  0.0000E+00  0.0000E+00  0.0000E+00  0.0000E+00  0.0000E+00  0.0000E+00  0.0000E+00
     12.058  0.0000E+00  0.0000E+00  0.0000E+00  0.0000E+00  0.0000E+00  0.0000E+00  0.0000E+00  0.0000E+00  0.0000E+00
     12.198  0.0000E+00  0.0000E+00  0.0000E+00  0.0000E+00  0.0000E+00  0.0000E+00  0.0000E+00  0.0000E+00  0.0000E+00
     12.338  0.0000E+00  0.0000E+00  0.0000E+00  0.0000E+00  0.0000E+00  0.0000E+00  0.0000E+00  0.0000E+00  0.0000E+00
     12.478  0.0000E+00  0.0000E+00  0.0000E+00  0.0000E+00  0.0000E+00  0.0000E+00  0.0000E+00  0.0000E+00  0.0000E+00
     12.618  0.0000E+00  0.0000E+00  0.0000E+00  0.0000E+00  0.0000E+00  0.0000E+00  0.0000E+00  0.0000E+00  0.0000E+00
     12.757  0.0000E+00  0.0000E+00  0.0000E+00  0.0000E+00  0.0000E+00  0.0000E+00  0.0000E+00  0.0000E+00  0.0000E+00
     12.897  0.0000E+00  0.0000E+00  0.0000E+00  0.0000E+00  0.0000E+00  0.0000E+00  0.0000E+00  0.0000E+00  0.0000E+00
     13.037  0.0000E+00  0.0000E+00  0.0000E+00  0.0000E+00  0.0000E+00  0.0000E+00  0.0000E+00  0.0000E+00  0.0000E+00
     13.177  0.0000E+00  0.0000E+00  0.0000E+00  0.0000E+00  0.0000E+00  0.0000E+00  0.0000E+00  0.0000E+00  0.0000E+00
     13.316  0.0000E+00  0.0000E+00  0.0000E+00  0.0000E+00  0.0000E+00  0.0000E+00  0.0000E+00  0.0000E+00  0.0000E+00
     13.456  0.0000E+00  0.0000E+00  0.0000E+00  0.0000E+00  0.0000E+00  0.0000E+00  0.0000E+00  0.0000E+00  0.0000E+00
     13.596  0.0000E+00  0.0000E+00  0.0000E+00  0.0000E+00  0.0000E+00  0.0000E+00  0.0000E+00  0.0000E+00  0.0000E+00
     13.736  0.6177E-15  0.1865E-15  0.1865E-15  0.1865E-15  0.0000E+00  0.0000E+00  0.0000E+00  0.0000E+00  0.0000E+00
     13.875  0.8409E-02  0.2822E-02  0.2822E-02  0.2822E-02  0.0000E+00  0.0000E+00  0.0000E+00  0.0000E+00  0.0000E+00
     14.015  0.4154E-02  0.1727E-02  0.1727E-02  0.1727E-02  0.0000E+00  0.0000E+00  0.0000E+00  0.0000E+00  0.0000E+00
     14.155  0.3067E-02  0.1225E-02  0.1225E-02  0.1225E-02  0.0000E+00  0.0000E+00  0.0000E+00  0.0000E+00  0.0000E+00
     14.295  0.1556E-02  0.1082E-02  0.1082E-02  0.1082E-02  0.0000E+00  0.0000E+00  0.0000E+00  0.0000E+00  0.0000E+00
     14.435  0.2042E-01  0.4515E-02  0.4515E-02  0.4515E-02  0.0000E+00  0.0000E+00  0.0000E+00  0.0000E+00  0.0000E+00
     14.574  0.6371E-02  0.2055E-02  0.2055E-02  0.2055E-02  0.0000E+00  0.0000E+00  0.0000E+00  0.0000E+00  0.0000E+00
     14.714  0.4502E-02  0.2557E-02  0.2557E-02  0.2557E-02  0.0000E+00  0.0000E+00  0.0000E+00  0.0000E+00  0.0000E+00
     14.854  0.2865E-02  0.1873E-02  0.1873E-02  0.1873E-02  0.0000E+00  0.0000E+00  0.0000E+00  0.0000E+00  0.0000E+00
     14.994  0.4024E-02  0.3449E-02  0.3449E-02  0.3449E-02  0.0000E+00  0.0000E+00  0.0000E+00  0.0000E+00  0.0000E+00
     15.133  0.3760E-02  0.5081E-02  0.5081E-02  0.5081E-02  0.0000E+00  0.0000E+00  0.0000E+00  0.0000E+00  0.0000E+00
     15.273  0.1896E-02  0.3180E-01  0.3180E-01  0.3180E-01  0.0000E+00  0.0000E+00  0.0000E+00  0.0000E+00  0.0000E+00
     15.413  0.2137E-01  0.2005E-01  0.2005E-01  0.2005E-01  0.0000E+00  0.0000E+00  0.0000E+00  0.0000E+00  0.0000E+00
     15.553  0.1125E-01  0.1568E-01  0.1568E-01  0.1568E-01  0.0000E+00  0.0000E+00  0.0000E+00  0.0000E+00  0.0000E+00
     15.692  0.1355E-01  0.1312E-01  0.1312E-01  0.1312E-01  0.0000E+00  0.0000E+00  0.0000E+00  0.0000E+00  0.0000E+00
     15.832  0.1212E-01  0.1064E-01  0.1064E-01  0.1064E-01  0.0000E+00  0.0000E+00  0.0000E+00  0.0000E+00  0.0000E+00
     15.972  0.9458E-02  0.1023E-01  0.1023E-01  0.1023E-01  0.0000E+00  0.0000E+00  0.0000E+00  0.0000E+00  0.0000E+00
     16.112  0.1088E-01  0.1252E-01  0.1252E-01  0.1252E-01  0.0000E+00  0.0000E+00  0.0000E+00  0.0000E+00  0.0000E+00
     16.251  0.9371E-02  0.7966E-02  0.7966E-02  0.7966E-02  0.0000E+00  0.0000E+00  0.0000E+00  0.0000E+00  0.0000E+00
     16.391  0.1206E-01  0.1247E-01  0.1247E-01  0.1247E-01  0.0000E+00  0.0000E+00  0.0000E+00  0.0000E+00  0.0000E+00
     16.531  0.8386E-02  0.1364E-01  0.1364E-01  0.1364E-01  0.0000E+00  0.0000E+00  0.0000E+00  0.0000E+00  0.0000E+00
     16.671  0.5834E-02  0.1118E-01  0.1118E-01  0.1118E-01  0.0000E+00  0.0000E+00  0.0000E+00  0.0000E+00  0.0000E+00
     16.811  0.3444E-02  0.1017E-01  0.1017E-01  0.1017E-01  0.0000E+00  0.0000E+00  0.0000E+00  0.0000E+00  0.0000E+00
     16.950  0.8841E-02  0.8927E-02  0.8927E-02  0.8927E-02  0.0000E+00  0.0000E+00  0.0000E+00  0.0000E+00  0.0000E+00
     17.090  0.9893E-02  0.1271E-01  0.1271E-01  0.1271E-01  0.0000E+00  0.0000E+00  0.0000E+00  0.0000E+00  0.0000E+00
     17.230  0.5574E-02  0.7482E-02  0.7482E-02  0.7482E-02  0.0000E+00  0.0000E+00  0.0000E+00  0.0000E+00  0.0000E+00
     17.370  0.9359E-02  0.1162E-01  0.1162E-01  0.1162E-01  0.0000E+00  0.0000E+00  0.0000E+00  0.0000E+00  0.0000E+00
     17.509  0.9792E-02  0.9096E-02  0.9096E-02  0.9096E-02  0.0000E+00  0.0000E+00  0.0000E+00  0.0000E+00  0.0000E+00
     17.649  0.8861E-02  0.1255E-01  0.1255E-01  0.1255E-01  0.0000E+00  0.0000E+00  0.0000E+00  0.0000E+00  0.0000E+00
     17.789  0.1352E-01  0.1510E-01  0.1510E-01  0.1510E-01  0.0000E+00  0.0000E+00  0.0000E+00  0.0000E+00  0.0000E+00
     17.929  0.1296E-01  0.2558E-01  0.2558E-01  0.2558E-01  0.0000E+00  0.0000E+00  0.0000E+00  0.0000E+00  0.0000E+00
     18.068  0.9651E-02  0.5476E-01  0.5476E-01  0.5476E-01  0.0000E+00  0.0000E+00  0.0000E+00  0.0000E+00  0.0000E+00
     18.208  0.1536E-01  0.1877E-01  0.1877E-01  0.1877E-01  0.0000E+00  0.0000E+00  0.0000E+00  0.0000E+00  0.0000E+00
     18.348  0.2281E-01  0.1209E-01  0.1209E-01  0.1209E-01  0.0000E+00  0.0000E+00  0.0000E+00  0.0000E+00  0.0000E+00
     18.488  0.3442E-01  0.1153E-01  0.1153E-01  0.1153E-01  0.0000E+00  0.0000E+00  0.0000E+00  0.0000E+00  0.0000E+00
     18.628  0.1902E-01  0.9205E-02  0.9205E-02  0.9205E-02  0.0000E+00  0.0000E+00  0.0000E+00  0.0000E+00  0.0000E+00
     18.767  0.1375E-01  0.3727E-02  0.3727E-02  0.3727E-02  0.0000E+00  0.0000E+00  0.0000E+00  0.0000E+00  0.0000E+00
     18.907  0.1085E-01  0.1124E-01  0.1124E-01  0.1124E-01  0.0000E+00  0.0000E+00  0.0000E+00  0.0000E+00  0.0000E+00
     19.047  0.1416E-01  0.7006E-02  0.7006E-02  0.7006E-02  0.0000E+00  0.0000E+00  0.0000E+00  0.0000E+00  0.0000E+00
     19.187  0.4849E-02  0.8750E-02  0.8750E-02  0.8750E-02  0.0000E+00  0.0000E+00  0.0000E+00  0.0000E+00  0.0000E+00
     19.326  0.9270E-02  0.9927E-02  0.9927E-02  0.9927E-02  0.0000E+00  0.0000E+00  0.0000E+00  0.0000E+00  0.0000E+00
     19.466  0.5443E-02  0.7594E-02  0.7594E-02  0.7594E-02  0.0000E+00  0.0000E+00  0.0000E+00  0.0000E+00  0.0000E+00
     19.606  0.6049E-02  0.8823E-02  0.8823E-02  0.8823E-02  0.0000E+00  0.0000E+00  0.0000E+00  0.0000E+00  0.0000E+00
     19.746  0.4222E-02  0.1607E-01  0.1607E-01  0.1607E-01  0.0000E+00  0.0000E+00  0.0000E+00  0.0000E+00  0.0000E+00
     19.885  0.1054E-01  0.1607E-01  0.1607E-01  0.1607E-01  0.0000E+00  0.0000E+00  0.0000E+00  0.0000E+00  0.0000E+00
     20.025  0.1099E-01  0.1585E-01  0.1585E-01  0.1585E-01  0.0000E+00  0.0000E+00  0.0000E+00  0.0000E+00  0.0000E+00
     20.165  0.1496E-02  0.7166E-02  0.7166E-02  0.7166E-02  0.0000E+00  0.0000E+00  0.0000E+00  0.0000E+00  0.0000E+00
     20.305  0.7104E-02  0.9591E-02  0.9591E-02  0.9591E-02  0.0000E+00  0.0000E+00  0.0000E+00  0.0000E+00  0.0000E+00
     20.445  0.3994E-01  0.6267E-01  0.6267E-01  0.6267E-01  0.0000E+00  0.0000E+00  0.0000E+00  0.0000E+00  0.0000E+00
     20.584  0.3567E-02  0.4485E-02  0.4485E-02  0.4485E-02  0.0000E+00  0.0000E+00  0.0000E+00  0.0000E+00  0.0000E+00
     20.724  0.9808E-02  0.4707E-02  0.4707E-02  0.4707E-02  0.0000E+00  0.0000E+00  0.0000E+00  0.0000E+00  0.0000E+00
     20.864  0.5150E-10  0.5439E-10  0.5439E-10  0.5439E-10  0.0000E+00  0.0000E+00  0.0000E+00  0.0000E+00  0.0000E+00
     21.004  0.7568E-02  0.7078E-02  0.7078E-02  0.7078E-02  0.0000E+00  0.0000E+00  0.0000E+00  0.0000E+00  0.0000E+00
     21.143  0.1973E-04  0.2207E-02  0.2207E-02  0.2207E-02  0.0000E+00  0.0000E+00  0.0000E+00  0.0000E+00  0.0000E+00
     21.283  0.7335E-02  0.7700E-02  0.7700E-02  0.7700E-02  0.0000E+00  0.0000E+00  0.0000E+00  0.0000E+00  0.0000E+00
     21.423  0.2335E-02  0.9360E-02  0.9360E-02  0.9360E-02  0.0000E+00  0.0000E+00  0.0000E+00  0.0000E+00  0.0000E+00
     21.563  0.8878E-02  0.1075E-01  0.1075E-01  0.1075E-01  0.0000E+00  0.0000E+00  0.0000E+00  0.0000E+00  0.0000E+00
     21.702  0.2682E-02  0.4113E-02  0.4113E-02  0.4113E-02  0.0000E+00  0.0000E+00  0.0000E+00  0.0000E+00  0.0000E+00
     21.842  0.7078E-02  0.6179E-02  0.6179E-02  0.6179E-02  0.0000E+00  0.0000E+00  0.0000E+00  0.0000E+00  0.0000E+00
     21.982  0.2391E-01  0.2015E-01  0.2015E-01  0.2015E-01  0.0000E+00  0.0000E+00  0.0000E+00  0.0000E+00  0.0000E+00
     22.122  0.2215E-01  0.2100E-01  0.2100E-01  0.2100E-01  0.0000E+00  0.0000E+00  0.0000E+00  0.0000E+00  0.0000E+00
     22.262  0.1828E-01  0.1549E-01  0.1549E-01  0.1549E-01  0.0000E+00  0.0000E+00  0.0000E+00  0.0000E+00  0.0000E+00
     22.401  0.2343E-01  0.1902E-01  0.1902E-01  0.1902E-01  0.0000E+00  0.0000E+00  0.0000E+00  0.0000E+00  0.0000E+00
     22.541  0.1551E-01  0.2021E-01  0.2021E-01  0.2021E-01  0.0000E+00  0.0000E+00  0.0000E+00  0.0000E+00  0.0000E+00
     22.681  0.1454E-01  0.1936E-01  0.1936E-01  0.1936E-01  0.0000E+00  0.0000E+00  0.0000E+00  0.0000E+00  0.0000E+00
     22.821  0.1593E-01  0.1477E-01  0.1477E-01  0.1477E-01  0.0000E+00  0.0000E+00  0.0000E+00  0.0000E+00  0.0000E+00
     22.960  0.7191E-01  0.1916E-01  0.1916E-01  0.1916E-01  0.0000E+00  0.0000E+00  0.0000E+00  0.0000E+00  0.0000E+00
     23.100  0.3092E-01  0.2069E-01  0.2069E-01  0.2069E-01  0.0000E+00  0.0000E+00  0.0000E+00  0.0000E+00  0.0000E+00
     23.240  0.4814E-01  0.3072E-01  0.3072E-01  0.3072E-01  0.0000E+00  0.0000E+00  0.0000E+00  0.0000E+00  0.0000E+00
     23.380  0.1951E-01  0.2363E-01  0.2363E-01  0.2363E-01  0.0000E+00  0.0000E+00  0.0000E+00  0.0000E+00  0.0000E+00
     23.519  0.1396E-01  0.2191E-01  0.2191E-01  0.2191E-01  0.0000E+00  0.0000E+00  0.0000E+00  0.0000E+00  0.0000E+00
     23.659  0.1290E-01  0.1900E-01  0.1900E-01  0.1900E-01  0.0000E+00  0.0000E+00  0.0000E+00  0.0000E+00  0.0000E+00
     23.799  0.1368E-01  0.2736E-01  0.2736E-01  0.2736E-01  0.0000E+00  0.0000E+00  0.0000E+00  0.0000E+00  0.0000E+00
     23.939  0.1359E-01  0.3979E-01  0.3979E-01  0.3979E-01  0.0000E+00  0.0000E+00  0.0000E+00  0.0000E+00  0.0000E+00
     24.078  0.8225E-02  0.7280E-02  0.7280E-02  0.7280E-02  0.0000E+00  0.0000E+00  0.0000E+00  0.0000E+00  0.0000E+00
     24.218  0.7197E-02  0.6288E-02  0.6288E-02  0.6288E-02  0.0000E+00  0.0000E+00  0.0000E+00  0.0000E+00  0.0000E+00
     24.358  0.8188E-02  0.1016E-01  0.1016E-01  0.1016E-01  0.0000E+00  0.0000E+00  0.0000E+00  0.0000E+00  0.0000E+00
     24.498  0.7401E-02  0.8491E-02  0.8491E-02  0.8491E-02  0.0000E+00  0.0000E+00  0.0000E+00  0.0000E+00  0.0000E+00
     24.638  0.8141E-02  0.1404E-01  0.1404E-01  0.1404E-01  0.0000E+00  0.0000E+00  0.0000E+00  0.0000E+00  0.0000E+00
     24.777  0.9696E-02  0.1734E-01  0.1734E-01  0.1734E-01  0.0000E+00  0.0000E+00  0.0000E+00  0.0000E+00  0.0000E+00
     24.917  0.1119E-01  0.2220E-01  0.2220E-01  0.2220E-01  0.0000E+00  0.0000E+00  0.0000E+00  0.0000E+00  0.0000E+00
     25.057  0.1142E-01  0.2625E-01  0.2625E-01  0.2625E-01  0.0000E+00  0.0000E+00  0.0000E+00  0.0000E+00  0.0000E+00
     25.197  0.2760E-01  0.5579E-01  0.5579E-01  0.5579E-01  0.0000E+00  0.0000E+00  0.0000E+00  0.0000E+00  0.0000E+00
     25.336  0.1196E-02  0.3990E-01  0.3990E-01  0.3990E-01  0.0000E+00  0.0000E+00  0.0000E+00  0.0000E+00  0.0000E+00
     25.476  0.6833E-03  0.3952E-02  0.3952E-02  0.3952E-02  0.0000E+00  0.0000E+00  0.0000E+00  0.0000E+00  0.0000E+00
     25.616  0.5898E-03  0.6280E-02  0.6280E-02  0.6280E-02  0.0000E+00  0.0000E+00  0.0000E+00  0.0000E+00  0.0000E+00
     25.756  0.4750E-03  0.4107E-02  0.4107E-02  0.4107E-02  0.0000E+00  0.0000E+00  0.0000E+00  0.0000E+00  0.0000E+00
     25.895  0.3750E-03  0.8520E-02  0.8520E-02  0.8520E-02  0.0000E+00  0.0000E+00  0.0000E+00  0.0000E+00  0.0000E+00
     26.035  0.5488E-03  0.1286E-01  0.1286E-01  0.1286E-01  0.0000E+00  0.0000E+00  0.0000E+00  0.0000E+00  0.0000E+00
     26.175  0.3376E-03  0.1274E-01  0.1274E-01  0.1274E-01  0.0000E+00  0.0000E+00  0.0000E+00  0.0000E+00  0.0000E+00
     26.315  0.2178E-03  0.2311E-01  0.2311E-01  0.2311E-01  0.0000E+00  0.0000E+00  0.0000E+00  0.0000E+00  0.0000E+00
     26.455  0.0000E+00  0.0000E+00  0.0000E+00  0.0000E+00  0.0000E+00  0.0000E+00  0.0000E+00  0.0000E+00  0.0000E+00
     26.594  0.0000E+00  0.0000E+00  0.0000E+00  0.0000E+00  0.0000E+00  0.0000E+00  0.0000E+00  0.0000E+00  0.0000E+00
     26.734  0.0000E+00  0.0000E+00  0.0000E+00  0.0000E+00  0.0000E+00  0.0000E+00  0.0000E+00  0.0000E+00  0.0000E+00
     26.874  0.0000E+00  0.0000E+00  0.0000E+00  0.0000E+00  0.0000E+00  0.0000E+00  0.0000E+00  0.0000E+00  0.0000E+00
     27.014  0.0000E+00  0.0000E+00  0.0000E+00  0.0000E+00  0.0000E+00  0.0000E+00  0.0000E+00  0.0000E+00  0.0000E+00
     27.153  0.0000E+00  0.0000E+00  0.0000E+00  0.0000E+00  0.0000E+00  0.0000E+00  0.0000E+00  0.0000E+00  0.0000E+00
     27.293  0.0000E+00  0.0000E+00  0.0000E+00  0.0000E+00  0.0000E+00  0.0000E+00  0.0000E+00  0.0000E+00  0.0000E+00
     27.433  0.0000E+00  0.0000E+00  0.0000E+00  0.0000E+00  0.0000E+00  0.0000E+00  0.0000E+00  0.0000E+00  0.0000E+00
     27.573  0.0000E+00  0.0000E+00  0.0000E+00  0.0000E+00  0.0000E+00  0.0000E+00  0.0000E+00  0.0000E+00  0.0000E+00
     27.712  0.0000E+00  0.0000E+00  0.0000E+00  0.0000E+00  0.0000E+00  0.0000E+00  0.0000E+00  0.0000E+00  0.0000E+00
     27.852  0.0000E+00  0.0000E+00  0.0000E+00  0.0000E+00  0.0000E+00  0.0000E+00  0.0000E+00  0.0000E+00  0.0000E+00
     27.992  0.0000E+00  0.0000E+00  0.0000E+00  0.0000E+00  0.0000E+00  0.0000E+00  0.0000E+00  0.0000E+00  0.0000E+00
     28.132  0.0000E+00  0.0000E+00  0.0000E+00  0.0000E+00  0.0000E+00  0.0000E+00  0.0000E+00  0.0000E+00  0.0000E+00
     28.272  0.0000E+00  0.0000E+00  0.0000E+00  0.0000E+00  0.0000E+00  0.0000E+00  0.0000E+00  0.0000E+00  0.0000E+00
