real-time non-blocking time  (microseconds, -R) unlimited
core file size              (blocks, -c) unlimited
data seg size               (kbytes, -d) unlimited
scheduling priority                 (-e) 0
file size                   (blocks, -f) unlimited
pending signals                     (-i) 509966
max locked memory           (kbytes, -l) unlimited
max memory size             (kbytes, -m) 117440512
open files                          (-n) 1024
pipe size                (512 bytes, -p) 8
POSIX message queues         (bytes, -q) 819200
real-time priority                  (-r) 0
stack size                  (kbytes, -s) unlimited
cpu time                   (seconds, -t) unlimited
max user processes                  (-u) 125621
virtual memory              (kbytes, -v) unlimited
file locks                          (-x) unlimited
 running   28 mpi-ranks, with    1 threads/rank, on    1 nodes
 distrk:  each k-point on   28 cores,    1 groups
 distr:  one band on    7 cores,    4 groups
 vasp.6.5.1 10Mar25 (build Feb 13 2026 23:13:13) complex                        
  
 POSCAR found type information on POSCAR C N 
 POSCAR found :  2 types and     215 ions
 -----------------------------------------------------------------------------
|                                                                             |
|           W    W    AA    RRRRR   N    N  II  N    N   GGGG   !!!           |
|           W    W   A  A   R    R  NN   N  II  NN   N  G    G  !!!           |
|           W    W  A    A  R    R  N N  N  II  N N  N  G       !!!           |
|           W WW W  AAAAAA  RRRRR   N  N N  II  N  N N  G  GGG   !            |
|           WW  WW  A    A  R   R   N   NN  II  N   NN  G    G                |
|           W    W  A    A  R    R  N    N  II  N    N   GGGG   !!!           |
|                                                                             |
|     You requested a magnetic or noncollinear calculation, but did not       |
|     specify the initial magnetic moment with the MAGMOM tag. Note that      |
|     a default of 1 will be used for all atoms. This ferromagnetic setup     |
|     may break the symmetry of the crystal, in particular it may rule        |
|     out finding an antiferromagnetic solution. Thence, we recommend         |
|     setting the initial magnetic moment manually or verifying carefully     |
|     that this magnetic setup is desired.                                    |
|                                                                             |
 -----------------------------------------------------------------------------

 scaLAPACK will be used
 LDA part: xc-table for (Slater+PW92), standard interpolation
 POSCAR, INCAR and KPOINTS ok, starting setup
 FFT: planning ... GRIDC
 FFT: planning ... GRID_SOFT
 FFT: planning ... GRID
 WAVECAR not read
 entering main loop
       N       E                     dE             d eps       ncg     rms          rms(c)
DAV:   1     0.245418391830E+04    0.24542E+04   -0.44491E+05  2592   0.127E+03
DAV:   2    -0.171389432980E+04   -0.41681E+04   -0.39310E+04  3112   0.265E+02
DAV:   3    -0.193723531251E+04   -0.22334E+03   -0.22083E+03  3360   0.553E+01
DAV:   4    -0.194100617122E+04   -0.37709E+01   -0.37540E+01  3392   0.719E+00
DAV:   5    -0.194107806963E+04   -0.71898E-01   -0.71813E-01  3336   0.989E-01BRMIX: very serious problems
 the old and the new charge density differ
 old charge density:   861.00000 new  858.99987
    0.907E+01
DAV:   6    -0.192877845872E+04    0.12300E+02   -0.91265E+01  3112   0.107E+01    0.508E+01
DAV:   7    -0.196043168374E+04   -0.31653E+02   -0.58100E+01  2944   0.836E+00    0.239E+01
DAV:   8    -0.196571246924E+04   -0.52808E+01   -0.98514E+00  3064   0.380E+00    0.698E+00
DAV:   9    -0.196576578891E+04   -0.53320E-01   -0.37810E-01  3128   0.935E-01    0.363E+00
DAV:  10    -0.196574218801E+04    0.23601E-01   -0.22903E-01  3176   0.555E-01    0.792E-01
DAV:  11    -0.196574972645E+04   -0.75384E-02   -0.34035E-02  3144   0.277E-01    0.231E-01
DAV:  12    -0.196575111800E+04   -0.13916E-02   -0.56854E-03  3224   0.890E-02    0.129E-01
DAV:  13    -0.196575157614E+04   -0.45814E-03   -0.12070E-03  3288   0.475E-02    0.751E-02
DAV:  14    -0.196575185239E+04   -0.27625E-03   -0.33991E-04  3072   0.261E-02    0.384E-02
DAV:  15    -0.196575192430E+04   -0.71913E-04   -0.62374E-05  3008   0.115E-02    0.185E-02
DAV:  16    -0.196575194084E+04   -0.16539E-04   -0.14967E-05  3008   0.578E-03    0.739E-03
DAV:  17    -0.196575194309E+04   -0.22502E-05   -0.36307E-06  2536   0.275E-03    0.200E-03
DAV:  18    -0.196575194301E+04    0.82699E-07   -0.30353E-07  1560   0.761E-04
   1 F= -.19657519E+04 E0= -.19657519E+04  d E =-.196575E+04  mag=     1.0003
 curvature:   0.00 expect dE= 0.000E+00 dE for cont linesearch  0.000E+00
 trial: gam= 0.00000 g(F)=  0.344E+01 g(S)=  0.000E+00 ort = 0.000E+00 (trialstep = 0.100E+01)
 search vector abs. value=  0.344E+01
 bond charge predicted
       N       E                     dE             d eps       ncg     rms          rms(c)
DAV:   1    -0.196537320125E+04    0.37874E+00   -0.38255E+02  2648   0.232E+01    0.495E+00
DAV:   2    -0.196588944573E+04   -0.51624E+00   -0.75465E+00  3368   0.331E+00    0.254E+00
DAV:   3    -0.196584793317E+04    0.41513E-01   -0.28360E-01  3336   0.630E-01    0.151E+00
DAV:   4    -0.196582616054E+04    0.21773E-01   -0.68466E-02  3336   0.322E-01    0.594E-01
DAV:   5    -0.196582595839E+04    0.20215E-03   -0.16174E-02  3328   0.172E-01    0.239E-01
DAV:   6    -0.196582611699E+04   -0.15861E-03   -0.47961E-03  3272   0.740E-02    0.134E-01
DAV:   7    -0.196582607578E+04    0.41210E-04   -0.51859E-04  3256   0.295E-02    0.808E-02
DAV:   8    -0.196582607344E+04    0.23453E-05   -0.13071E-04  3320   0.134E-02    0.362E-02
DAV:   9    -0.196582607522E+04   -0.17786E-05   -0.26554E-05  3184   0.646E-03    0.129E-02
DAV:  10    -0.196582607526E+04   -0.44049E-07   -0.55119E-06  3040   0.318E-03
   2 F= -.19658261E+04 E0= -.19658261E+04  d E =-.741323E-01  mag=     1.0000
 trial-energy change:   -0.074132  1 .order   -0.099691   -3.435375    3.235993
 step:   0.5092(harm=  0.5149)  dis= 0.05055  next Energy= -1966.623212 (dE=-0.871E+00)
 bond charge predicted
       N       E                     dE             d eps       ncg     rms          rms(c)
DAV:   1    -0.196654049209E+04   -0.71442E+00   -0.94145E+01  2688   0.115E+01    0.191E+00
DAV:   2    -0.196664983559E+04   -0.10934E+00   -0.17408E+00  3400   0.158E+00    0.124E+00
DAV:   3    -0.196663724004E+04    0.12596E-01   -0.79247E-02  3296   0.326E-01    0.870E-01
DAV:   4    -0.196663293014E+04    0.43099E-02   -0.16412E-02  3336   0.149E-01    0.433E-01
DAV:   5    -0.196663265191E+04    0.27823E-03   -0.38926E-03  3360   0.890E-02    0.192E-01
DAV:   6    -0.196663274950E+04   -0.97586E-04   -0.11384E-03  3200   0.394E-02    0.764E-02
DAV:   7    -0.196663273732E+04    0.12176E-04   -0.21347E-04  3352   0.165E-02    0.345E-02
DAV:   8    -0.196663274238E+04   -0.50601E-05   -0.59922E-05  3184   0.838E-03    0.143E-02
DAV:   9    -0.196663274181E+04    0.56748E-06   -0.57245E-06  3048   0.317E-03
   3 F= -.19666327E+04 E0= -.19666327E+04  d E =-.880799E+00  mag=     1.0000
 curvature:  -0.26 expect dE=-0.161E+00 dE for cont linesearch -0.171E-04
 trial: gam= 0.18658 g(F)=  0.626E+00 g(S)=  0.000E+00 ort =-0.151E-01 (trialstep = 0.902E+00)
 search vector abs. value=  0.740E+00
 bond charge predicted
       N       E                     dE             d eps       ncg     rms          rms(c)
DAV:   1    -0.196673850044E+04   -0.10576E+00   -0.73441E+01  2656   0.979E+00    0.182E+00
DAV:   2    -0.196682515127E+04   -0.86651E-01   -0.12728E+00  3376   0.133E+00    0.108E+00
DAV:   3    -0.196681601337E+04    0.91379E-02   -0.50717E-02  3344   0.276E-01    0.551E-01
DAV:   4    -0.196681434418E+04    0.16692E-02   -0.13608E-02  3264   0.141E-01    0.261E-01
DAV:   5    -0.196681461078E+04   -0.26661E-03   -0.21969E-03  3264   0.629E-02    0.120E-01
DAV:   6    -0.196681465496E+04   -0.44175E-04   -0.67918E-04  3280   0.285E-02    0.730E-02
DAV:   7    -0.196681462493E+04    0.30030E-04   -0.13451E-04  3224   0.154E-02    0.493E-02
DAV:   8    -0.196681462084E+04    0.40896E-05   -0.50197E-05  3280   0.771E-03    0.229E-02
DAV:   9    -0.196681462188E+04   -0.10426E-05   -0.72842E-06  2504   0.290E-03    0.891E-03
DAV:  10    -0.196681462149E+04    0.38880E-06   -0.13745E-06  2176   0.173E-03
   4 F= -.19668146E+04 E0= -.19668146E+04  d E =-.181880E+00  mag=     1.0000
 trial-energy change:   -0.181880  1 .order   -0.176224   -0.561877    0.209428
 step:   0.6647(harm=  0.6570)  dis= 0.03209  next Energy= -1966.842058 (dE=-0.209E+00)
 bond charge predicted
       N       E                     dE             d eps       ncg     rms          rms(c)
DAV:   1    -0.196683657493E+04   -0.21953E-01   -0.51198E+00  2656   0.259E+00    0.451E-01
DAV:   2    -0.196684262765E+04   -0.60527E-02   -0.90165E-02  3376   0.354E-01    0.294E-01
DAV:   3    -0.196684200048E+04    0.62717E-03   -0.37425E-03  3328   0.725E-02    0.179E-01
DAV:   4    -0.196684190286E+04    0.97621E-04   -0.76151E-04  3312   0.323E-02    0.964E-02
DAV:   5    -0.196684190545E+04   -0.25874E-05   -0.12540E-04  3336   0.167E-02    0.411E-02
DAV:   6    -0.196684191662E+04   -0.11166E-04   -0.52952E-05  3248   0.772E-03    0.166E-02
DAV:   7    -0.196684191440E+04    0.22130E-05   -0.72809E-06  2968   0.395E-03    0.823E-03
DAV:   8    -0.196684191450E+04   -0.10009E-06   -0.35948E-06  2408   0.205E-03
   5 F= -.19668419E+04 E0= -.19668419E+04  d E =-.209173E+00  mag=     1.0000
 curvature:  -0.39 expect dE=-0.668E-01 dE for cont linesearch -0.211E-05
 trial: gam= 0.24863 g(F)=  0.172E+00 g(S)=  0.000E+00 ort = 0.200E-02 (trialstep = 0.854E+00)
 search vector abs. value=  0.218E+00
 bond charge predicted
       N       E                     dE             d eps       ncg     rms          rms(c)
DAV:   1    -0.196686020658E+04   -0.18292E-01   -0.16692E+01  2656   0.518E+00    0.789E-01
DAV:   2    -0.196687887697E+04   -0.18670E-01   -0.26656E-01  3352   0.623E-01    0.457E-01
DAV:   3    -0.196687775956E+04    0.11174E-02   -0.81185E-03  3368   0.121E-01    0.249E-01
DAV:   4    -0.196687756751E+04    0.19205E-03   -0.18177E-03  3312   0.552E-02    0.107E-01
DAV:   5    -0.196687758953E+04   -0.22018E-04   -0.29254E-04  3304   0.236E-02    0.496E-02
DAV:   6    -0.196687760351E+04   -0.13983E-04   -0.59146E-05  3248   0.928E-03    0.201E-02
DAV:   7    -0.196687760061E+04    0.28956E-05   -0.13641E-05  3296   0.573E-03    0.102E-02
DAV:   8    -0.196687760132E+04   -0.70216E-06   -0.58383E-06  2656   0.285E-03
   6 F= -.19668776E+04 E0= -.19668776E+04  d E =-.356868E-01  mag=     1.0000
 trial-energy change:   -0.035687  1 .order   -0.034821   -0.146997    0.077356
 step:   0.5642(harm=  0.5598)  dis= 0.01031  next Energy= -1966.890702 (dE=-0.488E-01)
 bond charge predicted
       N       E                     dE             d eps       ncg     rms          rms(c)
DAV:   1    -0.196688882859E+04   -0.11228E-01   -0.19253E+00  2656   0.176E+00    0.279E-01
DAV:   2    -0.196689100196E+04   -0.21734E-02   -0.31186E-02  3344   0.212E-01    0.157E-01
DAV:   3    -0.196689087471E+04    0.12725E-03   -0.93505E-04  3368   0.407E-02    0.903E-02
DAV:   4    -0.196689084360E+04    0.31114E-04   -0.20153E-04  3328   0.184E-02    0.394E-02
DAV:   5    -0.196689084569E+04   -0.20961E-05   -0.37444E-05  3296   0.839E-03    0.174E-02
DAV:   6    -0.196689084735E+04   -0.16581E-05   -0.74748E-06  2976   0.330E-03    0.681E-03
DAV:   7    -0.196689084698E+04    0.37412E-06   -0.15494E-06  2176   0.198E-03
   7 F= -.19668908E+04 E0= -.19668908E+04  d E =-.489325E-01  mag=     1.0000
 curvature:  -0.36 expect dE=-0.148E-01 dE for cont linesearch -0.355E-07
 trial: gam= 0.24678 g(F)=  0.416E-01 g(S)=  0.000E+00 ort = 0.148E-03 (trialstep = 0.796E+00)
 search vector abs. value=  0.550E-01
 bond charge predicted
       N       E                     dE             d eps       ncg     rms          rms(c)
DAV:   1    -0.196690241476E+04   -0.11567E-01   -0.35717E+00  2640   0.248E+00    0.376E-01
DAV:   2    -0.196690648941E+04   -0.40747E-02   -0.62987E-02  3408   0.307E-01    0.230E-01
DAV:   3    -0.196690600598E+04    0.48344E-03   -0.22675E-03  3392   0.662E-02    0.114E-01
DAV:   4    -0.196690596193E+04    0.44044E-04   -0.52372E-04  3368   0.303E-02    0.464E-02
DAV:   5    -0.196690597149E+04   -0.95608E-05   -0.82973E-05  3200   0.116E-02    0.205E-02
DAV:   6    -0.196690597259E+04   -0.10936E-05   -0.14293E-05  3248   0.482E-03    0.110E-02
DAV:   7    -0.196690597225E+04    0.33801E-06   -0.27798E-06  2360   0.236E-03
   8 F= -.19669060E+04 E0= -.19669060E+04  d E =-.151253E-01  mag=     1.0000
 trial-energy change:   -0.015125  1 .order   -0.015207   -0.033155    0.002741
 step:   0.7348(harm=  0.7356)  dis= 0.00495  next Energy= -1966.906078 (dE=-0.152E-01)
 bond charge predicted
       N       E                     dE             d eps       ncg     rms          rms(c)
DAV:   1    -0.196690605815E+04   -0.85567E-04   -0.21347E-02  2672   0.191E-01    0.288E-02
DAV:   2    -0.196690608040E+04   -0.22247E-04   -0.37113E-04  3408   0.236E-02    0.179E-02
DAV:   3    -0.196690607708E+04    0.33226E-05   -0.13695E-05  3392   0.518E-03    0.867E-03
DAV:   4    -0.196690607672E+04    0.35261E-06   -0.30997E-06  2528   0.231E-03
   9 F= -.19669061E+04 E0= -.19669061E+04  d E =-.152297E-01  mag=     1.0000
 curvature:  -0.49 expect dE=-0.826E-02 dE for cont linesearch -0.452E-08
 trial: gam= 0.40178 g(F)=  0.170E-01 g(S)=  0.000E+00 ort =-0.226E-04 (trialstep = 0.784E+00)
 search vector abs. value=  0.259E-01
 bond charge predicted
       N       E                     dE             d eps       ncg     rms          rms(c)
DAV:   1    -0.196691125634E+04   -0.51793E-02   -0.15879E+00  2624   0.167E+00    0.234E-01
DAV:   2    -0.196691294911E+04   -0.16928E-02   -0.25622E-02  3416   0.194E-01    0.149E-01
DAV:   3    -0.196691270071E+04    0.24840E-03   -0.78170E-04  3368   0.444E-02    0.656E-02
DAV:   4    -0.196691269895E+04    0.17652E-05   -0.28823E-04  3264   0.212E-02    0.258E-02
DAV:   5    -0.196691270142E+04   -0.24718E-05   -0.26929E-05  3280   0.660E-03    0.138E-02
DAV:   6    -0.196691270126E+04    0.16487E-06   -0.49938E-06  3128   0.332E-03
  10 F= -.19669127E+04 E0= -.19669127E+04  d E =-.662453E-02  mag=     1.0000
 trial-energy change:   -0.006625  1 .order   -0.006666   -0.013333    0.000001
 step:   0.7840(harm=  0.7840)  dis= 0.00334  next Energy= -1966.912701 (dE=-0.662E-02)
 bond charge predicted
       N       E                     dE             d eps       ncg     rms          rms(c)
DAV:   1    -0.196691270125E+04    0.17100E-06   -0.11947E-06  1880   0.158E-03    0.260E-03
DAV:   2    -0.196691270123E+04    0.20911E-07   -0.39034E-07  1648   0.795E-04
  11 F= -.19669127E+04 E0= -.19669127E+04  d E =-.662450E-02  mag=     1.0000
 curvature:  -0.60 expect dE=-0.536E-02 dE for cont linesearch -0.127E-08
 trial: gam= 0.52803 g(F)=  0.900E-02 g(S)=  0.000E+00 ort = 0.741E-05 (trialstep = 0.784E+00)
 search vector abs. value=  0.162E-01
 bond charge predicted
       N       E                     dE             d eps       ncg     rms          rms(c)
DAV:   1    -0.196691501733E+04   -0.23161E-02   -0.99072E-01  2624   0.132E+00    0.192E-01
DAV:   2    -0.196691599657E+04   -0.97924E-03   -0.15710E-02  3408   0.153E-01    0.120E-01
DAV:   3    -0.196691586570E+04    0.13087E-03   -0.57952E-04  3384   0.341E-02    0.590E-02
DAV:   4    -0.196691585426E+04    0.11431E-04   -0.16923E-04  3384   0.171E-02    0.224E-02
DAV:   5    -0.196691585429E+04   -0.24884E-07   -0.27499E-05  3328   0.723E-03    0.108E-02
DAV:   6    -0.196691585434E+04   -0.55195E-07   -0.58833E-06  3128   0.308E-03
  12 F= -.19669159E+04 E0= -.19669159E+04  d E =-.315312E-02  mag=     1.0000
 trial-energy change:   -0.003153  1 .order   -0.003157   -0.007056    0.000742
 step:   0.7094(harm=  0.7094)  dis= 0.00224  next Energy= -1966.915893 (dE=-0.319E-02)
 bond charge predicted
       N       E                     dE             d eps       ncg     rms          rms(c)
DAV:   1    -0.196691588249E+04   -0.28201E-04   -0.89618E-03  2656   0.125E-01    0.177E-02
DAV:   2    -0.196691588999E+04   -0.75008E-05   -0.13822E-04  3408   0.143E-02    0.113E-02
DAV:   3    -0.196691588852E+04    0.14707E-05   -0.52319E-06  3352   0.327E-03    0.536E-03
DAV:   4    -0.196691588837E+04    0.15109E-06   -0.15116E-06  1872   0.161E-03
  13 F= -.19669159E+04 E0= -.19669159E+04  d E =-.318714E-02  mag=     1.0000
 curvature:  -0.64 expect dE=-0.293E-02 dE for cont linesearch -0.445E-07
 trial: gam= 0.48779 g(F)=  0.458E-02 g(S)=  0.000E+00 ort = 0.336E-04 (trialstep = 0.769E+00)
 search vector abs. value=  0.847E-02
 bond charge predicted
       N       E                     dE             d eps       ncg     rms          rms(c)
DAV:   1    -0.196691765698E+04   -0.17685E-02   -0.49440E-01  2632   0.925E-01    0.129E-01
DAV:   2    -0.196691811297E+04   -0.45599E-03   -0.72196E-03  3392   0.101E-01    0.830E-02
DAV:   3    -0.196691803725E+04    0.75728E-04   -0.22692E-04  3352   0.226E-02    0.336E-02
DAV:   4    -0.196691803631E+04    0.93908E-06   -0.62286E-05  3336   0.987E-03    0.124E-02
DAV:   5    -0.196691803662E+04   -0.31409E-06   -0.53296E-06  2904   0.319E-03
  14 F= -.19669180E+04 E0= -.19669180E+04  d E =-.214825E-02  mag=     1.0000
 trial-energy change:   -0.002148  1 .order   -0.002141   -0.003536   -0.000745
 step:   0.9703(harm=  0.9744)  dis= 0.00261  next Energy= -1966.918134 (dE=-0.225E-02)
 bond charge predicted
       N       E                     dE             d eps       ncg     rms          rms(c)
DAV:   1    -0.196691811076E+04   -0.74457E-04   -0.33878E-02  2640   0.242E-01    0.344E-02
DAV:   2    -0.196691814450E+04   -0.33737E-04   -0.50111E-04  3392   0.267E-02    0.220E-02
DAV:   3    -0.196691813983E+04    0.46655E-05   -0.14898E-05  3344   0.579E-03    0.925E-03
DAV:   4    -0.196691813977E+04    0.60667E-07   -0.41000E-06  2680   0.257E-03
  15 F= -.19669181E+04 E0= -.19669181E+04  d E =-.225140E-02  mag=     1.0000
 curvature:  -0.90 expect dE=-0.305E-02 dE for cont linesearch -0.513E-07
 trial: gam= 0.73516 g(F)=  0.339E-02 g(S)=  0.000E+00 ort = 0.220E-04 (trialstep = 0.809E+00)
 search vector abs. value=  0.801E-02
 bond charge predicted
       N       E                     dE             d eps       ncg     rms          rms(c)
DAV:   1    -0.196691924287E+04   -0.11030E-02   -0.51554E-01  2624   0.946E-01    0.132E-01
DAV:   2    -0.196691969199E+04   -0.44913E-03   -0.72948E-03  3400   0.101E-01    0.851E-02
DAV:   3    -0.196691961382E+04    0.78173E-04   -0.22791E-04  3336   0.226E-02    0.333E-02
DAV:   4    -0.196691961428E+04   -0.45751E-06   -0.63157E-05  3288   0.966E-03    0.121E-02
DAV:   5    -0.196691961430E+04   -0.22366E-07   -0.45006E-06  2872   0.320E-03
  16 F= -.19669196E+04 E0= -.19669196E+04  d E =-.147453E-02  mag=     1.0000
 trial-energy change:   -0.001475  1 .order   -0.001463   -0.002760   -0.000167
 step:   0.8602(harm=  0.8616)  dis= 0.00218  next Energy= -1966.919620 (dE=-0.148E-02)
 bond charge predicted
       N       E                     dE             d eps       ncg     rms          rms(c)
DAV:   1    -0.196691961856E+04   -0.42802E-05   -0.20436E-03  2688   0.596E-02    0.881E-03
DAV:   2    -0.196691962084E+04   -0.22871E-05   -0.30610E-05  3400   0.655E-03    0.567E-03
DAV:   3    -0.196691962062E+04    0.22662E-06   -0.68970E-07  2112   0.135E-03
  17 F= -.19669196E+04 E0= -.19669196E+04  d E =-.148084E-02  mag=     1.0000
 curvature:  -1.01 expect dE=-0.205E-02 dE for cont linesearch -0.120E-06
 trial: gam= 0.55348 g(F)=  0.203E-02 g(S)=  0.000E+00 ort = 0.308E-04 (trialstep = 0.820E+00)
 search vector abs. value=  0.452E-02
 bond charge predicted
       N       E                     dE             d eps       ncg     rms          rms(c)
DAV:   1    -0.196692037654E+04   -0.75569E-03   -0.29254E-01  2608   0.718E-01    0.999E-02
DAV:   2    -0.196692060601E+04   -0.22948E-03   -0.39237E-03  3376   0.753E-02    0.629E-02
DAV:   3    -0.196692057587E+04    0.30143E-04   -0.15850E-04  3328   0.170E-02    0.293E-02
DAV:   4    -0.196692057428E+04    0.15892E-05   -0.36637E-05  3384   0.766E-03    0.114E-02
DAV:   5    -0.196692057425E+04    0.30806E-07   -0.67661E-06  2968   0.343E-03
  18 F= -.19669206E+04 E0= -.19669206E+04  d E =-.953633E-03  mag=     1.0000
 trial-energy change:   -0.000954  1 .order   -0.000948   -0.001679   -0.000217
 step:   0.9379(harm=  0.9411)  dis= 0.00201  next Energy= -1966.920590 (dE=-0.969E-03)
 bond charge predicted
       N       E                     dE             d eps       ncg     rms          rms(c)
DAV:   1    -0.196692058798E+04   -0.13694E-04   -0.61306E-03  2640   0.104E-01    0.151E-02
DAV:   2    -0.196692059368E+04   -0.57072E-05   -0.83545E-05  3368   0.109E-02    0.949E-03
DAV:   3    -0.196692059314E+04    0.54701E-06   -0.29311E-06  2872   0.244E-03
  19 F= -.19669206E+04 E0= -.19669206E+04  d E =-.972518E-03  mag=     1.0000
 curvature:  -1.04 expect dE=-0.125E-02 dE for cont linesearch -0.155E-06
 trial: gam= 0.57834 g(F)=  0.120E-02 g(S)=  0.000E+00 ort = 0.260E-04 (trialstep = 0.843E+00)
 search vector abs. value=  0.275E-02
 bond charge predicted
       N       E                     dE             d eps       ncg     rms          rms(c)
DAV:   1    -0.196692075372E+04   -0.16004E-03   -0.19698E-01  2624   0.586E-01    0.838E-02
DAV:   2    -0.196692094173E+04   -0.18801E-03   -0.30526E-03  3392   0.670E-02    0.536E-02
DAV:   3    -0.196692091162E+04    0.30105E-04   -0.11286E-04  3360   0.156E-02    0.228E-02
DAV:   4    -0.196692091072E+04    0.89999E-06   -0.31859E-05  3344   0.722E-03    0.102E-02
DAV:   5    -0.196692091108E+04   -0.35216E-06   -0.38518E-06  2704   0.255E-03
  20 F= -.19669209E+04 E0= -.19669209E+04  d E =-.317939E-03  mag=     1.0000
 trial-energy change:   -0.000318  1 .order   -0.000346   -0.001028    0.000335
 step:   0.6150(harm=  0.6358)  dis= 0.00087  next Energy= -1966.920957 (dE=-0.364E-03)
 bond charge predicted
       N       E                     dE             d eps       ncg     rms          rms(c)
DAV:   1    -0.196692094357E+04   -0.32852E-04   -0.14408E-02  2656   0.158E-01    0.223E-02
DAV:   2    -0.196692095596E+04   -0.12390E-04   -0.22219E-04  3392   0.182E-02    0.145E-02
DAV:   3    -0.196692095356E+04    0.24007E-05   -0.90443E-06  3344   0.432E-03    0.625E-03
DAV:   4    -0.196692095346E+04    0.99928E-07   -0.23436E-06  2288   0.199E-03
  21 F= -.19669210E+04 E0= -.19669210E+04  d E =-.360328E-03  mag=     1.0000
 curvature:  -0.71 expect dE=-0.608E-03 dE for cont linesearch -0.936E-08
 trial: gam= 0.57890 g(F)=  0.858E-03 g(S)=  0.000E+00 ort = 0.602E-05 (trialstep = 0.798E+00)
 search vector abs. value=  0.179E-02
 bond charge predicted
       N       E                     dE             d eps       ncg     rms          rms(c)
DAV:   1    -0.196692079994E+04    0.15362E-03   -0.11713E-01  2672   0.451E-01    0.671E-02
DAV:   2    -0.196692092732E+04   -0.12738E-03   -0.21081E-03  3408   0.559E-02    0.429E-02
DAV:   3    -0.196692090813E+04    0.19191E-04   -0.76054E-05  3360   0.126E-02    0.215E-02
DAV:   4    -0.196692090578E+04    0.23506E-05   -0.24329E-05  3344   0.651E-03    0.772E-03
DAV:   5    -0.196692090576E+04    0.16647E-07   -0.38610E-06  2568   0.259E-03
  22 F= -.19669209E+04 E0= -.19669209E+04  d E =0.476998E-04  mag=     1.0000
 trial-energy change:    0.000048  1 .order    0.000020   -0.000687    0.000728
 step:   0.3644(harm=  0.3873)  dis= 0.00048  next Energy= -1966.921108 (dE=-0.154E-03)
 bond charge predicted
       N       E                     dE             d eps       ncg     rms          rms(c)
DAV:   1    -0.196692108534E+04   -0.17956E-03   -0.34508E-02  2672   0.245E-01    0.360E-02
DAV:   2    -0.196692112163E+04   -0.36285E-04   -0.61653E-04  3408   0.302E-02    0.232E-02
DAV:   3    -0.196692111601E+04    0.56185E-05   -0.22542E-05  3368   0.684E-03    0.116E-02
DAV:   4    -0.196692111531E+04    0.70073E-06   -0.72579E-06  3272   0.356E-03
  23 F= -.19669211E+04 E0= -.19669211E+04  d E =-.161844E-03  mag=     1.0000
 curvature:  -0.40 expect dE=-0.882E-04 dE for cont linesearch -0.197E-06
 trial: gam= 0.19625 g(F)=  0.220E-03 g(S)=  0.000E+00 ort = 0.296E-04 (trialstep = 0.711E+00)
 search vector abs. value=  0.301E-03
 bond charge predicted
       N       E                     dE             d eps       ncg     rms          rms(c)
DAV:   1    -0.196692111814E+04   -0.21267E-05   -0.15225E-02  2672   0.165E-01    0.237E-02
DAV:   2    -0.196692113824E+04   -0.20108E-04   -0.28275E-04  3360   0.207E-02    0.150E-02
DAV:   3    -0.196692113575E+04    0.24898E-05   -0.73922E-06  3392   0.431E-03    0.780E-03
DAV:   4    -0.196692113537E+04    0.38567E-06   -0.33525E-06  2768   0.263E-03
  24 F= -.19669211E+04 E0= -.19669211E+04  d E =-.200598E-04  mag=     1.0000
 trial-energy change:   -0.000020  1 .order   -0.000020   -0.000161    0.000121
 step:   0.4050(harm=  0.4050)  dis= 0.00023  next Energy= -1966.921161 (dE=-0.458E-04)
 bond charge predicted
       N       E                     dE             d eps       ncg     rms          rms(c)
DAV:   1    -0.196692115691E+04   -0.21154E-04   -0.28074E-03  2672   0.708E-02    0.980E-03
DAV:   2    -0.196692116051E+04   -0.36053E-05   -0.52406E-05  3360   0.892E-03    0.640E-03
DAV:   3    -0.196692116003E+04    0.48628E-06   -0.12743E-06  2488   0.190E-03
  25 F= -.19669212E+04 E0= -.19669212E+04  d E =-.447190E-04  mag=     1.0000
 curvature:  -0.27 expect dE=-0.430E-04 dE for cont linesearch -0.372E-08
 trial: gam= 0.65177 g(F)=  0.160E-03 g(S)=  0.000E+00 ort =-0.204E-05 (trialstep = 0.650E+00)
 search vector abs. value=  0.285E-03
 bond charge predicted
       N       E                     dE             d eps       ncg     rms          rms(c)
DAV:   1    -0.196692105600E+04    0.10451E-03   -0.12658E-02  2672   0.147E-01    0.225E-02
DAV:   2    -0.196692107319E+04   -0.17188E-04   -0.25549E-04  3392   0.193E-02    0.147E-02
DAV:   3    -0.196692107010E+04    0.30937E-05   -0.77592E-06  3376   0.441E-03    0.692E-03
DAV:   4    -0.196692106982E+04    0.27817E-06   -0.31032E-06  2464   0.229E-03
  26 F= -.19669211E+04 E0= -.19669211E+04  d E =0.902077E-04  mag=     1.0000
 trial-energy change:    0.000090  1 .order    0.000058   -0.000103    0.000220
 step:   0.1416(harm=  0.2072)  dis= 0.00015  next Energy= -1966.921171 (dE=-0.109E-04)
 bond charge predicted
       N       E                     dE             d eps       ncg     rms          rms(c)
DAV:   1    -0.196692116009E+04   -0.89990E-04   -0.77222E-03  2672   0.115E-01    0.175E-02
DAV:   2    -0.196692117016E+04   -0.10070E-04   -0.15436E-04  3392   0.150E-02    0.115E-02
DAV:   3    -0.196692116821E+04    0.19475E-05   -0.49313E-06  3304   0.351E-03    0.528E-03
DAV:   4    -0.196692116807E+04    0.13987E-06   -0.19168E-06  2088   0.178E-03
  27 F= -.19669212E+04 E0= -.19669212E+04  d E =-.804341E-05  mag=     1.0000
 curvature:  -0.18 expect dE=-0.130E-04 dE for cont linesearch -0.132E-05
 ZBRENT: interpolating
 opt :   0.1101  next Energy= -1966.921169 (dE=-0.876E-05)
 bond charge predicted
       N       E                     dE             d eps       ncg     rms          rms(c)
DAV:   1    -0.196692116890E+04   -0.69221E-06   -0.30068E-05  2736   0.717E-03    0.171E-03
DAV:   2    -0.196692116896E+04   -0.54075E-07   -0.56785E-07  2056   0.957E-04
  28 F= -.19669212E+04 E0= -.19669212E+04  d E =-.892956E-05  mag=     1.0000
 curvature:  -0.10 expect dE=-0.457E-05 dE for cont linesearch -0.123E-06
 ZBRENT: interpolating
 opt :   0.0901  next Energy= -1966.921169 (dE=-0.914E-05)
 bond charge predicted
       N       E                     dE             d eps       ncg     rms          rms(c)
DAV:   1    -0.196692116915E+04   -0.24910E-06   -0.11940E-05  2656   0.452E-03    0.108E-03
DAV:   2    -0.196692116917E+04   -0.19005E-07   -0.25024E-07  1520   0.631E-04
  29 F= -.19669212E+04 E0= -.19669212E+04  d E =-.914359E-05  mag=     1.0000
 curvature:  -0.17 expect dE=-0.541E-05 dE for cont linesearch -0.510E-07
 trial: gam= 0.14568 g(F)=  0.323E-04 g(S)=  0.000E+00 ort = 0.932E-05 (trialstep = 0.538E+00)
 search vector abs. value=  0.411E-04
 reached required accuracy - stopping structural energy minimisation
