   2   2   0   0
  0.5639752E+01  0.2517300E-09  0.2517300E-09  0.2517300E-09  0.5000000E-15
  1.000000000000000E-004
  CAR 
 unknown system                          
     28.69925332    -13.74303175  301     10.59082134      1.00000000
    -13.743  0.0000E+00  0.0000E+00
    -13.602  0.0000E+00  0.0000E+00
    -13.460  0.0000E+00  0.0000E+00
    -13.319  0.0000E+00  0.0000E+00
    -13.177  0.0000E+00  0.0000E+00
    -13.036  0.0000E+00  0.0000E+00
    -12.894  0.3139E-17  0.4441E-18
    -12.753  0.6617E-14  0.9366E-15
    -12.611  0.5858E-11  0.8297E-12
    -12.470  0.1949E-08  0.2766E-09
    -12.328  0.2453E-06  0.3498E-07
    -12.187  0.1180E-04  0.1704E-05
    -12.045  0.2204E-03  0.3289E-04
    -11.904  0.1690E-02  0.2719E-03
    -11.762  0.6647E-02  0.1212E-02
    -11.621  0.2155E-01  0.4262E-02
    -11.479  0.5486E-01  0.1202E-01
    -11.338  0.7368E-01  0.2245E-01
    -11.196  0.5606E-01  0.3038E-01
    -11.055  0.6079E-01  0.3898E-01
    -10.914  0.9700E-01  0.5270E-01
    -10.772  0.1483E+00  0.7367E-01
    -10.631  0.1755E+00  0.9850E-01
    -10.489  0.1109E+00  0.1142E+00
    -10.348  0.5066E-01  0.1214E+00
    -10.206  0.6298E-01  0.1303E+00
    -10.065  0.1448E+00  0.1508E+00
     -9.923  0.2457E+00  0.1855E+00
     -9.782  0.2167E+00  0.2162E+00
     -9.640  0.1447E+00  0.2367E+00
     -9.499  0.1623E+00  0.2596E+00
     -9.357  0.1948E+00  0.2872E+00
     -9.216  0.2008E+00  0.3156E+00
     -9.074  0.1289E+00  0.3338E+00
     -8.933  0.6793E-01  0.3434E+00
     -8.791  0.1037E+00  0.3581E+00
     -8.650  0.2340E+00  0.3912E+00
     -8.508  0.4002E+00  0.4478E+00
     -8.367  0.3542E+00  0.4979E+00
     -8.226  0.1908E+00  0.5249E+00
     -8.084  0.1690E+00  0.5488E+00
     -7.943  0.2189E+00  0.5798E+00
     -7.801  0.2662E+00  0.6174E+00
     -7.660  0.2226E+00  0.6489E+00
     -7.518  0.1188E+00  0.6657E+00
     -7.377  0.1019E+00  0.6802E+00
     -7.235  0.2223E+00  0.7116E+00
     -7.094  0.3802E+00  0.7654E+00
     -6.952  0.3523E+00  0.8152E+00
     -6.811  0.3120E+00  0.8594E+00
     -6.669  0.3904E+00  0.9146E+00
     -6.528  0.4461E+00  0.9777E+00
     -6.386  0.3818E+00  0.1032E+01
     -6.245  0.1937E+00  0.1059E+01
     -6.103  0.1398E+00  0.1079E+01
     -5.962  0.2670E+00  0.1117E+01
     -5.820  0.3264E+00  0.1163E+01
     -5.679  0.2700E+00  0.1201E+01
     -5.538  0.2771E+00  0.1240E+01
     -5.396  0.4671E+00  0.1306E+01
     -5.255  0.6525E+00  0.1399E+01
     -5.113  0.4741E+00  0.1466E+01
     -4.972  0.1925E+00  0.1493E+01
     -4.830  0.1977E+00  0.1521E+01
     -4.689  0.3593E+00  0.1572E+01
     -4.547  0.3585E+00  0.1623E+01
     -4.406  0.2377E+00  0.1656E+01
     -4.264  0.1501E+00  0.1677E+01
     -4.123  0.1494E+00  0.1699E+01
     -3.981  0.2916E+00  0.1740E+01
     -3.840  0.3747E+00  0.1793E+01
     -3.698  0.2907E+00  0.1834E+01
     -3.557  0.2413E+00  0.1868E+01
     -3.415  0.2285E+00  0.1900E+01
     -3.274  0.1828E+00  0.1926E+01
     -3.132  0.2041E+00  0.1955E+01
     -2.991  0.3343E+00  0.2002E+01
     -2.850  0.3696E+00  0.2055E+01
     -2.708  0.2637E+00  0.2092E+01
     -2.567  0.1901E+00  0.2119E+01
     -2.425  0.3038E+00  0.2162E+01
     -2.284  0.4364E+00  0.2224E+01
     -2.142  0.3376E+00  0.2271E+01
     -2.001  0.3087E+00  0.2315E+01
     -1.859  0.4833E+00  0.2383E+01
     -1.718  0.5099E+00  0.2456E+01
     -1.576  0.4236E+00  0.2515E+01
     -1.435  0.4520E+00  0.2579E+01
     -1.293  0.6455E+00  0.2671E+01
     -1.152  0.7859E+00  0.2782E+01
     -1.010  0.6139E+00  0.2869E+01
     -0.869  0.2790E+00  0.2908E+01
     -0.727  0.8648E-01  0.2920E+01
     -0.586  0.1489E+00  0.2942E+01
     -0.444  0.3706E+00  0.2994E+01
     -0.303  0.4117E+00  0.3052E+01
     -0.162  0.2079E+00  0.3082E+01
     -0.020  0.1099E+00  0.3097E+01
      0.121  0.2095E+00  0.3127E+01
      0.263  0.4008E+00  0.3184E+01
      0.404  0.5637E+00  0.3263E+01
      0.546  0.5012E+00  0.3334E+01
      0.687  0.2880E+00  0.3375E+01
      0.829  0.2077E+00  0.3404E+01
      0.970  0.3827E+00  0.3458E+01
      1.112  0.5815E+00  0.3541E+01
      1.253  0.5390E+00  0.3617E+01
      1.395  0.4947E+00  0.3687E+01
      1.536  0.5360E+00  0.3763E+01
      1.678  0.4805E+00  0.3831E+01
      1.819  0.4957E+00  0.3901E+01
      1.961  0.6005E+00  0.3986E+01
      2.102  0.5326E+00  0.4061E+01
      2.244  0.4263E+00  0.4122E+01
      2.385  0.4608E+00  0.4187E+01
      2.527  0.4680E+00  0.4253E+01
      2.668  0.5729E+00  0.4334E+01
      2.809  0.7737E+00  0.4443E+01
      2.951  0.7160E+00  0.4545E+01
      3.092  0.6137E+00  0.4632E+01
      3.234  0.6295E+00  0.4721E+01
      3.375  0.7284E+00  0.4824E+01
      3.517  0.7117E+00  0.4924E+01
      3.658  0.5623E+00  0.5004E+01
      3.800  0.6649E+00  0.5098E+01
      3.941  0.8445E+00  0.5217E+01
      4.083  0.7537E+00  0.5324E+01
      4.224  0.5291E+00  0.5399E+01
      4.366  0.7029E+00  0.5498E+01
      4.507  0.1125E+01  0.5658E+01
      4.649  0.1127E+01  0.5817E+01
      4.790  0.8903E+00  0.5943E+01
      4.932  0.7328E+00  0.6047E+01
      5.073  0.6214E+00  0.6135E+01
      5.215  0.4271E+00  0.6195E+01
      5.356  0.3762E+00  0.6248E+01
      5.497  0.5159E+00  0.6321E+01
      5.639  0.5881E+00  0.6404E+01
      5.780  0.7053E+00  0.6504E+01
      5.922  0.8729E+00  0.6628E+01
      6.063  0.9760E+00  0.6766E+01
      6.205  0.8523E+00  0.6886E+01
      6.346  0.5692E+00  0.6967E+01
      6.488  0.5063E+00  0.7038E+01
      6.629  0.5362E+00  0.7114E+01
      6.771  0.6107E+00  0.7201E+01
      6.912  0.7541E+00  0.7307E+01
      7.054  0.6894E+00  0.7405E+01
      7.195  0.4028E+00  0.7462E+01
      7.337  0.1945E+00  0.7489E+01
      7.478  0.2524E+00  0.7525E+01
      7.620  0.4837E+00  0.7594E+01
      7.761  0.5411E+00  0.7670E+01
      7.903  0.3789E+00  0.7724E+01
      8.044  0.2117E+00  0.7754E+01
      8.185  0.1116E+00  0.7769E+01
      8.327  0.1317E+00  0.7788E+01
      8.468  0.2985E+00  0.7830E+01
      8.610  0.3878E+00  0.7885E+01
      8.751  0.2328E+00  0.7918E+01
      8.893  0.8149E-01  0.7930E+01
      9.034  0.4336E-01  0.7936E+01
      9.176  0.5700E-01  0.7944E+01
      9.317  0.1235E+00  0.7961E+01
      9.459  0.1459E+00  0.7982E+01
      9.600  0.7335E-01  0.7992E+01
      9.742  0.2421E-01  0.7996E+01
      9.883  0.1729E-01  0.7998E+01
     10.025  0.1004E-01  0.8000E+01
     10.166  0.2446E-02  0.8000E+01
     10.308  0.2350E-03  0.8000E+01
     10.449  0.8772E-05  0.8000E+01
     10.591  0.1257E-06  0.8000E+01
     10.732  0.6848E-09  0.8000E+01
     10.873  0.1407E-11  0.8000E+01
     11.015  0.1083E-14  0.8000E+01
     11.156  0.0000E+00  0.8000E+01
     11.298  0.0000E+00  0.8000E+01
     11.439  0.0000E+00  0.8000E+01
     11.581  0.0000E+00  0.8000E+01
     11.722  0.0000E+00  0.8000E+01
     11.864  0.0000E+00  0.8000E+01
     12.005  0.0000E+00  0.8000E+01
     12.147  0.0000E+00  0.8000E+01
     12.288  0.0000E+00  0.8000E+01
     12.430  0.0000E+00  0.8000E+01
     12.571  0.0000E+00  0.8000E+01
     12.713  0.0000E+00  0.8000E+01
     12.854  0.3767E-16  0.8000E+01
     12.996  0.8105E-13  0.8000E+01
     13.137  0.6656E-10  0.8000E+01
     13.279  0.2075E-07  0.8000E+01
     13.420  0.2482E-05  0.8000E+01
     13.562  0.1156E-03  0.8000E+01
     13.703  0.2134E-02  0.8000E+01
     13.844  0.1591E-01  0.8003E+01
     13.986  0.4872E-01  0.8009E+01
     14.127  0.6229E-01  0.8018E+01
     14.269  0.3902E-01  0.8024E+01
     14.410  0.6115E-01  0.8032E+01
     14.552  0.2012E+00  0.8061E+01
     14.693  0.3218E+00  0.8106E+01
     14.835  0.2568E+00  0.8143E+01
     14.976  0.1952E+00  0.8170E+01
     15.118  0.2073E+00  0.8200E+01
     15.259  0.2379E+00  0.8233E+01
     15.401  0.3677E+00  0.8285E+01
     15.542  0.4923E+00  0.8355E+01
     15.684  0.3956E+00  0.8411E+01
     15.825  0.3505E+00  0.8461E+01
     15.967  0.6170E+00  0.8548E+01
     16.108  0.7306E+00  0.8651E+01
     16.250  0.5230E+00  0.8725E+01
     16.391  0.4658E+00  0.8791E+01
     16.532  0.6176E+00  0.8879E+01
     16.674  0.6507E+00  0.8971E+01
     16.815  0.5035E+00  0.9042E+01
     16.957  0.5036E+00  0.9113E+01
     17.098  0.8498E+00  0.9233E+01
     17.240  0.1083E+01  0.9387E+01
     17.381  0.8863E+00  0.9512E+01
     17.523  0.5152E+00  0.9585E+01
     17.664  0.4320E+00  0.9646E+01
     17.806  0.7655E+00  0.9754E+01
     17.947  0.1049E+01  0.9903E+01
     18.089  0.9732E+00  0.1004E+02
     18.230  0.9409E+00  0.1017E+02
     18.372  0.9907E+00  0.1031E+02
     18.513  0.8375E+00  0.1043E+02
     18.655  0.6946E+00  0.1053E+02
     18.796  0.7400E+00  0.1064E+02
     18.938  0.7667E+00  0.1074E+02
     19.079  0.1007E+01  0.1089E+02
     19.220  0.1456E+01  0.1109E+02
     19.362  0.1514E+01  0.1131E+02
     19.503  0.1281E+01  0.1149E+02
     19.645  0.1100E+01  0.1164E+02
     19.786  0.8531E+00  0.1176E+02
     19.928  0.5410E+00  0.1184E+02
     20.069  0.4857E+00  0.1191E+02
     20.211  0.5987E+00  0.1199E+02
     20.352  0.5083E+00  0.1207E+02
     20.494  0.3486E+00  0.1211E+02
     20.635  0.3372E+00  0.1216E+02
     20.777  0.4328E+00  0.1222E+02
     20.918  0.5251E+00  0.1230E+02
     21.060  0.6655E+00  0.1239E+02
     21.201  0.7132E+00  0.1249E+02
     21.343  0.5196E+00  0.1257E+02
     21.484  0.5760E+00  0.1265E+02
     21.626  0.1113E+01  0.1281E+02
     21.767  0.1375E+01  0.1300E+02
     21.908  0.9547E+00  0.1314E+02
     22.050  0.4964E+00  0.1321E+02
     22.191  0.2795E+00  0.1324E+02
     22.333  0.2818E+00  0.1328E+02
     22.474  0.5129E+00  0.1336E+02
     22.616  0.6815E+00  0.1345E+02
     22.757  0.6749E+00  0.1355E+02
     22.899  0.7783E+00  0.1366E+02
     23.040  0.8851E+00  0.1378E+02
     23.182  0.9273E+00  0.1392E+02
     23.323  0.9227E+00  0.1405E+02
     23.465  0.8200E+00  0.1416E+02
     23.606  0.5856E+00  0.1425E+02
     23.748  0.5456E+00  0.1432E+02
     23.889  0.8990E+00  0.1445E+02
     24.031  0.1332E+01  0.1464E+02
     24.172  0.1422E+01  0.1484E+02
     24.314  0.1316E+01  0.1503E+02
     24.455  0.1150E+01  0.1519E+02
     24.596  0.7414E+00  0.1529E+02
     24.738  0.3329E+00  0.1534E+02
     24.879  0.2257E+00  0.1537E+02
     25.021  0.3734E+00  0.1542E+02
     25.162  0.5098E+00  0.1550E+02
     25.304  0.6083E+00  0.1558E+02
     25.445  0.7474E+00  0.1569E+02
     25.587  0.6157E+00  0.1578E+02
     25.728  0.3247E+00  0.1582E+02
     25.870  0.2910E+00  0.1586E+02
     26.011  0.3811E+00  0.1592E+02
     26.153  0.3064E+00  0.1596E+02
     26.294  0.1500E+00  0.1598E+02
     26.436  0.4381E-01  0.1599E+02
     26.577  0.1910E-01  0.1599E+02
     26.719  0.3086E-01  0.1599E+02
     26.860  0.2696E-01  0.1600E+02
     27.002  0.9451E-02  0.1600E+02
     27.143  0.1308E-02  0.1600E+02
     27.285  0.7063E-04  0.1600E+02
     27.426  0.1471E-05  0.1600E+02
     27.567  0.1169E-07  0.1600E+02
     27.709  0.3512E-10  0.1600E+02
     27.850  0.3967E-13  0.1600E+02
     27.992  0.1883E-16  0.1600E+02
     28.133  0.0000E+00  0.1600E+02
     28.275  0.0000E+00  0.1600E+02
     28.416  0.0000E+00  0.1600E+02
     28.558  0.0000E+00  0.1600E+02
     28.699  0.0000E+00  0.1600E+02
